<?xml version="1.0"?> 
<VTKFile type="UnstructuredGrid"> 
   <UnstructuredGrid> 
      <Piece NumberOfPoints="6000"  NumberOfCells="1500">  
          <Points>  
             <DataArray type="Float64" NumberOfComponents="3" format="ascii">   
-500.0   0.0   0.0
-450.0   0.0   0.0
-500.0   30.0   0.0
-500.0   0.0   16.666666666666668
-450.0   0.0   0.0
-450.0   30.0   0.0
-500.0   30.0   0.0
-450.0   30.0   16.666666666666668
-500.0   0.0   16.666666666666668
-500.0   30.0   16.666666666666668
-450.0   30.0   16.666666666666668
-500.0   30.0   0.0
-500.0   0.0   16.666666666666668
-450.0   30.0   16.666666666666668
-450.0   0.0   16.666666666666668
-450.0   0.0   0.0
-500.0   0.0   16.666666666666668
-450.0   30.0   16.666666666666668
-450.0   0.0   0.0
-500.0   30.0   0.0
-500.0   0.0   16.666666666666668
-450.0   0.0   16.666666666666668
-500.0   30.0   16.666666666666668
-500.0   0.0   33.333333333333336
-450.0   0.0   16.666666666666668
-450.0   30.0   16.666666666666668
-500.0   30.0   16.666666666666668
-450.0   30.0   33.333333333333336
-500.0   0.0   33.333333333333336
-500.0   30.0   33.333333333333336
-450.0   30.0   33.333333333333336
-500.0   30.0   16.666666666666668
-500.0   0.0   33.333333333333336
-450.0   30.0   33.333333333333336
-450.0   0.0   33.333333333333336
-450.0   0.0   16.666666666666668
-500.0   0.0   33.333333333333336
-450.0   30.0   33.333333333333336
-450.0   0.0   16.666666666666668
-500.0   30.0   16.666666666666668
-500.0   0.0   33.333333333333336
-450.0   0.0   33.333333333333336
-500.0   30.0   33.333333333333336
-500.0   0.0   50.0
-450.0   0.0   33.333333333333336
-450.0   30.0   33.333333333333336
-500.0   30.0   33.333333333333336
-450.0   30.0   50.0
-500.0   0.0   50.0
-500.0   30.0   50.0
-450.0   30.0   50.0
-500.0   30.0   33.333333333333336
-500.0   0.0   50.0
-450.0   30.0   50.0
-450.0   0.0   50.0
-450.0   0.0   33.333333333333336
-500.0   0.0   50.0
-450.0   30.0   50.0
-450.0   0.0   33.333333333333336
-500.0   30.0   33.333333333333336
-500.0   30.0   0.0
-450.0   30.0   0.0
-500.0   60.0   0.0
-500.0   30.0   16.666666666666668
-450.0   30.0   0.0
-450.0   60.0   0.0
-500.0   60.0   0.0
-450.0   60.0   16.666666666666668
-500.0   30.0   16.666666666666668
-500.0   60.0   16.666666666666668
-450.0   60.0   16.666666666666668
-500.0   60.0   0.0
-500.0   30.0   16.666666666666668
-450.0   60.0   16.666666666666668
-450.0   30.0   16.666666666666668
-450.0   30.0   0.0
-500.0   30.0   16.666666666666668
-450.0   60.0   16.666666666666668
-450.0   30.0   0.0
-500.0   60.0   0.0
-500.0   30.0   16.666666666666668
-450.0   30.0   16.666666666666668
-500.0   60.0   16.666666666666668
-500.0   30.0   33.333333333333336
-450.0   30.0   16.666666666666668
-450.0   60.0   16.666666666666668
-500.0   60.0   16.666666666666668
-450.0   60.0   33.333333333333336
-500.0   30.0   33.333333333333336
-500.0   60.0   33.333333333333336
-450.0   60.0   33.333333333333336
-500.0   60.0   16.666666666666668
-500.0   30.0   33.333333333333336
-450.0   60.0   33.333333333333336
-450.0   30.0   33.333333333333336
-450.0   30.0   16.666666666666668
-500.0   30.0   33.333333333333336
-450.0   60.0   33.333333333333336
-450.0   30.0   16.666666666666668
-500.0   60.0   16.666666666666668
-500.0   30.0   33.333333333333336
-450.0   30.0   33.333333333333336
-500.0   60.0   33.333333333333336
-500.0   30.0   50.0
-450.0   30.0   33.333333333333336
-450.0   60.0   33.333333333333336
-500.0   60.0   33.333333333333336
-450.0   60.0   50.0
-500.0   30.0   50.0
-500.0   60.0   50.0
-450.0   60.0   50.0
-500.0   60.0   33.333333333333336
-500.0   30.0   50.0
-450.0   60.0   50.0
-450.0   30.0   50.0
-450.0   30.0   33.333333333333336
-500.0   30.0   50.0
-450.0   60.0   50.0
-450.0   30.0   33.333333333333336
-500.0   60.0   33.333333333333336
-500.0   60.0   0.0
-450.0   60.0   0.0
-500.0   90.0   0.0
-500.0   60.0   16.666666666666668
-450.0   60.0   0.0
-450.0   90.0   0.0
-500.0   90.0   0.0
-450.0   90.0   16.666666666666668
-500.0   60.0   16.666666666666668
-500.0   90.0   16.666666666666668
-450.0   90.0   16.666666666666668
-500.0   90.0   0.0
-500.0   60.0   16.666666666666668
-450.0   90.0   16.666666666666668
-450.0   60.0   16.666666666666668
-450.0   60.0   0.0
-500.0   60.0   16.666666666666668
-450.0   90.0   16.666666666666668
-450.0   60.0   0.0
-500.0   90.0   0.0
-500.0   60.0   16.666666666666668
-450.0   60.0   16.666666666666668
-500.0   90.0   16.666666666666668
-500.0   60.0   33.333333333333336
-450.0   60.0   16.666666666666668
-450.0   90.0   16.666666666666668
-500.0   90.0   16.666666666666668
-450.0   90.0   33.333333333333336
-500.0   60.0   33.333333333333336
-500.0   90.0   33.333333333333336
-450.0   90.0   33.333333333333336
-500.0   90.0   16.666666666666668
-500.0   60.0   33.333333333333336
-450.0   90.0   33.333333333333336
-450.0   60.0   33.333333333333336
-450.0   60.0   16.666666666666668
-500.0   60.0   33.333333333333336
-450.0   90.0   33.333333333333336
-450.0   60.0   16.666666666666668
-500.0   90.0   16.666666666666668
-500.0   60.0   33.333333333333336
-450.0   60.0   33.333333333333336
-500.0   90.0   33.333333333333336
-500.0   60.0   50.0
-450.0   60.0   33.333333333333336
-450.0   90.0   33.333333333333336
-500.0   90.0   33.333333333333336
-450.0   90.0   50.0
-500.0   60.0   50.0
-500.0   90.0   50.0
-450.0   90.0   50.0
-500.0   90.0   33.333333333333336
-500.0   60.0   50.0
-450.0   90.0   50.0
-450.0   60.0   50.0
-450.0   60.0   33.333333333333336
-500.0   60.0   50.0
-450.0   90.0   50.0
-450.0   60.0   33.333333333333336
-500.0   90.0   33.333333333333336
-500.0   90.0   0.0
-450.0   90.0   0.0
-500.0   120.0   0.0
-500.0   90.0   16.666666666666668
-450.0   90.0   0.0
-450.0   120.0   0.0
-500.0   120.0   0.0
-450.0   120.0   16.666666666666668
-500.0   90.0   16.666666666666668
-500.0   120.0   16.666666666666668
-450.0   120.0   16.666666666666668
-500.0   120.0   0.0
-500.0   90.0   16.666666666666668
-450.0   120.0   16.666666666666668
-450.0   90.0   16.666666666666668
-450.0   90.0   0.0
-500.0   90.0   16.666666666666668
-450.0   120.0   16.666666666666668
-450.0   90.0   0.0
-500.0   120.0   0.0
-500.0   90.0   16.666666666666668
-450.0   90.0   16.666666666666668
-500.0   120.0   16.666666666666668
-500.0   90.0   33.333333333333336
-450.0   90.0   16.666666666666668
-450.0   120.0   16.666666666666668
-500.0   120.0   16.666666666666668
-450.0   120.0   33.333333333333336
-500.0   90.0   33.333333333333336
-500.0   120.0   33.333333333333336
-450.0   120.0   33.333333333333336
-500.0   120.0   16.666666666666668
-500.0   90.0   33.333333333333336
-450.0   120.0   33.333333333333336
-450.0   90.0   33.333333333333336
-450.0   90.0   16.666666666666668
-500.0   90.0   33.333333333333336
-450.0   120.0   33.333333333333336
-450.0   90.0   16.666666666666668
-500.0   120.0   16.666666666666668
-500.0   90.0   33.333333333333336
-450.0   90.0   33.333333333333336
-500.0   120.0   33.333333333333336
-500.0   90.0   50.0
-450.0   90.0   33.333333333333336
-450.0   120.0   33.333333333333336
-500.0   120.0   33.333333333333336
-450.0   120.0   50.0
-500.0   90.0   50.0
-500.0   120.0   50.0
-450.0   120.0   50.0
-500.0   120.0   33.333333333333336
-500.0   90.0   50.0
-450.0   120.0   50.0
-450.0   90.0   50.0
-450.0   90.0   33.333333333333336
-500.0   90.0   50.0
-450.0   120.0   50.0
-450.0   90.0   33.333333333333336
-500.0   120.0   33.333333333333336
-500.0   120.0   0.0
-450.0   120.0   0.0
-500.0   150.0   0.0
-500.0   120.0   16.666666666666668
-450.0   120.0   0.0
-450.0   150.0   0.0
-500.0   150.0   0.0
-450.0   150.0   16.666666666666668
-500.0   120.0   16.666666666666668
-500.0   150.0   16.666666666666668
-450.0   150.0   16.666666666666668
-500.0   150.0   0.0
-500.0   120.0   16.666666666666668
-450.0   150.0   16.666666666666668
-450.0   120.0   16.666666666666668
-450.0   120.0   0.0
-500.0   120.0   16.666666666666668
-450.0   150.0   16.666666666666668
-450.0   120.0   0.0
-500.0   150.0   0.0
-500.0   120.0   16.666666666666668
-450.0   120.0   16.666666666666668
-500.0   150.0   16.666666666666668
-500.0   120.0   33.333333333333336
-450.0   120.0   16.666666666666668
-450.0   150.0   16.666666666666668
-500.0   150.0   16.666666666666668
-450.0   150.0   33.333333333333336
-500.0   120.0   33.333333333333336
-500.0   150.0   33.333333333333336
-450.0   150.0   33.333333333333336
-500.0   150.0   16.666666666666668
-500.0   120.0   33.333333333333336
-450.0   150.0   33.333333333333336
-450.0   120.0   33.333333333333336
-450.0   120.0   16.666666666666668
-500.0   120.0   33.333333333333336
-450.0   150.0   33.333333333333336
-450.0   120.0   16.666666666666668
-500.0   150.0   16.666666666666668
-500.0   120.0   33.333333333333336
-450.0   120.0   33.333333333333336
-500.0   150.0   33.333333333333336
-500.0   120.0   50.0
-450.0   120.0   33.333333333333336
-450.0   150.0   33.333333333333336
-500.0   150.0   33.333333333333336
-450.0   150.0   50.0
-500.0   120.0   50.0
-500.0   150.0   50.0
-450.0   150.0   50.0
-500.0   150.0   33.333333333333336
-500.0   120.0   50.0
-450.0   150.0   50.0
-450.0   120.0   50.0
-450.0   120.0   33.333333333333336
-500.0   120.0   50.0
-450.0   150.0   50.0
-450.0   120.0   33.333333333333336
-500.0   150.0   33.333333333333336
-450.0   0.0   0.0
-400.0   0.0   0.0
-450.0   30.0   0.0
-450.0   0.0   16.666666666666668
-400.0   0.0   0.0
-400.0   30.0   0.0
-450.0   30.0   0.0
-400.0   30.0   16.666666666666668
-450.0   0.0   16.666666666666668
-450.0   30.0   16.666666666666668
-400.0   30.0   16.666666666666668
-450.0   30.0   0.0
-450.0   0.0   16.666666666666668
-400.0   30.0   16.666666666666668
-400.0   0.0   16.666666666666668
-400.0   0.0   0.0
-450.0   0.0   16.666666666666668
-400.0   30.0   16.666666666666668
-400.0   0.0   0.0
-450.0   30.0   0.0
-450.0   0.0   16.666666666666668
-400.0   0.0   16.666666666666668
-450.0   30.0   16.666666666666668
-450.0   0.0   33.333333333333336
-400.0   0.0   16.666666666666668
-400.0   30.0   16.666666666666668
-450.0   30.0   16.666666666666668
-400.0   30.0   33.333333333333336
-450.0   0.0   33.333333333333336
-450.0   30.0   33.333333333333336
-400.0   30.0   33.333333333333336
-450.0   30.0   16.666666666666668
-450.0   0.0   33.333333333333336
-400.0   30.0   33.333333333333336
-400.0   0.0   33.333333333333336
-400.0   0.0   16.666666666666668
-450.0   0.0   33.333333333333336
-400.0   30.0   33.333333333333336
-400.0   0.0   16.666666666666668
-450.0   30.0   16.666666666666668
-450.0   0.0   33.333333333333336
-400.0   0.0   33.333333333333336
-450.0   30.0   33.333333333333336
-450.0   0.0   50.0
-400.0   0.0   33.333333333333336
-400.0   30.0   33.333333333333336
-450.0   30.0   33.333333333333336
-400.0   30.0   50.0
-450.0   0.0   50.0
-450.0   30.0   50.0
-400.0   30.0   50.0
-450.0   30.0   33.333333333333336
-450.0   0.0   50.0
-400.0   30.0   50.0
-400.0   0.0   50.0
-400.0   0.0   33.333333333333336
-450.0   0.0   50.0
-400.0   30.0   50.0
-400.0   0.0   33.333333333333336
-450.0   30.0   33.333333333333336
-450.0   30.0   0.0
-400.0   30.0   0.0
-450.0   60.0   0.0
-450.0   30.0   16.666666666666668
-400.0   30.0   0.0
-400.0   60.0   0.0
-450.0   60.0   0.0
-400.0   60.0   16.666666666666668
-450.0   30.0   16.666666666666668
-450.0   60.0   16.666666666666668
-400.0   60.0   16.666666666666668
-450.0   60.0   0.0
-450.0   30.0   16.666666666666668
-400.0   60.0   16.666666666666668
-400.0   30.0   16.666666666666668
-400.0   30.0   0.0
-450.0   30.0   16.666666666666668
-400.0   60.0   16.666666666666668
-400.0   30.0   0.0
-450.0   60.0   0.0
-450.0   30.0   16.666666666666668
-400.0   30.0   16.666666666666668
-450.0   60.0   16.666666666666668
-450.0   30.0   33.333333333333336
-400.0   30.0   16.666666666666668
-400.0   60.0   16.666666666666668
-450.0   60.0   16.666666666666668
-400.0   60.0   33.333333333333336
-450.0   30.0   33.333333333333336
-450.0   60.0   33.333333333333336
-400.0   60.0   33.333333333333336
-450.0   60.0   16.666666666666668
-450.0   30.0   33.333333333333336
-400.0   60.0   33.333333333333336
-400.0   30.0   33.333333333333336
-400.0   30.0   16.666666666666668
-450.0   30.0   33.333333333333336
-400.0   60.0   33.333333333333336
-400.0   30.0   16.666666666666668
-450.0   60.0   16.666666666666668
-450.0   30.0   33.333333333333336
-400.0   30.0   33.333333333333336
-450.0   60.0   33.333333333333336
-450.0   30.0   50.0
-400.0   30.0   33.333333333333336
-400.0   60.0   33.333333333333336
-450.0   60.0   33.333333333333336
-400.0   60.0   50.0
-450.0   30.0   50.0
-450.0   60.0   50.0
-400.0   60.0   50.0
-450.0   60.0   33.333333333333336
-450.0   30.0   50.0
-400.0   60.0   50.0
-400.0   30.0   50.0
-400.0   30.0   33.333333333333336
-450.0   30.0   50.0
-400.0   60.0   50.0
-400.0   30.0   33.333333333333336
-450.0   60.0   33.333333333333336
-450.0   60.0   0.0
-400.0   60.0   0.0
-450.0   90.0   0.0
-450.0   60.0   16.666666666666668
-400.0   60.0   0.0
-400.0   90.0   0.0
-450.0   90.0   0.0
-400.0   90.0   16.666666666666668
-450.0   60.0   16.666666666666668
-450.0   90.0   16.666666666666668
-400.0   90.0   16.666666666666668
-450.0   90.0   0.0
-450.0   60.0   16.666666666666668
-400.0   90.0   16.666666666666668
-400.0   60.0   16.666666666666668
-400.0   60.0   0.0
-450.0   60.0   16.666666666666668
-400.0   90.0   16.666666666666668
-400.0   60.0   0.0
-450.0   90.0   0.0
-450.0   60.0   16.666666666666668
-400.0   60.0   16.666666666666668
-450.0   90.0   16.666666666666668
-450.0   60.0   33.333333333333336
-400.0   60.0   16.666666666666668
-400.0   90.0   16.666666666666668
-450.0   90.0   16.666666666666668
-400.0   90.0   33.333333333333336
-450.0   60.0   33.333333333333336
-450.0   90.0   33.333333333333336
-400.0   90.0   33.333333333333336
-450.0   90.0   16.666666666666668
-450.0   60.0   33.333333333333336
-400.0   90.0   33.333333333333336
-400.0   60.0   33.333333333333336
-400.0   60.0   16.666666666666668
-450.0   60.0   33.333333333333336
-400.0   90.0   33.333333333333336
-400.0   60.0   16.666666666666668
-450.0   90.0   16.666666666666668
-450.0   60.0   33.333333333333336
-400.0   60.0   33.333333333333336
-450.0   90.0   33.333333333333336
-450.0   60.0   50.0
-400.0   60.0   33.333333333333336
-400.0   90.0   33.333333333333336
-450.0   90.0   33.333333333333336
-400.0   90.0   50.0
-450.0   60.0   50.0
-450.0   90.0   50.0
-400.0   90.0   50.0
-450.0   90.0   33.333333333333336
-450.0   60.0   50.0
-400.0   90.0   50.0
-400.0   60.0   50.0
-400.0   60.0   33.333333333333336
-450.0   60.0   50.0
-400.0   90.0   50.0
-400.0   60.0   33.333333333333336
-450.0   90.0   33.333333333333336
-450.0   90.0   0.0
-400.0   90.0   0.0
-450.0   120.0   0.0
-450.0   90.0   16.666666666666668
-400.0   90.0   0.0
-400.0   120.0   0.0
-450.0   120.0   0.0
-400.0   120.0   16.666666666666668
-450.0   90.0   16.666666666666668
-450.0   120.0   16.666666666666668
-400.0   120.0   16.666666666666668
-450.0   120.0   0.0
-450.0   90.0   16.666666666666668
-400.0   120.0   16.666666666666668
-400.0   90.0   16.666666666666668
-400.0   90.0   0.0
-450.0   90.0   16.666666666666668
-400.0   120.0   16.666666666666668
-400.0   90.0   0.0
-450.0   120.0   0.0
-450.0   90.0   16.666666666666668
-400.0   90.0   16.666666666666668
-450.0   120.0   16.666666666666668
-450.0   90.0   33.333333333333336
-400.0   90.0   16.666666666666668
-400.0   120.0   16.666666666666668
-450.0   120.0   16.666666666666668
-400.0   120.0   33.333333333333336
-450.0   90.0   33.333333333333336
-450.0   120.0   33.333333333333336
-400.0   120.0   33.333333333333336
-450.0   120.0   16.666666666666668
-450.0   90.0   33.333333333333336
-400.0   120.0   33.333333333333336
-400.0   90.0   33.333333333333336
-400.0   90.0   16.666666666666668
-450.0   90.0   33.333333333333336
-400.0   120.0   33.333333333333336
-400.0   90.0   16.666666666666668
-450.0   120.0   16.666666666666668
-450.0   90.0   33.333333333333336
-400.0   90.0   33.333333333333336
-450.0   120.0   33.333333333333336
-450.0   90.0   50.0
-400.0   90.0   33.333333333333336
-400.0   120.0   33.333333333333336
-450.0   120.0   33.333333333333336
-400.0   120.0   50.0
-450.0   90.0   50.0
-450.0   120.0   50.0
-400.0   120.0   50.0
-450.0   120.0   33.333333333333336
-450.0   90.0   50.0
-400.0   120.0   50.0
-400.0   90.0   50.0
-400.0   90.0   33.333333333333336
-450.0   90.0   50.0
-400.0   120.0   50.0
-400.0   90.0   33.333333333333336
-450.0   120.0   33.333333333333336
-450.0   120.0   0.0
-400.0   120.0   0.0
-450.0   150.0   0.0
-450.0   120.0   16.666666666666668
-400.0   120.0   0.0
-400.0   150.0   0.0
-450.0   150.0   0.0
-400.0   150.0   16.666666666666668
-450.0   120.0   16.666666666666668
-450.0   150.0   16.666666666666668
-400.0   150.0   16.666666666666668
-450.0   150.0   0.0
-450.0   120.0   16.666666666666668
-400.0   150.0   16.666666666666668
-400.0   120.0   16.666666666666668
-400.0   120.0   0.0
-450.0   120.0   16.666666666666668
-400.0   150.0   16.666666666666668
-400.0   120.0   0.0
-450.0   150.0   0.0
-450.0   120.0   16.666666666666668
-400.0   120.0   16.666666666666668
-450.0   150.0   16.666666666666668
-450.0   120.0   33.333333333333336
-400.0   120.0   16.666666666666668
-400.0   150.0   16.666666666666668
-450.0   150.0   16.666666666666668
-400.0   150.0   33.333333333333336
-450.0   120.0   33.333333333333336
-450.0   150.0   33.333333333333336
-400.0   150.0   33.333333333333336
-450.0   150.0   16.666666666666668
-450.0   120.0   33.333333333333336
-400.0   150.0   33.333333333333336
-400.0   120.0   33.333333333333336
-400.0   120.0   16.666666666666668
-450.0   120.0   33.333333333333336
-400.0   150.0   33.333333333333336
-400.0   120.0   16.666666666666668
-450.0   150.0   16.666666666666668
-450.0   120.0   33.333333333333336
-400.0   120.0   33.333333333333336
-450.0   150.0   33.333333333333336
-450.0   120.0   50.0
-400.0   120.0   33.333333333333336
-400.0   150.0   33.333333333333336
-450.0   150.0   33.333333333333336
-400.0   150.0   50.0
-450.0   120.0   50.0
-450.0   150.0   50.0
-400.0   150.0   50.0
-450.0   150.0   33.333333333333336
-450.0   120.0   50.0
-400.0   150.0   50.0
-400.0   120.0   50.0
-400.0   120.0   33.333333333333336
-450.0   120.0   50.0
-400.0   150.0   50.0
-400.0   120.0   33.333333333333336
-450.0   150.0   33.333333333333336
-400.0   0.0   0.0
-350.0   0.0   0.0
-400.0   30.0   0.0
-400.0   0.0   16.666666666666668
-350.0   0.0   0.0
-350.0   30.0   0.0
-400.0   30.0   0.0
-350.0   30.0   16.666666666666668
-400.0   0.0   16.666666666666668
-400.0   30.0   16.666666666666668
-350.0   30.0   16.666666666666668
-400.0   30.0   0.0
-400.0   0.0   16.666666666666668
-350.0   30.0   16.666666666666668
-350.0   0.0   16.666666666666668
-350.0   0.0   0.0
-400.0   0.0   16.666666666666668
-350.0   30.0   16.666666666666668
-350.0   0.0   0.0
-400.0   30.0   0.0
-400.0   0.0   16.666666666666668
-350.0   0.0   16.666666666666668
-400.0   30.0   16.666666666666668
-400.0   0.0   33.333333333333336
-350.0   0.0   16.666666666666668
-350.0   30.0   16.666666666666668
-400.0   30.0   16.666666666666668
-350.0   30.0   33.333333333333336
-400.0   0.0   33.333333333333336
-400.0   30.0   33.333333333333336
-350.0   30.0   33.333333333333336
-400.0   30.0   16.666666666666668
-400.0   0.0   33.333333333333336
-350.0   30.0   33.333333333333336
-350.0   0.0   33.333333333333336
-350.0   0.0   16.666666666666668
-400.0   0.0   33.333333333333336
-350.0   30.0   33.333333333333336
-350.0   0.0   16.666666666666668
-400.0   30.0   16.666666666666668
-400.0   0.0   33.333333333333336
-350.0   0.0   33.333333333333336
-400.0   30.0   33.333333333333336
-400.0   0.0   50.0
-350.0   0.0   33.333333333333336
-350.0   30.0   33.333333333333336
-400.0   30.0   33.333333333333336
-350.0   30.0   50.0
-400.0   0.0   50.0
-400.0   30.0   50.0
-350.0   30.0   50.0
-400.0   30.0   33.333333333333336
-400.0   0.0   50.0
-350.0   30.0   50.0
-350.0   0.0   50.0
-350.0   0.0   33.333333333333336
-400.0   0.0   50.0
-350.0   30.0   50.0
-350.0   0.0   33.333333333333336
-400.0   30.0   33.333333333333336
-400.0   30.0   0.0
-350.0   30.0   0.0
-400.0   60.0   0.0
-400.0   30.0   16.666666666666668
-350.0   30.0   0.0
-350.0   60.0   0.0
-400.0   60.0   0.0
-350.0   60.0   16.666666666666668
-400.0   30.0   16.666666666666668
-400.0   60.0   16.666666666666668
-350.0   60.0   16.666666666666668
-400.0   60.0   0.0
-400.0   30.0   16.666666666666668
-350.0   60.0   16.666666666666668
-350.0   30.0   16.666666666666668
-350.0   30.0   0.0
-400.0   30.0   16.666666666666668
-350.0   60.0   16.666666666666668
-350.0   30.0   0.0
-400.0   60.0   0.0
-400.0   30.0   16.666666666666668
-350.0   30.0   16.666666666666668
-400.0   60.0   16.666666666666668
-400.0   30.0   33.333333333333336
-350.0   30.0   16.666666666666668
-350.0   60.0   16.666666666666668
-400.0   60.0   16.666666666666668
-350.0   60.0   33.333333333333336
-400.0   30.0   33.333333333333336
-400.0   60.0   33.333333333333336
-350.0   60.0   33.333333333333336
-400.0   60.0   16.666666666666668
-400.0   30.0   33.333333333333336
-350.0   60.0   33.333333333333336
-350.0   30.0   33.333333333333336
-350.0   30.0   16.666666666666668
-400.0   30.0   33.333333333333336
-350.0   60.0   33.333333333333336
-350.0   30.0   16.666666666666668
-400.0   60.0   16.666666666666668
-400.0   30.0   33.333333333333336
-350.0   30.0   33.333333333333336
-400.0   60.0   33.333333333333336
-400.0   30.0   50.0
-350.0   30.0   33.333333333333336
-350.0   60.0   33.333333333333336
-400.0   60.0   33.333333333333336
-350.0   60.0   50.0
-400.0   30.0   50.0
-400.0   60.0   50.0
-350.0   60.0   50.0
-400.0   60.0   33.333333333333336
-400.0   30.0   50.0
-350.0   60.0   50.0
-350.0   30.0   50.0
-350.0   30.0   33.333333333333336
-400.0   30.0   50.0
-350.0   60.0   50.0
-350.0   30.0   33.333333333333336
-400.0   60.0   33.333333333333336
-400.0   60.0   0.0
-350.0   60.0   0.0
-400.0   90.0   0.0
-400.0   60.0   16.666666666666668
-350.0   60.0   0.0
-350.0   90.0   0.0
-400.0   90.0   0.0
-350.0   90.0   16.666666666666668
-400.0   60.0   16.666666666666668
-400.0   90.0   16.666666666666668
-350.0   90.0   16.666666666666668
-400.0   90.0   0.0
-400.0   60.0   16.666666666666668
-350.0   90.0   16.666666666666668
-350.0   60.0   16.666666666666668
-350.0   60.0   0.0
-400.0   60.0   16.666666666666668
-350.0   90.0   16.666666666666668
-350.0   60.0   0.0
-400.0   90.0   0.0
-400.0   60.0   16.666666666666668
-350.0   60.0   16.666666666666668
-400.0   90.0   16.666666666666668
-400.0   60.0   33.333333333333336
-350.0   60.0   16.666666666666668
-350.0   90.0   16.666666666666668
-400.0   90.0   16.666666666666668
-350.0   90.0   33.333333333333336
-400.0   60.0   33.333333333333336
-400.0   90.0   33.333333333333336
-350.0   90.0   33.333333333333336
-400.0   90.0   16.666666666666668
-400.0   60.0   33.333333333333336
-350.0   90.0   33.333333333333336
-350.0   60.0   33.333333333333336
-350.0   60.0   16.666666666666668
-400.0   60.0   33.333333333333336
-350.0   90.0   33.333333333333336
-350.0   60.0   16.666666666666668
-400.0   90.0   16.666666666666668
-400.0   60.0   33.333333333333336
-350.0   60.0   33.333333333333336
-400.0   90.0   33.333333333333336
-400.0   60.0   50.0
-350.0   60.0   33.333333333333336
-350.0   90.0   33.333333333333336
-400.0   90.0   33.333333333333336
-350.0   90.0   50.0
-400.0   60.0   50.0
-400.0   90.0   50.0
-350.0   90.0   50.0
-400.0   90.0   33.333333333333336
-400.0   60.0   50.0
-350.0   90.0   50.0
-350.0   60.0   50.0
-350.0   60.0   33.333333333333336
-400.0   60.0   50.0
-350.0   90.0   50.0
-350.0   60.0   33.333333333333336
-400.0   90.0   33.333333333333336
-400.0   90.0   0.0
-350.0   90.0   0.0
-400.0   120.0   0.0
-400.0   90.0   16.666666666666668
-350.0   90.0   0.0
-350.0   120.0   0.0
-400.0   120.0   0.0
-350.0   120.0   16.666666666666668
-400.0   90.0   16.666666666666668
-400.0   120.0   16.666666666666668
-350.0   120.0   16.666666666666668
-400.0   120.0   0.0
-400.0   90.0   16.666666666666668
-350.0   120.0   16.666666666666668
-350.0   90.0   16.666666666666668
-350.0   90.0   0.0
-400.0   90.0   16.666666666666668
-350.0   120.0   16.666666666666668
-350.0   90.0   0.0
-400.0   120.0   0.0
-400.0   90.0   16.666666666666668
-350.0   90.0   16.666666666666668
-400.0   120.0   16.666666666666668
-400.0   90.0   33.333333333333336
-350.0   90.0   16.666666666666668
-350.0   120.0   16.666666666666668
-400.0   120.0   16.666666666666668
-350.0   120.0   33.333333333333336
-400.0   90.0   33.333333333333336
-400.0   120.0   33.333333333333336
-350.0   120.0   33.333333333333336
-400.0   120.0   16.666666666666668
-400.0   90.0   33.333333333333336
-350.0   120.0   33.333333333333336
-350.0   90.0   33.333333333333336
-350.0   90.0   16.666666666666668
-400.0   90.0   33.333333333333336
-350.0   120.0   33.333333333333336
-350.0   90.0   16.666666666666668
-400.0   120.0   16.666666666666668
-400.0   90.0   33.333333333333336
-350.0   90.0   33.333333333333336
-400.0   120.0   33.333333333333336
-400.0   90.0   50.0
-350.0   90.0   33.333333333333336
-350.0   120.0   33.333333333333336
-400.0   120.0   33.333333333333336
-350.0   120.0   50.0
-400.0   90.0   50.0
-400.0   120.0   50.0
-350.0   120.0   50.0
-400.0   120.0   33.333333333333336
-400.0   90.0   50.0
-350.0   120.0   50.0
-350.0   90.0   50.0
-350.0   90.0   33.333333333333336
-400.0   90.0   50.0
-350.0   120.0   50.0
-350.0   90.0   33.333333333333336
-400.0   120.0   33.333333333333336
-400.0   120.0   0.0
-350.0   120.0   0.0
-400.0   150.0   0.0
-400.0   120.0   16.666666666666668
-350.0   120.0   0.0
-350.0   150.0   0.0
-400.0   150.0   0.0
-350.0   150.0   16.666666666666668
-400.0   120.0   16.666666666666668
-400.0   150.0   16.666666666666668
-350.0   150.0   16.666666666666668
-400.0   150.0   0.0
-400.0   120.0   16.666666666666668
-350.0   150.0   16.666666666666668
-350.0   120.0   16.666666666666668
-350.0   120.0   0.0
-400.0   120.0   16.666666666666668
-350.0   150.0   16.666666666666668
-350.0   120.0   0.0
-400.0   150.0   0.0
-400.0   120.0   16.666666666666668
-350.0   120.0   16.666666666666668
-400.0   150.0   16.666666666666668
-400.0   120.0   33.333333333333336
-350.0   120.0   16.666666666666668
-350.0   150.0   16.666666666666668
-400.0   150.0   16.666666666666668
-350.0   150.0   33.333333333333336
-400.0   120.0   33.333333333333336
-400.0   150.0   33.333333333333336
-350.0   150.0   33.333333333333336
-400.0   150.0   16.666666666666668
-400.0   120.0   33.333333333333336
-350.0   150.0   33.333333333333336
-350.0   120.0   33.333333333333336
-350.0   120.0   16.666666666666668
-400.0   120.0   33.333333333333336
-350.0   150.0   33.333333333333336
-350.0   120.0   16.666666666666668
-400.0   150.0   16.666666666666668
-400.0   120.0   33.333333333333336
-350.0   120.0   33.333333333333336
-400.0   150.0   33.333333333333336
-400.0   120.0   50.0
-350.0   120.0   33.333333333333336
-350.0   150.0   33.333333333333336
-400.0   150.0   33.333333333333336
-350.0   150.0   50.0
-400.0   120.0   50.0
-400.0   150.0   50.0
-350.0   150.0   50.0
-400.0   150.0   33.333333333333336
-400.0   120.0   50.0
-350.0   150.0   50.0
-350.0   120.0   50.0
-350.0   120.0   33.333333333333336
-400.0   120.0   50.0
-350.0   150.0   50.0
-350.0   120.0   33.333333333333336
-400.0   150.0   33.333333333333336
-350.0   0.0   0.0
-300.0   0.0   0.0
-350.0   30.0   0.0
-350.0   0.0   16.666666666666668
-300.0   0.0   0.0
-300.0   30.0   0.0
-350.0   30.0   0.0
-300.0   30.0   16.666666666666668
-350.0   0.0   16.666666666666668
-350.0   30.0   16.666666666666668
-300.0   30.0   16.666666666666668
-350.0   30.0   0.0
-350.0   0.0   16.666666666666668
-300.0   30.0   16.666666666666668
-300.0   0.0   16.666666666666668
-300.0   0.0   0.0
-350.0   0.0   16.666666666666668
-300.0   30.0   16.666666666666668
-300.0   0.0   0.0
-350.0   30.0   0.0
-350.0   0.0   16.666666666666668
-300.0   0.0   16.666666666666668
-350.0   30.0   16.666666666666668
-350.0   0.0   33.333333333333336
-300.0   0.0   16.666666666666668
-300.0   30.0   16.666666666666668
-350.0   30.0   16.666666666666668
-300.0   30.0   33.333333333333336
-350.0   0.0   33.333333333333336
-350.0   30.0   33.333333333333336
-300.0   30.0   33.333333333333336
-350.0   30.0   16.666666666666668
-350.0   0.0   33.333333333333336
-300.0   30.0   33.333333333333336
-300.0   0.0   33.333333333333336
-300.0   0.0   16.666666666666668
-350.0   0.0   33.333333333333336
-300.0   30.0   33.333333333333336
-300.0   0.0   16.666666666666668
-350.0   30.0   16.666666666666668
-350.0   0.0   33.333333333333336
-300.0   0.0   33.333333333333336
-350.0   30.0   33.333333333333336
-350.0   0.0   50.0
-300.0   0.0   33.333333333333336
-300.0   30.0   33.333333333333336
-350.0   30.0   33.333333333333336
-300.0   30.0   50.0
-350.0   0.0   50.0
-350.0   30.0   50.0
-300.0   30.0   50.0
-350.0   30.0   33.333333333333336
-350.0   0.0   50.0
-300.0   30.0   50.0
-300.0   0.0   50.0
-300.0   0.0   33.333333333333336
-350.0   0.0   50.0
-300.0   30.0   50.0
-300.0   0.0   33.333333333333336
-350.0   30.0   33.333333333333336
-350.0   30.0   0.0
-300.0   30.0   0.0
-350.0   60.0   0.0
-350.0   30.0   16.666666666666668
-300.0   30.0   0.0
-300.0   60.0   0.0
-350.0   60.0   0.0
-300.0   60.0   16.666666666666668
-350.0   30.0   16.666666666666668
-350.0   60.0   16.666666666666668
-300.0   60.0   16.666666666666668
-350.0   60.0   0.0
-350.0   30.0   16.666666666666668
-300.0   60.0   16.666666666666668
-300.0   30.0   16.666666666666668
-300.0   30.0   0.0
-350.0   30.0   16.666666666666668
-300.0   60.0   16.666666666666668
-300.0   30.0   0.0
-350.0   60.0   0.0
-350.0   30.0   16.666666666666668
-300.0   30.0   16.666666666666668
-350.0   60.0   16.666666666666668
-350.0   30.0   33.333333333333336
-300.0   30.0   16.666666666666668
-300.0   60.0   16.666666666666668
-350.0   60.0   16.666666666666668
-300.0   60.0   33.333333333333336
-350.0   30.0   33.333333333333336
-350.0   60.0   33.333333333333336
-300.0   60.0   33.333333333333336
-350.0   60.0   16.666666666666668
-350.0   30.0   33.333333333333336
-300.0   60.0   33.333333333333336
-300.0   30.0   33.333333333333336
-300.0   30.0   16.666666666666668
-350.0   30.0   33.333333333333336
-300.0   60.0   33.333333333333336
-300.0   30.0   16.666666666666668
-350.0   60.0   16.666666666666668
-350.0   30.0   33.333333333333336
-300.0   30.0   33.333333333333336
-350.0   60.0   33.333333333333336
-350.0   30.0   50.0
-300.0   30.0   33.333333333333336
-300.0   60.0   33.333333333333336
-350.0   60.0   33.333333333333336
-300.0   60.0   50.0
-350.0   30.0   50.0
-350.0   60.0   50.0
-300.0   60.0   50.0
-350.0   60.0   33.333333333333336
-350.0   30.0   50.0
-300.0   60.0   50.0
-300.0   30.0   50.0
-300.0   30.0   33.333333333333336
-350.0   30.0   50.0
-300.0   60.0   50.0
-300.0   30.0   33.333333333333336
-350.0   60.0   33.333333333333336
-350.0   60.0   0.0
-300.0   60.0   0.0
-350.0   90.0   0.0
-350.0   60.0   16.666666666666668
-300.0   60.0   0.0
-300.0   90.0   0.0
-350.0   90.0   0.0
-300.0   90.0   16.666666666666668
-350.0   60.0   16.666666666666668
-350.0   90.0   16.666666666666668
-300.0   90.0   16.666666666666668
-350.0   90.0   0.0
-350.0   60.0   16.666666666666668
-300.0   90.0   16.666666666666668
-300.0   60.0   16.666666666666668
-300.0   60.0   0.0
-350.0   60.0   16.666666666666668
-300.0   90.0   16.666666666666668
-300.0   60.0   0.0
-350.0   90.0   0.0
-350.0   60.0   16.666666666666668
-300.0   60.0   16.666666666666668
-350.0   90.0   16.666666666666668
-350.0   60.0   33.333333333333336
-300.0   60.0   16.666666666666668
-300.0   90.0   16.666666666666668
-350.0   90.0   16.666666666666668
-300.0   90.0   33.333333333333336
-350.0   60.0   33.333333333333336
-350.0   90.0   33.333333333333336
-300.0   90.0   33.333333333333336
-350.0   90.0   16.666666666666668
-350.0   60.0   33.333333333333336
-300.0   90.0   33.333333333333336
-300.0   60.0   33.333333333333336
-300.0   60.0   16.666666666666668
-350.0   60.0   33.333333333333336
-300.0   90.0   33.333333333333336
-300.0   60.0   16.666666666666668
-350.0   90.0   16.666666666666668
-350.0   60.0   33.333333333333336
-300.0   60.0   33.333333333333336
-350.0   90.0   33.333333333333336
-350.0   60.0   50.0
-300.0   60.0   33.333333333333336
-300.0   90.0   33.333333333333336
-350.0   90.0   33.333333333333336
-300.0   90.0   50.0
-350.0   60.0   50.0
-350.0   90.0   50.0
-300.0   90.0   50.0
-350.0   90.0   33.333333333333336
-350.0   60.0   50.0
-300.0   90.0   50.0
-300.0   60.0   50.0
-300.0   60.0   33.333333333333336
-350.0   60.0   50.0
-300.0   90.0   50.0
-300.0   60.0   33.333333333333336
-350.0   90.0   33.333333333333336
-350.0   90.0   0.0
-300.0   90.0   0.0
-350.0   120.0   0.0
-350.0   90.0   16.666666666666668
-300.0   90.0   0.0
-300.0   120.0   0.0
-350.0   120.0   0.0
-300.0   120.0   16.666666666666668
-350.0   90.0   16.666666666666668
-350.0   120.0   16.666666666666668
-300.0   120.0   16.666666666666668
-350.0   120.0   0.0
-350.0   90.0   16.666666666666668
-300.0   120.0   16.666666666666668
-300.0   90.0   16.666666666666668
-300.0   90.0   0.0
-350.0   90.0   16.666666666666668
-300.0   120.0   16.666666666666668
-300.0   90.0   0.0
-350.0   120.0   0.0
-350.0   90.0   16.666666666666668
-300.0   90.0   16.666666666666668
-350.0   120.0   16.666666666666668
-350.0   90.0   33.333333333333336
-300.0   90.0   16.666666666666668
-300.0   120.0   16.666666666666668
-350.0   120.0   16.666666666666668
-300.0   120.0   33.333333333333336
-350.0   90.0   33.333333333333336
-350.0   120.0   33.333333333333336
-300.0   120.0   33.333333333333336
-350.0   120.0   16.666666666666668
-350.0   90.0   33.333333333333336
-300.0   120.0   33.333333333333336
-300.0   90.0   33.333333333333336
-300.0   90.0   16.666666666666668
-350.0   90.0   33.333333333333336
-300.0   120.0   33.333333333333336
-300.0   90.0   16.666666666666668
-350.0   120.0   16.666666666666668
-350.0   90.0   33.333333333333336
-300.0   90.0   33.333333333333336
-350.0   120.0   33.333333333333336
-350.0   90.0   50.0
-300.0   90.0   33.333333333333336
-300.0   120.0   33.333333333333336
-350.0   120.0   33.333333333333336
-300.0   120.0   50.0
-350.0   90.0   50.0
-350.0   120.0   50.0
-300.0   120.0   50.0
-350.0   120.0   33.333333333333336
-350.0   90.0   50.0
-300.0   120.0   50.0
-300.0   90.0   50.0
-300.0   90.0   33.333333333333336
-350.0   90.0   50.0
-300.0   120.0   50.0
-300.0   90.0   33.333333333333336
-350.0   120.0   33.333333333333336
-350.0   120.0   0.0
-300.0   120.0   0.0
-350.0   150.0   0.0
-350.0   120.0   16.666666666666668
-300.0   120.0   0.0
-300.0   150.0   0.0
-350.0   150.0   0.0
-300.0   150.0   16.666666666666668
-350.0   120.0   16.666666666666668
-350.0   150.0   16.666666666666668
-300.0   150.0   16.666666666666668
-350.0   150.0   0.0
-350.0   120.0   16.666666666666668
-300.0   150.0   16.666666666666668
-300.0   120.0   16.666666666666668
-300.0   120.0   0.0
-350.0   120.0   16.666666666666668
-300.0   150.0   16.666666666666668
-300.0   120.0   0.0
-350.0   150.0   0.0
-350.0   120.0   16.666666666666668
-300.0   120.0   16.666666666666668
-350.0   150.0   16.666666666666668
-350.0   120.0   33.333333333333336
-300.0   120.0   16.666666666666668
-300.0   150.0   16.666666666666668
-350.0   150.0   16.666666666666668
-300.0   150.0   33.333333333333336
-350.0   120.0   33.333333333333336
-350.0   150.0   33.333333333333336
-300.0   150.0   33.333333333333336
-350.0   150.0   16.666666666666668
-350.0   120.0   33.333333333333336
-300.0   150.0   33.333333333333336
-300.0   120.0   33.333333333333336
-300.0   120.0   16.666666666666668
-350.0   120.0   33.333333333333336
-300.0   150.0   33.333333333333336
-300.0   120.0   16.666666666666668
-350.0   150.0   16.666666666666668
-350.0   120.0   33.333333333333336
-300.0   120.0   33.333333333333336
-350.0   150.0   33.333333333333336
-350.0   120.0   50.0
-300.0   120.0   33.333333333333336
-300.0   150.0   33.333333333333336
-350.0   150.0   33.333333333333336
-300.0   150.0   50.0
-350.0   120.0   50.0
-350.0   150.0   50.0
-300.0   150.0   50.0
-350.0   150.0   33.333333333333336
-350.0   120.0   50.0
-300.0   150.0   50.0
-300.0   120.0   50.0
-300.0   120.0   33.333333333333336
-350.0   120.0   50.0
-300.0   150.0   50.0
-300.0   120.0   33.333333333333336
-350.0   150.0   33.333333333333336
-300.0   0.0   0.0
-250.0   0.0   0.0
-300.0   30.0   0.0
-300.0   0.0   16.666666666666668
-250.0   0.0   0.0
-250.0   30.0   0.0
-300.0   30.0   0.0
-250.0   30.0   16.666666666666668
-300.0   0.0   16.666666666666668
-300.0   30.0   16.666666666666668
-250.0   30.0   16.666666666666668
-300.0   30.0   0.0
-300.0   0.0   16.666666666666668
-250.0   30.0   16.666666666666668
-250.0   0.0   16.666666666666668
-250.0   0.0   0.0
-300.0   0.0   16.666666666666668
-250.0   30.0   16.666666666666668
-250.0   0.0   0.0
-300.0   30.0   0.0
-300.0   0.0   16.666666666666668
-250.0   0.0   16.666666666666668
-300.0   30.0   16.666666666666668
-300.0   0.0   33.333333333333336
-250.0   0.0   16.666666666666668
-250.0   30.0   16.666666666666668
-300.0   30.0   16.666666666666668
-250.0   30.0   33.333333333333336
-300.0   0.0   33.333333333333336
-300.0   30.0   33.333333333333336
-250.0   30.0   33.333333333333336
-300.0   30.0   16.666666666666668
-300.0   0.0   33.333333333333336
-250.0   30.0   33.333333333333336
-250.0   0.0   33.333333333333336
-250.0   0.0   16.666666666666668
-300.0   0.0   33.333333333333336
-250.0   30.0   33.333333333333336
-250.0   0.0   16.666666666666668
-300.0   30.0   16.666666666666668
-300.0   0.0   33.333333333333336
-250.0   0.0   33.333333333333336
-300.0   30.0   33.333333333333336
-300.0   0.0   50.0
-250.0   0.0   33.333333333333336
-250.0   30.0   33.333333333333336
-300.0   30.0   33.333333333333336
-250.0   30.0   50.0
-300.0   0.0   50.0
-300.0   30.0   50.0
-250.0   30.0   50.0
-300.0   30.0   33.333333333333336
-300.0   0.0   50.0
-250.0   30.0   50.0
-250.0   0.0   50.0
-250.0   0.0   33.333333333333336
-300.0   0.0   50.0
-250.0   30.0   50.0
-250.0   0.0   33.333333333333336
-300.0   30.0   33.333333333333336
-300.0   30.0   0.0
-250.0   30.0   0.0
-300.0   60.0   0.0
-300.0   30.0   16.666666666666668
-250.0   30.0   0.0
-250.0   60.0   0.0
-300.0   60.0   0.0
-250.0   60.0   16.666666666666668
-300.0   30.0   16.666666666666668
-300.0   60.0   16.666666666666668
-250.0   60.0   16.666666666666668
-300.0   60.0   0.0
-300.0   30.0   16.666666666666668
-250.0   60.0   16.666666666666668
-250.0   30.0   16.666666666666668
-250.0   30.0   0.0
-300.0   30.0   16.666666666666668
-250.0   60.0   16.666666666666668
-250.0   30.0   0.0
-300.0   60.0   0.0
-300.0   30.0   16.666666666666668
-250.0   30.0   16.666666666666668
-300.0   60.0   16.666666666666668
-300.0   30.0   33.333333333333336
-250.0   30.0   16.666666666666668
-250.0   60.0   16.666666666666668
-300.0   60.0   16.666666666666668
-250.0   60.0   33.333333333333336
-300.0   30.0   33.333333333333336
-300.0   60.0   33.333333333333336
-250.0   60.0   33.333333333333336
-300.0   60.0   16.666666666666668
-300.0   30.0   33.333333333333336
-250.0   60.0   33.333333333333336
-250.0   30.0   33.333333333333336
-250.0   30.0   16.666666666666668
-300.0   30.0   33.333333333333336
-250.0   60.0   33.333333333333336
-250.0   30.0   16.666666666666668
-300.0   60.0   16.666666666666668
-300.0   30.0   33.333333333333336
-250.0   30.0   33.333333333333336
-300.0   60.0   33.333333333333336
-300.0   30.0   50.0
-250.0   30.0   33.333333333333336
-250.0   60.0   33.333333333333336
-300.0   60.0   33.333333333333336
-250.0   60.0   50.0
-300.0   30.0   50.0
-300.0   60.0   50.0
-250.0   60.0   50.0
-300.0   60.0   33.333333333333336
-300.0   30.0   50.0
-250.0   60.0   50.0
-250.0   30.0   50.0
-250.0   30.0   33.333333333333336
-300.0   30.0   50.0
-250.0   60.0   50.0
-250.0   30.0   33.333333333333336
-300.0   60.0   33.333333333333336
-300.0   60.0   0.0
-250.0   60.0   0.0
-300.0   90.0   0.0
-300.0   60.0   16.666666666666668
-250.0   60.0   0.0
-250.0   90.0   0.0
-300.0   90.0   0.0
-250.0   90.0   16.666666666666668
-300.0   60.0   16.666666666666668
-300.0   90.0   16.666666666666668
-250.0   90.0   16.666666666666668
-300.0   90.0   0.0
-300.0   60.0   16.666666666666668
-250.0   90.0   16.666666666666668
-250.0   60.0   16.666666666666668
-250.0   60.0   0.0
-300.0   60.0   16.666666666666668
-250.0   90.0   16.666666666666668
-250.0   60.0   0.0
-300.0   90.0   0.0
-300.0   60.0   16.666666666666668
-250.0   60.0   16.666666666666668
-300.0   90.0   16.666666666666668
-300.0   60.0   33.333333333333336
-250.0   60.0   16.666666666666668
-250.0   90.0   16.666666666666668
-300.0   90.0   16.666666666666668
-250.0   90.0   33.333333333333336
-300.0   60.0   33.333333333333336
-300.0   90.0   33.333333333333336
-250.0   90.0   33.333333333333336
-300.0   90.0   16.666666666666668
-300.0   60.0   33.333333333333336
-250.0   90.0   33.333333333333336
-250.0   60.0   33.333333333333336
-250.0   60.0   16.666666666666668
-300.0   60.0   33.333333333333336
-250.0   90.0   33.333333333333336
-250.0   60.0   16.666666666666668
-300.0   90.0   16.666666666666668
-300.0   60.0   33.333333333333336
-250.0   60.0   33.333333333333336
-300.0   90.0   33.333333333333336
-300.0   60.0   50.0
-250.0   60.0   33.333333333333336
-250.0   90.0   33.333333333333336
-300.0   90.0   33.333333333333336
-250.0   90.0   50.0
-300.0   60.0   50.0
-300.0   90.0   50.0
-250.0   90.0   50.0
-300.0   90.0   33.333333333333336
-300.0   60.0   50.0
-250.0   90.0   50.0
-250.0   60.0   50.0
-250.0   60.0   33.333333333333336
-300.0   60.0   50.0
-250.0   90.0   50.0
-250.0   60.0   33.333333333333336
-300.0   90.0   33.333333333333336
-300.0   90.0   0.0
-250.0   90.0   0.0
-300.0   120.0   0.0
-300.0   90.0   16.666666666666668
-250.0   90.0   0.0
-250.0   120.0   0.0
-300.0   120.0   0.0
-250.0   120.0   16.666666666666668
-300.0   90.0   16.666666666666668
-300.0   120.0   16.666666666666668
-250.0   120.0   16.666666666666668
-300.0   120.0   0.0
-300.0   90.0   16.666666666666668
-250.0   120.0   16.666666666666668
-250.0   90.0   16.666666666666668
-250.0   90.0   0.0
-300.0   90.0   16.666666666666668
-250.0   120.0   16.666666666666668
-250.0   90.0   0.0
-300.0   120.0   0.0
-300.0   90.0   16.666666666666668
-250.0   90.0   16.666666666666668
-300.0   120.0   16.666666666666668
-300.0   90.0   33.333333333333336
-250.0   90.0   16.666666666666668
-250.0   120.0   16.666666666666668
-300.0   120.0   16.666666666666668
-250.0   120.0   33.333333333333336
-300.0   90.0   33.333333333333336
-300.0   120.0   33.333333333333336
-250.0   120.0   33.333333333333336
-300.0   120.0   16.666666666666668
-300.0   90.0   33.333333333333336
-250.0   120.0   33.333333333333336
-250.0   90.0   33.333333333333336
-250.0   90.0   16.666666666666668
-300.0   90.0   33.333333333333336
-250.0   120.0   33.333333333333336
-250.0   90.0   16.666666666666668
-300.0   120.0   16.666666666666668
-300.0   90.0   33.333333333333336
-250.0   90.0   33.333333333333336
-300.0   120.0   33.333333333333336
-300.0   90.0   50.0
-250.0   90.0   33.333333333333336
-250.0   120.0   33.333333333333336
-300.0   120.0   33.333333333333336
-250.0   120.0   50.0
-300.0   90.0   50.0
-300.0   120.0   50.0
-250.0   120.0   50.0
-300.0   120.0   33.333333333333336
-300.0   90.0   50.0
-250.0   120.0   50.0
-250.0   90.0   50.0
-250.0   90.0   33.333333333333336
-300.0   90.0   50.0
-250.0   120.0   50.0
-250.0   90.0   33.333333333333336
-300.0   120.0   33.333333333333336
-300.0   120.0   0.0
-250.0   120.0   0.0
-300.0   150.0   0.0
-300.0   120.0   16.666666666666668
-250.0   120.0   0.0
-250.0   150.0   0.0
-300.0   150.0   0.0
-250.0   150.0   16.666666666666668
-300.0   120.0   16.666666666666668
-300.0   150.0   16.666666666666668
-250.0   150.0   16.666666666666668
-300.0   150.0   0.0
-300.0   120.0   16.666666666666668
-250.0   150.0   16.666666666666668
-250.0   120.0   16.666666666666668
-250.0   120.0   0.0
-300.0   120.0   16.666666666666668
-250.0   150.0   16.666666666666668
-250.0   120.0   0.0
-300.0   150.0   0.0
-300.0   120.0   16.666666666666668
-250.0   120.0   16.666666666666668
-300.0   150.0   16.666666666666668
-300.0   120.0   33.333333333333336
-250.0   120.0   16.666666666666668
-250.0   150.0   16.666666666666668
-300.0   150.0   16.666666666666668
-250.0   150.0   33.333333333333336
-300.0   120.0   33.333333333333336
-300.0   150.0   33.333333333333336
-250.0   150.0   33.333333333333336
-300.0   150.0   16.666666666666668
-300.0   120.0   33.333333333333336
-250.0   150.0   33.333333333333336
-250.0   120.0   33.333333333333336
-250.0   120.0   16.666666666666668
-300.0   120.0   33.333333333333336
-250.0   150.0   33.333333333333336
-250.0   120.0   16.666666666666668
-300.0   150.0   16.666666666666668
-300.0   120.0   33.333333333333336
-250.0   120.0   33.333333333333336
-300.0   150.0   33.333333333333336
-300.0   120.0   50.0
-250.0   120.0   33.333333333333336
-250.0   150.0   33.333333333333336
-300.0   150.0   33.333333333333336
-250.0   150.0   50.0
-300.0   120.0   50.0
-300.0   150.0   50.0
-250.0   150.0   50.0
-300.0   150.0   33.333333333333336
-300.0   120.0   50.0
-250.0   150.0   50.0
-250.0   120.0   50.0
-250.0   120.0   33.333333333333336
-300.0   120.0   50.0
-250.0   150.0   50.0
-250.0   120.0   33.333333333333336
-300.0   150.0   33.333333333333336
-250.0   0.0   0.0
-200.0   0.0   0.0
-250.0   30.0   0.0
-250.0   0.0   16.666666666666668
-200.0   0.0   0.0
-200.0   30.0   0.0
-250.0   30.0   0.0
-200.0   30.0   16.666666666666668
-250.0   0.0   16.666666666666668
-250.0   30.0   16.666666666666668
-200.0   30.0   16.666666666666668
-250.0   30.0   0.0
-250.0   0.0   16.666666666666668
-200.0   30.0   16.666666666666668
-200.0   0.0   16.666666666666668
-200.0   0.0   0.0
-250.0   0.0   16.666666666666668
-200.0   30.0   16.666666666666668
-200.0   0.0   0.0
-250.0   30.0   0.0
-250.0   0.0   16.666666666666668
-200.0   0.0   16.666666666666668
-250.0   30.0   16.666666666666668
-250.0   0.0   33.333333333333336
-200.0   0.0   16.666666666666668
-200.0   30.0   16.666666666666668
-250.0   30.0   16.666666666666668
-200.0   30.0   33.333333333333336
-250.0   0.0   33.333333333333336
-250.0   30.0   33.333333333333336
-200.0   30.0   33.333333333333336
-250.0   30.0   16.666666666666668
-250.0   0.0   33.333333333333336
-200.0   30.0   33.333333333333336
-200.0   0.0   33.333333333333336
-200.0   0.0   16.666666666666668
-250.0   0.0   33.333333333333336
-200.0   30.0   33.333333333333336
-200.0   0.0   16.666666666666668
-250.0   30.0   16.666666666666668
-250.0   0.0   33.333333333333336
-200.0   0.0   33.333333333333336
-250.0   30.0   33.333333333333336
-250.0   0.0   50.0
-200.0   0.0   33.333333333333336
-200.0   30.0   33.333333333333336
-250.0   30.0   33.333333333333336
-200.0   30.0   50.0
-250.0   0.0   50.0
-250.0   30.0   50.0
-200.0   30.0   50.0
-250.0   30.0   33.333333333333336
-250.0   0.0   50.0
-200.0   30.0   50.0
-200.0   0.0   50.0
-200.0   0.0   33.333333333333336
-250.0   0.0   50.0
-200.0   30.0   50.0
-200.0   0.0   33.333333333333336
-250.0   30.0   33.333333333333336
-250.0   30.0   0.0
-200.0   30.0   0.0
-250.0   60.0   0.0
-250.0   30.0   16.666666666666668
-200.0   30.0   0.0
-200.0   60.0   0.0
-250.0   60.0   0.0
-200.0   60.0   16.666666666666668
-250.0   30.0   16.666666666666668
-250.0   60.0   16.666666666666668
-200.0   60.0   16.666666666666668
-250.0   60.0   0.0
-250.0   30.0   16.666666666666668
-200.0   60.0   16.666666666666668
-200.0   30.0   16.666666666666668
-200.0   30.0   0.0
-250.0   30.0   16.666666666666668
-200.0   60.0   16.666666666666668
-200.0   30.0   0.0
-250.0   60.0   0.0
-250.0   30.0   16.666666666666668
-200.0   30.0   16.666666666666668
-250.0   60.0   16.666666666666668
-250.0   30.0   33.333333333333336
-200.0   30.0   16.666666666666668
-200.0   60.0   16.666666666666668
-250.0   60.0   16.666666666666668
-200.0   60.0   33.333333333333336
-250.0   30.0   33.333333333333336
-250.0   60.0   33.333333333333336
-200.0   60.0   33.333333333333336
-250.0   60.0   16.666666666666668
-250.0   30.0   33.333333333333336
-200.0   60.0   33.333333333333336
-200.0   30.0   33.333333333333336
-200.0   30.0   16.666666666666668
-250.0   30.0   33.333333333333336
-200.0   60.0   33.333333333333336
-200.0   30.0   16.666666666666668
-250.0   60.0   16.666666666666668
-250.0   30.0   33.333333333333336
-200.0   30.0   33.333333333333336
-250.0   60.0   33.333333333333336
-250.0   30.0   50.0
-200.0   30.0   33.333333333333336
-200.0   60.0   33.333333333333336
-250.0   60.0   33.333333333333336
-200.0   60.0   50.0
-250.0   30.0   50.0
-250.0   60.0   50.0
-200.0   60.0   50.0
-250.0   60.0   33.333333333333336
-250.0   30.0   50.0
-200.0   60.0   50.0
-200.0   30.0   50.0
-200.0   30.0   33.333333333333336
-250.0   30.0   50.0
-200.0   60.0   50.0
-200.0   30.0   33.333333333333336
-250.0   60.0   33.333333333333336
-250.0   60.0   0.0
-200.0   60.0   0.0
-250.0   90.0   0.0
-250.0   60.0   16.666666666666668
-200.0   60.0   0.0
-200.0   90.0   0.0
-250.0   90.0   0.0
-200.0   90.0   16.666666666666668
-250.0   60.0   16.666666666666668
-250.0   90.0   16.666666666666668
-200.0   90.0   16.666666666666668
-250.0   90.0   0.0
-250.0   60.0   16.666666666666668
-200.0   90.0   16.666666666666668
-200.0   60.0   16.666666666666668
-200.0   60.0   0.0
-250.0   60.0   16.666666666666668
-200.0   90.0   16.666666666666668
-200.0   60.0   0.0
-250.0   90.0   0.0
-250.0   60.0   16.666666666666668
-200.0   60.0   16.666666666666668
-250.0   90.0   16.666666666666668
-250.0   60.0   33.333333333333336
-200.0   60.0   16.666666666666668
-200.0   90.0   16.666666666666668
-250.0   90.0   16.666666666666668
-200.0   90.0   33.333333333333336
-250.0   60.0   33.333333333333336
-250.0   90.0   33.333333333333336
-200.0   90.0   33.333333333333336
-250.0   90.0   16.666666666666668
-250.0   60.0   33.333333333333336
-200.0   90.0   33.333333333333336
-200.0   60.0   33.333333333333336
-200.0   60.0   16.666666666666668
-250.0   60.0   33.333333333333336
-200.0   90.0   33.333333333333336
-200.0   60.0   16.666666666666668
-250.0   90.0   16.666666666666668
-250.0   60.0   33.333333333333336
-200.0   60.0   33.333333333333336
-250.0   90.0   33.333333333333336
-250.0   60.0   50.0
-200.0   60.0   33.333333333333336
-200.0   90.0   33.333333333333336
-250.0   90.0   33.333333333333336
-200.0   90.0   50.0
-250.0   60.0   50.0
-250.0   90.0   50.0
-200.0   90.0   50.0
-250.0   90.0   33.333333333333336
-250.0   60.0   50.0
-200.0   90.0   50.0
-200.0   60.0   50.0
-200.0   60.0   33.333333333333336
-250.0   60.0   50.0
-200.0   90.0   50.0
-200.0   60.0   33.333333333333336
-250.0   90.0   33.333333333333336
-250.0   90.0   0.0
-200.0   90.0   0.0
-250.0   120.0   0.0
-250.0   90.0   16.666666666666668
-200.0   90.0   0.0
-200.0   120.0   0.0
-250.0   120.0   0.0
-200.0   120.0   16.666666666666668
-250.0   90.0   16.666666666666668
-250.0   120.0   16.666666666666668
-200.0   120.0   16.666666666666668
-250.0   120.0   0.0
-250.0   90.0   16.666666666666668
-200.0   120.0   16.666666666666668
-200.0   90.0   16.666666666666668
-200.0   90.0   0.0
-250.0   90.0   16.666666666666668
-200.0   120.0   16.666666666666668
-200.0   90.0   0.0
-250.0   120.0   0.0
-250.0   90.0   16.666666666666668
-200.0   90.0   16.666666666666668
-250.0   120.0   16.666666666666668
-250.0   90.0   33.333333333333336
-200.0   90.0   16.666666666666668
-200.0   120.0   16.666666666666668
-250.0   120.0   16.666666666666668
-200.0   120.0   33.333333333333336
-250.0   90.0   33.333333333333336
-250.0   120.0   33.333333333333336
-200.0   120.0   33.333333333333336
-250.0   120.0   16.666666666666668
-250.0   90.0   33.333333333333336
-200.0   120.0   33.333333333333336
-200.0   90.0   33.333333333333336
-200.0   90.0   16.666666666666668
-250.0   90.0   33.333333333333336
-200.0   120.0   33.333333333333336
-200.0   90.0   16.666666666666668
-250.0   120.0   16.666666666666668
-250.0   90.0   33.333333333333336
-200.0   90.0   33.333333333333336
-250.0   120.0   33.333333333333336
-250.0   90.0   50.0
-200.0   90.0   33.333333333333336
-200.0   120.0   33.333333333333336
-250.0   120.0   33.333333333333336
-200.0   120.0   50.0
-250.0   90.0   50.0
-250.0   120.0   50.0
-200.0   120.0   50.0
-250.0   120.0   33.333333333333336
-250.0   90.0   50.0
-200.0   120.0   50.0
-200.0   90.0   50.0
-200.0   90.0   33.333333333333336
-250.0   90.0   50.0
-200.0   120.0   50.0
-200.0   90.0   33.333333333333336
-250.0   120.0   33.333333333333336
-250.0   120.0   0.0
-200.0   120.0   0.0
-250.0   150.0   0.0
-250.0   120.0   16.666666666666668
-200.0   120.0   0.0
-200.0   150.0   0.0
-250.0   150.0   0.0
-200.0   150.0   16.666666666666668
-250.0   120.0   16.666666666666668
-250.0   150.0   16.666666666666668
-200.0   150.0   16.666666666666668
-250.0   150.0   0.0
-250.0   120.0   16.666666666666668
-200.0   150.0   16.666666666666668
-200.0   120.0   16.666666666666668
-200.0   120.0   0.0
-250.0   120.0   16.666666666666668
-200.0   150.0   16.666666666666668
-200.0   120.0   0.0
-250.0   150.0   0.0
-250.0   120.0   16.666666666666668
-200.0   120.0   16.666666666666668
-250.0   150.0   16.666666666666668
-250.0   120.0   33.333333333333336
-200.0   120.0   16.666666666666668
-200.0   150.0   16.666666666666668
-250.0   150.0   16.666666666666668
-200.0   150.0   33.333333333333336
-250.0   120.0   33.333333333333336
-250.0   150.0   33.333333333333336
-200.0   150.0   33.333333333333336
-250.0   150.0   16.666666666666668
-250.0   120.0   33.333333333333336
-200.0   150.0   33.333333333333336
-200.0   120.0   33.333333333333336
-200.0   120.0   16.666666666666668
-250.0   120.0   33.333333333333336
-200.0   150.0   33.333333333333336
-200.0   120.0   16.666666666666668
-250.0   150.0   16.666666666666668
-250.0   120.0   33.333333333333336
-200.0   120.0   33.333333333333336
-250.0   150.0   33.333333333333336
-250.0   120.0   50.0
-200.0   120.0   33.333333333333336
-200.0   150.0   33.333333333333336
-250.0   150.0   33.333333333333336
-200.0   150.0   50.0
-250.0   120.0   50.0
-250.0   150.0   50.0
-200.0   150.0   50.0
-250.0   150.0   33.333333333333336
-250.0   120.0   50.0
-200.0   150.0   50.0
-200.0   120.0   50.0
-200.0   120.0   33.333333333333336
-250.0   120.0   50.0
-200.0   150.0   50.0
-200.0   120.0   33.333333333333336
-250.0   150.0   33.333333333333336
-200.0   0.0   0.0
-150.0   0.0   0.0
-200.0   30.0   0.0
-200.0   0.0   16.666666666666668
-150.0   0.0   0.0
-150.0   30.0   0.0
-200.0   30.0   0.0
-150.0   30.0   16.666666666666668
-200.0   0.0   16.666666666666668
-200.0   30.0   16.666666666666668
-150.0   30.0   16.666666666666668
-200.0   30.0   0.0
-200.0   0.0   16.666666666666668
-150.0   30.0   16.666666666666668
-150.0   0.0   16.666666666666668
-150.0   0.0   0.0
-200.0   0.0   16.666666666666668
-150.0   30.0   16.666666666666668
-150.0   0.0   0.0
-200.0   30.0   0.0
-200.0   0.0   16.666666666666668
-150.0   0.0   16.666666666666668
-200.0   30.0   16.666666666666668
-200.0   0.0   33.333333333333336
-150.0   0.0   16.666666666666668
-150.0   30.0   16.666666666666668
-200.0   30.0   16.666666666666668
-150.0   30.0   33.333333333333336
-200.0   0.0   33.333333333333336
-200.0   30.0   33.333333333333336
-150.0   30.0   33.333333333333336
-200.0   30.0   16.666666666666668
-200.0   0.0   33.333333333333336
-150.0   30.0   33.333333333333336
-150.0   0.0   33.333333333333336
-150.0   0.0   16.666666666666668
-200.0   0.0   33.333333333333336
-150.0   30.0   33.333333333333336
-150.0   0.0   16.666666666666668
-200.0   30.0   16.666666666666668
-200.0   0.0   33.333333333333336
-150.0   0.0   33.333333333333336
-200.0   30.0   33.333333333333336
-200.0   0.0   50.0
-150.0   0.0   33.333333333333336
-150.0   30.0   33.333333333333336
-200.0   30.0   33.333333333333336
-150.0   30.0   50.0
-200.0   0.0   50.0
-200.0   30.0   50.0
-150.0   30.0   50.0
-200.0   30.0   33.333333333333336
-200.0   0.0   50.0
-150.0   30.0   50.0
-150.0   0.0   50.0
-150.0   0.0   33.333333333333336
-200.0   0.0   50.0
-150.0   30.0   50.0
-150.0   0.0   33.333333333333336
-200.0   30.0   33.333333333333336
-200.0   30.0   0.0
-150.0   30.0   0.0
-200.0   60.0   0.0
-200.0   30.0   16.666666666666668
-150.0   30.0   0.0
-150.0   60.0   0.0
-200.0   60.0   0.0
-150.0   60.0   16.666666666666668
-200.0   30.0   16.666666666666668
-200.0   60.0   16.666666666666668
-150.0   60.0   16.666666666666668
-200.0   60.0   0.0
-200.0   30.0   16.666666666666668
-150.0   60.0   16.666666666666668
-150.0   30.0   16.666666666666668
-150.0   30.0   0.0
-200.0   30.0   16.666666666666668
-150.0   60.0   16.666666666666668
-150.0   30.0   0.0
-200.0   60.0   0.0
-200.0   30.0   16.666666666666668
-150.0   30.0   16.666666666666668
-200.0   60.0   16.666666666666668
-200.0   30.0   33.333333333333336
-150.0   30.0   16.666666666666668
-150.0   60.0   16.666666666666668
-200.0   60.0   16.666666666666668
-150.0   60.0   33.333333333333336
-200.0   30.0   33.333333333333336
-200.0   60.0   33.333333333333336
-150.0   60.0   33.333333333333336
-200.0   60.0   16.666666666666668
-200.0   30.0   33.333333333333336
-150.0   60.0   33.333333333333336
-150.0   30.0   33.333333333333336
-150.0   30.0   16.666666666666668
-200.0   30.0   33.333333333333336
-150.0   60.0   33.333333333333336
-150.0   30.0   16.666666666666668
-200.0   60.0   16.666666666666668
-200.0   30.0   33.333333333333336
-150.0   30.0   33.333333333333336
-200.0   60.0   33.333333333333336
-200.0   30.0   50.0
-150.0   30.0   33.333333333333336
-150.0   60.0   33.333333333333336
-200.0   60.0   33.333333333333336
-150.0   60.0   50.0
-200.0   30.0   50.0
-200.0   60.0   50.0
-150.0   60.0   50.0
-200.0   60.0   33.333333333333336
-200.0   30.0   50.0
-150.0   60.0   50.0
-150.0   30.0   50.0
-150.0   30.0   33.333333333333336
-200.0   30.0   50.0
-150.0   60.0   50.0
-150.0   30.0   33.333333333333336
-200.0   60.0   33.333333333333336
-200.0   60.0   0.0
-150.0   60.0   0.0
-200.0   90.0   0.0
-200.0   60.0   16.666666666666668
-150.0   60.0   0.0
-150.0   90.0   0.0
-200.0   90.0   0.0
-150.0   90.0   16.666666666666668
-200.0   60.0   16.666666666666668
-200.0   90.0   16.666666666666668
-150.0   90.0   16.666666666666668
-200.0   90.0   0.0
-200.0   60.0   16.666666666666668
-150.0   90.0   16.666666666666668
-150.0   60.0   16.666666666666668
-150.0   60.0   0.0
-200.0   60.0   16.666666666666668
-150.0   90.0   16.666666666666668
-150.0   60.0   0.0
-200.0   90.0   0.0
-200.0   60.0   16.666666666666668
-150.0   60.0   16.666666666666668
-200.0   90.0   16.666666666666668
-200.0   60.0   33.333333333333336
-150.0   60.0   16.666666666666668
-150.0   90.0   16.666666666666668
-200.0   90.0   16.666666666666668
-150.0   90.0   33.333333333333336
-200.0   60.0   33.333333333333336
-200.0   90.0   33.333333333333336
-150.0   90.0   33.333333333333336
-200.0   90.0   16.666666666666668
-200.0   60.0   33.333333333333336
-150.0   90.0   33.333333333333336
-150.0   60.0   33.333333333333336
-150.0   60.0   16.666666666666668
-200.0   60.0   33.333333333333336
-150.0   90.0   33.333333333333336
-150.0   60.0   16.666666666666668
-200.0   90.0   16.666666666666668
-200.0   60.0   33.333333333333336
-150.0   60.0   33.333333333333336
-200.0   90.0   33.333333333333336
-200.0   60.0   50.0
-150.0   60.0   33.333333333333336
-150.0   90.0   33.333333333333336
-200.0   90.0   33.333333333333336
-150.0   90.0   50.0
-200.0   60.0   50.0
-200.0   90.0   50.0
-150.0   90.0   50.0
-200.0   90.0   33.333333333333336
-200.0   60.0   50.0
-150.0   90.0   50.0
-150.0   60.0   50.0
-150.0   60.0   33.333333333333336
-200.0   60.0   50.0
-150.0   90.0   50.0
-150.0   60.0   33.333333333333336
-200.0   90.0   33.333333333333336
-200.0   90.0   0.0
-150.0   90.0   0.0
-200.0   120.0   0.0
-200.0   90.0   16.666666666666668
-150.0   90.0   0.0
-150.0   120.0   0.0
-200.0   120.0   0.0
-150.0   120.0   16.666666666666668
-200.0   90.0   16.666666666666668
-200.0   120.0   16.666666666666668
-150.0   120.0   16.666666666666668
-200.0   120.0   0.0
-200.0   90.0   16.666666666666668
-150.0   120.0   16.666666666666668
-150.0   90.0   16.666666666666668
-150.0   90.0   0.0
-200.0   90.0   16.666666666666668
-150.0   120.0   16.666666666666668
-150.0   90.0   0.0
-200.0   120.0   0.0
-200.0   90.0   16.666666666666668
-150.0   90.0   16.666666666666668
-200.0   120.0   16.666666666666668
-200.0   90.0   33.333333333333336
-150.0   90.0   16.666666666666668
-150.0   120.0   16.666666666666668
-200.0   120.0   16.666666666666668
-150.0   120.0   33.333333333333336
-200.0   90.0   33.333333333333336
-200.0   120.0   33.333333333333336
-150.0   120.0   33.333333333333336
-200.0   120.0   16.666666666666668
-200.0   90.0   33.333333333333336
-150.0   120.0   33.333333333333336
-150.0   90.0   33.333333333333336
-150.0   90.0   16.666666666666668
-200.0   90.0   33.333333333333336
-150.0   120.0   33.333333333333336
-150.0   90.0   16.666666666666668
-200.0   120.0   16.666666666666668
-200.0   90.0   33.333333333333336
-150.0   90.0   33.333333333333336
-200.0   120.0   33.333333333333336
-200.0   90.0   50.0
-150.0   90.0   33.333333333333336
-150.0   120.0   33.333333333333336
-200.0   120.0   33.333333333333336
-150.0   120.0   50.0
-200.0   90.0   50.0
-200.0   120.0   50.0
-150.0   120.0   50.0
-200.0   120.0   33.333333333333336
-200.0   90.0   50.0
-150.0   120.0   50.0
-150.0   90.0   50.0
-150.0   90.0   33.333333333333336
-200.0   90.0   50.0
-150.0   120.0   50.0
-150.0   90.0   33.333333333333336
-200.0   120.0   33.333333333333336
-200.0   120.0   0.0
-150.0   120.0   0.0
-200.0   150.0   0.0
-200.0   120.0   16.666666666666668
-150.0   120.0   0.0
-150.0   150.0   0.0
-200.0   150.0   0.0
-150.0   150.0   16.666666666666668
-200.0   120.0   16.666666666666668
-200.0   150.0   16.666666666666668
-150.0   150.0   16.666666666666668
-200.0   150.0   0.0
-200.0   120.0   16.666666666666668
-150.0   150.0   16.666666666666668
-150.0   120.0   16.666666666666668
-150.0   120.0   0.0
-200.0   120.0   16.666666666666668
-150.0   150.0   16.666666666666668
-150.0   120.0   0.0
-200.0   150.0   0.0
-200.0   120.0   16.666666666666668
-150.0   120.0   16.666666666666668
-200.0   150.0   16.666666666666668
-200.0   120.0   33.333333333333336
-150.0   120.0   16.666666666666668
-150.0   150.0   16.666666666666668
-200.0   150.0   16.666666666666668
-150.0   150.0   33.333333333333336
-200.0   120.0   33.333333333333336
-200.0   150.0   33.333333333333336
-150.0   150.0   33.333333333333336
-200.0   150.0   16.666666666666668
-200.0   120.0   33.333333333333336
-150.0   150.0   33.333333333333336
-150.0   120.0   33.333333333333336
-150.0   120.0   16.666666666666668
-200.0   120.0   33.333333333333336
-150.0   150.0   33.333333333333336
-150.0   120.0   16.666666666666668
-200.0   150.0   16.666666666666668
-200.0   120.0   33.333333333333336
-150.0   120.0   33.333333333333336
-200.0   150.0   33.333333333333336
-200.0   120.0   50.0
-150.0   120.0   33.333333333333336
-150.0   150.0   33.333333333333336
-200.0   150.0   33.333333333333336
-150.0   150.0   50.0
-200.0   120.0   50.0
-200.0   150.0   50.0
-150.0   150.0   50.0
-200.0   150.0   33.333333333333336
-200.0   120.0   50.0
-150.0   150.0   50.0
-150.0   120.0   50.0
-150.0   120.0   33.333333333333336
-200.0   120.0   50.0
-150.0   150.0   50.0
-150.0   120.0   33.333333333333336
-200.0   150.0   33.333333333333336
-150.0   0.0   0.0
-100.0   0.0   0.0
-150.0   30.0   0.0
-150.0   0.0   16.666666666666668
-100.0   0.0   0.0
-100.0   30.0   0.0
-150.0   30.0   0.0
-100.0   30.0   16.666666666666668
-150.0   0.0   16.666666666666668
-150.0   30.0   16.666666666666668
-100.0   30.0   16.666666666666668
-150.0   30.0   0.0
-150.0   0.0   16.666666666666668
-100.0   30.0   16.666666666666668
-100.0   0.0   16.666666666666668
-100.0   0.0   0.0
-150.0   0.0   16.666666666666668
-100.0   30.0   16.666666666666668
-100.0   0.0   0.0
-150.0   30.0   0.0
-150.0   0.0   16.666666666666668
-100.0   0.0   16.666666666666668
-150.0   30.0   16.666666666666668
-150.0   0.0   33.333333333333336
-100.0   0.0   16.666666666666668
-100.0   30.0   16.666666666666668
-150.0   30.0   16.666666666666668
-100.0   30.0   33.333333333333336
-150.0   0.0   33.333333333333336
-150.0   30.0   33.333333333333336
-100.0   30.0   33.333333333333336
-150.0   30.0   16.666666666666668
-150.0   0.0   33.333333333333336
-100.0   30.0   33.333333333333336
-100.0   0.0   33.333333333333336
-100.0   0.0   16.666666666666668
-150.0   0.0   33.333333333333336
-100.0   30.0   33.333333333333336
-100.0   0.0   16.666666666666668
-150.0   30.0   16.666666666666668
-150.0   0.0   33.333333333333336
-100.0   0.0   33.333333333333336
-150.0   30.0   33.333333333333336
-150.0   0.0   50.0
-100.0   0.0   33.333333333333336
-100.0   30.0   33.333333333333336
-150.0   30.0   33.333333333333336
-100.0   30.0   50.0
-150.0   0.0   50.0
-150.0   30.0   50.0
-100.0   30.0   50.0
-150.0   30.0   33.333333333333336
-150.0   0.0   50.0
-100.0   30.0   50.0
-100.0   0.0   50.0
-100.0   0.0   33.333333333333336
-150.0   0.0   50.0
-100.0   30.0   50.0
-100.0   0.0   33.333333333333336
-150.0   30.0   33.333333333333336
-150.0   30.0   0.0
-100.0   30.0   0.0
-150.0   60.0   0.0
-150.0   30.0   16.666666666666668
-100.0   30.0   0.0
-100.0   60.0   0.0
-150.0   60.0   0.0
-100.0   60.0   16.666666666666668
-150.0   30.0   16.666666666666668
-150.0   60.0   16.666666666666668
-100.0   60.0   16.666666666666668
-150.0   60.0   0.0
-150.0   30.0   16.666666666666668
-100.0   60.0   16.666666666666668
-100.0   30.0   16.666666666666668
-100.0   30.0   0.0
-150.0   30.0   16.666666666666668
-100.0   60.0   16.666666666666668
-100.0   30.0   0.0
-150.0   60.0   0.0
-150.0   30.0   16.666666666666668
-100.0   30.0   16.666666666666668
-150.0   60.0   16.666666666666668
-150.0   30.0   33.333333333333336
-100.0   30.0   16.666666666666668
-100.0   60.0   16.666666666666668
-150.0   60.0   16.666666666666668
-100.0   60.0   33.333333333333336
-150.0   30.0   33.333333333333336
-150.0   60.0   33.333333333333336
-100.0   60.0   33.333333333333336
-150.0   60.0   16.666666666666668
-150.0   30.0   33.333333333333336
-100.0   60.0   33.333333333333336
-100.0   30.0   33.333333333333336
-100.0   30.0   16.666666666666668
-150.0   30.0   33.333333333333336
-100.0   60.0   33.333333333333336
-100.0   30.0   16.666666666666668
-150.0   60.0   16.666666666666668
-150.0   30.0   33.333333333333336
-100.0   30.0   33.333333333333336
-150.0   60.0   33.333333333333336
-150.0   30.0   50.0
-100.0   30.0   33.333333333333336
-100.0   60.0   33.333333333333336
-150.0   60.0   33.333333333333336
-100.0   60.0   50.0
-150.0   30.0   50.0
-150.0   60.0   50.0
-100.0   60.0   50.0
-150.0   60.0   33.333333333333336
-150.0   30.0   50.0
-100.0   60.0   50.0
-100.0   30.0   50.0
-100.0   30.0   33.333333333333336
-150.0   30.0   50.0
-100.0   60.0   50.0
-100.0   30.0   33.333333333333336
-150.0   60.0   33.333333333333336
-150.0   60.0   0.0
-100.0   60.0   0.0
-150.0   90.0   0.0
-150.0   60.0   16.666666666666668
-100.0   60.0   0.0
-100.0   90.0   0.0
-150.0   90.0   0.0
-100.0   90.0   16.666666666666668
-150.0   60.0   16.666666666666668
-150.0   90.0   16.666666666666668
-100.0   90.0   16.666666666666668
-150.0   90.0   0.0
-150.0   60.0   16.666666666666668
-100.0   90.0   16.666666666666668
-100.0   60.0   16.666666666666668
-100.0   60.0   0.0
-150.0   60.0   16.666666666666668
-100.0   90.0   16.666666666666668
-100.0   60.0   0.0
-150.0   90.0   0.0
-150.0   60.0   16.666666666666668
-100.0   60.0   16.666666666666668
-150.0   90.0   16.666666666666668
-150.0   60.0   33.333333333333336
-100.0   60.0   16.666666666666668
-100.0   90.0   16.666666666666668
-150.0   90.0   16.666666666666668
-100.0   90.0   33.333333333333336
-150.0   60.0   33.333333333333336
-150.0   90.0   33.333333333333336
-100.0   90.0   33.333333333333336
-150.0   90.0   16.666666666666668
-150.0   60.0   33.333333333333336
-100.0   90.0   33.333333333333336
-100.0   60.0   33.333333333333336
-100.0   60.0   16.666666666666668
-150.0   60.0   33.333333333333336
-100.0   90.0   33.333333333333336
-100.0   60.0   16.666666666666668
-150.0   90.0   16.666666666666668
-150.0   60.0   33.333333333333336
-100.0   60.0   33.333333333333336
-150.0   90.0   33.333333333333336
-150.0   60.0   50.0
-100.0   60.0   33.333333333333336
-100.0   90.0   33.333333333333336
-150.0   90.0   33.333333333333336
-100.0   90.0   50.0
-150.0   60.0   50.0
-150.0   90.0   50.0
-100.0   90.0   50.0
-150.0   90.0   33.333333333333336
-150.0   60.0   50.0
-100.0   90.0   50.0
-100.0   60.0   50.0
-100.0   60.0   33.333333333333336
-150.0   60.0   50.0
-100.0   90.0   50.0
-100.0   60.0   33.333333333333336
-150.0   90.0   33.333333333333336
-150.0   90.0   0.0
-100.0   90.0   0.0
-150.0   120.0   0.0
-150.0   90.0   16.666666666666668
-100.0   90.0   0.0
-100.0   120.0   0.0
-150.0   120.0   0.0
-100.0   120.0   16.666666666666668
-150.0   90.0   16.666666666666668
-150.0   120.0   16.666666666666668
-100.0   120.0   16.666666666666668
-150.0   120.0   0.0
-150.0   90.0   16.666666666666668
-100.0   120.0   16.666666666666668
-100.0   90.0   16.666666666666668
-100.0   90.0   0.0
-150.0   90.0   16.666666666666668
-100.0   120.0   16.666666666666668
-100.0   90.0   0.0
-150.0   120.0   0.0
-150.0   90.0   16.666666666666668
-100.0   90.0   16.666666666666668
-150.0   120.0   16.666666666666668
-150.0   90.0   33.333333333333336
-100.0   90.0   16.666666666666668
-100.0   120.0   16.666666666666668
-150.0   120.0   16.666666666666668
-100.0   120.0   33.333333333333336
-150.0   90.0   33.333333333333336
-150.0   120.0   33.333333333333336
-100.0   120.0   33.333333333333336
-150.0   120.0   16.666666666666668
-150.0   90.0   33.333333333333336
-100.0   120.0   33.333333333333336
-100.0   90.0   33.333333333333336
-100.0   90.0   16.666666666666668
-150.0   90.0   33.333333333333336
-100.0   120.0   33.333333333333336
-100.0   90.0   16.666666666666668
-150.0   120.0   16.666666666666668
-150.0   90.0   33.333333333333336
-100.0   90.0   33.333333333333336
-150.0   120.0   33.333333333333336
-150.0   90.0   50.0
-100.0   90.0   33.333333333333336
-100.0   120.0   33.333333333333336
-150.0   120.0   33.333333333333336
-100.0   120.0   50.0
-150.0   90.0   50.0
-150.0   120.0   50.0
-100.0   120.0   50.0
-150.0   120.0   33.333333333333336
-150.0   90.0   50.0
-100.0   120.0   50.0
-100.0   90.0   50.0
-100.0   90.0   33.333333333333336
-150.0   90.0   50.0
-100.0   120.0   50.0
-100.0   90.0   33.333333333333336
-150.0   120.0   33.333333333333336
-150.0   120.0   0.0
-100.0   120.0   0.0
-150.0   150.0   0.0
-150.0   120.0   16.666666666666668
-100.0   120.0   0.0
-100.0   150.0   0.0
-150.0   150.0   0.0
-100.0   150.0   16.666666666666668
-150.0   120.0   16.666666666666668
-150.0   150.0   16.666666666666668
-100.0   150.0   16.666666666666668
-150.0   150.0   0.0
-150.0   120.0   16.666666666666668
-100.0   150.0   16.666666666666668
-100.0   120.0   16.666666666666668
-100.0   120.0   0.0
-150.0   120.0   16.666666666666668
-100.0   150.0   16.666666666666668
-100.0   120.0   0.0
-150.0   150.0   0.0
-150.0   120.0   16.666666666666668
-100.0   120.0   16.666666666666668
-150.0   150.0   16.666666666666668
-150.0   120.0   33.333333333333336
-100.0   120.0   16.666666666666668
-100.0   150.0   16.666666666666668
-150.0   150.0   16.666666666666668
-100.0   150.0   33.333333333333336
-150.0   120.0   33.333333333333336
-150.0   150.0   33.333333333333336
-100.0   150.0   33.333333333333336
-150.0   150.0   16.666666666666668
-150.0   120.0   33.333333333333336
-100.0   150.0   33.333333333333336
-100.0   120.0   33.333333333333336
-100.0   120.0   16.666666666666668
-150.0   120.0   33.333333333333336
-100.0   150.0   33.333333333333336
-100.0   120.0   16.666666666666668
-150.0   150.0   16.666666666666668
-150.0   120.0   33.333333333333336
-100.0   120.0   33.333333333333336
-150.0   150.0   33.333333333333336
-150.0   120.0   50.0
-100.0   120.0   33.333333333333336
-100.0   150.0   33.333333333333336
-150.0   150.0   33.333333333333336
-100.0   150.0   50.0
-150.0   120.0   50.0
-150.0   150.0   50.0
-100.0   150.0   50.0
-150.0   150.0   33.333333333333336
-150.0   120.0   50.0
-100.0   150.0   50.0
-100.0   120.0   50.0
-100.0   120.0   33.333333333333336
-150.0   120.0   50.0
-100.0   150.0   50.0
-100.0   120.0   33.333333333333336
-150.0   150.0   33.333333333333336
-100.0   0.0   0.0
-50.0   0.0   0.0
-100.0   30.0   0.0
-100.0   0.0   16.666666666666668
-50.0   0.0   0.0
-50.0   30.0   0.0
-100.0   30.0   0.0
-50.0   30.0   16.666666666666668
-100.0   0.0   16.666666666666668
-100.0   30.0   16.666666666666668
-50.0   30.0   16.666666666666668
-100.0   30.0   0.0
-100.0   0.0   16.666666666666668
-50.0   30.0   16.666666666666668
-50.0   0.0   16.666666666666668
-50.0   0.0   0.0
-100.0   0.0   16.666666666666668
-50.0   30.0   16.666666666666668
-50.0   0.0   0.0
-100.0   30.0   0.0
-100.0   0.0   16.666666666666668
-50.0   0.0   16.666666666666668
-100.0   30.0   16.666666666666668
-100.0   0.0   33.333333333333336
-50.0   0.0   16.666666666666668
-50.0   30.0   16.666666666666668
-100.0   30.0   16.666666666666668
-50.0   30.0   33.333333333333336
-100.0   0.0   33.333333333333336
-100.0   30.0   33.333333333333336
-50.0   30.0   33.333333333333336
-100.0   30.0   16.666666666666668
-100.0   0.0   33.333333333333336
-50.0   30.0   33.333333333333336
-50.0   0.0   33.333333333333336
-50.0   0.0   16.666666666666668
-100.0   0.0   33.333333333333336
-50.0   30.0   33.333333333333336
-50.0   0.0   16.666666666666668
-100.0   30.0   16.666666666666668
-100.0   0.0   33.333333333333336
-50.0   0.0   33.333333333333336
-100.0   30.0   33.333333333333336
-100.0   0.0   50.0
-50.0   0.0   33.333333333333336
-50.0   30.0   33.333333333333336
-100.0   30.0   33.333333333333336
-50.0   30.0   50.0
-100.0   0.0   50.0
-100.0   30.0   50.0
-50.0   30.0   50.0
-100.0   30.0   33.333333333333336
-100.0   0.0   50.0
-50.0   30.0   50.0
-50.0   0.0   50.0
-50.0   0.0   33.333333333333336
-100.0   0.0   50.0
-50.0   30.0   50.0
-50.0   0.0   33.333333333333336
-100.0   30.0   33.333333333333336
-100.0   30.0   0.0
-50.0   30.0   0.0
-100.0   60.0   0.0
-100.0   30.0   16.666666666666668
-50.0   30.0   0.0
-50.0   60.0   0.0
-100.0   60.0   0.0
-50.0   60.0   16.666666666666668
-100.0   30.0   16.666666666666668
-100.0   60.0   16.666666666666668
-50.0   60.0   16.666666666666668
-100.0   60.0   0.0
-100.0   30.0   16.666666666666668
-50.0   60.0   16.666666666666668
-50.0   30.0   16.666666666666668
-50.0   30.0   0.0
-100.0   30.0   16.666666666666668
-50.0   60.0   16.666666666666668
-50.0   30.0   0.0
-100.0   60.0   0.0
-100.0   30.0   16.666666666666668
-50.0   30.0   16.666666666666668
-100.0   60.0   16.666666666666668
-100.0   30.0   33.333333333333336
-50.0   30.0   16.666666666666668
-50.0   60.0   16.666666666666668
-100.0   60.0   16.666666666666668
-50.0   60.0   33.333333333333336
-100.0   30.0   33.333333333333336
-100.0   60.0   33.333333333333336
-50.0   60.0   33.333333333333336
-100.0   60.0   16.666666666666668
-100.0   30.0   33.333333333333336
-50.0   60.0   33.333333333333336
-50.0   30.0   33.333333333333336
-50.0   30.0   16.666666666666668
-100.0   30.0   33.333333333333336
-50.0   60.0   33.333333333333336
-50.0   30.0   16.666666666666668
-100.0   60.0   16.666666666666668
-100.0   30.0   33.333333333333336
-50.0   30.0   33.333333333333336
-100.0   60.0   33.333333333333336
-100.0   30.0   50.0
-50.0   30.0   33.333333333333336
-50.0   60.0   33.333333333333336
-100.0   60.0   33.333333333333336
-50.0   60.0   50.0
-100.0   30.0   50.0
-100.0   60.0   50.0
-50.0   60.0   50.0
-100.0   60.0   33.333333333333336
-100.0   30.0   50.0
-50.0   60.0   50.0
-50.0   30.0   50.0
-50.0   30.0   33.333333333333336
-100.0   30.0   50.0
-50.0   60.0   50.0
-50.0   30.0   33.333333333333336
-100.0   60.0   33.333333333333336
-100.0   60.0   0.0
-50.0   60.0   0.0
-100.0   90.0   0.0
-100.0   60.0   16.666666666666668
-50.0   60.0   0.0
-50.0   90.0   0.0
-100.0   90.0   0.0
-50.0   90.0   16.666666666666668
-100.0   60.0   16.666666666666668
-100.0   90.0   16.666666666666668
-50.0   90.0   16.666666666666668
-100.0   90.0   0.0
-100.0   60.0   16.666666666666668
-50.0   90.0   16.666666666666668
-50.0   60.0   16.666666666666668
-50.0   60.0   0.0
-100.0   60.0   16.666666666666668
-50.0   90.0   16.666666666666668
-50.0   60.0   0.0
-100.0   90.0   0.0
-100.0   60.0   16.666666666666668
-50.0   60.0   16.666666666666668
-100.0   90.0   16.666666666666668
-100.0   60.0   33.333333333333336
-50.0   60.0   16.666666666666668
-50.0   90.0   16.666666666666668
-100.0   90.0   16.666666666666668
-50.0   90.0   33.333333333333336
-100.0   60.0   33.333333333333336
-100.0   90.0   33.333333333333336
-50.0   90.0   33.333333333333336
-100.0   90.0   16.666666666666668
-100.0   60.0   33.333333333333336
-50.0   90.0   33.333333333333336
-50.0   60.0   33.333333333333336
-50.0   60.0   16.666666666666668
-100.0   60.0   33.333333333333336
-50.0   90.0   33.333333333333336
-50.0   60.0   16.666666666666668
-100.0   90.0   16.666666666666668
-100.0   60.0   33.333333333333336
-50.0   60.0   33.333333333333336
-100.0   90.0   33.333333333333336
-100.0   60.0   50.0
-50.0   60.0   33.333333333333336
-50.0   90.0   33.333333333333336
-100.0   90.0   33.333333333333336
-50.0   90.0   50.0
-100.0   60.0   50.0
-100.0   90.0   50.0
-50.0   90.0   50.0
-100.0   90.0   33.333333333333336
-100.0   60.0   50.0
-50.0   90.0   50.0
-50.0   60.0   50.0
-50.0   60.0   33.333333333333336
-100.0   60.0   50.0
-50.0   90.0   50.0
-50.0   60.0   33.333333333333336
-100.0   90.0   33.333333333333336
-100.0   90.0   0.0
-50.0   90.0   0.0
-100.0   120.0   0.0
-100.0   90.0   16.666666666666668
-50.0   90.0   0.0
-50.0   120.0   0.0
-100.0   120.0   0.0
-50.0   120.0   16.666666666666668
-100.0   90.0   16.666666666666668
-100.0   120.0   16.666666666666668
-50.0   120.0   16.666666666666668
-100.0   120.0   0.0
-100.0   90.0   16.666666666666668
-50.0   120.0   16.666666666666668
-50.0   90.0   16.666666666666668
-50.0   90.0   0.0
-100.0   90.0   16.666666666666668
-50.0   120.0   16.666666666666668
-50.0   90.0   0.0
-100.0   120.0   0.0
-100.0   90.0   16.666666666666668
-50.0   90.0   16.666666666666668
-100.0   120.0   16.666666666666668
-100.0   90.0   33.333333333333336
-50.0   90.0   16.666666666666668
-50.0   120.0   16.666666666666668
-100.0   120.0   16.666666666666668
-50.0   120.0   33.333333333333336
-100.0   90.0   33.333333333333336
-100.0   120.0   33.333333333333336
-50.0   120.0   33.333333333333336
-100.0   120.0   16.666666666666668
-100.0   90.0   33.333333333333336
-50.0   120.0   33.333333333333336
-50.0   90.0   33.333333333333336
-50.0   90.0   16.666666666666668
-100.0   90.0   33.333333333333336
-50.0   120.0   33.333333333333336
-50.0   90.0   16.666666666666668
-100.0   120.0   16.666666666666668
-100.0   90.0   33.333333333333336
-50.0   90.0   33.333333333333336
-100.0   120.0   33.333333333333336
-100.0   90.0   50.0
-50.0   90.0   33.333333333333336
-50.0   120.0   33.333333333333336
-100.0   120.0   33.333333333333336
-50.0   120.0   50.0
-100.0   90.0   50.0
-100.0   120.0   50.0
-50.0   120.0   50.0
-100.0   120.0   33.333333333333336
-100.0   90.0   50.0
-50.0   120.0   50.0
-50.0   90.0   50.0
-50.0   90.0   33.333333333333336
-100.0   90.0   50.0
-50.0   120.0   50.0
-50.0   90.0   33.333333333333336
-100.0   120.0   33.333333333333336
-100.0   120.0   0.0
-50.0   120.0   0.0
-100.0   150.0   0.0
-100.0   120.0   16.666666666666668
-50.0   120.0   0.0
-50.0   150.0   0.0
-100.0   150.0   0.0
-50.0   150.0   16.666666666666668
-100.0   120.0   16.666666666666668
-100.0   150.0   16.666666666666668
-50.0   150.0   16.666666666666668
-100.0   150.0   0.0
-100.0   120.0   16.666666666666668
-50.0   150.0   16.666666666666668
-50.0   120.0   16.666666666666668
-50.0   120.0   0.0
-100.0   120.0   16.666666666666668
-50.0   150.0   16.666666666666668
-50.0   120.0   0.0
-100.0   150.0   0.0
-100.0   120.0   16.666666666666668
-50.0   120.0   16.666666666666668
-100.0   150.0   16.666666666666668
-100.0   120.0   33.333333333333336
-50.0   120.0   16.666666666666668
-50.0   150.0   16.666666666666668
-100.0   150.0   16.666666666666668
-50.0   150.0   33.333333333333336
-100.0   120.0   33.333333333333336
-100.0   150.0   33.333333333333336
-50.0   150.0   33.333333333333336
-100.0   150.0   16.666666666666668
-100.0   120.0   33.333333333333336
-50.0   150.0   33.333333333333336
-50.0   120.0   33.333333333333336
-50.0   120.0   16.666666666666668
-100.0   120.0   33.333333333333336
-50.0   150.0   33.333333333333336
-50.0   120.0   16.666666666666668
-100.0   150.0   16.666666666666668
-100.0   120.0   33.333333333333336
-50.0   120.0   33.333333333333336
-100.0   150.0   33.333333333333336
-100.0   120.0   50.0
-50.0   120.0   33.333333333333336
-50.0   150.0   33.333333333333336
-100.0   150.0   33.333333333333336
-50.0   150.0   50.0
-100.0   120.0   50.0
-100.0   150.0   50.0
-50.0   150.0   50.0
-100.0   150.0   33.333333333333336
-100.0   120.0   50.0
-50.0   150.0   50.0
-50.0   120.0   50.0
-50.0   120.0   33.333333333333336
-100.0   120.0   50.0
-50.0   150.0   50.0
-50.0   120.0   33.333333333333336
-100.0   150.0   33.333333333333336
-50.0   0.0   0.0
0.0   0.0   0.0
-50.0   30.0   0.0
-50.0   0.0   16.666666666666668
0.0   0.0   0.0
0.0   30.0   0.0
-50.0   30.0   0.0
0.0   30.0   16.666666666666668
-50.0   0.0   16.666666666666668
-50.0   30.0   16.666666666666668
0.0   30.0   16.666666666666668
-50.0   30.0   0.0
-50.0   0.0   16.666666666666668
0.0   30.0   16.666666666666668
0.0   0.0   16.666666666666668
0.0   0.0   0.0
-50.0   0.0   16.666666666666668
0.0   30.0   16.666666666666668
0.0   0.0   0.0
-50.0   30.0   0.0
-50.0   0.0   16.666666666666668
0.0   0.0   16.666666666666668
-50.0   30.0   16.666666666666668
-50.0   0.0   33.333333333333336
0.0   0.0   16.666666666666668
0.0   30.0   16.666666666666668
-50.0   30.0   16.666666666666668
0.0   30.0   33.333333333333336
-50.0   0.0   33.333333333333336
-50.0   30.0   33.333333333333336
0.0   30.0   33.333333333333336
-50.0   30.0   16.666666666666668
-50.0   0.0   33.333333333333336
0.0   30.0   33.333333333333336
0.0   0.0   33.333333333333336
0.0   0.0   16.666666666666668
-50.0   0.0   33.333333333333336
0.0   30.0   33.333333333333336
0.0   0.0   16.666666666666668
-50.0   30.0   16.666666666666668
-50.0   0.0   33.333333333333336
0.0   0.0   33.333333333333336
-50.0   30.0   33.333333333333336
-50.0   0.0   50.0
0.0   0.0   33.333333333333336
0.0   30.0   33.333333333333336
-50.0   30.0   33.333333333333336
0.0   30.0   50.0
-50.0   0.0   50.0
-50.0   30.0   50.0
0.0   30.0   50.0
-50.0   30.0   33.333333333333336
-50.0   0.0   50.0
0.0   30.0   50.0
0.0   0.0   50.0
0.0   0.0   33.333333333333336
-50.0   0.0   50.0
0.0   30.0   50.0
0.0   0.0   33.333333333333336
-50.0   30.0   33.333333333333336
-50.0   30.0   0.0
0.0   30.0   0.0
-50.0   60.0   0.0
-50.0   30.0   16.666666666666668
0.0   30.0   0.0
0.0   60.0   0.0
-50.0   60.0   0.0
0.0   60.0   16.666666666666668
-50.0   30.0   16.666666666666668
-50.0   60.0   16.666666666666668
0.0   60.0   16.666666666666668
-50.0   60.0   0.0
-50.0   30.0   16.666666666666668
0.0   60.0   16.666666666666668
0.0   30.0   16.666666666666668
0.0   30.0   0.0
-50.0   30.0   16.666666666666668
0.0   60.0   16.666666666666668
0.0   30.0   0.0
-50.0   60.0   0.0
-50.0   30.0   16.666666666666668
0.0   30.0   16.666666666666668
-50.0   60.0   16.666666666666668
-50.0   30.0   33.333333333333336
0.0   30.0   16.666666666666668
0.0   60.0   16.666666666666668
-50.0   60.0   16.666666666666668
0.0   60.0   33.333333333333336
-50.0   30.0   33.333333333333336
-50.0   60.0   33.333333333333336
0.0   60.0   33.333333333333336
-50.0   60.0   16.666666666666668
-50.0   30.0   33.333333333333336
0.0   60.0   33.333333333333336
0.0   30.0   33.333333333333336
0.0   30.0   16.666666666666668
-50.0   30.0   33.333333333333336
0.0   60.0   33.333333333333336
0.0   30.0   16.666666666666668
-50.0   60.0   16.666666666666668
-50.0   30.0   33.333333333333336
0.0   30.0   33.333333333333336
-50.0   60.0   33.333333333333336
-50.0   30.0   50.0
0.0   30.0   33.333333333333336
0.0   60.0   33.333333333333336
-50.0   60.0   33.333333333333336
0.0   60.0   50.0
-50.0   30.0   50.0
-50.0   60.0   50.0
0.0   60.0   50.0
-50.0   60.0   33.333333333333336
-50.0   30.0   50.0
0.0   60.0   50.0
0.0   30.0   50.0
0.0   30.0   33.333333333333336
-50.0   30.0   50.0
0.0   60.0   50.0
0.0   30.0   33.333333333333336
-50.0   60.0   33.333333333333336
-50.0   60.0   0.0
0.0   60.0   0.0
-50.0   90.0   0.0
-50.0   60.0   16.666666666666668
0.0   60.0   0.0
0.0   90.0   0.0
-50.0   90.0   0.0
0.0   90.0   16.666666666666668
-50.0   60.0   16.666666666666668
-50.0   90.0   16.666666666666668
0.0   90.0   16.666666666666668
-50.0   90.0   0.0
-50.0   60.0   16.666666666666668
0.0   90.0   16.666666666666668
0.0   60.0   16.666666666666668
0.0   60.0   0.0
-50.0   60.0   16.666666666666668
0.0   90.0   16.666666666666668
0.0   60.0   0.0
-50.0   90.0   0.0
-50.0   60.0   16.666666666666668
0.0   60.0   16.666666666666668
-50.0   90.0   16.666666666666668
-50.0   60.0   33.333333333333336
0.0   60.0   16.666666666666668
0.0   90.0   16.666666666666668
-50.0   90.0   16.666666666666668
0.0   90.0   33.333333333333336
-50.0   60.0   33.333333333333336
-50.0   90.0   33.333333333333336
0.0   90.0   33.333333333333336
-50.0   90.0   16.666666666666668
-50.0   60.0   33.333333333333336
0.0   90.0   33.333333333333336
0.0   60.0   33.333333333333336
0.0   60.0   16.666666666666668
-50.0   60.0   33.333333333333336
0.0   90.0   33.333333333333336
0.0   60.0   16.666666666666668
-50.0   90.0   16.666666666666668
-50.0   60.0   33.333333333333336
0.0   60.0   33.333333333333336
-50.0   90.0   33.333333333333336
-50.0   60.0   50.0
0.0   60.0   33.333333333333336
0.0   90.0   33.333333333333336
-50.0   90.0   33.333333333333336
0.0   90.0   50.0
-50.0   60.0   50.0
-50.0   90.0   50.0
0.0   90.0   50.0
-50.0   90.0   33.333333333333336
-50.0   60.0   50.0
0.0   90.0   50.0
0.0   60.0   50.0
0.0   60.0   33.333333333333336
-50.0   60.0   50.0
0.0   90.0   50.0
0.0   60.0   33.333333333333336
-50.0   90.0   33.333333333333336
-50.0   90.0   0.0
0.0   90.0   0.0
-50.0   120.0   0.0
-50.0   90.0   16.666666666666668
0.0   90.0   0.0
0.0   120.0   0.0
-50.0   120.0   0.0
0.0   120.0   16.666666666666668
-50.0   90.0   16.666666666666668
-50.0   120.0   16.666666666666668
0.0   120.0   16.666666666666668
-50.0   120.0   0.0
-50.0   90.0   16.666666666666668
0.0   120.0   16.666666666666668
0.0   90.0   16.666666666666668
0.0   90.0   0.0
-50.0   90.0   16.666666666666668
0.0   120.0   16.666666666666668
0.0   90.0   0.0
-50.0   120.0   0.0
-50.0   90.0   16.666666666666668
0.0   90.0   16.666666666666668
-50.0   120.0   16.666666666666668
-50.0   90.0   33.333333333333336
0.0   90.0   16.666666666666668
0.0   120.0   16.666666666666668
-50.0   120.0   16.666666666666668
0.0   120.0   33.333333333333336
-50.0   90.0   33.333333333333336
-50.0   120.0   33.333333333333336
0.0   120.0   33.333333333333336
-50.0   120.0   16.666666666666668
-50.0   90.0   33.333333333333336
0.0   120.0   33.333333333333336
0.0   90.0   33.333333333333336
0.0   90.0   16.666666666666668
-50.0   90.0   33.333333333333336
0.0   120.0   33.333333333333336
0.0   90.0   16.666666666666668
-50.0   120.0   16.666666666666668
-50.0   90.0   33.333333333333336
0.0   90.0   33.333333333333336
-50.0   120.0   33.333333333333336
-50.0   90.0   50.0
0.0   90.0   33.333333333333336
0.0   120.0   33.333333333333336
-50.0   120.0   33.333333333333336
0.0   120.0   50.0
-50.0   90.0   50.0
-50.0   120.0   50.0
0.0   120.0   50.0
-50.0   120.0   33.333333333333336
-50.0   90.0   50.0
0.0   120.0   50.0
0.0   90.0   50.0
0.0   90.0   33.333333333333336
-50.0   90.0   50.0
0.0   120.0   50.0
0.0   90.0   33.333333333333336
-50.0   120.0   33.333333333333336
-50.0   120.0   0.0
0.0   120.0   0.0
-50.0   150.0   0.0
-50.0   120.0   16.666666666666668
0.0   120.0   0.0
0.0   150.0   0.0
-50.0   150.0   0.0
0.0   150.0   16.666666666666668
-50.0   120.0   16.666666666666668
-50.0   150.0   16.666666666666668
0.0   150.0   16.666666666666668
-50.0   150.0   0.0
-50.0   120.0   16.666666666666668
0.0   150.0   16.666666666666668
0.0   120.0   16.666666666666668
0.0   120.0   0.0
-50.0   120.0   16.666666666666668
0.0   150.0   16.666666666666668
0.0   120.0   0.0
-50.0   150.0   0.0
-50.0   120.0   16.666666666666668
0.0   120.0   16.666666666666668
-50.0   150.0   16.666666666666668
-50.0   120.0   33.333333333333336
0.0   120.0   16.666666666666668
0.0   150.0   16.666666666666668
-50.0   150.0   16.666666666666668
0.0   150.0   33.333333333333336
-50.0   120.0   33.333333333333336
-50.0   150.0   33.333333333333336
0.0   150.0   33.333333333333336
-50.0   150.0   16.666666666666668
-50.0   120.0   33.333333333333336
0.0   150.0   33.333333333333336
0.0   120.0   33.333333333333336
0.0   120.0   16.666666666666668
-50.0   120.0   33.333333333333336
0.0   150.0   33.333333333333336
0.0   120.0   16.666666666666668
-50.0   150.0   16.666666666666668
-50.0   120.0   33.333333333333336
0.0   120.0   33.333333333333336
-50.0   150.0   33.333333333333336
-50.0   120.0   50.0
0.0   120.0   33.333333333333336
0.0   150.0   33.333333333333336
-50.0   150.0   33.333333333333336
0.0   150.0   50.0
-50.0   120.0   50.0
-50.0   150.0   50.0
0.0   150.0   50.0
-50.0   150.0   33.333333333333336
-50.0   120.0   50.0
0.0   150.0   50.0
0.0   120.0   50.0
0.0   120.0   33.333333333333336
-50.0   120.0   50.0
0.0   150.0   50.0
0.0   120.0   33.333333333333336
-50.0   150.0   33.333333333333336
0.0   0.0   0.0
50.0   0.0   0.0
0.0   30.0   0.0
0.0   0.0   16.666666666666668
50.0   0.0   0.0
50.0   30.0   0.0
0.0   30.0   0.0
50.0   30.0   16.666666666666668
0.0   0.0   16.666666666666668
0.0   30.0   16.666666666666668
50.0   30.0   16.666666666666668
0.0   30.0   0.0
0.0   0.0   16.666666666666668
50.0   30.0   16.666666666666668
50.0   0.0   16.666666666666668
50.0   0.0   0.0
0.0   0.0   16.666666666666668
50.0   30.0   16.666666666666668
50.0   0.0   0.0
0.0   30.0   0.0
0.0   0.0   16.666666666666668
50.0   0.0   16.666666666666668
0.0   30.0   16.666666666666668
0.0   0.0   33.333333333333336
50.0   0.0   16.666666666666668
50.0   30.0   16.666666666666668
0.0   30.0   16.666666666666668
50.0   30.0   33.333333333333336
0.0   0.0   33.333333333333336
0.0   30.0   33.333333333333336
50.0   30.0   33.333333333333336
0.0   30.0   16.666666666666668
0.0   0.0   33.333333333333336
50.0   30.0   33.333333333333336
50.0   0.0   33.333333333333336
50.0   0.0   16.666666666666668
0.0   0.0   33.333333333333336
50.0   30.0   33.333333333333336
50.0   0.0   16.666666666666668
0.0   30.0   16.666666666666668
0.0   0.0   33.333333333333336
50.0   0.0   33.333333333333336
0.0   30.0   33.333333333333336
0.0   0.0   50.0
50.0   0.0   33.333333333333336
50.0   30.0   33.333333333333336
0.0   30.0   33.333333333333336
50.0   30.0   50.0
0.0   0.0   50.0
0.0   30.0   50.0
50.0   30.0   50.0
0.0   30.0   33.333333333333336
0.0   0.0   50.0
50.0   30.0   50.0
50.0   0.0   50.0
50.0   0.0   33.333333333333336
0.0   0.0   50.0
50.0   30.0   50.0
50.0   0.0   33.333333333333336
0.0   30.0   33.333333333333336
0.0   30.0   0.0
50.0   30.0   0.0
0.0   60.0   0.0
0.0   30.0   16.666666666666668
50.0   30.0   0.0
50.0   60.0   0.0
0.0   60.0   0.0
50.0   60.0   16.666666666666668
0.0   30.0   16.666666666666668
0.0   60.0   16.666666666666668
50.0   60.0   16.666666666666668
0.0   60.0   0.0
0.0   30.0   16.666666666666668
50.0   60.0   16.666666666666668
50.0   30.0   16.666666666666668
50.0   30.0   0.0
0.0   30.0   16.666666666666668
50.0   60.0   16.666666666666668
50.0   30.0   0.0
0.0   60.0   0.0
0.0   30.0   16.666666666666668
50.0   30.0   16.666666666666668
0.0   60.0   16.666666666666668
0.0   30.0   33.333333333333336
50.0   30.0   16.666666666666668
50.0   60.0   16.666666666666668
0.0   60.0   16.666666666666668
50.0   60.0   33.333333333333336
0.0   30.0   33.333333333333336
0.0   60.0   33.333333333333336
50.0   60.0   33.333333333333336
0.0   60.0   16.666666666666668
0.0   30.0   33.333333333333336
50.0   60.0   33.333333333333336
50.0   30.0   33.333333333333336
50.0   30.0   16.666666666666668
0.0   30.0   33.333333333333336
50.0   60.0   33.333333333333336
50.0   30.0   16.666666666666668
0.0   60.0   16.666666666666668
0.0   30.0   33.333333333333336
50.0   30.0   33.333333333333336
0.0   60.0   33.333333333333336
0.0   30.0   50.0
50.0   30.0   33.333333333333336
50.0   60.0   33.333333333333336
0.0   60.0   33.333333333333336
50.0   60.0   50.0
0.0   30.0   50.0
0.0   60.0   50.0
50.0   60.0   50.0
0.0   60.0   33.333333333333336
0.0   30.0   50.0
50.0   60.0   50.0
50.0   30.0   50.0
50.0   30.0   33.333333333333336
0.0   30.0   50.0
50.0   60.0   50.0
50.0   30.0   33.333333333333336
0.0   60.0   33.333333333333336
0.0   60.0   0.0
50.0   60.0   0.0
0.0   90.0   0.0
0.0   60.0   16.666666666666668
50.0   60.0   0.0
50.0   90.0   0.0
0.0   90.0   0.0
50.0   90.0   16.666666666666668
0.0   60.0   16.666666666666668
0.0   90.0   16.666666666666668
50.0   90.0   16.666666666666668
0.0   90.0   0.0
0.0   60.0   16.666666666666668
50.0   90.0   16.666666666666668
50.0   60.0   16.666666666666668
50.0   60.0   0.0
0.0   60.0   16.666666666666668
50.0   90.0   16.666666666666668
50.0   60.0   0.0
0.0   90.0   0.0
0.0   60.0   16.666666666666668
50.0   60.0   16.666666666666668
0.0   90.0   16.666666666666668
0.0   60.0   33.333333333333336
50.0   60.0   16.666666666666668
50.0   90.0   16.666666666666668
0.0   90.0   16.666666666666668
50.0   90.0   33.333333333333336
0.0   60.0   33.333333333333336
0.0   90.0   33.333333333333336
50.0   90.0   33.333333333333336
0.0   90.0   16.666666666666668
0.0   60.0   33.333333333333336
50.0   90.0   33.333333333333336
50.0   60.0   33.333333333333336
50.0   60.0   16.666666666666668
0.0   60.0   33.333333333333336
50.0   90.0   33.333333333333336
50.0   60.0   16.666666666666668
0.0   90.0   16.666666666666668
0.0   60.0   33.333333333333336
50.0   60.0   33.333333333333336
0.0   90.0   33.333333333333336
0.0   60.0   50.0
50.0   60.0   33.333333333333336
50.0   90.0   33.333333333333336
0.0   90.0   33.333333333333336
50.0   90.0   50.0
0.0   60.0   50.0
0.0   90.0   50.0
50.0   90.0   50.0
0.0   90.0   33.333333333333336
0.0   60.0   50.0
50.0   90.0   50.0
50.0   60.0   50.0
50.0   60.0   33.333333333333336
0.0   60.0   50.0
50.0   90.0   50.0
50.0   60.0   33.333333333333336
0.0   90.0   33.333333333333336
0.0   90.0   0.0
50.0   90.0   0.0
0.0   120.0   0.0
0.0   90.0   16.666666666666668
50.0   90.0   0.0
50.0   120.0   0.0
0.0   120.0   0.0
50.0   120.0   16.666666666666668
0.0   90.0   16.666666666666668
0.0   120.0   16.666666666666668
50.0   120.0   16.666666666666668
0.0   120.0   0.0
0.0   90.0   16.666666666666668
50.0   120.0   16.666666666666668
50.0   90.0   16.666666666666668
50.0   90.0   0.0
0.0   90.0   16.666666666666668
50.0   120.0   16.666666666666668
50.0   90.0   0.0
0.0   120.0   0.0
0.0   90.0   16.666666666666668
50.0   90.0   16.666666666666668
0.0   120.0   16.666666666666668
0.0   90.0   33.333333333333336
50.0   90.0   16.666666666666668
50.0   120.0   16.666666666666668
0.0   120.0   16.666666666666668
50.0   120.0   33.333333333333336
0.0   90.0   33.333333333333336
0.0   120.0   33.333333333333336
50.0   120.0   33.333333333333336
0.0   120.0   16.666666666666668
0.0   90.0   33.333333333333336
50.0   120.0   33.333333333333336
50.0   90.0   33.333333333333336
50.0   90.0   16.666666666666668
0.0   90.0   33.333333333333336
50.0   120.0   33.333333333333336
50.0   90.0   16.666666666666668
0.0   120.0   16.666666666666668
0.0   90.0   33.333333333333336
50.0   90.0   33.333333333333336
0.0   120.0   33.333333333333336
0.0   90.0   50.0
50.0   90.0   33.333333333333336
50.0   120.0   33.333333333333336
0.0   120.0   33.333333333333336
50.0   120.0   50.0
0.0   90.0   50.0
0.0   120.0   50.0
50.0   120.0   50.0
0.0   120.0   33.333333333333336
0.0   90.0   50.0
50.0   120.0   50.0
50.0   90.0   50.0
50.0   90.0   33.333333333333336
0.0   90.0   50.0
50.0   120.0   50.0
50.0   90.0   33.333333333333336
0.0   120.0   33.333333333333336
0.0   120.0   0.0
50.0   120.0   0.0
0.0   150.0   0.0
0.0   120.0   16.666666666666668
50.0   120.0   0.0
50.0   150.0   0.0
0.0   150.0   0.0
50.0   150.0   16.666666666666668
0.0   120.0   16.666666666666668
0.0   150.0   16.666666666666668
50.0   150.0   16.666666666666668
0.0   150.0   0.0
0.0   120.0   16.666666666666668
50.0   150.0   16.666666666666668
50.0   120.0   16.666666666666668
50.0   120.0   0.0
0.0   120.0   16.666666666666668
50.0   150.0   16.666666666666668
50.0   120.0   0.0
0.0   150.0   0.0
0.0   120.0   16.666666666666668
50.0   120.0   16.666666666666668
0.0   150.0   16.666666666666668
0.0   120.0   33.333333333333336
50.0   120.0   16.666666666666668
50.0   150.0   16.666666666666668
0.0   150.0   16.666666666666668
50.0   150.0   33.333333333333336
0.0   120.0   33.333333333333336
0.0   150.0   33.333333333333336
50.0   150.0   33.333333333333336
0.0   150.0   16.666666666666668
0.0   120.0   33.333333333333336
50.0   150.0   33.333333333333336
50.0   120.0   33.333333333333336
50.0   120.0   16.666666666666668
0.0   120.0   33.333333333333336
50.0   150.0   33.333333333333336
50.0   120.0   16.666666666666668
0.0   150.0   16.666666666666668
0.0   120.0   33.333333333333336
50.0   120.0   33.333333333333336
0.0   150.0   33.333333333333336
0.0   120.0   50.0
50.0   120.0   33.333333333333336
50.0   150.0   33.333333333333336
0.0   150.0   33.333333333333336
50.0   150.0   50.0
0.0   120.0   50.0
0.0   150.0   50.0
50.0   150.0   50.0
0.0   150.0   33.333333333333336
0.0   120.0   50.0
50.0   150.0   50.0
50.0   120.0   50.0
50.0   120.0   33.333333333333336
0.0   120.0   50.0
50.0   150.0   50.0
50.0   120.0   33.333333333333336
0.0   150.0   33.333333333333336
50.0   0.0   0.0
100.0   0.0   0.0
50.0   30.0   0.0
50.0   0.0   16.666666666666668
100.0   0.0   0.0
100.0   30.0   0.0
50.0   30.0   0.0
100.0   30.0   16.666666666666668
50.0   0.0   16.666666666666668
50.0   30.0   16.666666666666668
100.0   30.0   16.666666666666668
50.0   30.0   0.0
50.0   0.0   16.666666666666668
100.0   30.0   16.666666666666668
100.0   0.0   16.666666666666668
100.0   0.0   0.0
50.0   0.0   16.666666666666668
100.0   30.0   16.666666666666668
100.0   0.0   0.0
50.0   30.0   0.0
50.0   0.0   16.666666666666668
100.0   0.0   16.666666666666668
50.0   30.0   16.666666666666668
50.0   0.0   33.333333333333336
100.0   0.0   16.666666666666668
100.0   30.0   16.666666666666668
50.0   30.0   16.666666666666668
100.0   30.0   33.333333333333336
50.0   0.0   33.333333333333336
50.0   30.0   33.333333333333336
100.0   30.0   33.333333333333336
50.0   30.0   16.666666666666668
50.0   0.0   33.333333333333336
100.0   30.0   33.333333333333336
100.0   0.0   33.333333333333336
100.0   0.0   16.666666666666668
50.0   0.0   33.333333333333336
100.0   30.0   33.333333333333336
100.0   0.0   16.666666666666668
50.0   30.0   16.666666666666668
50.0   0.0   33.333333333333336
100.0   0.0   33.333333333333336
50.0   30.0   33.333333333333336
50.0   0.0   50.0
100.0   0.0   33.333333333333336
100.0   30.0   33.333333333333336
50.0   30.0   33.333333333333336
100.0   30.0   50.0
50.0   0.0   50.0
50.0   30.0   50.0
100.0   30.0   50.0
50.0   30.0   33.333333333333336
50.0   0.0   50.0
100.0   30.0   50.0
100.0   0.0   50.0
100.0   0.0   33.333333333333336
50.0   0.0   50.0
100.0   30.0   50.0
100.0   0.0   33.333333333333336
50.0   30.0   33.333333333333336
50.0   30.0   0.0
100.0   30.0   0.0
50.0   60.0   0.0
50.0   30.0   16.666666666666668
100.0   30.0   0.0
100.0   60.0   0.0
50.0   60.0   0.0
100.0   60.0   16.666666666666668
50.0   30.0   16.666666666666668
50.0   60.0   16.666666666666668
100.0   60.0   16.666666666666668
50.0   60.0   0.0
50.0   30.0   16.666666666666668
100.0   60.0   16.666666666666668
100.0   30.0   16.666666666666668
100.0   30.0   0.0
50.0   30.0   16.666666666666668
100.0   60.0   16.666666666666668
100.0   30.0   0.0
50.0   60.0   0.0
50.0   30.0   16.666666666666668
100.0   30.0   16.666666666666668
50.0   60.0   16.666666666666668
50.0   30.0   33.333333333333336
100.0   30.0   16.666666666666668
100.0   60.0   16.666666666666668
50.0   60.0   16.666666666666668
100.0   60.0   33.333333333333336
50.0   30.0   33.333333333333336
50.0   60.0   33.333333333333336
100.0   60.0   33.333333333333336
50.0   60.0   16.666666666666668
50.0   30.0   33.333333333333336
100.0   60.0   33.333333333333336
100.0   30.0   33.333333333333336
100.0   30.0   16.666666666666668
50.0   30.0   33.333333333333336
100.0   60.0   33.333333333333336
100.0   30.0   16.666666666666668
50.0   60.0   16.666666666666668
50.0   30.0   33.333333333333336
100.0   30.0   33.333333333333336
50.0   60.0   33.333333333333336
50.0   30.0   50.0
100.0   30.0   33.333333333333336
100.0   60.0   33.333333333333336
50.0   60.0   33.333333333333336
100.0   60.0   50.0
50.0   30.0   50.0
50.0   60.0   50.0
100.0   60.0   50.0
50.0   60.0   33.333333333333336
50.0   30.0   50.0
100.0   60.0   50.0
100.0   30.0   50.0
100.0   30.0   33.333333333333336
50.0   30.0   50.0
100.0   60.0   50.0
100.0   30.0   33.333333333333336
50.0   60.0   33.333333333333336
50.0   60.0   0.0
100.0   60.0   0.0
50.0   90.0   0.0
50.0   60.0   16.666666666666668
100.0   60.0   0.0
100.0   90.0   0.0
50.0   90.0   0.0
100.0   90.0   16.666666666666668
50.0   60.0   16.666666666666668
50.0   90.0   16.666666666666668
100.0   90.0   16.666666666666668
50.0   90.0   0.0
50.0   60.0   16.666666666666668
100.0   90.0   16.666666666666668
100.0   60.0   16.666666666666668
100.0   60.0   0.0
50.0   60.0   16.666666666666668
100.0   90.0   16.666666666666668
100.0   60.0   0.0
50.0   90.0   0.0
50.0   60.0   16.666666666666668
100.0   60.0   16.666666666666668
50.0   90.0   16.666666666666668
50.0   60.0   33.333333333333336
100.0   60.0   16.666666666666668
100.0   90.0   16.666666666666668
50.0   90.0   16.666666666666668
100.0   90.0   33.333333333333336
50.0   60.0   33.333333333333336
50.0   90.0   33.333333333333336
100.0   90.0   33.333333333333336
50.0   90.0   16.666666666666668
50.0   60.0   33.333333333333336
100.0   90.0   33.333333333333336
100.0   60.0   33.333333333333336
100.0   60.0   16.666666666666668
50.0   60.0   33.333333333333336
100.0   90.0   33.333333333333336
100.0   60.0   16.666666666666668
50.0   90.0   16.666666666666668
50.0   60.0   33.333333333333336
100.0   60.0   33.333333333333336
50.0   90.0   33.333333333333336
50.0   60.0   50.0
100.0   60.0   33.333333333333336
100.0   90.0   33.333333333333336
50.0   90.0   33.333333333333336
100.0   90.0   50.0
50.0   60.0   50.0
50.0   90.0   50.0
100.0   90.0   50.0
50.0   90.0   33.333333333333336
50.0   60.0   50.0
100.0   90.0   50.0
100.0   60.0   50.0
100.0   60.0   33.333333333333336
50.0   60.0   50.0
100.0   90.0   50.0
100.0   60.0   33.333333333333336
50.0   90.0   33.333333333333336
50.0   90.0   0.0
100.0   90.0   0.0
50.0   120.0   0.0
50.0   90.0   16.666666666666668
100.0   90.0   0.0
100.0   120.0   0.0
50.0   120.0   0.0
100.0   120.0   16.666666666666668
50.0   90.0   16.666666666666668
50.0   120.0   16.666666666666668
100.0   120.0   16.666666666666668
50.0   120.0   0.0
50.0   90.0   16.666666666666668
100.0   120.0   16.666666666666668
100.0   90.0   16.666666666666668
100.0   90.0   0.0
50.0   90.0   16.666666666666668
100.0   120.0   16.666666666666668
100.0   90.0   0.0
50.0   120.0   0.0
50.0   90.0   16.666666666666668
100.0   90.0   16.666666666666668
50.0   120.0   16.666666666666668
50.0   90.0   33.333333333333336
100.0   90.0   16.666666666666668
100.0   120.0   16.666666666666668
50.0   120.0   16.666666666666668
100.0   120.0   33.333333333333336
50.0   90.0   33.333333333333336
50.0   120.0   33.333333333333336
100.0   120.0   33.333333333333336
50.0   120.0   16.666666666666668
50.0   90.0   33.333333333333336
100.0   120.0   33.333333333333336
100.0   90.0   33.333333333333336
100.0   90.0   16.666666666666668
50.0   90.0   33.333333333333336
100.0   120.0   33.333333333333336
100.0   90.0   16.666666666666668
50.0   120.0   16.666666666666668
50.0   90.0   33.333333333333336
100.0   90.0   33.333333333333336
50.0   120.0   33.333333333333336
50.0   90.0   50.0
100.0   90.0   33.333333333333336
100.0   120.0   33.333333333333336
50.0   120.0   33.333333333333336
100.0   120.0   50.0
50.0   90.0   50.0
50.0   120.0   50.0
100.0   120.0   50.0
50.0   120.0   33.333333333333336
50.0   90.0   50.0
100.0   120.0   50.0
100.0   90.0   50.0
100.0   90.0   33.333333333333336
50.0   90.0   50.0
100.0   120.0   50.0
100.0   90.0   33.333333333333336
50.0   120.0   33.333333333333336
50.0   120.0   0.0
100.0   120.0   0.0
50.0   150.0   0.0
50.0   120.0   16.666666666666668
100.0   120.0   0.0
100.0   150.0   0.0
50.0   150.0   0.0
100.0   150.0   16.666666666666668
50.0   120.0   16.666666666666668
50.0   150.0   16.666666666666668
100.0   150.0   16.666666666666668
50.0   150.0   0.0
50.0   120.0   16.666666666666668
100.0   150.0   16.666666666666668
100.0   120.0   16.666666666666668
100.0   120.0   0.0
50.0   120.0   16.666666666666668
100.0   150.0   16.666666666666668
100.0   120.0   0.0
50.0   150.0   0.0
50.0   120.0   16.666666666666668
100.0   120.0   16.666666666666668
50.0   150.0   16.666666666666668
50.0   120.0   33.333333333333336
100.0   120.0   16.666666666666668
100.0   150.0   16.666666666666668
50.0   150.0   16.666666666666668
100.0   150.0   33.333333333333336
50.0   120.0   33.333333333333336
50.0   150.0   33.333333333333336
100.0   150.0   33.333333333333336
50.0   150.0   16.666666666666668
50.0   120.0   33.333333333333336
100.0   150.0   33.333333333333336
100.0   120.0   33.333333333333336
100.0   120.0   16.666666666666668
50.0   120.0   33.333333333333336
100.0   150.0   33.333333333333336
100.0   120.0   16.666666666666668
50.0   150.0   16.666666666666668
50.0   120.0   33.333333333333336
100.0   120.0   33.333333333333336
50.0   150.0   33.333333333333336
50.0   120.0   50.0
100.0   120.0   33.333333333333336
100.0   150.0   33.333333333333336
50.0   150.0   33.333333333333336
100.0   150.0   50.0
50.0   120.0   50.0
50.0   150.0   50.0
100.0   150.0   50.0
50.0   150.0   33.333333333333336
50.0   120.0   50.0
100.0   150.0   50.0
100.0   120.0   50.0
100.0   120.0   33.333333333333336
50.0   120.0   50.0
100.0   150.0   50.0
100.0   120.0   33.333333333333336
50.0   150.0   33.333333333333336
100.0   0.0   0.0
150.0   0.0   0.0
100.0   30.0   0.0
100.0   0.0   16.666666666666668
150.0   0.0   0.0
150.0   30.0   0.0
100.0   30.0   0.0
150.0   30.0   16.666666666666668
100.0   0.0   16.666666666666668
100.0   30.0   16.666666666666668
150.0   30.0   16.666666666666668
100.0   30.0   0.0
100.0   0.0   16.666666666666668
150.0   30.0   16.666666666666668
150.0   0.0   16.666666666666668
150.0   0.0   0.0
100.0   0.0   16.666666666666668
150.0   30.0   16.666666666666668
150.0   0.0   0.0
100.0   30.0   0.0
100.0   0.0   16.666666666666668
150.0   0.0   16.666666666666668
100.0   30.0   16.666666666666668
100.0   0.0   33.333333333333336
150.0   0.0   16.666666666666668
150.0   30.0   16.666666666666668
100.0   30.0   16.666666666666668
150.0   30.0   33.333333333333336
100.0   0.0   33.333333333333336
100.0   30.0   33.333333333333336
150.0   30.0   33.333333333333336
100.0   30.0   16.666666666666668
100.0   0.0   33.333333333333336
150.0   30.0   33.333333333333336
150.0   0.0   33.333333333333336
150.0   0.0   16.666666666666668
100.0   0.0   33.333333333333336
150.0   30.0   33.333333333333336
150.0   0.0   16.666666666666668
100.0   30.0   16.666666666666668
100.0   0.0   33.333333333333336
150.0   0.0   33.333333333333336
100.0   30.0   33.333333333333336
100.0   0.0   50.0
150.0   0.0   33.333333333333336
150.0   30.0   33.333333333333336
100.0   30.0   33.333333333333336
150.0   30.0   50.0
100.0   0.0   50.0
100.0   30.0   50.0
150.0   30.0   50.0
100.0   30.0   33.333333333333336
100.0   0.0   50.0
150.0   30.0   50.0
150.0   0.0   50.0
150.0   0.0   33.333333333333336
100.0   0.0   50.0
150.0   30.0   50.0
150.0   0.0   33.333333333333336
100.0   30.0   33.333333333333336
100.0   30.0   0.0
150.0   30.0   0.0
100.0   60.0   0.0
100.0   30.0   16.666666666666668
150.0   30.0   0.0
150.0   60.0   0.0
100.0   60.0   0.0
150.0   60.0   16.666666666666668
100.0   30.0   16.666666666666668
100.0   60.0   16.666666666666668
150.0   60.0   16.666666666666668
100.0   60.0   0.0
100.0   30.0   16.666666666666668
150.0   60.0   16.666666666666668
150.0   30.0   16.666666666666668
150.0   30.0   0.0
100.0   30.0   16.666666666666668
150.0   60.0   16.666666666666668
150.0   30.0   0.0
100.0   60.0   0.0
100.0   30.0   16.666666666666668
150.0   30.0   16.666666666666668
100.0   60.0   16.666666666666668
100.0   30.0   33.333333333333336
150.0   30.0   16.666666666666668
150.0   60.0   16.666666666666668
100.0   60.0   16.666666666666668
150.0   60.0   33.333333333333336
100.0   30.0   33.333333333333336
100.0   60.0   33.333333333333336
150.0   60.0   33.333333333333336
100.0   60.0   16.666666666666668
100.0   30.0   33.333333333333336
150.0   60.0   33.333333333333336
150.0   30.0   33.333333333333336
150.0   30.0   16.666666666666668
100.0   30.0   33.333333333333336
150.0   60.0   33.333333333333336
150.0   30.0   16.666666666666668
100.0   60.0   16.666666666666668
100.0   30.0   33.333333333333336
150.0   30.0   33.333333333333336
100.0   60.0   33.333333333333336
100.0   30.0   50.0
150.0   30.0   33.333333333333336
150.0   60.0   33.333333333333336
100.0   60.0   33.333333333333336
150.0   60.0   50.0
100.0   30.0   50.0
100.0   60.0   50.0
150.0   60.0   50.0
100.0   60.0   33.333333333333336
100.0   30.0   50.0
150.0   60.0   50.0
150.0   30.0   50.0
150.0   30.0   33.333333333333336
100.0   30.0   50.0
150.0   60.0   50.0
150.0   30.0   33.333333333333336
100.0   60.0   33.333333333333336
100.0   60.0   0.0
150.0   60.0   0.0
100.0   90.0   0.0
100.0   60.0   16.666666666666668
150.0   60.0   0.0
150.0   90.0   0.0
100.0   90.0   0.0
150.0   90.0   16.666666666666668
100.0   60.0   16.666666666666668
100.0   90.0   16.666666666666668
150.0   90.0   16.666666666666668
100.0   90.0   0.0
100.0   60.0   16.666666666666668
150.0   90.0   16.666666666666668
150.0   60.0   16.666666666666668
150.0   60.0   0.0
100.0   60.0   16.666666666666668
150.0   90.0   16.666666666666668
150.0   60.0   0.0
100.0   90.0   0.0
100.0   60.0   16.666666666666668
150.0   60.0   16.666666666666668
100.0   90.0   16.666666666666668
100.0   60.0   33.333333333333336
150.0   60.0   16.666666666666668
150.0   90.0   16.666666666666668
100.0   90.0   16.666666666666668
150.0   90.0   33.333333333333336
100.0   60.0   33.333333333333336
100.0   90.0   33.333333333333336
150.0   90.0   33.333333333333336
100.0   90.0   16.666666666666668
100.0   60.0   33.333333333333336
150.0   90.0   33.333333333333336
150.0   60.0   33.333333333333336
150.0   60.0   16.666666666666668
100.0   60.0   33.333333333333336
150.0   90.0   33.333333333333336
150.0   60.0   16.666666666666668
100.0   90.0   16.666666666666668
100.0   60.0   33.333333333333336
150.0   60.0   33.333333333333336
100.0   90.0   33.333333333333336
100.0   60.0   50.0
150.0   60.0   33.333333333333336
150.0   90.0   33.333333333333336
100.0   90.0   33.333333333333336
150.0   90.0   50.0
100.0   60.0   50.0
100.0   90.0   50.0
150.0   90.0   50.0
100.0   90.0   33.333333333333336
100.0   60.0   50.0
150.0   90.0   50.0
150.0   60.0   50.0
150.0   60.0   33.333333333333336
100.0   60.0   50.0
150.0   90.0   50.0
150.0   60.0   33.333333333333336
100.0   90.0   33.333333333333336
100.0   90.0   0.0
150.0   90.0   0.0
100.0   120.0   0.0
100.0   90.0   16.666666666666668
150.0   90.0   0.0
150.0   120.0   0.0
100.0   120.0   0.0
150.0   120.0   16.666666666666668
100.0   90.0   16.666666666666668
100.0   120.0   16.666666666666668
150.0   120.0   16.666666666666668
100.0   120.0   0.0
100.0   90.0   16.666666666666668
150.0   120.0   16.666666666666668
150.0   90.0   16.666666666666668
150.0   90.0   0.0
100.0   90.0   16.666666666666668
150.0   120.0   16.666666666666668
150.0   90.0   0.0
100.0   120.0   0.0
100.0   90.0   16.666666666666668
150.0   90.0   16.666666666666668
100.0   120.0   16.666666666666668
100.0   90.0   33.333333333333336
150.0   90.0   16.666666666666668
150.0   120.0   16.666666666666668
100.0   120.0   16.666666666666668
150.0   120.0   33.333333333333336
100.0   90.0   33.333333333333336
100.0   120.0   33.333333333333336
150.0   120.0   33.333333333333336
100.0   120.0   16.666666666666668
100.0   90.0   33.333333333333336
150.0   120.0   33.333333333333336
150.0   90.0   33.333333333333336
150.0   90.0   16.666666666666668
100.0   90.0   33.333333333333336
150.0   120.0   33.333333333333336
150.0   90.0   16.666666666666668
100.0   120.0   16.666666666666668
100.0   90.0   33.333333333333336
150.0   90.0   33.333333333333336
100.0   120.0   33.333333333333336
100.0   90.0   50.0
150.0   90.0   33.333333333333336
150.0   120.0   33.333333333333336
100.0   120.0   33.333333333333336
150.0   120.0   50.0
100.0   90.0   50.0
100.0   120.0   50.0
150.0   120.0   50.0
100.0   120.0   33.333333333333336
100.0   90.0   50.0
150.0   120.0   50.0
150.0   90.0   50.0
150.0   90.0   33.333333333333336
100.0   90.0   50.0
150.0   120.0   50.0
150.0   90.0   33.333333333333336
100.0   120.0   33.333333333333336
100.0   120.0   0.0
150.0   120.0   0.0
100.0   150.0   0.0
100.0   120.0   16.666666666666668
150.0   120.0   0.0
150.0   150.0   0.0
100.0   150.0   0.0
150.0   150.0   16.666666666666668
100.0   120.0   16.666666666666668
100.0   150.0   16.666666666666668
150.0   150.0   16.666666666666668
100.0   150.0   0.0
100.0   120.0   16.666666666666668
150.0   150.0   16.666666666666668
150.0   120.0   16.666666666666668
150.0   120.0   0.0
100.0   120.0   16.666666666666668
150.0   150.0   16.666666666666668
150.0   120.0   0.0
100.0   150.0   0.0
100.0   120.0   16.666666666666668
150.0   120.0   16.666666666666668
100.0   150.0   16.666666666666668
100.0   120.0   33.333333333333336
150.0   120.0   16.666666666666668
150.0   150.0   16.666666666666668
100.0   150.0   16.666666666666668
150.0   150.0   33.333333333333336
100.0   120.0   33.333333333333336
100.0   150.0   33.333333333333336
150.0   150.0   33.333333333333336
100.0   150.0   16.666666666666668
100.0   120.0   33.333333333333336
150.0   150.0   33.333333333333336
150.0   120.0   33.333333333333336
150.0   120.0   16.666666666666668
100.0   120.0   33.333333333333336
150.0   150.0   33.333333333333336
150.0   120.0   16.666666666666668
100.0   150.0   16.666666666666668
100.0   120.0   33.333333333333336
150.0   120.0   33.333333333333336
100.0   150.0   33.333333333333336
100.0   120.0   50.0
150.0   120.0   33.333333333333336
150.0   150.0   33.333333333333336
100.0   150.0   33.333333333333336
150.0   150.0   50.0
100.0   120.0   50.0
100.0   150.0   50.0
150.0   150.0   50.0
100.0   150.0   33.333333333333336
100.0   120.0   50.0
150.0   150.0   50.0
150.0   120.0   50.0
150.0   120.0   33.333333333333336
100.0   120.0   50.0
150.0   150.0   50.0
150.0   120.0   33.333333333333336
100.0   150.0   33.333333333333336
150.0   0.0   0.0
200.0   0.0   0.0
150.0   30.0   0.0
150.0   0.0   16.666666666666668
200.0   0.0   0.0
200.0   30.0   0.0
150.0   30.0   0.0
200.0   30.0   16.666666666666668
150.0   0.0   16.666666666666668
150.0   30.0   16.666666666666668
200.0   30.0   16.666666666666668
150.0   30.0   0.0
150.0   0.0   16.666666666666668
200.0   30.0   16.666666666666668
200.0   0.0   16.666666666666668
200.0   0.0   0.0
150.0   0.0   16.666666666666668
200.0   30.0   16.666666666666668
200.0   0.0   0.0
150.0   30.0   0.0
150.0   0.0   16.666666666666668
200.0   0.0   16.666666666666668
150.0   30.0   16.666666666666668
150.0   0.0   33.333333333333336
200.0   0.0   16.666666666666668
200.0   30.0   16.666666666666668
150.0   30.0   16.666666666666668
200.0   30.0   33.333333333333336
150.0   0.0   33.333333333333336
150.0   30.0   33.333333333333336
200.0   30.0   33.333333333333336
150.0   30.0   16.666666666666668
150.0   0.0   33.333333333333336
200.0   30.0   33.333333333333336
200.0   0.0   33.333333333333336
200.0   0.0   16.666666666666668
150.0   0.0   33.333333333333336
200.0   30.0   33.333333333333336
200.0   0.0   16.666666666666668
150.0   30.0   16.666666666666668
150.0   0.0   33.333333333333336
200.0   0.0   33.333333333333336
150.0   30.0   33.333333333333336
150.0   0.0   50.0
200.0   0.0   33.333333333333336
200.0   30.0   33.333333333333336
150.0   30.0   33.333333333333336
200.0   30.0   50.0
150.0   0.0   50.0
150.0   30.0   50.0
200.0   30.0   50.0
150.0   30.0   33.333333333333336
150.0   0.0   50.0
200.0   30.0   50.0
200.0   0.0   50.0
200.0   0.0   33.333333333333336
150.0   0.0   50.0
200.0   30.0   50.0
200.0   0.0   33.333333333333336
150.0   30.0   33.333333333333336
150.0   30.0   0.0
200.0   30.0   0.0
150.0   60.0   0.0
150.0   30.0   16.666666666666668
200.0   30.0   0.0
200.0   60.0   0.0
150.0   60.0   0.0
200.0   60.0   16.666666666666668
150.0   30.0   16.666666666666668
150.0   60.0   16.666666666666668
200.0   60.0   16.666666666666668
150.0   60.0   0.0
150.0   30.0   16.666666666666668
200.0   60.0   16.666666666666668
200.0   30.0   16.666666666666668
200.0   30.0   0.0
150.0   30.0   16.666666666666668
200.0   60.0   16.666666666666668
200.0   30.0   0.0
150.0   60.0   0.0
150.0   30.0   16.666666666666668
200.0   30.0   16.666666666666668
150.0   60.0   16.666666666666668
150.0   30.0   33.333333333333336
200.0   30.0   16.666666666666668
200.0   60.0   16.666666666666668
150.0   60.0   16.666666666666668
200.0   60.0   33.333333333333336
150.0   30.0   33.333333333333336
150.0   60.0   33.333333333333336
200.0   60.0   33.333333333333336
150.0   60.0   16.666666666666668
150.0   30.0   33.333333333333336
200.0   60.0   33.333333333333336
200.0   30.0   33.333333333333336
200.0   30.0   16.666666666666668
150.0   30.0   33.333333333333336
200.0   60.0   33.333333333333336
200.0   30.0   16.666666666666668
150.0   60.0   16.666666666666668
150.0   30.0   33.333333333333336
200.0   30.0   33.333333333333336
150.0   60.0   33.333333333333336
150.0   30.0   50.0
200.0   30.0   33.333333333333336
200.0   60.0   33.333333333333336
150.0   60.0   33.333333333333336
200.0   60.0   50.0
150.0   30.0   50.0
150.0   60.0   50.0
200.0   60.0   50.0
150.0   60.0   33.333333333333336
150.0   30.0   50.0
200.0   60.0   50.0
200.0   30.0   50.0
200.0   30.0   33.333333333333336
150.0   30.0   50.0
200.0   60.0   50.0
200.0   30.0   33.333333333333336
150.0   60.0   33.333333333333336
150.0   60.0   0.0
200.0   60.0   0.0
150.0   90.0   0.0
150.0   60.0   16.666666666666668
200.0   60.0   0.0
200.0   90.0   0.0
150.0   90.0   0.0
200.0   90.0   16.666666666666668
150.0   60.0   16.666666666666668
150.0   90.0   16.666666666666668
200.0   90.0   16.666666666666668
150.0   90.0   0.0
150.0   60.0   16.666666666666668
200.0   90.0   16.666666666666668
200.0   60.0   16.666666666666668
200.0   60.0   0.0
150.0   60.0   16.666666666666668
200.0   90.0   16.666666666666668
200.0   60.0   0.0
150.0   90.0   0.0
150.0   60.0   16.666666666666668
200.0   60.0   16.666666666666668
150.0   90.0   16.666666666666668
150.0   60.0   33.333333333333336
200.0   60.0   16.666666666666668
200.0   90.0   16.666666666666668
150.0   90.0   16.666666666666668
200.0   90.0   33.333333333333336
150.0   60.0   33.333333333333336
150.0   90.0   33.333333333333336
200.0   90.0   33.333333333333336
150.0   90.0   16.666666666666668
150.0   60.0   33.333333333333336
200.0   90.0   33.333333333333336
200.0   60.0   33.333333333333336
200.0   60.0   16.666666666666668
150.0   60.0   33.333333333333336
200.0   90.0   33.333333333333336
200.0   60.0   16.666666666666668
150.0   90.0   16.666666666666668
150.0   60.0   33.333333333333336
200.0   60.0   33.333333333333336
150.0   90.0   33.333333333333336
150.0   60.0   50.0
200.0   60.0   33.333333333333336
200.0   90.0   33.333333333333336
150.0   90.0   33.333333333333336
200.0   90.0   50.0
150.0   60.0   50.0
150.0   90.0   50.0
200.0   90.0   50.0
150.0   90.0   33.333333333333336
150.0   60.0   50.0
200.0   90.0   50.0
200.0   60.0   50.0
200.0   60.0   33.333333333333336
150.0   60.0   50.0
200.0   90.0   50.0
200.0   60.0   33.333333333333336
150.0   90.0   33.333333333333336
150.0   90.0   0.0
200.0   90.0   0.0
150.0   120.0   0.0
150.0   90.0   16.666666666666668
200.0   90.0   0.0
200.0   120.0   0.0
150.0   120.0   0.0
200.0   120.0   16.666666666666668
150.0   90.0   16.666666666666668
150.0   120.0   16.666666666666668
200.0   120.0   16.666666666666668
150.0   120.0   0.0
150.0   90.0   16.666666666666668
200.0   120.0   16.666666666666668
200.0   90.0   16.666666666666668
200.0   90.0   0.0
150.0   90.0   16.666666666666668
200.0   120.0   16.666666666666668
200.0   90.0   0.0
150.0   120.0   0.0
150.0   90.0   16.666666666666668
200.0   90.0   16.666666666666668
150.0   120.0   16.666666666666668
150.0   90.0   33.333333333333336
200.0   90.0   16.666666666666668
200.0   120.0   16.666666666666668
150.0   120.0   16.666666666666668
200.0   120.0   33.333333333333336
150.0   90.0   33.333333333333336
150.0   120.0   33.333333333333336
200.0   120.0   33.333333333333336
150.0   120.0   16.666666666666668
150.0   90.0   33.333333333333336
200.0   120.0   33.333333333333336
200.0   90.0   33.333333333333336
200.0   90.0   16.666666666666668
150.0   90.0   33.333333333333336
200.0   120.0   33.333333333333336
200.0   90.0   16.666666666666668
150.0   120.0   16.666666666666668
150.0   90.0   33.333333333333336
200.0   90.0   33.333333333333336
150.0   120.0   33.333333333333336
150.0   90.0   50.0
200.0   90.0   33.333333333333336
200.0   120.0   33.333333333333336
150.0   120.0   33.333333333333336
200.0   120.0   50.0
150.0   90.0   50.0
150.0   120.0   50.0
200.0   120.0   50.0
150.0   120.0   33.333333333333336
150.0   90.0   50.0
200.0   120.0   50.0
200.0   90.0   50.0
200.0   90.0   33.333333333333336
150.0   90.0   50.0
200.0   120.0   50.0
200.0   90.0   33.333333333333336
150.0   120.0   33.333333333333336
150.0   120.0   0.0
200.0   120.0   0.0
150.0   150.0   0.0
150.0   120.0   16.666666666666668
200.0   120.0   0.0
200.0   150.0   0.0
150.0   150.0   0.0
200.0   150.0   16.666666666666668
150.0   120.0   16.666666666666668
150.0   150.0   16.666666666666668
200.0   150.0   16.666666666666668
150.0   150.0   0.0
150.0   120.0   16.666666666666668
200.0   150.0   16.666666666666668
200.0   120.0   16.666666666666668
200.0   120.0   0.0
150.0   120.0   16.666666666666668
200.0   150.0   16.666666666666668
200.0   120.0   0.0
150.0   150.0   0.0
150.0   120.0   16.666666666666668
200.0   120.0   16.666666666666668
150.0   150.0   16.666666666666668
150.0   120.0   33.333333333333336
200.0   120.0   16.666666666666668
200.0   150.0   16.666666666666668
150.0   150.0   16.666666666666668
200.0   150.0   33.333333333333336
150.0   120.0   33.333333333333336
150.0   150.0   33.333333333333336
200.0   150.0   33.333333333333336
150.0   150.0   16.666666666666668
150.0   120.0   33.333333333333336
200.0   150.0   33.333333333333336
200.0   120.0   33.333333333333336
200.0   120.0   16.666666666666668
150.0   120.0   33.333333333333336
200.0   150.0   33.333333333333336
200.0   120.0   16.666666666666668
150.0   150.0   16.666666666666668
150.0   120.0   33.333333333333336
200.0   120.0   33.333333333333336
150.0   150.0   33.333333333333336
150.0   120.0   50.0
200.0   120.0   33.333333333333336
200.0   150.0   33.333333333333336
150.0   150.0   33.333333333333336
200.0   150.0   50.0
150.0   120.0   50.0
150.0   150.0   50.0
200.0   150.0   50.0
150.0   150.0   33.333333333333336
150.0   120.0   50.0
200.0   150.0   50.0
200.0   120.0   50.0
200.0   120.0   33.333333333333336
150.0   120.0   50.0
200.0   150.0   50.0
200.0   120.0   33.333333333333336
150.0   150.0   33.333333333333336
200.0   0.0   0.0
250.0   0.0   0.0
200.0   30.0   0.0
200.0   0.0   16.666666666666668
250.0   0.0   0.0
250.0   30.0   0.0
200.0   30.0   0.0
250.0   30.0   16.666666666666668
200.0   0.0   16.666666666666668
200.0   30.0   16.666666666666668
250.0   30.0   16.666666666666668
200.0   30.0   0.0
200.0   0.0   16.666666666666668
250.0   30.0   16.666666666666668
250.0   0.0   16.666666666666668
250.0   0.0   0.0
200.0   0.0   16.666666666666668
250.0   30.0   16.666666666666668
250.0   0.0   0.0
200.0   30.0   0.0
200.0   0.0   16.666666666666668
250.0   0.0   16.666666666666668
200.0   30.0   16.666666666666668
200.0   0.0   33.333333333333336
250.0   0.0   16.666666666666668
250.0   30.0   16.666666666666668
200.0   30.0   16.666666666666668
250.0   30.0   33.333333333333336
200.0   0.0   33.333333333333336
200.0   30.0   33.333333333333336
250.0   30.0   33.333333333333336
200.0   30.0   16.666666666666668
200.0   0.0   33.333333333333336
250.0   30.0   33.333333333333336
250.0   0.0   33.333333333333336
250.0   0.0   16.666666666666668
200.0   0.0   33.333333333333336
250.0   30.0   33.333333333333336
250.0   0.0   16.666666666666668
200.0   30.0   16.666666666666668
200.0   0.0   33.333333333333336
250.0   0.0   33.333333333333336
200.0   30.0   33.333333333333336
200.0   0.0   50.0
250.0   0.0   33.333333333333336
250.0   30.0   33.333333333333336
200.0   30.0   33.333333333333336
250.0   30.0   50.0
200.0   0.0   50.0
200.0   30.0   50.0
250.0   30.0   50.0
200.0   30.0   33.333333333333336
200.0   0.0   50.0
250.0   30.0   50.0
250.0   0.0   50.0
250.0   0.0   33.333333333333336
200.0   0.0   50.0
250.0   30.0   50.0
250.0   0.0   33.333333333333336
200.0   30.0   33.333333333333336
200.0   30.0   0.0
250.0   30.0   0.0
200.0   60.0   0.0
200.0   30.0   16.666666666666668
250.0   30.0   0.0
250.0   60.0   0.0
200.0   60.0   0.0
250.0   60.0   16.666666666666668
200.0   30.0   16.666666666666668
200.0   60.0   16.666666666666668
250.0   60.0   16.666666666666668
200.0   60.0   0.0
200.0   30.0   16.666666666666668
250.0   60.0   16.666666666666668
250.0   30.0   16.666666666666668
250.0   30.0   0.0
200.0   30.0   16.666666666666668
250.0   60.0   16.666666666666668
250.0   30.0   0.0
200.0   60.0   0.0
200.0   30.0   16.666666666666668
250.0   30.0   16.666666666666668
200.0   60.0   16.666666666666668
200.0   30.0   33.333333333333336
250.0   30.0   16.666666666666668
250.0   60.0   16.666666666666668
200.0   60.0   16.666666666666668
250.0   60.0   33.333333333333336
200.0   30.0   33.333333333333336
200.0   60.0   33.333333333333336
250.0   60.0   33.333333333333336
200.0   60.0   16.666666666666668
200.0   30.0   33.333333333333336
250.0   60.0   33.333333333333336
250.0   30.0   33.333333333333336
250.0   30.0   16.666666666666668
200.0   30.0   33.333333333333336
250.0   60.0   33.333333333333336
250.0   30.0   16.666666666666668
200.0   60.0   16.666666666666668
200.0   30.0   33.333333333333336
250.0   30.0   33.333333333333336
200.0   60.0   33.333333333333336
200.0   30.0   50.0
250.0   30.0   33.333333333333336
250.0   60.0   33.333333333333336
200.0   60.0   33.333333333333336
250.0   60.0   50.0
200.0   30.0   50.0
200.0   60.0   50.0
250.0   60.0   50.0
200.0   60.0   33.333333333333336
200.0   30.0   50.0
250.0   60.0   50.0
250.0   30.0   50.0
250.0   30.0   33.333333333333336
200.0   30.0   50.0
250.0   60.0   50.0
250.0   30.0   33.333333333333336
200.0   60.0   33.333333333333336
200.0   60.0   0.0
250.0   60.0   0.0
200.0   90.0   0.0
200.0   60.0   16.666666666666668
250.0   60.0   0.0
250.0   90.0   0.0
200.0   90.0   0.0
250.0   90.0   16.666666666666668
200.0   60.0   16.666666666666668
200.0   90.0   16.666666666666668
250.0   90.0   16.666666666666668
200.0   90.0   0.0
200.0   60.0   16.666666666666668
250.0   90.0   16.666666666666668
250.0   60.0   16.666666666666668
250.0   60.0   0.0
200.0   60.0   16.666666666666668
250.0   90.0   16.666666666666668
250.0   60.0   0.0
200.0   90.0   0.0
200.0   60.0   16.666666666666668
250.0   60.0   16.666666666666668
200.0   90.0   16.666666666666668
200.0   60.0   33.333333333333336
250.0   60.0   16.666666666666668
250.0   90.0   16.666666666666668
200.0   90.0   16.666666666666668
250.0   90.0   33.333333333333336
200.0   60.0   33.333333333333336
200.0   90.0   33.333333333333336
250.0   90.0   33.333333333333336
200.0   90.0   16.666666666666668
200.0   60.0   33.333333333333336
250.0   90.0   33.333333333333336
250.0   60.0   33.333333333333336
250.0   60.0   16.666666666666668
200.0   60.0   33.333333333333336
250.0   90.0   33.333333333333336
250.0   60.0   16.666666666666668
200.0   90.0   16.666666666666668
200.0   60.0   33.333333333333336
250.0   60.0   33.333333333333336
200.0   90.0   33.333333333333336
200.0   60.0   50.0
250.0   60.0   33.333333333333336
250.0   90.0   33.333333333333336
200.0   90.0   33.333333333333336
250.0   90.0   50.0
200.0   60.0   50.0
200.0   90.0   50.0
250.0   90.0   50.0
200.0   90.0   33.333333333333336
200.0   60.0   50.0
250.0   90.0   50.0
250.0   60.0   50.0
250.0   60.0   33.333333333333336
200.0   60.0   50.0
250.0   90.0   50.0
250.0   60.0   33.333333333333336
200.0   90.0   33.333333333333336
200.0   90.0   0.0
250.0   90.0   0.0
200.0   120.0   0.0
200.0   90.0   16.666666666666668
250.0   90.0   0.0
250.0   120.0   0.0
200.0   120.0   0.0
250.0   120.0   16.666666666666668
200.0   90.0   16.666666666666668
200.0   120.0   16.666666666666668
250.0   120.0   16.666666666666668
200.0   120.0   0.0
200.0   90.0   16.666666666666668
250.0   120.0   16.666666666666668
250.0   90.0   16.666666666666668
250.0   90.0   0.0
200.0   90.0   16.666666666666668
250.0   120.0   16.666666666666668
250.0   90.0   0.0
200.0   120.0   0.0
200.0   90.0   16.666666666666668
250.0   90.0   16.666666666666668
200.0   120.0   16.666666666666668
200.0   90.0   33.333333333333336
250.0   90.0   16.666666666666668
250.0   120.0   16.666666666666668
200.0   120.0   16.666666666666668
250.0   120.0   33.333333333333336
200.0   90.0   33.333333333333336
200.0   120.0   33.333333333333336
250.0   120.0   33.333333333333336
200.0   120.0   16.666666666666668
200.0   90.0   33.333333333333336
250.0   120.0   33.333333333333336
250.0   90.0   33.333333333333336
250.0   90.0   16.666666666666668
200.0   90.0   33.333333333333336
250.0   120.0   33.333333333333336
250.0   90.0   16.666666666666668
200.0   120.0   16.666666666666668
200.0   90.0   33.333333333333336
250.0   90.0   33.333333333333336
200.0   120.0   33.333333333333336
200.0   90.0   50.0
250.0   90.0   33.333333333333336
250.0   120.0   33.333333333333336
200.0   120.0   33.333333333333336
250.0   120.0   50.0
200.0   90.0   50.0
200.0   120.0   50.0
250.0   120.0   50.0
200.0   120.0   33.333333333333336
200.0   90.0   50.0
250.0   120.0   50.0
250.0   90.0   50.0
250.0   90.0   33.333333333333336
200.0   90.0   50.0
250.0   120.0   50.0
250.0   90.0   33.333333333333336
200.0   120.0   33.333333333333336
200.0   120.0   0.0
250.0   120.0   0.0
200.0   150.0   0.0
200.0   120.0   16.666666666666668
250.0   120.0   0.0
250.0   150.0   0.0
200.0   150.0   0.0
250.0   150.0   16.666666666666668
200.0   120.0   16.666666666666668
200.0   150.0   16.666666666666668
250.0   150.0   16.666666666666668
200.0   150.0   0.0
200.0   120.0   16.666666666666668
250.0   150.0   16.666666666666668
250.0   120.0   16.666666666666668
250.0   120.0   0.0
200.0   120.0   16.666666666666668
250.0   150.0   16.666666666666668
250.0   120.0   0.0
200.0   150.0   0.0
200.0   120.0   16.666666666666668
250.0   120.0   16.666666666666668
200.0   150.0   16.666666666666668
200.0   120.0   33.333333333333336
250.0   120.0   16.666666666666668
250.0   150.0   16.666666666666668
200.0   150.0   16.666666666666668
250.0   150.0   33.333333333333336
200.0   120.0   33.333333333333336
200.0   150.0   33.333333333333336
250.0   150.0   33.333333333333336
200.0   150.0   16.666666666666668
200.0   120.0   33.333333333333336
250.0   150.0   33.333333333333336
250.0   120.0   33.333333333333336
250.0   120.0   16.666666666666668
200.0   120.0   33.333333333333336
250.0   150.0   33.333333333333336
250.0   120.0   16.666666666666668
200.0   150.0   16.666666666666668
200.0   120.0   33.333333333333336
250.0   120.0   33.333333333333336
200.0   150.0   33.333333333333336
200.0   120.0   50.0
250.0   120.0   33.333333333333336
250.0   150.0   33.333333333333336
200.0   150.0   33.333333333333336
250.0   150.0   50.0
200.0   120.0   50.0
200.0   150.0   50.0
250.0   150.0   50.0
200.0   150.0   33.333333333333336
200.0   120.0   50.0
250.0   150.0   50.0
250.0   120.0   50.0
250.0   120.0   33.333333333333336
200.0   120.0   50.0
250.0   150.0   50.0
250.0   120.0   33.333333333333336
200.0   150.0   33.333333333333336
250.0   0.0   0.0
300.0   0.0   0.0
250.0   30.0   0.0
250.0   0.0   16.666666666666668
300.0   0.0   0.0
300.0   30.0   0.0
250.0   30.0   0.0
300.0   30.0   16.666666666666668
250.0   0.0   16.666666666666668
250.0   30.0   16.666666666666668
300.0   30.0   16.666666666666668
250.0   30.0   0.0
250.0   0.0   16.666666666666668
300.0   30.0   16.666666666666668
300.0   0.0   16.666666666666668
300.0   0.0   0.0
250.0   0.0   16.666666666666668
300.0   30.0   16.666666666666668
300.0   0.0   0.0
250.0   30.0   0.0
250.0   0.0   16.666666666666668
300.0   0.0   16.666666666666668
250.0   30.0   16.666666666666668
250.0   0.0   33.333333333333336
300.0   0.0   16.666666666666668
300.0   30.0   16.666666666666668
250.0   30.0   16.666666666666668
300.0   30.0   33.333333333333336
250.0   0.0   33.333333333333336
250.0   30.0   33.333333333333336
300.0   30.0   33.333333333333336
250.0   30.0   16.666666666666668
250.0   0.0   33.333333333333336
300.0   30.0   33.333333333333336
300.0   0.0   33.333333333333336
300.0   0.0   16.666666666666668
250.0   0.0   33.333333333333336
300.0   30.0   33.333333333333336
300.0   0.0   16.666666666666668
250.0   30.0   16.666666666666668
250.0   0.0   33.333333333333336
300.0   0.0   33.333333333333336
250.0   30.0   33.333333333333336
250.0   0.0   50.0
300.0   0.0   33.333333333333336
300.0   30.0   33.333333333333336
250.0   30.0   33.333333333333336
300.0   30.0   50.0
250.0   0.0   50.0
250.0   30.0   50.0
300.0   30.0   50.0
250.0   30.0   33.333333333333336
250.0   0.0   50.0
300.0   30.0   50.0
300.0   0.0   50.0
300.0   0.0   33.333333333333336
250.0   0.0   50.0
300.0   30.0   50.0
300.0   0.0   33.333333333333336
250.0   30.0   33.333333333333336
250.0   30.0   0.0
300.0   30.0   0.0
250.0   60.0   0.0
250.0   30.0   16.666666666666668
300.0   30.0   0.0
300.0   60.0   0.0
250.0   60.0   0.0
300.0   60.0   16.666666666666668
250.0   30.0   16.666666666666668
250.0   60.0   16.666666666666668
300.0   60.0   16.666666666666668
250.0   60.0   0.0
250.0   30.0   16.666666666666668
300.0   60.0   16.666666666666668
300.0   30.0   16.666666666666668
300.0   30.0   0.0
250.0   30.0   16.666666666666668
300.0   60.0   16.666666666666668
300.0   30.0   0.0
250.0   60.0   0.0
250.0   30.0   16.666666666666668
300.0   30.0   16.666666666666668
250.0   60.0   16.666666666666668
250.0   30.0   33.333333333333336
300.0   30.0   16.666666666666668
300.0   60.0   16.666666666666668
250.0   60.0   16.666666666666668
300.0   60.0   33.333333333333336
250.0   30.0   33.333333333333336
250.0   60.0   33.333333333333336
300.0   60.0   33.333333333333336
250.0   60.0   16.666666666666668
250.0   30.0   33.333333333333336
300.0   60.0   33.333333333333336
300.0   30.0   33.333333333333336
300.0   30.0   16.666666666666668
250.0   30.0   33.333333333333336
300.0   60.0   33.333333333333336
300.0   30.0   16.666666666666668
250.0   60.0   16.666666666666668
250.0   30.0   33.333333333333336
300.0   30.0   33.333333333333336
250.0   60.0   33.333333333333336
250.0   30.0   50.0
300.0   30.0   33.333333333333336
300.0   60.0   33.333333333333336
250.0   60.0   33.333333333333336
300.0   60.0   50.0
250.0   30.0   50.0
250.0   60.0   50.0
300.0   60.0   50.0
250.0   60.0   33.333333333333336
250.0   30.0   50.0
300.0   60.0   50.0
300.0   30.0   50.0
300.0   30.0   33.333333333333336
250.0   30.0   50.0
300.0   60.0   50.0
300.0   30.0   33.333333333333336
250.0   60.0   33.333333333333336
250.0   60.0   0.0
300.0   60.0   0.0
250.0   90.0   0.0
250.0   60.0   16.666666666666668
300.0   60.0   0.0
300.0   90.0   0.0
250.0   90.0   0.0
300.0   90.0   16.666666666666668
250.0   60.0   16.666666666666668
250.0   90.0   16.666666666666668
300.0   90.0   16.666666666666668
250.0   90.0   0.0
250.0   60.0   16.666666666666668
300.0   90.0   16.666666666666668
300.0   60.0   16.666666666666668
300.0   60.0   0.0
250.0   60.0   16.666666666666668
300.0   90.0   16.666666666666668
300.0   60.0   0.0
250.0   90.0   0.0
250.0   60.0   16.666666666666668
300.0   60.0   16.666666666666668
250.0   90.0   16.666666666666668
250.0   60.0   33.333333333333336
300.0   60.0   16.666666666666668
300.0   90.0   16.666666666666668
250.0   90.0   16.666666666666668
300.0   90.0   33.333333333333336
250.0   60.0   33.333333333333336
250.0   90.0   33.333333333333336
300.0   90.0   33.333333333333336
250.0   90.0   16.666666666666668
250.0   60.0   33.333333333333336
300.0   90.0   33.333333333333336
300.0   60.0   33.333333333333336
300.0   60.0   16.666666666666668
250.0   60.0   33.333333333333336
300.0   90.0   33.333333333333336
300.0   60.0   16.666666666666668
250.0   90.0   16.666666666666668
250.0   60.0   33.333333333333336
300.0   60.0   33.333333333333336
250.0   90.0   33.333333333333336
250.0   60.0   50.0
300.0   60.0   33.333333333333336
300.0   90.0   33.333333333333336
250.0   90.0   33.333333333333336
300.0   90.0   50.0
250.0   60.0   50.0
250.0   90.0   50.0
300.0   90.0   50.0
250.0   90.0   33.333333333333336
250.0   60.0   50.0
300.0   90.0   50.0
300.0   60.0   50.0
300.0   60.0   33.333333333333336
250.0   60.0   50.0
300.0   90.0   50.0
300.0   60.0   33.333333333333336
250.0   90.0   33.333333333333336
250.0   90.0   0.0
300.0   90.0   0.0
250.0   120.0   0.0
250.0   90.0   16.666666666666668
300.0   90.0   0.0
300.0   120.0   0.0
250.0   120.0   0.0
300.0   120.0   16.666666666666668
250.0   90.0   16.666666666666668
250.0   120.0   16.666666666666668
300.0   120.0   16.666666666666668
250.0   120.0   0.0
250.0   90.0   16.666666666666668
300.0   120.0   16.666666666666668
300.0   90.0   16.666666666666668
300.0   90.0   0.0
250.0   90.0   16.666666666666668
300.0   120.0   16.666666666666668
300.0   90.0   0.0
250.0   120.0   0.0
250.0   90.0   16.666666666666668
300.0   90.0   16.666666666666668
250.0   120.0   16.666666666666668
250.0   90.0   33.333333333333336
300.0   90.0   16.666666666666668
300.0   120.0   16.666666666666668
250.0   120.0   16.666666666666668
300.0   120.0   33.333333333333336
250.0   90.0   33.333333333333336
250.0   120.0   33.333333333333336
300.0   120.0   33.333333333333336
250.0   120.0   16.666666666666668
250.0   90.0   33.333333333333336
300.0   120.0   33.333333333333336
300.0   90.0   33.333333333333336
300.0   90.0   16.666666666666668
250.0   90.0   33.333333333333336
300.0   120.0   33.333333333333336
300.0   90.0   16.666666666666668
250.0   120.0   16.666666666666668
250.0   90.0   33.333333333333336
300.0   90.0   33.333333333333336
250.0   120.0   33.333333333333336
250.0   90.0   50.0
300.0   90.0   33.333333333333336
300.0   120.0   33.333333333333336
250.0   120.0   33.333333333333336
300.0   120.0   50.0
250.0   90.0   50.0
250.0   120.0   50.0
300.0   120.0   50.0
250.0   120.0   33.333333333333336
250.0   90.0   50.0
300.0   120.0   50.0
300.0   90.0   50.0
300.0   90.0   33.333333333333336
250.0   90.0   50.0
300.0   120.0   50.0
300.0   90.0   33.333333333333336
250.0   120.0   33.333333333333336
250.0   120.0   0.0
300.0   120.0   0.0
250.0   150.0   0.0
250.0   120.0   16.666666666666668
300.0   120.0   0.0
300.0   150.0   0.0
250.0   150.0   0.0
300.0   150.0   16.666666666666668
250.0   120.0   16.666666666666668
250.0   150.0   16.666666666666668
300.0   150.0   16.666666666666668
250.0   150.0   0.0
250.0   120.0   16.666666666666668
300.0   150.0   16.666666666666668
300.0   120.0   16.666666666666668
300.0   120.0   0.0
250.0   120.0   16.666666666666668
300.0   150.0   16.666666666666668
300.0   120.0   0.0
250.0   150.0   0.0
250.0   120.0   16.666666666666668
300.0   120.0   16.666666666666668
250.0   150.0   16.666666666666668
250.0   120.0   33.333333333333336
300.0   120.0   16.666666666666668
300.0   150.0   16.666666666666668
250.0   150.0   16.666666666666668
300.0   150.0   33.333333333333336
250.0   120.0   33.333333333333336
250.0   150.0   33.333333333333336
300.0   150.0   33.333333333333336
250.0   150.0   16.666666666666668
250.0   120.0   33.333333333333336
300.0   150.0   33.333333333333336
300.0   120.0   33.333333333333336
300.0   120.0   16.666666666666668
250.0   120.0   33.333333333333336
300.0   150.0   33.333333333333336
300.0   120.0   16.666666666666668
250.0   150.0   16.666666666666668
250.0   120.0   33.333333333333336
300.0   120.0   33.333333333333336
250.0   150.0   33.333333333333336
250.0   120.0   50.0
300.0   120.0   33.333333333333336
300.0   150.0   33.333333333333336
250.0   150.0   33.333333333333336
300.0   150.0   50.0
250.0   120.0   50.0
250.0   150.0   50.0
300.0   150.0   50.0
250.0   150.0   33.333333333333336
250.0   120.0   50.0
300.0   150.0   50.0
300.0   120.0   50.0
300.0   120.0   33.333333333333336
250.0   120.0   50.0
300.0   150.0   50.0
300.0   120.0   33.333333333333336
250.0   150.0   33.333333333333336
300.0   0.0   0.0
350.0   0.0   0.0
300.0   30.0   0.0
300.0   0.0   16.666666666666668
350.0   0.0   0.0
350.0   30.0   0.0
300.0   30.0   0.0
350.0   30.0   16.666666666666668
300.0   0.0   16.666666666666668
300.0   30.0   16.666666666666668
350.0   30.0   16.666666666666668
300.0   30.0   0.0
300.0   0.0   16.666666666666668
350.0   30.0   16.666666666666668
350.0   0.0   16.666666666666668
350.0   0.0   0.0
300.0   0.0   16.666666666666668
350.0   30.0   16.666666666666668
350.0   0.0   0.0
300.0   30.0   0.0
300.0   0.0   16.666666666666668
350.0   0.0   16.666666666666668
300.0   30.0   16.666666666666668
300.0   0.0   33.333333333333336
350.0   0.0   16.666666666666668
350.0   30.0   16.666666666666668
300.0   30.0   16.666666666666668
350.0   30.0   33.333333333333336
300.0   0.0   33.333333333333336
300.0   30.0   33.333333333333336
350.0   30.0   33.333333333333336
300.0   30.0   16.666666666666668
300.0   0.0   33.333333333333336
350.0   30.0   33.333333333333336
350.0   0.0   33.333333333333336
350.0   0.0   16.666666666666668
300.0   0.0   33.333333333333336
350.0   30.0   33.333333333333336
350.0   0.0   16.666666666666668
300.0   30.0   16.666666666666668
300.0   0.0   33.333333333333336
350.0   0.0   33.333333333333336
300.0   30.0   33.333333333333336
300.0   0.0   50.0
350.0   0.0   33.333333333333336
350.0   30.0   33.333333333333336
300.0   30.0   33.333333333333336
350.0   30.0   50.0
300.0   0.0   50.0
300.0   30.0   50.0
350.0   30.0   50.0
300.0   30.0   33.333333333333336
300.0   0.0   50.0
350.0   30.0   50.0
350.0   0.0   50.0
350.0   0.0   33.333333333333336
300.0   0.0   50.0
350.0   30.0   50.0
350.0   0.0   33.333333333333336
300.0   30.0   33.333333333333336
300.0   30.0   0.0
350.0   30.0   0.0
300.0   60.0   0.0
300.0   30.0   16.666666666666668
350.0   30.0   0.0
350.0   60.0   0.0
300.0   60.0   0.0
350.0   60.0   16.666666666666668
300.0   30.0   16.666666666666668
300.0   60.0   16.666666666666668
350.0   60.0   16.666666666666668
300.0   60.0   0.0
300.0   30.0   16.666666666666668
350.0   60.0   16.666666666666668
350.0   30.0   16.666666666666668
350.0   30.0   0.0
300.0   30.0   16.666666666666668
350.0   60.0   16.666666666666668
350.0   30.0   0.0
300.0   60.0   0.0
300.0   30.0   16.666666666666668
350.0   30.0   16.666666666666668
300.0   60.0   16.666666666666668
300.0   30.0   33.333333333333336
350.0   30.0   16.666666666666668
350.0   60.0   16.666666666666668
300.0   60.0   16.666666666666668
350.0   60.0   33.333333333333336
300.0   30.0   33.333333333333336
300.0   60.0   33.333333333333336
350.0   60.0   33.333333333333336
300.0   60.0   16.666666666666668
300.0   30.0   33.333333333333336
350.0   60.0   33.333333333333336
350.0   30.0   33.333333333333336
350.0   30.0   16.666666666666668
300.0   30.0   33.333333333333336
350.0   60.0   33.333333333333336
350.0   30.0   16.666666666666668
300.0   60.0   16.666666666666668
300.0   30.0   33.333333333333336
350.0   30.0   33.333333333333336
300.0   60.0   33.333333333333336
300.0   30.0   50.0
350.0   30.0   33.333333333333336
350.0   60.0   33.333333333333336
300.0   60.0   33.333333333333336
350.0   60.0   50.0
300.0   30.0   50.0
300.0   60.0   50.0
350.0   60.0   50.0
300.0   60.0   33.333333333333336
300.0   30.0   50.0
350.0   60.0   50.0
350.0   30.0   50.0
350.0   30.0   33.333333333333336
300.0   30.0   50.0
350.0   60.0   50.0
350.0   30.0   33.333333333333336
300.0   60.0   33.333333333333336
300.0   60.0   0.0
350.0   60.0   0.0
300.0   90.0   0.0
300.0   60.0   16.666666666666668
350.0   60.0   0.0
350.0   90.0   0.0
300.0   90.0   0.0
350.0   90.0   16.666666666666668
300.0   60.0   16.666666666666668
300.0   90.0   16.666666666666668
350.0   90.0   16.666666666666668
300.0   90.0   0.0
300.0   60.0   16.666666666666668
350.0   90.0   16.666666666666668
350.0   60.0   16.666666666666668
350.0   60.0   0.0
300.0   60.0   16.666666666666668
350.0   90.0   16.666666666666668
350.0   60.0   0.0
300.0   90.0   0.0
300.0   60.0   16.666666666666668
350.0   60.0   16.666666666666668
300.0   90.0   16.666666666666668
300.0   60.0   33.333333333333336
350.0   60.0   16.666666666666668
350.0   90.0   16.666666666666668
300.0   90.0   16.666666666666668
350.0   90.0   33.333333333333336
300.0   60.0   33.333333333333336
300.0   90.0   33.333333333333336
350.0   90.0   33.333333333333336
300.0   90.0   16.666666666666668
300.0   60.0   33.333333333333336
350.0   90.0   33.333333333333336
350.0   60.0   33.333333333333336
350.0   60.0   16.666666666666668
300.0   60.0   33.333333333333336
350.0   90.0   33.333333333333336
350.0   60.0   16.666666666666668
300.0   90.0   16.666666666666668
300.0   60.0   33.333333333333336
350.0   60.0   33.333333333333336
300.0   90.0   33.333333333333336
300.0   60.0   50.0
350.0   60.0   33.333333333333336
350.0   90.0   33.333333333333336
300.0   90.0   33.333333333333336
350.0   90.0   50.0
300.0   60.0   50.0
300.0   90.0   50.0
350.0   90.0   50.0
300.0   90.0   33.333333333333336
300.0   60.0   50.0
350.0   90.0   50.0
350.0   60.0   50.0
350.0   60.0   33.333333333333336
300.0   60.0   50.0
350.0   90.0   50.0
350.0   60.0   33.333333333333336
300.0   90.0   33.333333333333336
300.0   90.0   0.0
350.0   90.0   0.0
300.0   120.0   0.0
300.0   90.0   16.666666666666668
350.0   90.0   0.0
350.0   120.0   0.0
300.0   120.0   0.0
350.0   120.0   16.666666666666668
300.0   90.0   16.666666666666668
300.0   120.0   16.666666666666668
350.0   120.0   16.666666666666668
300.0   120.0   0.0
300.0   90.0   16.666666666666668
350.0   120.0   16.666666666666668
350.0   90.0   16.666666666666668
350.0   90.0   0.0
300.0   90.0   16.666666666666668
350.0   120.0   16.666666666666668
350.0   90.0   0.0
300.0   120.0   0.0
300.0   90.0   16.666666666666668
350.0   90.0   16.666666666666668
300.0   120.0   16.666666666666668
300.0   90.0   33.333333333333336
350.0   90.0   16.666666666666668
350.0   120.0   16.666666666666668
300.0   120.0   16.666666666666668
350.0   120.0   33.333333333333336
300.0   90.0   33.333333333333336
300.0   120.0   33.333333333333336
350.0   120.0   33.333333333333336
300.0   120.0   16.666666666666668
300.0   90.0   33.333333333333336
350.0   120.0   33.333333333333336
350.0   90.0   33.333333333333336
350.0   90.0   16.666666666666668
300.0   90.0   33.333333333333336
350.0   120.0   33.333333333333336
350.0   90.0   16.666666666666668
300.0   120.0   16.666666666666668
300.0   90.0   33.333333333333336
350.0   90.0   33.333333333333336
300.0   120.0   33.333333333333336
300.0   90.0   50.0
350.0   90.0   33.333333333333336
350.0   120.0   33.333333333333336
300.0   120.0   33.333333333333336
350.0   120.0   50.0
300.0   90.0   50.0
300.0   120.0   50.0
350.0   120.0   50.0
300.0   120.0   33.333333333333336
300.0   90.0   50.0
350.0   120.0   50.0
350.0   90.0   50.0
350.0   90.0   33.333333333333336
300.0   90.0   50.0
350.0   120.0   50.0
350.0   90.0   33.333333333333336
300.0   120.0   33.333333333333336
300.0   120.0   0.0
350.0   120.0   0.0
300.0   150.0   0.0
300.0   120.0   16.666666666666668
350.0   120.0   0.0
350.0   150.0   0.0
300.0   150.0   0.0
350.0   150.0   16.666666666666668
300.0   120.0   16.666666666666668
300.0   150.0   16.666666666666668
350.0   150.0   16.666666666666668
300.0   150.0   0.0
300.0   120.0   16.666666666666668
350.0   150.0   16.666666666666668
350.0   120.0   16.666666666666668
350.0   120.0   0.0
300.0   120.0   16.666666666666668
350.0   150.0   16.666666666666668
350.0   120.0   0.0
300.0   150.0   0.0
300.0   120.0   16.666666666666668
350.0   120.0   16.666666666666668
300.0   150.0   16.666666666666668
300.0   120.0   33.333333333333336
350.0   120.0   16.666666666666668
350.0   150.0   16.666666666666668
300.0   150.0   16.666666666666668
350.0   150.0   33.333333333333336
300.0   120.0   33.333333333333336
300.0   150.0   33.333333333333336
350.0   150.0   33.333333333333336
300.0   150.0   16.666666666666668
300.0   120.0   33.333333333333336
350.0   150.0   33.333333333333336
350.0   120.0   33.333333333333336
350.0   120.0   16.666666666666668
300.0   120.0   33.333333333333336
350.0   150.0   33.333333333333336
350.0   120.0   16.666666666666668
300.0   150.0   16.666666666666668
300.0   120.0   33.333333333333336
350.0   120.0   33.333333333333336
300.0   150.0   33.333333333333336
300.0   120.0   50.0
350.0   120.0   33.333333333333336
350.0   150.0   33.333333333333336
300.0   150.0   33.333333333333336
350.0   150.0   50.0
300.0   120.0   50.0
300.0   150.0   50.0
350.0   150.0   50.0
300.0   150.0   33.333333333333336
300.0   120.0   50.0
350.0   150.0   50.0
350.0   120.0   50.0
350.0   120.0   33.333333333333336
300.0   120.0   50.0
350.0   150.0   50.0
350.0   120.0   33.333333333333336
300.0   150.0   33.333333333333336
350.0   0.0   0.0
400.0   0.0   0.0
350.0   30.0   0.0
350.0   0.0   16.666666666666668
400.0   0.0   0.0
400.0   30.0   0.0
350.0   30.0   0.0
400.0   30.0   16.666666666666668
350.0   0.0   16.666666666666668
350.0   30.0   16.666666666666668
400.0   30.0   16.666666666666668
350.0   30.0   0.0
350.0   0.0   16.666666666666668
400.0   30.0   16.666666666666668
400.0   0.0   16.666666666666668
400.0   0.0   0.0
350.0   0.0   16.666666666666668
400.0   30.0   16.666666666666668
400.0   0.0   0.0
350.0   30.0   0.0
350.0   0.0   16.666666666666668
400.0   0.0   16.666666666666668
350.0   30.0   16.666666666666668
350.0   0.0   33.333333333333336
400.0   0.0   16.666666666666668
400.0   30.0   16.666666666666668
350.0   30.0   16.666666666666668
400.0   30.0   33.333333333333336
350.0   0.0   33.333333333333336
350.0   30.0   33.333333333333336
400.0   30.0   33.333333333333336
350.0   30.0   16.666666666666668
350.0   0.0   33.333333333333336
400.0   30.0   33.333333333333336
400.0   0.0   33.333333333333336
400.0   0.0   16.666666666666668
350.0   0.0   33.333333333333336
400.0   30.0   33.333333333333336
400.0   0.0   16.666666666666668
350.0   30.0   16.666666666666668
350.0   0.0   33.333333333333336
400.0   0.0   33.333333333333336
350.0   30.0   33.333333333333336
350.0   0.0   50.0
400.0   0.0   33.333333333333336
400.0   30.0   33.333333333333336
350.0   30.0   33.333333333333336
400.0   30.0   50.0
350.0   0.0   50.0
350.0   30.0   50.0
400.0   30.0   50.0
350.0   30.0   33.333333333333336
350.0   0.0   50.0
400.0   30.0   50.0
400.0   0.0   50.0
400.0   0.0   33.333333333333336
350.0   0.0   50.0
400.0   30.0   50.0
400.0   0.0   33.333333333333336
350.0   30.0   33.333333333333336
350.0   30.0   0.0
400.0   30.0   0.0
350.0   60.0   0.0
350.0   30.0   16.666666666666668
400.0   30.0   0.0
400.0   60.0   0.0
350.0   60.0   0.0
400.0   60.0   16.666666666666668
350.0   30.0   16.666666666666668
350.0   60.0   16.666666666666668
400.0   60.0   16.666666666666668
350.0   60.0   0.0
350.0   30.0   16.666666666666668
400.0   60.0   16.666666666666668
400.0   30.0   16.666666666666668
400.0   30.0   0.0
350.0   30.0   16.666666666666668
400.0   60.0   16.666666666666668
400.0   30.0   0.0
350.0   60.0   0.0
350.0   30.0   16.666666666666668
400.0   30.0   16.666666666666668
350.0   60.0   16.666666666666668
350.0   30.0   33.333333333333336
400.0   30.0   16.666666666666668
400.0   60.0   16.666666666666668
350.0   60.0   16.666666666666668
400.0   60.0   33.333333333333336
350.0   30.0   33.333333333333336
350.0   60.0   33.333333333333336
400.0   60.0   33.333333333333336
350.0   60.0   16.666666666666668
350.0   30.0   33.333333333333336
400.0   60.0   33.333333333333336
400.0   30.0   33.333333333333336
400.0   30.0   16.666666666666668
350.0   30.0   33.333333333333336
400.0   60.0   33.333333333333336
400.0   30.0   16.666666666666668
350.0   60.0   16.666666666666668
350.0   30.0   33.333333333333336
400.0   30.0   33.333333333333336
350.0   60.0   33.333333333333336
350.0   30.0   50.0
400.0   30.0   33.333333333333336
400.0   60.0   33.333333333333336
350.0   60.0   33.333333333333336
400.0   60.0   50.0
350.0   30.0   50.0
350.0   60.0   50.0
400.0   60.0   50.0
350.0   60.0   33.333333333333336
350.0   30.0   50.0
400.0   60.0   50.0
400.0   30.0   50.0
400.0   30.0   33.333333333333336
350.0   30.0   50.0
400.0   60.0   50.0
400.0   30.0   33.333333333333336
350.0   60.0   33.333333333333336
350.0   60.0   0.0
400.0   60.0   0.0
350.0   90.0   0.0
350.0   60.0   16.666666666666668
400.0   60.0   0.0
400.0   90.0   0.0
350.0   90.0   0.0
400.0   90.0   16.666666666666668
350.0   60.0   16.666666666666668
350.0   90.0   16.666666666666668
400.0   90.0   16.666666666666668
350.0   90.0   0.0
350.0   60.0   16.666666666666668
400.0   90.0   16.666666666666668
400.0   60.0   16.666666666666668
400.0   60.0   0.0
350.0   60.0   16.666666666666668
400.0   90.0   16.666666666666668
400.0   60.0   0.0
350.0   90.0   0.0
350.0   60.0   16.666666666666668
400.0   60.0   16.666666666666668
350.0   90.0   16.666666666666668
350.0   60.0   33.333333333333336
400.0   60.0   16.666666666666668
400.0   90.0   16.666666666666668
350.0   90.0   16.666666666666668
400.0   90.0   33.333333333333336
350.0   60.0   33.333333333333336
350.0   90.0   33.333333333333336
400.0   90.0   33.333333333333336
350.0   90.0   16.666666666666668
350.0   60.0   33.333333333333336
400.0   90.0   33.333333333333336
400.0   60.0   33.333333333333336
400.0   60.0   16.666666666666668
350.0   60.0   33.333333333333336
400.0   90.0   33.333333333333336
400.0   60.0   16.666666666666668
350.0   90.0   16.666666666666668
350.0   60.0   33.333333333333336
400.0   60.0   33.333333333333336
350.0   90.0   33.333333333333336
350.0   60.0   50.0
400.0   60.0   33.333333333333336
400.0   90.0   33.333333333333336
350.0   90.0   33.333333333333336
400.0   90.0   50.0
350.0   60.0   50.0
350.0   90.0   50.0
400.0   90.0   50.0
350.0   90.0   33.333333333333336
350.0   60.0   50.0
400.0   90.0   50.0
400.0   60.0   50.0
400.0   60.0   33.333333333333336
350.0   60.0   50.0
400.0   90.0   50.0
400.0   60.0   33.333333333333336
350.0   90.0   33.333333333333336
350.0   90.0   0.0
400.0   90.0   0.0
350.0   120.0   0.0
350.0   90.0   16.666666666666668
400.0   90.0   0.0
400.0   120.0   0.0
350.0   120.0   0.0
400.0   120.0   16.666666666666668
350.0   90.0   16.666666666666668
350.0   120.0   16.666666666666668
400.0   120.0   16.666666666666668
350.0   120.0   0.0
350.0   90.0   16.666666666666668
400.0   120.0   16.666666666666668
400.0   90.0   16.666666666666668
400.0   90.0   0.0
350.0   90.0   16.666666666666668
400.0   120.0   16.666666666666668
400.0   90.0   0.0
350.0   120.0   0.0
350.0   90.0   16.666666666666668
400.0   90.0   16.666666666666668
350.0   120.0   16.666666666666668
350.0   90.0   33.333333333333336
400.0   90.0   16.666666666666668
400.0   120.0   16.666666666666668
350.0   120.0   16.666666666666668
400.0   120.0   33.333333333333336
350.0   90.0   33.333333333333336
350.0   120.0   33.333333333333336
400.0   120.0   33.333333333333336
350.0   120.0   16.666666666666668
350.0   90.0   33.333333333333336
400.0   120.0   33.333333333333336
400.0   90.0   33.333333333333336
400.0   90.0   16.666666666666668
350.0   90.0   33.333333333333336
400.0   120.0   33.333333333333336
400.0   90.0   16.666666666666668
350.0   120.0   16.666666666666668
350.0   90.0   33.333333333333336
400.0   90.0   33.333333333333336
350.0   120.0   33.333333333333336
350.0   90.0   50.0
400.0   90.0   33.333333333333336
400.0   120.0   33.333333333333336
350.0   120.0   33.333333333333336
400.0   120.0   50.0
350.0   90.0   50.0
350.0   120.0   50.0
400.0   120.0   50.0
350.0   120.0   33.333333333333336
350.0   90.0   50.0
400.0   120.0   50.0
400.0   90.0   50.0
400.0   90.0   33.333333333333336
350.0   90.0   50.0
400.0   120.0   50.0
400.0   90.0   33.333333333333336
350.0   120.0   33.333333333333336
350.0   120.0   0.0
400.0   120.0   0.0
350.0   150.0   0.0
350.0   120.0   16.666666666666668
400.0   120.0   0.0
400.0   150.0   0.0
350.0   150.0   0.0
400.0   150.0   16.666666666666668
350.0   120.0   16.666666666666668
350.0   150.0   16.666666666666668
400.0   150.0   16.666666666666668
350.0   150.0   0.0
350.0   120.0   16.666666666666668
400.0   150.0   16.666666666666668
400.0   120.0   16.666666666666668
400.0   120.0   0.0
350.0   120.0   16.666666666666668
400.0   150.0   16.666666666666668
400.0   120.0   0.0
350.0   150.0   0.0
350.0   120.0   16.666666666666668
400.0   120.0   16.666666666666668
350.0   150.0   16.666666666666668
350.0   120.0   33.333333333333336
400.0   120.0   16.666666666666668
400.0   150.0   16.666666666666668
350.0   150.0   16.666666666666668
400.0   150.0   33.333333333333336
350.0   120.0   33.333333333333336
350.0   150.0   33.333333333333336
400.0   150.0   33.333333333333336
350.0   150.0   16.666666666666668
350.0   120.0   33.333333333333336
400.0   150.0   33.333333333333336
400.0   120.0   33.333333333333336
400.0   120.0   16.666666666666668
350.0   120.0   33.333333333333336
400.0   150.0   33.333333333333336
400.0   120.0   16.666666666666668
350.0   150.0   16.666666666666668
350.0   120.0   33.333333333333336
400.0   120.0   33.333333333333336
350.0   150.0   33.333333333333336
350.0   120.0   50.0
400.0   120.0   33.333333333333336
400.0   150.0   33.333333333333336
350.0   150.0   33.333333333333336
400.0   150.0   50.0
350.0   120.0   50.0
350.0   150.0   50.0
400.0   150.0   50.0
350.0   150.0   33.333333333333336
350.0   120.0   50.0
400.0   150.0   50.0
400.0   120.0   50.0
400.0   120.0   33.333333333333336
350.0   120.0   50.0
400.0   150.0   50.0
400.0   120.0   33.333333333333336
350.0   150.0   33.333333333333336
400.0   0.0   0.0
450.0   0.0   0.0
400.0   30.0   0.0
400.0   0.0   16.666666666666668
450.0   0.0   0.0
450.0   30.0   0.0
400.0   30.0   0.0
450.0   30.0   16.666666666666668
400.0   0.0   16.666666666666668
400.0   30.0   16.666666666666668
450.0   30.0   16.666666666666668
400.0   30.0   0.0
400.0   0.0   16.666666666666668
450.0   30.0   16.666666666666668
450.0   0.0   16.666666666666668
450.0   0.0   0.0
400.0   0.0   16.666666666666668
450.0   30.0   16.666666666666668
450.0   0.0   0.0
400.0   30.0   0.0
400.0   0.0   16.666666666666668
450.0   0.0   16.666666666666668
400.0   30.0   16.666666666666668
400.0   0.0   33.333333333333336
450.0   0.0   16.666666666666668
450.0   30.0   16.666666666666668
400.0   30.0   16.666666666666668
450.0   30.0   33.333333333333336
400.0   0.0   33.333333333333336
400.0   30.0   33.333333333333336
450.0   30.0   33.333333333333336
400.0   30.0   16.666666666666668
400.0   0.0   33.333333333333336
450.0   30.0   33.333333333333336
450.0   0.0   33.333333333333336
450.0   0.0   16.666666666666668
400.0   0.0   33.333333333333336
450.0   30.0   33.333333333333336
450.0   0.0   16.666666666666668
400.0   30.0   16.666666666666668
400.0   0.0   33.333333333333336
450.0   0.0   33.333333333333336
400.0   30.0   33.333333333333336
400.0   0.0   50.0
450.0   0.0   33.333333333333336
450.0   30.0   33.333333333333336
400.0   30.0   33.333333333333336
450.0   30.0   50.0
400.0   0.0   50.0
400.0   30.0   50.0
450.0   30.0   50.0
400.0   30.0   33.333333333333336
400.0   0.0   50.0
450.0   30.0   50.0
450.0   0.0   50.0
450.0   0.0   33.333333333333336
400.0   0.0   50.0
450.0   30.0   50.0
450.0   0.0   33.333333333333336
400.0   30.0   33.333333333333336
400.0   30.0   0.0
450.0   30.0   0.0
400.0   60.0   0.0
400.0   30.0   16.666666666666668
450.0   30.0   0.0
450.0   60.0   0.0
400.0   60.0   0.0
450.0   60.0   16.666666666666668
400.0   30.0   16.666666666666668
400.0   60.0   16.666666666666668
450.0   60.0   16.666666666666668
400.0   60.0   0.0
400.0   30.0   16.666666666666668
450.0   60.0   16.666666666666668
450.0   30.0   16.666666666666668
450.0   30.0   0.0
400.0   30.0   16.666666666666668
450.0   60.0   16.666666666666668
450.0   30.0   0.0
400.0   60.0   0.0
400.0   30.0   16.666666666666668
450.0   30.0   16.666666666666668
400.0   60.0   16.666666666666668
400.0   30.0   33.333333333333336
450.0   30.0   16.666666666666668
450.0   60.0   16.666666666666668
400.0   60.0   16.666666666666668
450.0   60.0   33.333333333333336
400.0   30.0   33.333333333333336
400.0   60.0   33.333333333333336
450.0   60.0   33.333333333333336
400.0   60.0   16.666666666666668
400.0   30.0   33.333333333333336
450.0   60.0   33.333333333333336
450.0   30.0   33.333333333333336
450.0   30.0   16.666666666666668
400.0   30.0   33.333333333333336
450.0   60.0   33.333333333333336
450.0   30.0   16.666666666666668
400.0   60.0   16.666666666666668
400.0   30.0   33.333333333333336
450.0   30.0   33.333333333333336
400.0   60.0   33.333333333333336
400.0   30.0   50.0
450.0   30.0   33.333333333333336
450.0   60.0   33.333333333333336
400.0   60.0   33.333333333333336
450.0   60.0   50.0
400.0   30.0   50.0
400.0   60.0   50.0
450.0   60.0   50.0
400.0   60.0   33.333333333333336
400.0   30.0   50.0
450.0   60.0   50.0
450.0   30.0   50.0
450.0   30.0   33.333333333333336
400.0   30.0   50.0
450.0   60.0   50.0
450.0   30.0   33.333333333333336
400.0   60.0   33.333333333333336
400.0   60.0   0.0
450.0   60.0   0.0
400.0   90.0   0.0
400.0   60.0   16.666666666666668
450.0   60.0   0.0
450.0   90.0   0.0
400.0   90.0   0.0
450.0   90.0   16.666666666666668
400.0   60.0   16.666666666666668
400.0   90.0   16.666666666666668
450.0   90.0   16.666666666666668
400.0   90.0   0.0
400.0   60.0   16.666666666666668
450.0   90.0   16.666666666666668
450.0   60.0   16.666666666666668
450.0   60.0   0.0
400.0   60.0   16.666666666666668
450.0   90.0   16.666666666666668
450.0   60.0   0.0
400.0   90.0   0.0
400.0   60.0   16.666666666666668
450.0   60.0   16.666666666666668
400.0   90.0   16.666666666666668
400.0   60.0   33.333333333333336
450.0   60.0   16.666666666666668
450.0   90.0   16.666666666666668
400.0   90.0   16.666666666666668
450.0   90.0   33.333333333333336
400.0   60.0   33.333333333333336
400.0   90.0   33.333333333333336
450.0   90.0   33.333333333333336
400.0   90.0   16.666666666666668
400.0   60.0   33.333333333333336
450.0   90.0   33.333333333333336
450.0   60.0   33.333333333333336
450.0   60.0   16.666666666666668
400.0   60.0   33.333333333333336
450.0   90.0   33.333333333333336
450.0   60.0   16.666666666666668
400.0   90.0   16.666666666666668
400.0   60.0   33.333333333333336
450.0   60.0   33.333333333333336
400.0   90.0   33.333333333333336
400.0   60.0   50.0
450.0   60.0   33.333333333333336
450.0   90.0   33.333333333333336
400.0   90.0   33.333333333333336
450.0   90.0   50.0
400.0   60.0   50.0
400.0   90.0   50.0
450.0   90.0   50.0
400.0   90.0   33.333333333333336
400.0   60.0   50.0
450.0   90.0   50.0
450.0   60.0   50.0
450.0   60.0   33.333333333333336
400.0   60.0   50.0
450.0   90.0   50.0
450.0   60.0   33.333333333333336
400.0   90.0   33.333333333333336
400.0   90.0   0.0
450.0   90.0   0.0
400.0   120.0   0.0
400.0   90.0   16.666666666666668
450.0   90.0   0.0
450.0   120.0   0.0
400.0   120.0   0.0
450.0   120.0   16.666666666666668
400.0   90.0   16.666666666666668
400.0   120.0   16.666666666666668
450.0   120.0   16.666666666666668
400.0   120.0   0.0
400.0   90.0   16.666666666666668
450.0   120.0   16.666666666666668
450.0   90.0   16.666666666666668
450.0   90.0   0.0
400.0   90.0   16.666666666666668
450.0   120.0   16.666666666666668
450.0   90.0   0.0
400.0   120.0   0.0
400.0   90.0   16.666666666666668
450.0   90.0   16.666666666666668
400.0   120.0   16.666666666666668
400.0   90.0   33.333333333333336
450.0   90.0   16.666666666666668
450.0   120.0   16.666666666666668
400.0   120.0   16.666666666666668
450.0   120.0   33.333333333333336
400.0   90.0   33.333333333333336
400.0   120.0   33.333333333333336
450.0   120.0   33.333333333333336
400.0   120.0   16.666666666666668
400.0   90.0   33.333333333333336
450.0   120.0   33.333333333333336
450.0   90.0   33.333333333333336
450.0   90.0   16.666666666666668
400.0   90.0   33.333333333333336
450.0   120.0   33.333333333333336
450.0   90.0   16.666666666666668
400.0   120.0   16.666666666666668
400.0   90.0   33.333333333333336
450.0   90.0   33.333333333333336
400.0   120.0   33.333333333333336
400.0   90.0   50.0
450.0   90.0   33.333333333333336
450.0   120.0   33.333333333333336
400.0   120.0   33.333333333333336
450.0   120.0   50.0
400.0   90.0   50.0
400.0   120.0   50.0
450.0   120.0   50.0
400.0   120.0   33.333333333333336
400.0   90.0   50.0
450.0   120.0   50.0
450.0   90.0   50.0
450.0   90.0   33.333333333333336
400.0   90.0   50.0
450.0   120.0   50.0
450.0   90.0   33.333333333333336
400.0   120.0   33.333333333333336
400.0   120.0   0.0
450.0   120.0   0.0
400.0   150.0   0.0
400.0   120.0   16.666666666666668
450.0   120.0   0.0
450.0   150.0   0.0
400.0   150.0   0.0
450.0   150.0   16.666666666666668
400.0   120.0   16.666666666666668
400.0   150.0   16.666666666666668
450.0   150.0   16.666666666666668
400.0   150.0   0.0
400.0   120.0   16.666666666666668
450.0   150.0   16.666666666666668
450.0   120.0   16.666666666666668
450.0   120.0   0.0
400.0   120.0   16.666666666666668
450.0   150.0   16.666666666666668
450.0   120.0   0.0
400.0   150.0   0.0
400.0   120.0   16.666666666666668
450.0   120.0   16.666666666666668
400.0   150.0   16.666666666666668
400.0   120.0   33.333333333333336
450.0   120.0   16.666666666666668
450.0   150.0   16.666666666666668
400.0   150.0   16.666666666666668
450.0   150.0   33.333333333333336
400.0   120.0   33.333333333333336
400.0   150.0   33.333333333333336
450.0   150.0   33.333333333333336
400.0   150.0   16.666666666666668
400.0   120.0   33.333333333333336
450.0   150.0   33.333333333333336
450.0   120.0   33.333333333333336
450.0   120.0   16.666666666666668
400.0   120.0   33.333333333333336
450.0   150.0   33.333333333333336
450.0   120.0   16.666666666666668
400.0   150.0   16.666666666666668
400.0   120.0   33.333333333333336
450.0   120.0   33.333333333333336
400.0   150.0   33.333333333333336
400.0   120.0   50.0
450.0   120.0   33.333333333333336
450.0   150.0   33.333333333333336
400.0   150.0   33.333333333333336
450.0   150.0   50.0
400.0   120.0   50.0
400.0   150.0   50.0
450.0   150.0   50.0
400.0   150.0   33.333333333333336
400.0   120.0   50.0
450.0   150.0   50.0
450.0   120.0   50.0
450.0   120.0   33.333333333333336
400.0   120.0   50.0
450.0   150.0   50.0
450.0   120.0   33.333333333333336
400.0   150.0   33.333333333333336
450.0   0.0   0.0
500.0   0.0   0.0
450.0   30.0   0.0
450.0   0.0   16.666666666666668
500.0   0.0   0.0
500.0   30.0   0.0
450.0   30.0   0.0
500.0   30.0   16.666666666666668
450.0   0.0   16.666666666666668
450.0   30.0   16.666666666666668
500.0   30.0   16.666666666666668
450.0   30.0   0.0
450.0   0.0   16.666666666666668
500.0   30.0   16.666666666666668
500.0   0.0   16.666666666666668
500.0   0.0   0.0
450.0   0.0   16.666666666666668
500.0   30.0   16.666666666666668
500.0   0.0   0.0
450.0   30.0   0.0
450.0   0.0   16.666666666666668
500.0   0.0   16.666666666666668
450.0   30.0   16.666666666666668
450.0   0.0   33.333333333333336
500.0   0.0   16.666666666666668
500.0   30.0   16.666666666666668
450.0   30.0   16.666666666666668
500.0   30.0   33.333333333333336
450.0   0.0   33.333333333333336
450.0   30.0   33.333333333333336
500.0   30.0   33.333333333333336
450.0   30.0   16.666666666666668
450.0   0.0   33.333333333333336
500.0   30.0   33.333333333333336
500.0   0.0   33.333333333333336
500.0   0.0   16.666666666666668
450.0   0.0   33.333333333333336
500.0   30.0   33.333333333333336
500.0   0.0   16.666666666666668
450.0   30.0   16.666666666666668
450.0   0.0   33.333333333333336
500.0   0.0   33.333333333333336
450.0   30.0   33.333333333333336
450.0   0.0   50.0
500.0   0.0   33.333333333333336
500.0   30.0   33.333333333333336
450.0   30.0   33.333333333333336
500.0   30.0   50.0
450.0   0.0   50.0
450.0   30.0   50.0
500.0   30.0   50.0
450.0   30.0   33.333333333333336
450.0   0.0   50.0
500.0   30.0   50.0
500.0   0.0   50.0
500.0   0.0   33.333333333333336
450.0   0.0   50.0
500.0   30.0   50.0
500.0   0.0   33.333333333333336
450.0   30.0   33.333333333333336
450.0   30.0   0.0
500.0   30.0   0.0
450.0   60.0   0.0
450.0   30.0   16.666666666666668
500.0   30.0   0.0
500.0   60.0   0.0
450.0   60.0   0.0
500.0   60.0   16.666666666666668
450.0   30.0   16.666666666666668
450.0   60.0   16.666666666666668
500.0   60.0   16.666666666666668
450.0   60.0   0.0
450.0   30.0   16.666666666666668
500.0   60.0   16.666666666666668
500.0   30.0   16.666666666666668
500.0   30.0   0.0
450.0   30.0   16.666666666666668
500.0   60.0   16.666666666666668
500.0   30.0   0.0
450.0   60.0   0.0
450.0   30.0   16.666666666666668
500.0   30.0   16.666666666666668
450.0   60.0   16.666666666666668
450.0   30.0   33.333333333333336
500.0   30.0   16.666666666666668
500.0   60.0   16.666666666666668
450.0   60.0   16.666666666666668
500.0   60.0   33.333333333333336
450.0   30.0   33.333333333333336
450.0   60.0   33.333333333333336
500.0   60.0   33.333333333333336
450.0   60.0   16.666666666666668
450.0   30.0   33.333333333333336
500.0   60.0   33.333333333333336
500.0   30.0   33.333333333333336
500.0   30.0   16.666666666666668
450.0   30.0   33.333333333333336
500.0   60.0   33.333333333333336
500.0   30.0   16.666666666666668
450.0   60.0   16.666666666666668
450.0   30.0   33.333333333333336
500.0   30.0   33.333333333333336
450.0   60.0   33.333333333333336
450.0   30.0   50.0
500.0   30.0   33.333333333333336
500.0   60.0   33.333333333333336
450.0   60.0   33.333333333333336
500.0   60.0   50.0
450.0   30.0   50.0
450.0   60.0   50.0
500.0   60.0   50.0
450.0   60.0   33.333333333333336
450.0   30.0   50.0
500.0   60.0   50.0
500.0   30.0   50.0
500.0   30.0   33.333333333333336
450.0   30.0   50.0
500.0   60.0   50.0
500.0   30.0   33.333333333333336
450.0   60.0   33.333333333333336
450.0   60.0   0.0
500.0   60.0   0.0
450.0   90.0   0.0
450.0   60.0   16.666666666666668
500.0   60.0   0.0
500.0   90.0   0.0
450.0   90.0   0.0
500.0   90.0   16.666666666666668
450.0   60.0   16.666666666666668
450.0   90.0   16.666666666666668
500.0   90.0   16.666666666666668
450.0   90.0   0.0
450.0   60.0   16.666666666666668
500.0   90.0   16.666666666666668
500.0   60.0   16.666666666666668
500.0   60.0   0.0
450.0   60.0   16.666666666666668
500.0   90.0   16.666666666666668
500.0   60.0   0.0
450.0   90.0   0.0
450.0   60.0   16.666666666666668
500.0   60.0   16.666666666666668
450.0   90.0   16.666666666666668
450.0   60.0   33.333333333333336
500.0   60.0   16.666666666666668
500.0   90.0   16.666666666666668
450.0   90.0   16.666666666666668
500.0   90.0   33.333333333333336
450.0   60.0   33.333333333333336
450.0   90.0   33.333333333333336
500.0   90.0   33.333333333333336
450.0   90.0   16.666666666666668
450.0   60.0   33.333333333333336
500.0   90.0   33.333333333333336
500.0   60.0   33.333333333333336
500.0   60.0   16.666666666666668
450.0   60.0   33.333333333333336
500.0   90.0   33.333333333333336
500.0   60.0   16.666666666666668
450.0   90.0   16.666666666666668
450.0   60.0   33.333333333333336
500.0   60.0   33.333333333333336
450.0   90.0   33.333333333333336
450.0   60.0   50.0
500.0   60.0   33.333333333333336
500.0   90.0   33.333333333333336
450.0   90.0   33.333333333333336
500.0   90.0   50.0
450.0   60.0   50.0
450.0   90.0   50.0
500.0   90.0   50.0
450.0   90.0   33.333333333333336
450.0   60.0   50.0
500.0   90.0   50.0
500.0   60.0   50.0
500.0   60.0   33.333333333333336
450.0   60.0   50.0
500.0   90.0   50.0
500.0   60.0   33.333333333333336
450.0   90.0   33.333333333333336
450.0   90.0   0.0
500.0   90.0   0.0
450.0   120.0   0.0
450.0   90.0   16.666666666666668
500.0   90.0   0.0
500.0   120.0   0.0
450.0   120.0   0.0
500.0   120.0   16.666666666666668
450.0   90.0   16.666666666666668
450.0   120.0   16.666666666666668
500.0   120.0   16.666666666666668
450.0   120.0   0.0
450.0   90.0   16.666666666666668
500.0   120.0   16.666666666666668
500.0   90.0   16.666666666666668
500.0   90.0   0.0
450.0   90.0   16.666666666666668
500.0   120.0   16.666666666666668
500.0   90.0   0.0
450.0   120.0   0.0
450.0   90.0   16.666666666666668
500.0   90.0   16.666666666666668
450.0   120.0   16.666666666666668
450.0   90.0   33.333333333333336
500.0   90.0   16.666666666666668
500.0   120.0   16.666666666666668
450.0   120.0   16.666666666666668
500.0   120.0   33.333333333333336
450.0   90.0   33.333333333333336
450.0   120.0   33.333333333333336
500.0   120.0   33.333333333333336
450.0   120.0   16.666666666666668
450.0   90.0   33.333333333333336
500.0   120.0   33.333333333333336
500.0   90.0   33.333333333333336
500.0   90.0   16.666666666666668
450.0   90.0   33.333333333333336
500.0   120.0   33.333333333333336
500.0   90.0   16.666666666666668
450.0   120.0   16.666666666666668
450.0   90.0   33.333333333333336
500.0   90.0   33.333333333333336
450.0   120.0   33.333333333333336
450.0   90.0   50.0
500.0   90.0   33.333333333333336
500.0   120.0   33.333333333333336
450.0   120.0   33.333333333333336
500.0   120.0   50.0
450.0   90.0   50.0
450.0   120.0   50.0
500.0   120.0   50.0
450.0   120.0   33.333333333333336
450.0   90.0   50.0
500.0   120.0   50.0
500.0   90.0   50.0
500.0   90.0   33.333333333333336
450.0   90.0   50.0
500.0   120.0   50.0
500.0   90.0   33.333333333333336
450.0   120.0   33.333333333333336
450.0   120.0   0.0
500.0   120.0   0.0
450.0   150.0   0.0
450.0   120.0   16.666666666666668
500.0   120.0   0.0
500.0   150.0   0.0
450.0   150.0   0.0
500.0   150.0   16.666666666666668
450.0   120.0   16.666666666666668
450.0   150.0   16.666666666666668
500.0   150.0   16.666666666666668
450.0   150.0   0.0
450.0   120.0   16.666666666666668
500.0   150.0   16.666666666666668
500.0   120.0   16.666666666666668
500.0   120.0   0.0
450.0   120.0   16.666666666666668
500.0   150.0   16.666666666666668
500.0   120.0   0.0
450.0   150.0   0.0
450.0   120.0   16.666666666666668
500.0   120.0   16.666666666666668
450.0   150.0   16.666666666666668
450.0   120.0   33.333333333333336
500.0   120.0   16.666666666666668
500.0   150.0   16.666666666666668
450.0   150.0   16.666666666666668
500.0   150.0   33.333333333333336
450.0   120.0   33.333333333333336
450.0   150.0   33.333333333333336
500.0   150.0   33.333333333333336
450.0   150.0   16.666666666666668
450.0   120.0   33.333333333333336
500.0   150.0   33.333333333333336
500.0   120.0   33.333333333333336
500.0   120.0   16.666666666666668
450.0   120.0   33.333333333333336
500.0   150.0   33.333333333333336
500.0   120.0   16.666666666666668
450.0   150.0   16.666666666666668
450.0   120.0   33.333333333333336
500.0   120.0   33.333333333333336
450.0   150.0   33.333333333333336
450.0   120.0   50.0
500.0   120.0   33.333333333333336
500.0   150.0   33.333333333333336
450.0   150.0   33.333333333333336
500.0   150.0   50.0
450.0   120.0   50.0
450.0   150.0   50.0
500.0   150.0   50.0
450.0   150.0   33.333333333333336
450.0   120.0   50.0
500.0   150.0   50.0
500.0   120.0   50.0
500.0   120.0   33.333333333333336
450.0   120.0   50.0
500.0   150.0   50.0
500.0   120.0   33.333333333333336
450.0   150.0   33.333333333333336
             </DataArray>   
          </Points>  
          <Cells>  
             <DataArray type="Int32" Name="connectivity" format="ascii">   
0   1   2   3
4   5   6   7
8   9   10   11
12   13   14   15
16   17   18   19
20   21   22   23
24   25   26   27
28   29   30   31
32   33   34   35
36   37   38   39
40   41   42   43
44   45   46   47
48   49   50   51
52   53   54   55
56   57   58   59
60   61   62   63
64   65   66   67
68   69   70   71
72   73   74   75
76   77   78   79
80   81   82   83
84   85   86   87
88   89   90   91
92   93   94   95
96   97   98   99
100   101   102   103
104   105   106   107
108   109   110   111
112   113   114   115
116   117   118   119
120   121   122   123
124   125   126   127
128   129   130   131
132   133   134   135
136   137   138   139
140   141   142   143
144   145   146   147
148   149   150   151
152   153   154   155
156   157   158   159
160   161   162   163
164   165   166   167
168   169   170   171
172   173   174   175
176   177   178   179
180   181   182   183
184   185   186   187
188   189   190   191
192   193   194   195
196   197   198   199
200   201   202   203
204   205   206   207
208   209   210   211
212   213   214   215
216   217   218   219
220   221   222   223
224   225   226   227
228   229   230   231
232   233   234   235
236   237   238   239
240   241   242   243
244   245   246   247
248   249   250   251
252   253   254   255
256   257   258   259
260   261   262   263
264   265   266   267
268   269   270   271
272   273   274   275
276   277   278   279
280   281   282   283
284   285   286   287
288   289   290   291
292   293   294   295
296   297   298   299
300   301   302   303
304   305   306   307
308   309   310   311
312   313   314   315
316   317   318   319
320   321   322   323
324   325   326   327
328   329   330   331
332   333   334   335
336   337   338   339
340   341   342   343
344   345   346   347
348   349   350   351
352   353   354   355
356   357   358   359
360   361   362   363
364   365   366   367
368   369   370   371
372   373   374   375
376   377   378   379
380   381   382   383
384   385   386   387
388   389   390   391
392   393   394   395
396   397   398   399
400   401   402   403
404   405   406   407
408   409   410   411
412   413   414   415
416   417   418   419
420   421   422   423
424   425   426   427
428   429   430   431
432   433   434   435
436   437   438   439
440   441   442   443
444   445   446   447
448   449   450   451
452   453   454   455
456   457   458   459
460   461   462   463
464   465   466   467
468   469   470   471
472   473   474   475
476   477   478   479
480   481   482   483
484   485   486   487
488   489   490   491
492   493   494   495
496   497   498   499
500   501   502   503
504   505   506   507
508   509   510   511
512   513   514   515
516   517   518   519
520   521   522   523
524   525   526   527
528   529   530   531
532   533   534   535
536   537   538   539
540   541   542   543
544   545   546   547
548   549   550   551
552   553   554   555
556   557   558   559
560   561   562   563
564   565   566   567
568   569   570   571
572   573   574   575
576   577   578   579
580   581   582   583
584   585   586   587
588   589   590   591
592   593   594   595
596   597   598   599
600   601   602   603
604   605   606   607
608   609   610   611
612   613   614   615
616   617   618   619
620   621   622   623
624   625   626   627
628   629   630   631
632   633   634   635
636   637   638   639
640   641   642   643
644   645   646   647
648   649   650   651
652   653   654   655
656   657   658   659
660   661   662   663
664   665   666   667
668   669   670   671
672   673   674   675
676   677   678   679
680   681   682   683
684   685   686   687
688   689   690   691
692   693   694   695
696   697   698   699
700   701   702   703
704   705   706   707
708   709   710   711
712   713   714   715
716   717   718   719
720   721   722   723
724   725   726   727
728   729   730   731
732   733   734   735
736   737   738   739
740   741   742   743
744   745   746   747
748   749   750   751
752   753   754   755
756   757   758   759
760   761   762   763
764   765   766   767
768   769   770   771
772   773   774   775
776   777   778   779
780   781   782   783
784   785   786   787
788   789   790   791
792   793   794   795
796   797   798   799
800   801   802   803
804   805   806   807
808   809   810   811
812   813   814   815
816   817   818   819
820   821   822   823
824   825   826   827
828   829   830   831
832   833   834   835
836   837   838   839
840   841   842   843
844   845   846   847
848   849   850   851
852   853   854   855
856   857   858   859
860   861   862   863
864   865   866   867
868   869   870   871
872   873   874   875
876   877   878   879
880   881   882   883
884   885   886   887
888   889   890   891
892   893   894   895
896   897   898   899
900   901   902   903
904   905   906   907
908   909   910   911
912   913   914   915
916   917   918   919
920   921   922   923
924   925   926   927
928   929   930   931
932   933   934   935
936   937   938   939
940   941   942   943
944   945   946   947
948   949   950   951
952   953   954   955
956   957   958   959
960   961   962   963
964   965   966   967
968   969   970   971
972   973   974   975
976   977   978   979
980   981   982   983
984   985   986   987
988   989   990   991
992   993   994   995
996   997   998   999
1000   1001   1002   1003
1004   1005   1006   1007
1008   1009   1010   1011
1012   1013   1014   1015
1016   1017   1018   1019
1020   1021   1022   1023
1024   1025   1026   1027
1028   1029   1030   1031
1032   1033   1034   1035
1036   1037   1038   1039
1040   1041   1042   1043
1044   1045   1046   1047
1048   1049   1050   1051
1052   1053   1054   1055
1056   1057   1058   1059
1060   1061   1062   1063
1064   1065   1066   1067
1068   1069   1070   1071
1072   1073   1074   1075
1076   1077   1078   1079
1080   1081   1082   1083
1084   1085   1086   1087
1088   1089   1090   1091
1092   1093   1094   1095
1096   1097   1098   1099
1100   1101   1102   1103
1104   1105   1106   1107
1108   1109   1110   1111
1112   1113   1114   1115
1116   1117   1118   1119
1120   1121   1122   1123
1124   1125   1126   1127
1128   1129   1130   1131
1132   1133   1134   1135
1136   1137   1138   1139
1140   1141   1142   1143
1144   1145   1146   1147
1148   1149   1150   1151
1152   1153   1154   1155
1156   1157   1158   1159
1160   1161   1162   1163
1164   1165   1166   1167
1168   1169   1170   1171
1172   1173   1174   1175
1176   1177   1178   1179
1180   1181   1182   1183
1184   1185   1186   1187
1188   1189   1190   1191
1192   1193   1194   1195
1196   1197   1198   1199
1200   1201   1202   1203
1204   1205   1206   1207
1208   1209   1210   1211
1212   1213   1214   1215
1216   1217   1218   1219
1220   1221   1222   1223
1224   1225   1226   1227
1228   1229   1230   1231
1232   1233   1234   1235
1236   1237   1238   1239
1240   1241   1242   1243
1244   1245   1246   1247
1248   1249   1250   1251
1252   1253   1254   1255
1256   1257   1258   1259
1260   1261   1262   1263
1264   1265   1266   1267
1268   1269   1270   1271
1272   1273   1274   1275
1276   1277   1278   1279
1280   1281   1282   1283
1284   1285   1286   1287
1288   1289   1290   1291
1292   1293   1294   1295
1296   1297   1298   1299
1300   1301   1302   1303
1304   1305   1306   1307
1308   1309   1310   1311
1312   1313   1314   1315
1316   1317   1318   1319
1320   1321   1322   1323
1324   1325   1326   1327
1328   1329   1330   1331
1332   1333   1334   1335
1336   1337   1338   1339
1340   1341   1342   1343
1344   1345   1346   1347
1348   1349   1350   1351
1352   1353   1354   1355
1356   1357   1358   1359
1360   1361   1362   1363
1364   1365   1366   1367
1368   1369   1370   1371
1372   1373   1374   1375
1376   1377   1378   1379
1380   1381   1382   1383
1384   1385   1386   1387
1388   1389   1390   1391
1392   1393   1394   1395
1396   1397   1398   1399
1400   1401   1402   1403
1404   1405   1406   1407
1408   1409   1410   1411
1412   1413   1414   1415
1416   1417   1418   1419
1420   1421   1422   1423
1424   1425   1426   1427
1428   1429   1430   1431
1432   1433   1434   1435
1436   1437   1438   1439
1440   1441   1442   1443
1444   1445   1446   1447
1448   1449   1450   1451
1452   1453   1454   1455
1456   1457   1458   1459
1460   1461   1462   1463
1464   1465   1466   1467
1468   1469   1470   1471
1472   1473   1474   1475
1476   1477   1478   1479
1480   1481   1482   1483
1484   1485   1486   1487
1488   1489   1490   1491
1492   1493   1494   1495
1496   1497   1498   1499
1500   1501   1502   1503
1504   1505   1506   1507
1508   1509   1510   1511
1512   1513   1514   1515
1516   1517   1518   1519
1520   1521   1522   1523
1524   1525   1526   1527
1528   1529   1530   1531
1532   1533   1534   1535
1536   1537   1538   1539
1540   1541   1542   1543
1544   1545   1546   1547
1548   1549   1550   1551
1552   1553   1554   1555
1556   1557   1558   1559
1560   1561   1562   1563
1564   1565   1566   1567
1568   1569   1570   1571
1572   1573   1574   1575
1576   1577   1578   1579
1580   1581   1582   1583
1584   1585   1586   1587
1588   1589   1590   1591
1592   1593   1594   1595
1596   1597   1598   1599
1600   1601   1602   1603
1604   1605   1606   1607
1608   1609   1610   1611
1612   1613   1614   1615
1616   1617   1618   1619
1620   1621   1622   1623
1624   1625   1626   1627
1628   1629   1630   1631
1632   1633   1634   1635
1636   1637   1638   1639
1640   1641   1642   1643
1644   1645   1646   1647
1648   1649   1650   1651
1652   1653   1654   1655
1656   1657   1658   1659
1660   1661   1662   1663
1664   1665   1666   1667
1668   1669   1670   1671
1672   1673   1674   1675
1676   1677   1678   1679
1680   1681   1682   1683
1684   1685   1686   1687
1688   1689   1690   1691
1692   1693   1694   1695
1696   1697   1698   1699
1700   1701   1702   1703
1704   1705   1706   1707
1708   1709   1710   1711
1712   1713   1714   1715
1716   1717   1718   1719
1720   1721   1722   1723
1724   1725   1726   1727
1728   1729   1730   1731
1732   1733   1734   1735
1736   1737   1738   1739
1740   1741   1742   1743
1744   1745   1746   1747
1748   1749   1750   1751
1752   1753   1754   1755
1756   1757   1758   1759
1760   1761   1762   1763
1764   1765   1766   1767
1768   1769   1770   1771
1772   1773   1774   1775
1776   1777   1778   1779
1780   1781   1782   1783
1784   1785   1786   1787
1788   1789   1790   1791
1792   1793   1794   1795
1796   1797   1798   1799
1800   1801   1802   1803
1804   1805   1806   1807
1808   1809   1810   1811
1812   1813   1814   1815
1816   1817   1818   1819
1820   1821   1822   1823
1824   1825   1826   1827
1828   1829   1830   1831
1832   1833   1834   1835
1836   1837   1838   1839
1840   1841   1842   1843
1844   1845   1846   1847
1848   1849   1850   1851
1852   1853   1854   1855
1856   1857   1858   1859
1860   1861   1862   1863
1864   1865   1866   1867
1868   1869   1870   1871
1872   1873   1874   1875
1876   1877   1878   1879
1880   1881   1882   1883
1884   1885   1886   1887
1888   1889   1890   1891
1892   1893   1894   1895
1896   1897   1898   1899
1900   1901   1902   1903
1904   1905   1906   1907
1908   1909   1910   1911
1912   1913   1914   1915
1916   1917   1918   1919
1920   1921   1922   1923
1924   1925   1926   1927
1928   1929   1930   1931
1932   1933   1934   1935
1936   1937   1938   1939
1940   1941   1942   1943
1944   1945   1946   1947
1948   1949   1950   1951
1952   1953   1954   1955
1956   1957   1958   1959
1960   1961   1962   1963
1964   1965   1966   1967
1968   1969   1970   1971
1972   1973   1974   1975
1976   1977   1978   1979
1980   1981   1982   1983
1984   1985   1986   1987
1988   1989   1990   1991
1992   1993   1994   1995
1996   1997   1998   1999
2000   2001   2002   2003
2004   2005   2006   2007
2008   2009   2010   2011
2012   2013   2014   2015
2016   2017   2018   2019
2020   2021   2022   2023
2024   2025   2026   2027
2028   2029   2030   2031
2032   2033   2034   2035
2036   2037   2038   2039
2040   2041   2042   2043
2044   2045   2046   2047
2048   2049   2050   2051
2052   2053   2054   2055
2056   2057   2058   2059
2060   2061   2062   2063
2064   2065   2066   2067
2068   2069   2070   2071
2072   2073   2074   2075
2076   2077   2078   2079
2080   2081   2082   2083
2084   2085   2086   2087
2088   2089   2090   2091
2092   2093   2094   2095
2096   2097   2098   2099
2100   2101   2102   2103
2104   2105   2106   2107
2108   2109   2110   2111
2112   2113   2114   2115
2116   2117   2118   2119
2120   2121   2122   2123
2124   2125   2126   2127
2128   2129   2130   2131
2132   2133   2134   2135
2136   2137   2138   2139
2140   2141   2142   2143
2144   2145   2146   2147
2148   2149   2150   2151
2152   2153   2154   2155
2156   2157   2158   2159
2160   2161   2162   2163
2164   2165   2166   2167
2168   2169   2170   2171
2172   2173   2174   2175
2176   2177   2178   2179
2180   2181   2182   2183
2184   2185   2186   2187
2188   2189   2190   2191
2192   2193   2194   2195
2196   2197   2198   2199
2200   2201   2202   2203
2204   2205   2206   2207
2208   2209   2210   2211
2212   2213   2214   2215
2216   2217   2218   2219
2220   2221   2222   2223
2224   2225   2226   2227
2228   2229   2230   2231
2232   2233   2234   2235
2236   2237   2238   2239
2240   2241   2242   2243
2244   2245   2246   2247
2248   2249   2250   2251
2252   2253   2254   2255
2256   2257   2258   2259
2260   2261   2262   2263
2264   2265   2266   2267
2268   2269   2270   2271
2272   2273   2274   2275
2276   2277   2278   2279
2280   2281   2282   2283
2284   2285   2286   2287
2288   2289   2290   2291
2292   2293   2294   2295
2296   2297   2298   2299
2300   2301   2302   2303
2304   2305   2306   2307
2308   2309   2310   2311
2312   2313   2314   2315
2316   2317   2318   2319
2320   2321   2322   2323
2324   2325   2326   2327
2328   2329   2330   2331
2332   2333   2334   2335
2336   2337   2338   2339
2340   2341   2342   2343
2344   2345   2346   2347
2348   2349   2350   2351
2352   2353   2354   2355
2356   2357   2358   2359
2360   2361   2362   2363
2364   2365   2366   2367
2368   2369   2370   2371
2372   2373   2374   2375
2376   2377   2378   2379
2380   2381   2382   2383
2384   2385   2386   2387
2388   2389   2390   2391
2392   2393   2394   2395
2396   2397   2398   2399
2400   2401   2402   2403
2404   2405   2406   2407
2408   2409   2410   2411
2412   2413   2414   2415
2416   2417   2418   2419
2420   2421   2422   2423
2424   2425   2426   2427
2428   2429   2430   2431
2432   2433   2434   2435
2436   2437   2438   2439
2440   2441   2442   2443
2444   2445   2446   2447
2448   2449   2450   2451
2452   2453   2454   2455
2456   2457   2458   2459
2460   2461   2462   2463
2464   2465   2466   2467
2468   2469   2470   2471
2472   2473   2474   2475
2476   2477   2478   2479
2480   2481   2482   2483
2484   2485   2486   2487
2488   2489   2490   2491
2492   2493   2494   2495
2496   2497   2498   2499
2500   2501   2502   2503
2504   2505   2506   2507
2508   2509   2510   2511
2512   2513   2514   2515
2516   2517   2518   2519
2520   2521   2522   2523
2524   2525   2526   2527
2528   2529   2530   2531
2532   2533   2534   2535
2536   2537   2538   2539
2540   2541   2542   2543
2544   2545   2546   2547
2548   2549   2550   2551
2552   2553   2554   2555
2556   2557   2558   2559
2560   2561   2562   2563
2564   2565   2566   2567
2568   2569   2570   2571
2572   2573   2574   2575
2576   2577   2578   2579
2580   2581   2582   2583
2584   2585   2586   2587
2588   2589   2590   2591
2592   2593   2594   2595
2596   2597   2598   2599
2600   2601   2602   2603
2604   2605   2606   2607
2608   2609   2610   2611
2612   2613   2614   2615
2616   2617   2618   2619
2620   2621   2622   2623
2624   2625   2626   2627
2628   2629   2630   2631
2632   2633   2634   2635
2636   2637   2638   2639
2640   2641   2642   2643
2644   2645   2646   2647
2648   2649   2650   2651
2652   2653   2654   2655
2656   2657   2658   2659
2660   2661   2662   2663
2664   2665   2666   2667
2668   2669   2670   2671
2672   2673   2674   2675
2676   2677   2678   2679
2680   2681   2682   2683
2684   2685   2686   2687
2688   2689   2690   2691
2692   2693   2694   2695
2696   2697   2698   2699
2700   2701   2702   2703
2704   2705   2706   2707
2708   2709   2710   2711
2712   2713   2714   2715
2716   2717   2718   2719
2720   2721   2722   2723
2724   2725   2726   2727
2728   2729   2730   2731
2732   2733   2734   2735
2736   2737   2738   2739
2740   2741   2742   2743
2744   2745   2746   2747
2748   2749   2750   2751
2752   2753   2754   2755
2756   2757   2758   2759
2760   2761   2762   2763
2764   2765   2766   2767
2768   2769   2770   2771
2772   2773   2774   2775
2776   2777   2778   2779
2780   2781   2782   2783
2784   2785   2786   2787
2788   2789   2790   2791
2792   2793   2794   2795
2796   2797   2798   2799
2800   2801   2802   2803
2804   2805   2806   2807
2808   2809   2810   2811
2812   2813   2814   2815
2816   2817   2818   2819
2820   2821   2822   2823
2824   2825   2826   2827
2828   2829   2830   2831
2832   2833   2834   2835
2836   2837   2838   2839
2840   2841   2842   2843
2844   2845   2846   2847
2848   2849   2850   2851
2852   2853   2854   2855
2856   2857   2858   2859
2860   2861   2862   2863
2864   2865   2866   2867
2868   2869   2870   2871
2872   2873   2874   2875
2876   2877   2878   2879
2880   2881   2882   2883
2884   2885   2886   2887
2888   2889   2890   2891
2892   2893   2894   2895
2896   2897   2898   2899
2900   2901   2902   2903
2904   2905   2906   2907
2908   2909   2910   2911
2912   2913   2914   2915
2916   2917   2918   2919
2920   2921   2922   2923
2924   2925   2926   2927
2928   2929   2930   2931
2932   2933   2934   2935
2936   2937   2938   2939
2940   2941   2942   2943
2944   2945   2946   2947
2948   2949   2950   2951
2952   2953   2954   2955
2956   2957   2958   2959
2960   2961   2962   2963
2964   2965   2966   2967
2968   2969   2970   2971
2972   2973   2974   2975
2976   2977   2978   2979
2980   2981   2982   2983
2984   2985   2986   2987
2988   2989   2990   2991
2992   2993   2994   2995
2996   2997   2998   2999
3000   3001   3002   3003
3004   3005   3006   3007
3008   3009   3010   3011
3012   3013   3014   3015
3016   3017   3018   3019
3020   3021   3022   3023
3024   3025   3026   3027
3028   3029   3030   3031
3032   3033   3034   3035
3036   3037   3038   3039
3040   3041   3042   3043
3044   3045   3046   3047
3048   3049   3050   3051
3052   3053   3054   3055
3056   3057   3058   3059
3060   3061   3062   3063
3064   3065   3066   3067
3068   3069   3070   3071
3072   3073   3074   3075
3076   3077   3078   3079
3080   3081   3082   3083
3084   3085   3086   3087
3088   3089   3090   3091
3092   3093   3094   3095
3096   3097   3098   3099
3100   3101   3102   3103
3104   3105   3106   3107
3108   3109   3110   3111
3112   3113   3114   3115
3116   3117   3118   3119
3120   3121   3122   3123
3124   3125   3126   3127
3128   3129   3130   3131
3132   3133   3134   3135
3136   3137   3138   3139
3140   3141   3142   3143
3144   3145   3146   3147
3148   3149   3150   3151
3152   3153   3154   3155
3156   3157   3158   3159
3160   3161   3162   3163
3164   3165   3166   3167
3168   3169   3170   3171
3172   3173   3174   3175
3176   3177   3178   3179
3180   3181   3182   3183
3184   3185   3186   3187
3188   3189   3190   3191
3192   3193   3194   3195
3196   3197   3198   3199
3200   3201   3202   3203
3204   3205   3206   3207
3208   3209   3210   3211
3212   3213   3214   3215
3216   3217   3218   3219
3220   3221   3222   3223
3224   3225   3226   3227
3228   3229   3230   3231
3232   3233   3234   3235
3236   3237   3238   3239
3240   3241   3242   3243
3244   3245   3246   3247
3248   3249   3250   3251
3252   3253   3254   3255
3256   3257   3258   3259
3260   3261   3262   3263
3264   3265   3266   3267
3268   3269   3270   3271
3272   3273   3274   3275
3276   3277   3278   3279
3280   3281   3282   3283
3284   3285   3286   3287
3288   3289   3290   3291
3292   3293   3294   3295
3296   3297   3298   3299
3300   3301   3302   3303
3304   3305   3306   3307
3308   3309   3310   3311
3312   3313   3314   3315
3316   3317   3318   3319
3320   3321   3322   3323
3324   3325   3326   3327
3328   3329   3330   3331
3332   3333   3334   3335
3336   3337   3338   3339
3340   3341   3342   3343
3344   3345   3346   3347
3348   3349   3350   3351
3352   3353   3354   3355
3356   3357   3358   3359
3360   3361   3362   3363
3364   3365   3366   3367
3368   3369   3370   3371
3372   3373   3374   3375
3376   3377   3378   3379
3380   3381   3382   3383
3384   3385   3386   3387
3388   3389   3390   3391
3392   3393   3394   3395
3396   3397   3398   3399
3400   3401   3402   3403
3404   3405   3406   3407
3408   3409   3410   3411
3412   3413   3414   3415
3416   3417   3418   3419
3420   3421   3422   3423
3424   3425   3426   3427
3428   3429   3430   3431
3432   3433   3434   3435
3436   3437   3438   3439
3440   3441   3442   3443
3444   3445   3446   3447
3448   3449   3450   3451
3452   3453   3454   3455
3456   3457   3458   3459
3460   3461   3462   3463
3464   3465   3466   3467
3468   3469   3470   3471
3472   3473   3474   3475
3476   3477   3478   3479
3480   3481   3482   3483
3484   3485   3486   3487
3488   3489   3490   3491
3492   3493   3494   3495
3496   3497   3498   3499
3500   3501   3502   3503
3504   3505   3506   3507
3508   3509   3510   3511
3512   3513   3514   3515
3516   3517   3518   3519
3520   3521   3522   3523
3524   3525   3526   3527
3528   3529   3530   3531
3532   3533   3534   3535
3536   3537   3538   3539
3540   3541   3542   3543
3544   3545   3546   3547
3548   3549   3550   3551
3552   3553   3554   3555
3556   3557   3558   3559
3560   3561   3562   3563
3564   3565   3566   3567
3568   3569   3570   3571
3572   3573   3574   3575
3576   3577   3578   3579
3580   3581   3582   3583
3584   3585   3586   3587
3588   3589   3590   3591
3592   3593   3594   3595
3596   3597   3598   3599
3600   3601   3602   3603
3604   3605   3606   3607
3608   3609   3610   3611
3612   3613   3614   3615
3616   3617   3618   3619
3620   3621   3622   3623
3624   3625   3626   3627
3628   3629   3630   3631
3632   3633   3634   3635
3636   3637   3638   3639
3640   3641   3642   3643
3644   3645   3646   3647
3648   3649   3650   3651
3652   3653   3654   3655
3656   3657   3658   3659
3660   3661   3662   3663
3664   3665   3666   3667
3668   3669   3670   3671
3672   3673   3674   3675
3676   3677   3678   3679
3680   3681   3682   3683
3684   3685   3686   3687
3688   3689   3690   3691
3692   3693   3694   3695
3696   3697   3698   3699
3700   3701   3702   3703
3704   3705   3706   3707
3708   3709   3710   3711
3712   3713   3714   3715
3716   3717   3718   3719
3720   3721   3722   3723
3724   3725   3726   3727
3728   3729   3730   3731
3732   3733   3734   3735
3736   3737   3738   3739
3740   3741   3742   3743
3744   3745   3746   3747
3748   3749   3750   3751
3752   3753   3754   3755
3756   3757   3758   3759
3760   3761   3762   3763
3764   3765   3766   3767
3768   3769   3770   3771
3772   3773   3774   3775
3776   3777   3778   3779
3780   3781   3782   3783
3784   3785   3786   3787
3788   3789   3790   3791
3792   3793   3794   3795
3796   3797   3798   3799
3800   3801   3802   3803
3804   3805   3806   3807
3808   3809   3810   3811
3812   3813   3814   3815
3816   3817   3818   3819
3820   3821   3822   3823
3824   3825   3826   3827
3828   3829   3830   3831
3832   3833   3834   3835
3836   3837   3838   3839
3840   3841   3842   3843
3844   3845   3846   3847
3848   3849   3850   3851
3852   3853   3854   3855
3856   3857   3858   3859
3860   3861   3862   3863
3864   3865   3866   3867
3868   3869   3870   3871
3872   3873   3874   3875
3876   3877   3878   3879
3880   3881   3882   3883
3884   3885   3886   3887
3888   3889   3890   3891
3892   3893   3894   3895
3896   3897   3898   3899
3900   3901   3902   3903
3904   3905   3906   3907
3908   3909   3910   3911
3912   3913   3914   3915
3916   3917   3918   3919
3920   3921   3922   3923
3924   3925   3926   3927
3928   3929   3930   3931
3932   3933   3934   3935
3936   3937   3938   3939
3940   3941   3942   3943
3944   3945   3946   3947
3948   3949   3950   3951
3952   3953   3954   3955
3956   3957   3958   3959
3960   3961   3962   3963
3964   3965   3966   3967
3968   3969   3970   3971
3972   3973   3974   3975
3976   3977   3978   3979
3980   3981   3982   3983
3984   3985   3986   3987
3988   3989   3990   3991
3992   3993   3994   3995
3996   3997   3998   3999
4000   4001   4002   4003
4004   4005   4006   4007
4008   4009   4010   4011
4012   4013   4014   4015
4016   4017   4018   4019
4020   4021   4022   4023
4024   4025   4026   4027
4028   4029   4030   4031
4032   4033   4034   4035
4036   4037   4038   4039
4040   4041   4042   4043
4044   4045   4046   4047
4048   4049   4050   4051
4052   4053   4054   4055
4056   4057   4058   4059
4060   4061   4062   4063
4064   4065   4066   4067
4068   4069   4070   4071
4072   4073   4074   4075
4076   4077   4078   4079
4080   4081   4082   4083
4084   4085   4086   4087
4088   4089   4090   4091
4092   4093   4094   4095
4096   4097   4098   4099
4100   4101   4102   4103
4104   4105   4106   4107
4108   4109   4110   4111
4112   4113   4114   4115
4116   4117   4118   4119
4120   4121   4122   4123
4124   4125   4126   4127
4128   4129   4130   4131
4132   4133   4134   4135
4136   4137   4138   4139
4140   4141   4142   4143
4144   4145   4146   4147
4148   4149   4150   4151
4152   4153   4154   4155
4156   4157   4158   4159
4160   4161   4162   4163
4164   4165   4166   4167
4168   4169   4170   4171
4172   4173   4174   4175
4176   4177   4178   4179
4180   4181   4182   4183
4184   4185   4186   4187
4188   4189   4190   4191
4192   4193   4194   4195
4196   4197   4198   4199
4200   4201   4202   4203
4204   4205   4206   4207
4208   4209   4210   4211
4212   4213   4214   4215
4216   4217   4218   4219
4220   4221   4222   4223
4224   4225   4226   4227
4228   4229   4230   4231
4232   4233   4234   4235
4236   4237   4238   4239
4240   4241   4242   4243
4244   4245   4246   4247
4248   4249   4250   4251
4252   4253   4254   4255
4256   4257   4258   4259
4260   4261   4262   4263
4264   4265   4266   4267
4268   4269   4270   4271
4272   4273   4274   4275
4276   4277   4278   4279
4280   4281   4282   4283
4284   4285   4286   4287
4288   4289   4290   4291
4292   4293   4294   4295
4296   4297   4298   4299
4300   4301   4302   4303
4304   4305   4306   4307
4308   4309   4310   4311
4312   4313   4314   4315
4316   4317   4318   4319
4320   4321   4322   4323
4324   4325   4326   4327
4328   4329   4330   4331
4332   4333   4334   4335
4336   4337   4338   4339
4340   4341   4342   4343
4344   4345   4346   4347
4348   4349   4350   4351
4352   4353   4354   4355
4356   4357   4358   4359
4360   4361   4362   4363
4364   4365   4366   4367
4368   4369   4370   4371
4372   4373   4374   4375
4376   4377   4378   4379
4380   4381   4382   4383
4384   4385   4386   4387
4388   4389   4390   4391
4392   4393   4394   4395
4396   4397   4398   4399
4400   4401   4402   4403
4404   4405   4406   4407
4408   4409   4410   4411
4412   4413   4414   4415
4416   4417   4418   4419
4420   4421   4422   4423
4424   4425   4426   4427
4428   4429   4430   4431
4432   4433   4434   4435
4436   4437   4438   4439
4440   4441   4442   4443
4444   4445   4446   4447
4448   4449   4450   4451
4452   4453   4454   4455
4456   4457   4458   4459
4460   4461   4462   4463
4464   4465   4466   4467
4468   4469   4470   4471
4472   4473   4474   4475
4476   4477   4478   4479
4480   4481   4482   4483
4484   4485   4486   4487
4488   4489   4490   4491
4492   4493   4494   4495
4496   4497   4498   4499
4500   4501   4502   4503
4504   4505   4506   4507
4508   4509   4510   4511
4512   4513   4514   4515
4516   4517   4518   4519
4520   4521   4522   4523
4524   4525   4526   4527
4528   4529   4530   4531
4532   4533   4534   4535
4536   4537   4538   4539
4540   4541   4542   4543
4544   4545   4546   4547
4548   4549   4550   4551
4552   4553   4554   4555
4556   4557   4558   4559
4560   4561   4562   4563
4564   4565   4566   4567
4568   4569   4570   4571
4572   4573   4574   4575
4576   4577   4578   4579
4580   4581   4582   4583
4584   4585   4586   4587
4588   4589   4590   4591
4592   4593   4594   4595
4596   4597   4598   4599
4600   4601   4602   4603
4604   4605   4606   4607
4608   4609   4610   4611
4612   4613   4614   4615
4616   4617   4618   4619
4620   4621   4622   4623
4624   4625   4626   4627
4628   4629   4630   4631
4632   4633   4634   4635
4636   4637   4638   4639
4640   4641   4642   4643
4644   4645   4646   4647
4648   4649   4650   4651
4652   4653   4654   4655
4656   4657   4658   4659
4660   4661   4662   4663
4664   4665   4666   4667
4668   4669   4670   4671
4672   4673   4674   4675
4676   4677   4678   4679
4680   4681   4682   4683
4684   4685   4686   4687
4688   4689   4690   4691
4692   4693   4694   4695
4696   4697   4698   4699
4700   4701   4702   4703
4704   4705   4706   4707
4708   4709   4710   4711
4712   4713   4714   4715
4716   4717   4718   4719
4720   4721   4722   4723
4724   4725   4726   4727
4728   4729   4730   4731
4732   4733   4734   4735
4736   4737   4738   4739
4740   4741   4742   4743
4744   4745   4746   4747
4748   4749   4750   4751
4752   4753   4754   4755
4756   4757   4758   4759
4760   4761   4762   4763
4764   4765   4766   4767
4768   4769   4770   4771
4772   4773   4774   4775
4776   4777   4778   4779
4780   4781   4782   4783
4784   4785   4786   4787
4788   4789   4790   4791
4792   4793   4794   4795
4796   4797   4798   4799
4800   4801   4802   4803
4804   4805   4806   4807
4808   4809   4810   4811
4812   4813   4814   4815
4816   4817   4818   4819
4820   4821   4822   4823
4824   4825   4826   4827
4828   4829   4830   4831
4832   4833   4834   4835
4836   4837   4838   4839
4840   4841   4842   4843
4844   4845   4846   4847
4848   4849   4850   4851
4852   4853   4854   4855
4856   4857   4858   4859
4860   4861   4862   4863
4864   4865   4866   4867
4868   4869   4870   4871
4872   4873   4874   4875
4876   4877   4878   4879
4880   4881   4882   4883
4884   4885   4886   4887
4888   4889   4890   4891
4892   4893   4894   4895
4896   4897   4898   4899
4900   4901   4902   4903
4904   4905   4906   4907
4908   4909   4910   4911
4912   4913   4914   4915
4916   4917   4918   4919
4920   4921   4922   4923
4924   4925   4926   4927
4928   4929   4930   4931
4932   4933   4934   4935
4936   4937   4938   4939
4940   4941   4942   4943
4944   4945   4946   4947
4948   4949   4950   4951
4952   4953   4954   4955
4956   4957   4958   4959
4960   4961   4962   4963
4964   4965   4966   4967
4968   4969   4970   4971
4972   4973   4974   4975
4976   4977   4978   4979
4980   4981   4982   4983
4984   4985   4986   4987
4988   4989   4990   4991
4992   4993   4994   4995
4996   4997   4998   4999
5000   5001   5002   5003
5004   5005   5006   5007
5008   5009   5010   5011
5012   5013   5014   5015
5016   5017   5018   5019
5020   5021   5022   5023
5024   5025   5026   5027
5028   5029   5030   5031
5032   5033   5034   5035
5036   5037   5038   5039
5040   5041   5042   5043
5044   5045   5046   5047
5048   5049   5050   5051
5052   5053   5054   5055
5056   5057   5058   5059
5060   5061   5062   5063
5064   5065   5066   5067
5068   5069   5070   5071
5072   5073   5074   5075
5076   5077   5078   5079
5080   5081   5082   5083
5084   5085   5086   5087
5088   5089   5090   5091
5092   5093   5094   5095
5096   5097   5098   5099
5100   5101   5102   5103
5104   5105   5106   5107
5108   5109   5110   5111
5112   5113   5114   5115
5116   5117   5118   5119
5120   5121   5122   5123
5124   5125   5126   5127
5128   5129   5130   5131
5132   5133   5134   5135
5136   5137   5138   5139
5140   5141   5142   5143
5144   5145   5146   5147
5148   5149   5150   5151
5152   5153   5154   5155
5156   5157   5158   5159
5160   5161   5162   5163
5164   5165   5166   5167
5168   5169   5170   5171
5172   5173   5174   5175
5176   5177   5178   5179
5180   5181   5182   5183
5184   5185   5186   5187
5188   5189   5190   5191
5192   5193   5194   5195
5196   5197   5198   5199
5200   5201   5202   5203
5204   5205   5206   5207
5208   5209   5210   5211
5212   5213   5214   5215
5216   5217   5218   5219
5220   5221   5222   5223
5224   5225   5226   5227
5228   5229   5230   5231
5232   5233   5234   5235
5236   5237   5238   5239
5240   5241   5242   5243
5244   5245   5246   5247
5248   5249   5250   5251
5252   5253   5254   5255
5256   5257   5258   5259
5260   5261   5262   5263
5264   5265   5266   5267
5268   5269   5270   5271
5272   5273   5274   5275
5276   5277   5278   5279
5280   5281   5282   5283
5284   5285   5286   5287
5288   5289   5290   5291
5292   5293   5294   5295
5296   5297   5298   5299
5300   5301   5302   5303
5304   5305   5306   5307
5308   5309   5310   5311
5312   5313   5314   5315
5316   5317   5318   5319
5320   5321   5322   5323
5324   5325   5326   5327
5328   5329   5330   5331
5332   5333   5334   5335
5336   5337   5338   5339
5340   5341   5342   5343
5344   5345   5346   5347
5348   5349   5350   5351
5352   5353   5354   5355
5356   5357   5358   5359
5360   5361   5362   5363
5364   5365   5366   5367
5368   5369   5370   5371
5372   5373   5374   5375
5376   5377   5378   5379
5380   5381   5382   5383
5384   5385   5386   5387
5388   5389   5390   5391
5392   5393   5394   5395
5396   5397   5398   5399
5400   5401   5402   5403
5404   5405   5406   5407
5408   5409   5410   5411
5412   5413   5414   5415
5416   5417   5418   5419
5420   5421   5422   5423
5424   5425   5426   5427
5428   5429   5430   5431
5432   5433   5434   5435
5436   5437   5438   5439
5440   5441   5442   5443
5444   5445   5446   5447
5448   5449   5450   5451
5452   5453   5454   5455
5456   5457   5458   5459
5460   5461   5462   5463
5464   5465   5466   5467
5468   5469   5470   5471
5472   5473   5474   5475
5476   5477   5478   5479
5480   5481   5482   5483
5484   5485   5486   5487
5488   5489   5490   5491
5492   5493   5494   5495
5496   5497   5498   5499
5500   5501   5502   5503
5504   5505   5506   5507
5508   5509   5510   5511
5512   5513   5514   5515
5516   5517   5518   5519
5520   5521   5522   5523
5524   5525   5526   5527
5528   5529   5530   5531
5532   5533   5534   5535
5536   5537   5538   5539
5540   5541   5542   5543
5544   5545   5546   5547
5548   5549   5550   5551
5552   5553   5554   5555
5556   5557   5558   5559
5560   5561   5562   5563
5564   5565   5566   5567
5568   5569   5570   5571
5572   5573   5574   5575
5576   5577   5578   5579
5580   5581   5582   5583
5584   5585   5586   5587
5588   5589   5590   5591
5592   5593   5594   5595
5596   5597   5598   5599
5600   5601   5602   5603
5604   5605   5606   5607
5608   5609   5610   5611
5612   5613   5614   5615
5616   5617   5618   5619
5620   5621   5622   5623
5624   5625   5626   5627
5628   5629   5630   5631
5632   5633   5634   5635
5636   5637   5638   5639
5640   5641   5642   5643
5644   5645   5646   5647
5648   5649   5650   5651
5652   5653   5654   5655
5656   5657   5658   5659
5660   5661   5662   5663
5664   5665   5666   5667
5668   5669   5670   5671
5672   5673   5674   5675
5676   5677   5678   5679
5680   5681   5682   5683
5684   5685   5686   5687
5688   5689   5690   5691
5692   5693   5694   5695
5696   5697   5698   5699
5700   5701   5702   5703
5704   5705   5706   5707
5708   5709   5710   5711
5712   5713   5714   5715
5716   5717   5718   5719
5720   5721   5722   5723
5724   5725   5726   5727
5728   5729   5730   5731
5732   5733   5734   5735
5736   5737   5738   5739
5740   5741   5742   5743
5744   5745   5746   5747
5748   5749   5750   5751
5752   5753   5754   5755
5756   5757   5758   5759
5760   5761   5762   5763
5764   5765   5766   5767
5768   5769   5770   5771
5772   5773   5774   5775
5776   5777   5778   5779
5780   5781   5782   5783
5784   5785   5786   5787
5788   5789   5790   5791
5792   5793   5794   5795
5796   5797   5798   5799
5800   5801   5802   5803
5804   5805   5806   5807
5808   5809   5810   5811
5812   5813   5814   5815
5816   5817   5818   5819
5820   5821   5822   5823
5824   5825   5826   5827
5828   5829   5830   5831
5832   5833   5834   5835
5836   5837   5838   5839
5840   5841   5842   5843
5844   5845   5846   5847
5848   5849   5850   5851
5852   5853   5854   5855
5856   5857   5858   5859
5860   5861   5862   5863
5864   5865   5866   5867
5868   5869   5870   5871
5872   5873   5874   5875
5876   5877   5878   5879
5880   5881   5882   5883
5884   5885   5886   5887
5888   5889   5890   5891
5892   5893   5894   5895
5896   5897   5898   5899
5900   5901   5902   5903
5904   5905   5906   5907
5908   5909   5910   5911
5912   5913   5914   5915
5916   5917   5918   5919
5920   5921   5922   5923
5924   5925   5926   5927
5928   5929   5930   5931
5932   5933   5934   5935
5936   5937   5938   5939
5940   5941   5942   5943
5944   5945   5946   5947
5948   5949   5950   5951
5952   5953   5954   5955
5956   5957   5958   5959
5960   5961   5962   5963
5964   5965   5966   5967
5968   5969   5970   5971
5972   5973   5974   5975
5976   5977   5978   5979
5980   5981   5982   5983
5984   5985   5986   5987
5988   5989   5990   5991
5992   5993   5994   5995
5996   5997   5998   5999
              </DataArray>   
              <DataArray type="Int32" Name="offsets" format="ascii">   
4
8
12
16
20
24
28
32
36
40
44
48
52
56
60
64
68
72
76
80
84
88
92
96
100
104
108
112
116
120
124
128
132
136
140
144
148
152
156
160
164
168
172
176
180
184
188
192
196
200
204
208
212
216
220
224
228
232
236
240
244
248
252
256
260
264
268
272
276
280
284
288
292
296
300
304
308
312
316
320
324
328
332
336
340
344
348
352
356
360
364
368
372
376
380
384
388
392
396
400
404
408
412
416
420
424
428
432
436
440
444
448
452
456
460
464
468
472
476
480
484
488
492
496
500
504
508
512
516
520
524
528
532
536
540
544
548
552
556
560
564
568
572
576
580
584
588
592
596
600
604
608
612
616
620
624
628
632
636
640
644
648
652
656
660
664
668
672
676
680
684
688
692
696
700
704
708
712
716
720
724
728
732
736
740
744
748
752
756
760
764
768
772
776
780
784
788
792
796
800
804
808
812
816
820
824
828
832
836
840
844
848
852
856
860
864
868
872
876
880
884
888
892
896
900
904
908
912
916
920
924
928
932
936
940
944
948
952
956
960
964
968
972
976
980
984
988
992
996
1000
1004
1008
1012
1016
1020
1024
1028
1032
1036
1040
1044
1048
1052
1056
1060
1064
1068
1072
1076
1080
1084
1088
1092
1096
1100
1104
1108
1112
1116
1120
1124
1128
1132
1136
1140
1144
1148
1152
1156
1160
1164
1168
1172
1176
1180
1184
1188
1192
1196
1200
1204
1208
1212
1216
1220
1224
1228
1232
1236
1240
1244
1248
1252
1256
1260
1264
1268
1272
1276
1280
1284
1288
1292
1296
1300
1304
1308
1312
1316
1320
1324
1328
1332
1336
1340
1344
1348
1352
1356
1360
1364
1368
1372
1376
1380
1384
1388
1392
1396
1400
1404
1408
1412
1416
1420
1424
1428
1432
1436
1440
1444
1448
1452
1456
1460
1464
1468
1472
1476
1480
1484
1488
1492
1496
1500
1504
1508
1512
1516
1520
1524
1528
1532
1536
1540
1544
1548
1552
1556
1560
1564
1568
1572
1576
1580
1584
1588
1592
1596
1600
1604
1608
1612
1616
1620
1624
1628
1632
1636
1640
1644
1648
1652
1656
1660
1664
1668
1672
1676
1680
1684
1688
1692
1696
1700
1704
1708
1712
1716
1720
1724
1728
1732
1736
1740
1744
1748
1752
1756
1760
1764
1768
1772
1776
1780
1784
1788
1792
1796
1800
1804
1808
1812
1816
1820
1824
1828
1832
1836
1840
1844
1848
1852
1856
1860
1864
1868
1872
1876
1880
1884
1888
1892
1896
1900
1904
1908
1912
1916
1920
1924
1928
1932
1936
1940
1944
1948
1952
1956
1960
1964
1968
1972
1976
1980
1984
1988
1992
1996
2000
2004
2008
2012
2016
2020
2024
2028
2032
2036
2040
2044
2048
2052
2056
2060
2064
2068
2072
2076
2080
2084
2088
2092
2096
2100
2104
2108
2112
2116
2120
2124
2128
2132
2136
2140
2144
2148
2152
2156
2160
2164
2168
2172
2176
2180
2184
2188
2192
2196
2200
2204
2208
2212
2216
2220
2224
2228
2232
2236
2240
2244
2248
2252
2256
2260
2264
2268
2272
2276
2280
2284
2288
2292
2296
2300
2304
2308
2312
2316
2320
2324
2328
2332
2336
2340
2344
2348
2352
2356
2360
2364
2368
2372
2376
2380
2384
2388
2392
2396
2400
2404
2408
2412
2416
2420
2424
2428
2432
2436
2440
2444
2448
2452
2456
2460
2464
2468
2472
2476
2480
2484
2488
2492
2496
2500
2504
2508
2512
2516
2520
2524
2528
2532
2536
2540
2544
2548
2552
2556
2560
2564
2568
2572
2576
2580
2584
2588
2592
2596
2600
2604
2608
2612
2616
2620
2624
2628
2632
2636
2640
2644
2648
2652
2656
2660
2664
2668
2672
2676
2680
2684
2688
2692
2696
2700
2704
2708
2712
2716
2720
2724
2728
2732
2736
2740
2744
2748
2752
2756
2760
2764
2768
2772
2776
2780
2784
2788
2792
2796
2800
2804
2808
2812
2816
2820
2824
2828
2832
2836
2840
2844
2848
2852
2856
2860
2864
2868
2872
2876
2880
2884
2888
2892
2896
2900
2904
2908
2912
2916
2920
2924
2928
2932
2936
2940
2944
2948
2952
2956
2960
2964
2968
2972
2976
2980
2984
2988
2992
2996
3000
3004
3008
3012
3016
3020
3024
3028
3032
3036
3040
3044
3048
3052
3056
3060
3064
3068
3072
3076
3080
3084
3088
3092
3096
3100
3104
3108
3112
3116
3120
3124
3128
3132
3136
3140
3144
3148
3152
3156
3160
3164
3168
3172
3176
3180
3184
3188
3192
3196
3200
3204
3208
3212
3216
3220
3224
3228
3232
3236
3240
3244
3248
3252
3256
3260
3264
3268
3272
3276
3280
3284
3288
3292
3296
3300
3304
3308
3312
3316
3320
3324
3328
3332
3336
3340
3344
3348
3352
3356
3360
3364
3368
3372
3376
3380
3384
3388
3392
3396
3400
3404
3408
3412
3416
3420
3424
3428
3432
3436
3440
3444
3448
3452
3456
3460
3464
3468
3472
3476
3480
3484
3488
3492
3496
3500
3504
3508
3512
3516
3520
3524
3528
3532
3536
3540
3544
3548
3552
3556
3560
3564
3568
3572
3576
3580
3584
3588
3592
3596
3600
3604
3608
3612
3616
3620
3624
3628
3632
3636
3640
3644
3648
3652
3656
3660
3664
3668
3672
3676
3680
3684
3688
3692
3696
3700
3704
3708
3712
3716
3720
3724
3728
3732
3736
3740
3744
3748
3752
3756
3760
3764
3768
3772
3776
3780
3784
3788
3792
3796
3800
3804
3808
3812
3816
3820
3824
3828
3832
3836
3840
3844
3848
3852
3856
3860
3864
3868
3872
3876
3880
3884
3888
3892
3896
3900
3904
3908
3912
3916
3920
3924
3928
3932
3936
3940
3944
3948
3952
3956
3960
3964
3968
3972
3976
3980
3984
3988
3992
3996
4000
4004
4008
4012
4016
4020
4024
4028
4032
4036
4040
4044
4048
4052
4056
4060
4064
4068
4072
4076
4080
4084
4088
4092
4096
4100
4104
4108
4112
4116
4120
4124
4128
4132
4136
4140
4144
4148
4152
4156
4160
4164
4168
4172
4176
4180
4184
4188
4192
4196
4200
4204
4208
4212
4216
4220
4224
4228
4232
4236
4240
4244
4248
4252
4256
4260
4264
4268
4272
4276
4280
4284
4288
4292
4296
4300
4304
4308
4312
4316
4320
4324
4328
4332
4336
4340
4344
4348
4352
4356
4360
4364
4368
4372
4376
4380
4384
4388
4392
4396
4400
4404
4408
4412
4416
4420
4424
4428
4432
4436
4440
4444
4448
4452
4456
4460
4464
4468
4472
4476
4480
4484
4488
4492
4496
4500
4504
4508
4512
4516
4520
4524
4528
4532
4536
4540
4544
4548
4552
4556
4560
4564
4568
4572
4576
4580
4584
4588
4592
4596
4600
4604
4608
4612
4616
4620
4624
4628
4632
4636
4640
4644
4648
4652
4656
4660
4664
4668
4672
4676
4680
4684
4688
4692
4696
4700
4704
4708
4712
4716
4720
4724
4728
4732
4736
4740
4744
4748
4752
4756
4760
4764
4768
4772
4776
4780
4784
4788
4792
4796
4800
4804
4808
4812
4816
4820
4824
4828
4832
4836
4840
4844
4848
4852
4856
4860
4864
4868
4872
4876
4880
4884
4888
4892
4896
4900
4904
4908
4912
4916
4920
4924
4928
4932
4936
4940
4944
4948
4952
4956
4960
4964
4968
4972
4976
4980
4984
4988
4992
4996
5000
5004
5008
5012
5016
5020
5024
5028
5032
5036
5040
5044
5048
5052
5056
5060
5064
5068
5072
5076
5080
5084
5088
5092
5096
5100
5104
5108
5112
5116
5120
5124
5128
5132
5136
5140
5144
5148
5152
5156
5160
5164
5168
5172
5176
5180
5184
5188
5192
5196
5200
5204
5208
5212
5216
5220
5224
5228
5232
5236
5240
5244
5248
5252
5256
5260
5264
5268
5272
5276
5280
5284
5288
5292
5296
5300
5304
5308
5312
5316
5320
5324
5328
5332
5336
5340
5344
5348
5352
5356
5360
5364
5368
5372
5376
5380
5384
5388
5392
5396
5400
5404
5408
5412
5416
5420
5424
5428
5432
5436
5440
5444
5448
5452
5456
5460
5464
5468
5472
5476
5480
5484
5488
5492
5496
5500
5504
5508
5512
5516
5520
5524
5528
5532
5536
5540
5544
5548
5552
5556
5560
5564
5568
5572
5576
5580
5584
5588
5592
5596
5600
5604
5608
5612
5616
5620
5624
5628
5632
5636
5640
5644
5648
5652
5656
5660
5664
5668
5672
5676
5680
5684
5688
5692
5696
5700
5704
5708
5712
5716
5720
5724
5728
5732
5736
5740
5744
5748
5752
5756
5760
5764
5768
5772
5776
5780
5784
5788
5792
5796
5800
5804
5808
5812
5816
5820
5824
5828
5832
5836
5840
5844
5848
5852
5856
5860
5864
5868
5872
5876
5880
5884
5888
5892
5896
5900
5904
5908
5912
5916
5920
5924
5928
5932
5936
5940
5944
5948
5952
5956
5960
5964
5968
5972
5976
5980
5984
5988
5992
5996
6000
              </DataArray>   
              <DataArray type="UInt8" Name="types" format="ascii">   
10
10
10
10
10
10
10
10
10
10
10
10
10
10
10
10
10
10
10
10
10
10
10
10
10
10
10
10
10
10
10
10
10
10
10
10
10
10
10
10
10
10
10
10
10
10
10
10
10
10
10
10
10
10
10
10
10
10
10
10
10
10
10
10
10
10
10
10
10
10
10
10
10
10
10
10
10
10
10
10
10
10
10
10
10
10
10
10
10
10
10
10
10
10
10
10
10
10
10
10
10
10
10
10
10
10
10
10
10
10
10
10
10
10
10
10
10
10
10
10
10
10
10
10
10
10
10
10
10
10
10
10
10
10
10
10
10
10
10
10
10
10
10
10
10
10
10
10
10
10
10
10
10
10
10
10
10
10
10
10
10
10
10
10
10
10
10
10
10
10
10
10
10
10
10
10
10
10
10
10
10
10
10
10
10
10
10
10
10
10
10
10
10
10
10
10
10
10
10
10
10
10
10
10
10
10
10
10
10
10
10
10
10
10
10
10
10
10
10
10
10
10
10
10
10
10
10
10
10
10
10
10
10
10
10
10
10
10
10
10
10
10
10
10
10
10
10
10
10
10
10
10
10
10
10
10
10
10
10
10
10
10
10
10
10
10
10
10
10
10
10
10
10
10
10
10
10
10
10
10
10
10
10
10
10
10
10
10
10
10
10
10
10
10
10
10
10
10
10
10
10
10
10
10
10
10
10
10
10
10
10
10
10
10
10
10
10
10
10
10
10
10
10
10
10
10
10
10
10
10
10
10
10
10
10
10
10
10
10
10
10
10
10
10
10
10
10
10
10
10
10
10
10
10
10
10
10
10
10
10
10
10
10
10
10
10
10
10
10
10
10
10
10
10
10
10
10
10
10
10
10
10
10
10
10
10
10
10
10
10
10
10
10
10
10
10
10
10
10
10
10
10
10
10
10
10
10
10
10
10
10
10
10
10
10
10
10
10
10
10
10
10
10
10
10
10
10
10
10
10
10
10
10
10
10
10
10
10
10
10
10
10
10
10
10
10
10
10
10
10
10
10
10
10
10
10
10
10
10
10
10
10
10
10
10
10
10
10
10
10
10
10
10
10
10
10
10
10
10
10
10
10
10
10
10
10
10
10
10
10
10
10
10
10
10
10
10
10
10
10
10
10
10
10
10
10
10
10
10
10
10
10
10
10
10
10
10
10
10
10
10
10
10
10
10
10
10
10
10
10
10
10
10
10
10
10
10
10
10
10
10
10
10
10
10
10
10
10
10
10
10
10
10
10
10
10
10
10
10
10
10
10
10
10
10
10
10
10
10
10
10
10
10
10
10
10
10
10
10
10
10
10
10
10
10
10
10
10
10
10
10
10
10
10
10
10
10
10
10
10
10
10
10
10
10
10
10
10
10
10
10
10
10
10
10
10
10
10
10
10
10
10
10
10
10
10
10
10
10
10
10
10
10
10
10
10
10
10
10
10
10
10
10
10
10
10
10
10
10
10
10
10
10
10
10
10
10
10
10
10
10
10
10
10
10
10
10
10
10
10
10
10
10
10
10
10
10
10
10
10
10
10
10
10
10
10
10
10
10
10
10
10
10
10
10
10
10
10
10
10
10
10
10
10
10
10
10
10
10
10
10
10
10
10
10
10
10
10
10
10
10
10
10
10
10
10
10
10
10
10
10
10
10
10
10
10
10
10
10
10
10
10
10
10
10
10
10
10
10
10
10
10
10
10
10
10
10
10
10
10
10
10
10
10
10
10
10
10
10
10
10
10
10
10
10
10
10
10
10
10
10
10
10
10
10
10
10
10
10
10
10
10
10
10
10
10
10
10
10
10
10
10
10
10
10
10
10
10
10
10
10
10
10
10
10
10
10
10
10
10
10
10
10
10
10
10
10
10
10
10
10
10
10
10
10
10
10
10
10
10
10
10
10
10
10
10
10
10
10
10
10
10
10
10
10
10
10
10
10
10
10
10
10
10
10
10
10
10
10
10
10
10
10
10
10
10
10
10
10
10
10
10
10
10
10
10
10
10
10
10
10
10
10
10
10
10
10
10
10
10
10
10
10
10
10
10
10
10
10
10
10
10
10
10
10
10
10
10
10
10
10
10
10
10
10
10
10
10
10
10
10
10
10
10
10
10
10
10
10
10
10
10
10
10
10
10
10
10
10
10
10
10
10
10
10
10
10
10
10
10
10
10
10
10
10
10
10
10
10
10
10
10
10
10
10
10
10
10
10
10
10
10
10
10
10
10
10
10
10
10
10
10
10
10
10
10
10
10
10
10
10
10
10
10
10
10
10
10
10
10
10
10
10
10
10
10
10
10
10
10
10
10
10
10
10
10
10
10
10
10
10
10
10
10
10
10
10
10
10
10
10
10
10
10
10
10
10
10
10
10
10
10
10
10
10
10
10
10
10
10
10
10
10
10
10
10
10
10
10
10
10
10
10
10
10
10
10
10
10
10
10
10
10
10
10
10
10
10
10
10
10
10
10
10
10
10
10
10
10
10
10
10
10
10
10
10
10
10
10
10
10
10
10
10
10
10
10
10
10
10
10
10
10
10
10
10
10
10
10
10
10
10
10
10
10
10
10
10
10
10
10
10
10
10
10
10
10
10
10
10
10
10
10
10
10
10
10
10
10
10
10
10
10
10
10
10
10
10
10
10
10
10
10
10
10
10
10
10
10
10
10
10
10
10
10
10
10
10
10
10
10
10
10
10
10
10
10
10
10
10
10
10
10
10
10
10
10
10
10
10
10
10
10
10
10
10
10
10
10
10
10
10
10
10
10
10
10
10
10
10
10
10
10
10
10
10
10
10
10
10
10
10
10
10
10
10
10
10
10
10
10
10
10
10
10
10
10
10
10
10
10
10
10
10
10
10
10
10
10
10
10
10
10
10
10
10
10
10
10
10
10
10
10
10
10
10
10
10
10
10
10
10
10
10
10
10
10
10
10
10
10
10
10
10
10
10
10
10
10
10
10
10
10
10
10
10
10
10
10
10
10
10
10
10
10
10
10
10
10
10
10
10
10
10
10
10
10
10
10
10
10
10
10
10
10
10
10
10
10
10
10
10
10
10
10
10
10
10
10
10
10
10
10
10
10
10
10
10
10
10
10
10
10
10
10
10
10
10
10
10
10
10
10
10
10
10
10
10
10
10
10
10
10
10
10
10
10
10
10
10
10
10
10
10
10
10
10
10
10
10
10
10
10
10
10
10
10
10
10
10
10
10
10
10
10
10
10
10
10
10
10
10
10
10
10
10
10
10
10
10
10
10
10
10
10
10
10
10
10
10
10
10
10
10
10
10
10
10
10
10
10
10
10
10
10
10
10
10
10
10
10
10
10
10
10
10
10
10
10
10
10
10
10
10
10
10
10
10
10
10
10
10
10
10
10
10
10
10
10
10
              </DataArray>   
          </Cells>  
          <PointData>  
             <DataArray type="Float64" NumberOfComponents="3" Name="Strains" format="ascii">   
-1.3011568811720815e-05   0.0   -8.765400633043455e-06
-1.3011568811720815e-05   0.0   -8.765400633043455e-06
-1.3011568811720815e-05   0.0   -8.765400633043455e-06
-1.3011568811720815e-05   0.0   -8.765400633043455e-06
-8.25716895674e-06   1.4114596980913746e-06   5.474944112710383e-09
-8.25716895674e-06   1.4114596980913746e-06   5.474944112710383e-09
-8.25716895674e-06   1.4114596980913746e-06   5.474944112710383e-09
-8.25716895674e-06   1.4114596980913746e-06   5.474944112710383e-09
-8.078434054844101e-06   0.0   -8.302558785152043e-06
-8.078434054844101e-06   0.0   -8.302558785152043e-06
-8.078434054844101e-06   0.0   -8.302558785152043e-06
-8.078434054844101e-06   0.0   -8.302558785152043e-06
-1.3598135785058857e-05   1.7081239535861e-06   -1.2793027361240915e-07
-1.3598135785058857e-05   1.7081239535861e-06   -1.2793027361240915e-07
-1.3598135785058857e-05   1.7081239535861e-06   -1.2793027361240915e-07
-1.3598135785058857e-05   1.7081239535861e-06   -1.2793027361240915e-07
-1.054500143328244e-05   3.857015399095094e-07   -4.423034078367144e-06
-1.054500143328244e-05   3.857015399095094e-07   -4.423034078367144e-06
-1.054500143328244e-05   3.857015399095094e-07   -4.423034078367144e-06
-1.054500143328244e-05   3.857015399095094e-07   -4.423034078367144e-06
-1.359813578505888e-05   0.0   -9.327433157303705e-06
-1.359813578505888e-05   0.0   -9.327433157303705e-06
-1.359813578505888e-05   0.0   -9.327433157303705e-06
-1.359813578505888e-05   0.0   -9.327433157303705e-06
-8.078434054844101e-06   1.708123953586105e-06   8.969440985392529e-07
-8.078434054844101e-06   1.708123953586105e-06   8.969440985392529e-07
-8.078434054844101e-06   1.708123953586105e-06   8.969440985392529e-07
-8.078434054844101e-06   1.708123953586105e-06   8.969440985392529e-07
-8.084526561204815e-06   0.0   -8.501283916858025e-06
-8.084526561204815e-06   0.0   -8.501283916858025e-06
-8.084526561204815e-06   0.0   -8.501283916858025e-06
-8.084526561204815e-06   0.0   -8.501283916858025e-06
-1.4002413926501376e-05   1.8338924872244975e-06   2.6152619963492045e-07
-1.4002413926501376e-05   1.8338924872244975e-06   2.6152619963492045e-07
-1.4002413926501376e-05   1.8338924872244975e-06   2.6152619963492045e-07
-1.4002413926501376e-05   1.8338924872244975e-06   2.6152619963492045e-07
-1.0841331173131829e-05   6.884577003714008e-07   -4.319684183869133e-06
-1.0841331173131829e-05   6.884577003714008e-07   -4.319684183869133e-06
-1.0841331173131829e-05   6.884577003714008e-07   -4.319684183869133e-06
-1.0841331173131829e-05   6.884577003714008e-07   -4.319684183869133e-06
-1.4002413926501401e-05   0.0   -9.601619409192725e-06
-1.4002413926501401e-05   0.0   -9.601619409192725e-06
-1.4002413926501401e-05   0.0   -9.601619409192725e-06
-1.4002413926501401e-05   0.0   -9.601619409192725e-06
-8.084526561204815e-06   1.8338924872245009e-06   1.361861691969617e-06
-8.084526561204815e-06   1.8338924872245009e-06   1.361861691969617e-06
-8.084526561204815e-06   1.8338924872245009e-06   1.361861691969617e-06
-8.084526561204815e-06   1.8338924872245009e-06   1.361861691969617e-06
-8.061462743176483e-06   0.0   -8.554980204904963e-06
-8.061462743176483e-06   0.0   -8.554980204904963e-06
-8.061462743176483e-06   0.0   -8.554980204904963e-06
-8.061462743176483e-06   0.0   -8.554980204904963e-06
-1.4889903526822768e-05   2.101342691318667e-06   1.5649488197143497e-06
-1.4889903526822768e-05   2.101342691318667e-06   1.5649488197143497e-06
-1.4889903526822768e-05   2.101342691318667e-06   1.5649488197143497e-06
-1.4889903526822768e-05   2.101342691318667e-06   1.5649488197143497e-06
-1.1031938334838921e-05   8.721993369064667e-07   -4.127507154278066e-06
-1.1031938334838921e-05   8.721993369064667e-07   -4.127507154278066e-06
-1.1031938334838921e-05   8.721993369064667e-07   -4.127507154278066e-06
-1.1031938334838921e-05   8.721993369064667e-07   -4.127507154278066e-06
-8.257168956740015e-06   0.0   -7.918524814188631e-06
-8.257168956740015e-06   0.0   -7.918524814188631e-06
-8.257168956740015e-06   0.0   -7.918524814188631e-06
-8.257168956740015e-06   0.0   -7.918524814188631e-06
-3.779660286466192e-06   5.118849063728065e-07   -1.4887941990858128e-07
-3.779660286466192e-06   5.118849063728065e-07   -1.4887941990858128e-07
-3.779660286466192e-06   5.118849063728065e-07   -1.4887941990858128e-07
-3.779660286466192e-06   5.118849063728065e-07   -1.4887941990858128e-07
-3.6189569733135924e-06   0.0   -7.85937519655801e-06
-3.6189569733135924e-06   0.0   -7.85937519655801e-06
-3.6189569733135924e-06   0.0   -7.85937519655801e-06
-3.6189569733135924e-06   0.0   -7.85937519655801e-06
-8.078434054844101e-06   7.386393143233897e-07   -8.700969826011984e-07
-8.078434054844101e-06   7.386393143233897e-07   -8.700969826011984e-07
-8.078434054844101e-06   7.386393143233897e-07   -8.700969826011984e-07
-8.078434054844101e-06   7.386393143233897e-07   -8.700969826011984e-07
-5.938062965026793e-06   4.9291348025516927e-08   -4.023773352517959e-06
-5.938062965026793e-06   4.9291348025516927e-08   -4.023773352517959e-06
-5.938062965026793e-06   4.9291348025516927e-08   -4.023773352517959e-06
-5.938062965026793e-06   4.9291348025516927e-08   -4.023773352517959e-06
-8.078434054844093e-06   0.0   -8.302558785152036e-06
-8.078434054844093e-06   0.0   -8.302558785152036e-06
-8.078434054844093e-06   0.0   -8.302558785152036e-06
-8.078434054844093e-06   0.0   -8.302558785152036e-06
-3.6189569733135924e-06   7.386393143233897e-07   -4.2691339400716355e-07
-3.6189569733135924e-06   7.386393143233897e-07   -4.2691339400716355e-07
-3.6189569733135924e-06   7.386393143233897e-07   -4.2691339400716355e-07
-3.6189569733135924e-06   7.386393143233897e-07   -4.2691339400716355e-07
-3.5218785485865074e-06   0.0   -7.954580018646906e-06
-3.5218785485865074e-06   0.0   -7.954580018646906e-06
-3.5218785485865074e-06   0.0   -7.954580018646906e-06
-3.5218785485865074e-06   0.0   -7.954580018646906e-06
-8.084526561204815e-06   9.111731636851988e-07   -8.968705624941815e-07
-8.084526561204815e-06   9.111731636851988e-07   -8.968705624941815e-07
-8.084526561204815e-06   9.111731636851988e-07   -8.968705624941815e-07
-8.084526561204815e-06   9.111731636851988e-07   -8.968705624941815e-07
-5.800156301715292e-06   2.899823054209494e-07   -4.331439813351466e-06
-5.800156301715292e-06   2.899823054209494e-07   -4.331439813351466e-06
-5.800156301715292e-06   2.899823054209494e-07   -4.331439813351466e-06
-5.800156301715292e-06   2.899823054209494e-07   -4.331439813351466e-06
-8.084526561204815e-06   0.0   -8.501283916858025e-06
-8.084526561204815e-06   0.0   -8.501283916858025e-06
-8.084526561204815e-06   0.0   -8.501283916858025e-06
-8.084526561204815e-06   0.0   -8.501283916858025e-06
-3.5218785485865074e-06   9.111731636851988e-07   -3.501666642830613e-07
-3.5218785485865074e-06   9.111731636851988e-07   -3.501666642830613e-07
-3.5218785485865074e-06   9.111731636851988e-07   -3.501666642830613e-07
-3.5218785485865074e-06   9.111731636851988e-07   -3.501666642830613e-07
-3.4307239270429985e-06   0.0   -7.916451089396674e-06
-3.4307239270429985e-06   0.0   -7.916451089396674e-06
-3.4307239270429985e-06   0.0   -7.916451089396674e-06
-3.4307239270429985e-06   0.0   -7.916451089396674e-06
-8.06146274317646e-06   1.0642151925138008e-06   -8.370821780158221e-07
-8.06146274317646e-06   1.0642151925138008e-06   -8.370821780158221e-07
-8.06146274317646e-06   1.0642151925138008e-06   -8.370821780158221e-07
-8.06146274317646e-06   1.0642151925138008e-06   -8.370821780158221e-07
-5.757625244123905e-06   4.873606895511192e-07   -4.330698641325836e-06
-5.757625244123905e-06   4.873606895511192e-07   -4.330698641325836e-06
-5.757625244123905e-06   4.873606895511192e-07   -4.330698641325836e-06
-5.757625244123905e-06   4.873606895511192e-07   -4.330698641325836e-06
-3.779660286466198e-06   0.0   -7.611393870364946e-06
-3.779660286466198e-06   0.0   -7.611393870364946e-06
-3.779660286466198e-06   0.0   -7.611393870364946e-06
-3.779660286466198e-06   0.0   -7.611393870364946e-06
4.364803614629022e-07   -6.993256020090469e-08   -6.264523266036472e-07
4.364803614629022e-07   -6.993256020090469e-08   -6.264523266036472e-07
4.364803614629022e-07   -6.993256020090469e-08   -6.264523266036472e-07
4.364803614629022e-07   -6.993256020090469e-08   -6.264523266036472e-07
5.46793819326025e-07   0.0   -7.77965874256074e-06
5.46793819326025e-07   0.0   -7.77965874256074e-06
5.46793819326025e-07   0.0   -7.77965874256074e-06
5.46793819326025e-07   0.0   -7.77965874256074e-06
-3.618956973313586e-06   1.328607566620693e-07   -9.164572088253102e-07
-3.618956973313586e-06   1.328607566620693e-07   -9.164572088253102e-07
-3.618956973313586e-06   1.328607566620693e-07   -9.164572088253102e-07
-3.618956973313586e-06   1.328607566620693e-07   -9.164572088253102e-07
-1.61643323357008e-06   -1.4022072682985084e-07   -4.090147884969319e-06
-1.61643323357008e-06   -1.4022072682985084e-07   -4.090147884969319e-06
-1.61643323357008e-06   -1.4022072682985084e-07   -4.090147884969319e-06
-1.61643323357008e-06   -1.4022072682985084e-07   -4.090147884969319e-06
-3.6189569733135924e-06   0.0   -7.85937519655801e-06
-3.6189569733135924e-06   0.0   -7.85937519655801e-06
-3.6189569733135924e-06   0.0   -7.85937519655801e-06
-3.6189569733135924e-06   0.0   -7.85937519655801e-06
5.46793819326026e-07   1.328607566620693e-07   -8.367407548280683e-07
5.46793819326026e-07   1.328607566620693e-07   -8.367407548280683e-07
5.46793819326026e-07   1.328607566620693e-07   -8.367407548280683e-07
5.46793819326026e-07   1.328607566620693e-07   -8.367407548280683e-07
6.360661970020616e-07   0.0   -7.76724707873833e-06
6.360661970020616e-07   0.0   -7.76724707873833e-06
6.360661970020616e-07   0.0   -7.76724707873833e-06
6.360661970020616e-07   0.0   -7.76724707873833e-06
-3.521878548586495e-06   3.122215665142657e-07   -1.0246721093326197e-06
-3.521878548586495e-06   3.122215665142657e-07   -1.0246721093326197e-06
-3.521878548586495e-06   3.122215665142657e-07   -1.0246721093326197e-06
-3.521878548586495e-06   3.122215665142657e-07   -1.0246721093326197e-06
-1.4914453881557623e-06   7.677343151638741e-08   -4.267458495718454e-06
-1.4914453881557623e-06   7.677343151638741e-08   -4.267458495718454e-06
-1.4914453881557623e-06   7.677343151638741e-08   -4.267458495718454e-06
-1.4914453881557623e-06   7.677343151638741e-08   -4.267458495718454e-06
-3.5218785485865074e-06   0.0   -7.954580018646906e-06
-3.5218785485865074e-06   0.0   -7.954580018646906e-06
-3.5218785485865074e-06   0.0   -7.954580018646906e-06
-3.5218785485865074e-06   0.0   -7.954580018646906e-06
6.360661970020627e-07   3.122215665142674e-07   -8.373391694240625e-07
6.360661970020627e-07   3.122215665142674e-07   -8.373391694240625e-07
6.360661970020627e-07   3.122215665142674e-07   -8.373391694240625e-07
6.360661970020627e-07   3.122215665142674e-07   -8.373391694240625e-07
7.506422246991835e-07   0.0   -7.6050662320573625e-06
7.506422246991835e-07   0.0   -7.6050662320573625e-06
7.506422246991835e-07   0.0   -7.6050662320573625e-06
7.506422246991835e-07   0.0   -7.6050662320573625e-06
-3.4307239270429896e-06   5.189747622321761e-07   -9.475075031597034e-07
-3.4307239270429896e-06   5.189747622321761e-07   -9.475075031597034e-07
-3.4307239270429896e-06   5.189747622321761e-07   -9.475075031597034e-07
-3.4307239270429896e-06   5.189747622321761e-07   -9.475075031597034e-07
-1.3856181619436587e-06   2.9126148882460704e-07   -4.2193891476140535e-06
-1.3856181619436587e-06   2.9126148882460704e-07   -4.2193891476140535e-06
-1.3856181619436587e-06   2.9126148882460704e-07   -4.2193891476140535e-06
-1.3856181619436587e-06   2.9126148882460704e-07   -4.2193891476140535e-06
4.36480361462903e-07   0.0   -7.653353406485489e-06
4.36480361462903e-07   0.0   -7.653353406485489e-06
4.36480361462903e-07   0.0   -7.653353406485489e-06
4.36480361462903e-07   0.0   -7.653353406485489e-06
5.027236771108559e-06   -5.897314647185468e-07   -3.5593160257385246e-07
5.027236771108559e-06   -5.897314647185468e-07   -3.5593160257385246e-07
5.027236771108559e-06   -5.897314647185468e-07   -3.5593160257385246e-07
5.027236771108559e-06   -5.897314647185468e-07   -3.5593160257385246e-07
5.057065175192281e-06   0.0   -8.043583758752696e-06
5.057065175192281e-06   0.0   -8.043583758752696e-06
5.057065175192281e-06   0.0   -8.043583758752696e-06
5.057065175192281e-06   0.0   -8.043583758752696e-06
5.467938193260269e-07   -4.3987502698654653e-07   -2.6253981611701087e-07
5.467938193260269e-07   -4.3987502698654653e-07   -2.6253981611701087e-07
5.467938193260269e-07   -4.3987502698654653e-07   -2.6253981611701087e-07
5.467938193260269e-07   -4.3987502698654653e-07   -2.6253981611701087e-07
2.746772768327592e-06   -3.251919602226726e-07   -3.997981237844607e-06
2.746772768327592e-06   -3.251919602226726e-07   -3.997981237844607e-06
2.746772768327592e-06   -3.251919602226726e-07   -3.997981237844607e-06
2.746772768327592e-06   -3.251919602226726e-07   -3.997981237844607e-06
5.467938193260269e-07   0.0   -7.779658742560767e-06
5.467938193260269e-07   0.0   -7.779658742560767e-06
5.467938193260269e-07   0.0   -7.779658742560767e-06
5.467938193260269e-07   0.0   -7.779658742560767e-06
5.057065175192281e-06   -4.3987502698654653e-07   -5.264648323089386e-07
5.057065175192281e-06   -4.3987502698654653e-07   -5.264648323089386e-07
5.057065175192281e-06   -4.3987502698654653e-07   -5.264648323089386e-07
5.057065175192281e-06   -4.3987502698654653e-07   -5.264648323089386e-07
5.053408354963968e-06   0.0   -7.928874072279683e-06
5.053408354963968e-06   0.0   -7.928874072279683e-06
5.053408354963968e-06   0.0   -7.928874072279683e-06
5.053408354963968e-06   0.0   -7.928874072279683e-06
6.360661970020627e-07   -2.6937832256889893e-07   -4.0501014880183633e-07
6.360661970020627e-07   -2.6937832256889893e-07   -4.0501014880183633e-07
6.360661970020627e-07   -2.6937832256889893e-07   -4.0501014880183633e-07
6.360661970020627e-07   -2.6937832256889893e-07   -4.0501014880183633e-07
2.8001010871449975e-06   -1.243461080990967e-07   -4.098754294388605e-06
2.8001010871449975e-06   -1.243461080990967e-07   -4.098754294388605e-06
2.8001010871449975e-06   -1.243461080990967e-07   -4.098754294388605e-06
2.8001010871449975e-06   -1.243461080990967e-07   -4.098754294388605e-06
6.360661970020621e-07   0.0   -7.767247078738337e-06
6.360661970020621e-07   0.0   -7.767247078738337e-06
6.360661970020621e-07   0.0   -7.767247078738337e-06
6.360661970020621e-07   0.0   -7.767247078738337e-06
5.053408354963968e-06   -2.6937832256889893e-07   -5.666371423431755e-07
5.053408354963968e-06   -2.6937832256889893e-07   -5.666371423431755e-07
5.053408354963968e-06   -2.6937832256889893e-07   -5.666371423431755e-07
5.053408354963968e-06   -2.6937832256889893e-07   -5.666371423431755e-07
5.168575062588638e-06   0.0   -7.629885727194206e-06
5.168575062588638e-06   0.0   -7.629885727194206e-06
5.168575062588638e-06   0.0   -7.629885727194206e-06
5.168575062588638e-06   0.0   -7.629885727194206e-06
7.506422246991847e-07   -4.136582522804938e-08   -2.4184483557495375e-07
7.506422246991847e-07   -4.136582522804938e-08   -2.4184483557495375e-07
7.506422246991847e-07   -4.136582522804938e-08   -2.4184483557495375e-07
7.506422246991847e-07   -4.136582522804938e-08   -2.4184483557495375e-07
2.902320629795348e-06   1.1446779295344864e-07   -3.921475681644123e-06
2.902320629795348e-06   1.1446779295344864e-07   -3.921475681644123e-06
2.902320629795348e-06   1.1446779295344864e-07   -3.921475681644123e-06
2.902320629795348e-06   1.1446779295344864e-07   -3.921475681644123e-06
5.027236771108559e-06   0.0   -8.007192285316618e-06
5.027236771108559e-06   0.0   -8.007192285316618e-06
5.027236771108559e-06   0.0   -8.007192285316618e-06
5.027236771108559e-06   0.0   -8.007192285316618e-06
1.1460153835278992e-05   -1.5090194608070862e-06   1.8089244784832482e-06
1.1460153835278992e-05   -1.5090194608070862e-06   1.8089244784832482e-06
1.1460153835278992e-05   -1.5090194608070862e-06   1.8089244784832482e-06
1.1460153835278992e-05   -1.5090194608070862e-06   1.8089244784832482e-06
1.0790067338671069e-05   0.0   -8.807325162908123e-06
1.0790067338671069e-05   0.0   -8.807325162908123e-06
1.0790067338671069e-05   0.0   -8.807325162908123e-06
1.0790067338671069e-05   0.0   -8.807325162908123e-06
5.057065175192281e-06   -1.2729023402590453e-06   1.5114198470452791e-06
5.057065175192281e-06   -1.2729023402590453e-06   1.5114198470452791e-06
5.057065175192281e-06   -1.2729023402590453e-06   1.5114198470452791e-06
5.057065175192281e-06   -1.2729023402590453e-06   1.5114198470452791e-06
7.908652054889813e-06   -6.667773979929219e-07   -3.6048999178102747e-06
7.908652054889813e-06   -6.667773979929219e-07   -3.6048999178102747e-06
7.908652054889813e-06   -6.667773979929219e-07   -3.6048999178102747e-06
7.908652054889813e-06   -6.667773979929219e-07   -3.6048999178102747e-06
5.057065175192277e-06   0.0   -8.043583758752689e-06
5.057065175192277e-06   0.0   -8.043583758752689e-06
5.057065175192277e-06   0.0   -8.043583758752689e-06
5.057065175192277e-06   0.0   -8.043583758752689e-06
1.0790067338671032e-05   -1.2729023402590402e-06   7.476784428898513e-07
1.0790067338671032e-05   -1.2729023402590402e-06   7.476784428898513e-07
1.0790067338671032e-05   -1.2729023402590402e-06   7.476784428898513e-07
1.0790067338671032e-05   -1.2729023402590402e-06   7.476784428898513e-07
1.0489194918621095e-05   0.0   -8.624413389309038e-06
1.0489194918621095e-05   0.0   -8.624413389309038e-06
1.0489194918621095e-05   0.0   -8.624413389309038e-06
1.0489194918621095e-05   0.0   -8.624413389309038e-06
5.053408354963968e-06   -1.1592321950489228e-06   1.1307702004821927e-06
5.053408354963968e-06   -1.1592321950489228e-06   1.1307702004821927e-06
5.053408354963968e-06   -1.1592321950489228e-06   1.1307702004821927e-06
5.053408354963968e-06   -1.1592321950489228e-06   1.1307702004821927e-06
7.773130046906684e-06   -4.840246921302848e-07   -3.807223787840182e-06
7.773130046906684e-06   -4.840246921302848e-07   -3.807223787840182e-06
7.773130046906684e-06   -4.840246921302848e-07   -3.807223787840182e-06
7.773130046906684e-06   -4.840246921302848e-07   -3.807223787840182e-06
5.053408354963968e-06   0.0   -7.928874072279683e-06
5.053408354963968e-06   0.0   -7.928874072279683e-06
5.053408354963968e-06   0.0   -7.928874072279683e-06
5.053408354963968e-06   0.0   -7.928874072279683e-06
1.048919491862106e-05   -1.1592321950489194e-06   4.3523088345283735e-07
1.048919491862106e-05   -1.1592321950489194e-06   4.3523088345283735e-07
1.048919491862106e-05   -1.1592321950489194e-06   4.3523088345283735e-07
1.048919491862106e-05   -1.1592321950489194e-06   4.3523088345283735e-07
1.0028698233516764e-05   0.0   -8.162694671001033e-06
1.0028698233516764e-05   0.0   -8.162694671001033e-06
1.0028698233516764e-05   0.0   -8.162694671001033e-06
1.0028698233516764e-05   0.0   -8.162694671001033e-06
5.168575062588638e-06   -8.880149063447376e-07   4.7031955768603155e-07
5.168575062588638e-06   -8.880149063447376e-07   4.7031955768603155e-07
5.168575062588638e-06   -8.880149063447376e-07   4.7031955768603155e-07
5.168575062588638e-06   -8.880149063447376e-07   4.7031955768603155e-07
7.541053294240374e-06   -1.948504989344707e-07   -3.899709472846352e-06
7.541053294240374e-06   -1.948504989344707e-07   -3.899709472846352e-06
7.541053294240374e-06   -1.948504989344707e-07   -3.899709472846352e-06
7.541053294240374e-06   -1.948504989344707e-07   -3.899709472846352e-06
-1.1122161246849289e-05   1.4114596980913712e-06   -7.447797858020506e-06
-1.1122161246849289e-05   1.4114596980913712e-06   -7.447797858020506e-06
-1.1122161246849289e-05   1.4114596980913712e-06   -7.447797858020506e-06
-1.1122161246849289e-05   1.4114596980913712e-06   -7.447797858020506e-06
-7.138690086179808e-06   1.2591770111732728e-06   -9.000488690555628e-07
-7.138690086179808e-06   1.2591770111732728e-06   -9.000488690555628e-07
-7.138690086179808e-06   1.2591770111732728e-06   -9.000488690555628e-07
-7.138690086179808e-06   1.2591770111732728e-06   -9.000488690555628e-07
-7.309309956631156e-06   1.7081239535860983e-06   -6.269211391253078e-06
-7.309309956631156e-06   1.7081239535860983e-06   -6.269211391253078e-06
-7.309309956631156e-06   1.7081239535860983e-06   -6.269211391253078e-06
-7.309309956631156e-06   1.7081239535860983e-06   -6.269211391253078e-06
-1.1223726696857086e-05   1.5205112958190572e-06   3.673841037837169e-07
-1.1223726696857086e-05   1.5205112958190572e-06   3.673841037837169e-07
-1.1223726696857086e-05   1.5205112958190572e-06   3.673841037837169e-07
-1.1223726696857086e-05   1.5205112958190572e-06   3.673841037837169e-07
-8.833084664123251e-06   1.4790279436532987e-06   -3.5921292728066034e-06
-8.833084664123251e-06   1.4790279436532987e-06   -3.5921292728066034e-06
-8.833084664123251e-06   1.4790279436532987e-06   -3.5921292728066034e-06
-8.833084664123251e-06   1.4790279436532987e-06   -3.5921292728066034e-06
-1.1223726696857086e-05   1.7081239535860983e-06   -6.156643796592849e-06
-1.1223726696857086e-05   1.7081239535860983e-06   -6.156643796592849e-06
-1.1223726696857086e-05   1.7081239535860983e-06   -6.156643796592849e-06
-1.1223726696857086e-05   1.7081239535860983e-06   -6.156643796592849e-06
-7.309309956631182e-06   1.520511295819064e-06   2.548165091234984e-07
-7.309309956631182e-06   1.520511295819064e-06   2.548165091234984e-07
-7.309309956631182e-06   1.520511295819064e-06   2.548165091234984e-07
-7.309309956631182e-06   1.520511295819064e-06   2.548165091234984e-07
-7.335552021016231e-06   1.8338924872244958e-06   -5.646749332426885e-06
-7.335552021016231e-06   1.8338924872244958e-06   -5.646749332426885e-06
-7.335552021016231e-06   1.8338924872244958e-06   -5.646749332426885e-06
-7.335552021016231e-06   1.8338924872244958e-06   -5.646749332426885e-06
-1.1286458192541378e-05   1.6388150167610842e-06   1.0551407690597008e-06
-1.1286458192541378e-05   1.6388150167610842e-06   1.0551407690597008e-06
-1.1286458192541378e-05   1.6388150167610842e-06   1.0551407690597008e-06
-1.1286458192541378e-05   1.6388150167610842e-06   1.0551407690597008e-06
-9.08054654139577e-06   1.6428846695966654e-06   -2.6238204412176173e-06
-9.08054654139577e-06   1.6428846695966654e-06   -2.6238204412176173e-06
-9.08054654139577e-06   1.6428846695966654e-06   -2.6238204412176173e-06
-9.08054654139577e-06   1.6428846695966654e-06   -2.6238204412176173e-06
-1.1286458192541358e-05   1.8338924872244958e-06   -5.5297028501488336e-06
-1.1286458192541358e-05   1.8338924872244958e-06   -5.5297028501488336e-06
-1.1286458192541358e-05   1.8338924872244958e-06   -5.5297028501488336e-06
-1.1286458192541358e-05   1.8338924872244958e-06   -5.5297028501488336e-06
-7.335552021016239e-06   1.6388150167610842e-06   9.3809428678166e-07
-7.335552021016239e-06   1.6388150167610842e-06   9.3809428678166e-07
-7.335552021016239e-06   1.6388150167610842e-06   9.3809428678166e-07
-7.335552021016239e-06   1.6388150167610842e-06   9.3809428678166e-07
-7.283351183873912e-06   2.1013426913186653e-06   -4.2039699196343546e-06
-7.283351183873912e-06   2.1013426913186653e-06   -4.2039699196343546e-06
-7.283351183873912e-06   2.1013426913186653e-06   -4.2039699196343546e-06
-7.283351183873912e-06   2.1013426913186653e-06   -4.2039699196343546e-06
-1.0949750152107429e-05   1.7378306966493127e-06   2.1248022242230746e-06
-1.0949750152107429e-05   1.7378306966493127e-06   2.1248022242230746e-06
-1.0949750152107429e-05   1.7378306966493127e-06   2.1248022242230746e-06
-1.0949750152107429e-05   1.7378306966493127e-06   2.1248022242230746e-06
-8.829627979032788e-06   1.807737505881257e-06   -1.450678816440478e-06
-8.829627979032788e-06   1.807737505881257e-06   -1.450678816440478e-06
-8.829627979032788e-06   1.807737505881257e-06   -1.450678816440478e-06
-8.829627979032788e-06   1.807737505881257e-06   -1.450678816440478e-06
-7.138690086179808e-06   5.118849063728065e-07   -8.000652778016345e-06
-7.138690086179808e-06   5.118849063728065e-07   -8.000652778016345e-06
-7.138690086179808e-06   5.118849063728065e-07   -8.000652778016345e-06
-7.138690086179808e-06   5.118849063728065e-07   -8.000652778016345e-06
-3.409550062193405e-06   5.862321843568891e-07   -1.7408110379152115e-06
-3.409550062193405e-06   5.862321843568891e-07   -1.7408110379152115e-06
-3.409550062193405e-06   5.862321843568891e-07   -1.7408110379152115e-06
-3.409550062193405e-06   5.862321843568891e-07   -1.7408110379152115e-06
-3.4814316841006927e-06   7.38639314323388e-07   -7.98363847473516e-06
-3.4814316841006927e-06   7.38639314323388e-07   -7.98363847473516e-06
-3.4814316841006927e-06   7.38639314323388e-07   -7.98363847473516e-06
-3.4814316841006927e-06   7.38639314323388e-07   -7.98363847473516e-06
-7.309309956631156e-06   8.263293104206635e-07   -1.65645535150939e-06
-7.309309956631156e-06   8.263293104206635e-07   -1.65645535150939e-06
-7.309309956631156e-06   8.263293104206635e-07   -1.65645535150939e-06
-7.309309956631156e-06   8.263293104206635e-07   -1.65645535150939e-06
-5.319076679511914e-06   6.64484569670338e-07   -4.876403968924654e-06
-5.319076679511914e-06   6.64484569670338e-07   -4.876403968924654e-06
-5.319076679511914e-06   6.64484569670338e-07   -4.876403968924654e-06
-5.319076679511914e-06   6.64484569670338e-07   -4.876403968924654e-06
-7.309309956631149e-06   7.38639314323388e-07   -8.036252472393507e-06
-7.309309956631149e-06   7.38639314323388e-07   -8.036252472393507e-06
-7.309309956631149e-06   7.38639314323388e-07   -8.036252472393507e-06
-7.309309956631149e-06   7.38639314323388e-07   -8.036252472393507e-06
-3.481431684100699e-06   8.263293104206567e-07   -1.603841353851037e-06
-3.481431684100699e-06   8.263293104206567e-07   -1.603841353851037e-06
-3.481431684100699e-06   8.263293104206567e-07   -1.603841353851037e-06
-3.481431684100699e-06   8.263293104206567e-07   -1.603841353851037e-06
-3.4967812353835597e-06   9.111731636851955e-07   -7.836470899212166e-06
-3.4967812353835597e-06   9.111731636851955e-07   -7.836470899212166e-06
-3.4967812353835597e-06   9.111731636851955e-07   -7.836470899212166e-06
-3.4967812353835597e-06   9.111731636851955e-07   -7.836470899212166e-06
-7.335552021016231e-06   1.0261909764827087e-06   -1.5075302775029055e-06
-7.335552021016231e-06   1.0261909764827087e-06   -1.5075302775029055e-06
-7.335552021016231e-06   1.0261909764827087e-06   -1.5075302775029055e-06
-7.335552021016231e-06   1.0261909764827087e-06   -1.5075302775029055e-06
-5.351460130463465e-06   8.48097923477933e-07   -4.707494263287956e-06
-5.351460130463465e-06   8.48097923477933e-07   -4.707494263287956e-06
-5.351460130463465e-06   8.48097923477933e-07   -4.707494263287956e-06
-5.351460130463465e-06   8.48097923477933e-07   -4.707494263287956e-06
-7.335552021016231e-06   9.111731636851955e-07   -7.905481586890674e-06
-7.335552021016231e-06   9.111731636851955e-07   -7.905481586890674e-06
-7.335552021016231e-06   9.111731636851955e-07   -7.905481586890674e-06
-7.335552021016231e-06   9.111731636851955e-07   -7.905481586890674e-06
-3.496781235383572e-06   1.0261909764827155e-06   -1.438519589824397e-06
-3.496781235383572e-06   1.0261909764827155e-06   -1.438519589824397e-06
-3.496781235383572e-06   1.0261909764827155e-06   -1.438519589824397e-06
-3.496781235383572e-06   1.0261909764827155e-06   -1.438519589824397e-06
-3.4784736352894655e-06   1.0642151925137991e-06   -7.760024949277402e-06
-3.4784736352894655e-06   1.0642151925137991e-06   -7.760024949277402e-06
-3.4784736352894655e-06   1.0642151925137991e-06   -7.760024949277402e-06
-3.4784736352894655e-06   1.0642151925137991e-06   -7.760024949277402e-06
-7.283351183873905e-06   1.2421844973109828e-06   -1.52534395118165e-06
-7.283351183873905e-06   1.2421844973109828e-06   -1.52534395118165e-06
-7.283351183873905e-06   1.2421844973109828e-06   -1.52534395118165e-06
-7.283351183873905e-06   1.2421844973109828e-06   -1.52534395118165e-06
-5.3729674263952665e-06   1.0143374823394722e-06   -4.572608671329829e-06
-5.3729674263952665e-06   1.0143374823394722e-06   -4.572608671329829e-06
-5.3729674263952665e-06   1.0143374823394722e-06   -4.572608671329829e-06
-5.3729674263952665e-06   1.0143374823394722e-06   -4.572608671329829e-06
-3.409550062193399e-06   -6.993256020090469e-08   -8.391657781800418e-06
-3.409550062193399e-06   -6.993256020090469e-08   -8.391657781800418e-06
-3.409550062193399e-06   -6.993256020090469e-08   -8.391657781800418e-06
-3.409550062193399e-06   -6.993256020090469e-08   -8.391657781800418e-06
2.709083863563863e-07   -2.0133716568901145e-08   -2.2276810613715727e-06
2.709083863563863e-07   -2.0133716568901145e-08   -2.2276810613715727e-06
2.709083863563863e-07   -2.0133716568901145e-08   -2.2276810613715727e-06
2.709083863563863e-07   -2.0133716568901145e-08   -2.2276810613715727e-06
2.6510877757145796e-07   1.328607566620693e-07   -8.43194093907568e-06
2.6510877757145796e-07   1.328607566620693e-07   -8.43194093907568e-06
2.6510877757145796e-07   1.328607566620693e-07   -8.43194093907568e-06
2.6510877757145796e-07   1.328607566620693e-07   -8.43194093907568e-06
-3.4814316841006927e-06   2.0159634079146564e-07   -2.2289481867663717e-06
-3.4814316841006927e-06   2.0159634079146564e-07   -2.2289481867663717e-06
-3.4814316841006927e-06   2.0159634079146564e-07   -2.2289481867663717e-06
-3.4814316841006927e-06   2.0159634079146564e-07   -2.2289481867663717e-06
-1.5974155699557117e-06   6.78807106254859e-08   -5.2887456655751005e-06
-1.5974155699557117e-06   6.78807106254859e-08   -5.2887456655751005e-06
-1.5974155699557117e-06   6.78807106254859e-08   -5.2887456655751005e-06
-1.5974155699557117e-06   6.78807106254859e-08   -5.2887456655751005e-06
-3.4814316841006927e-06   1.328607566620693e-07   -8.473182289553303e-06
-3.4814316841006927e-06   1.328607566620693e-07   -8.473182289553303e-06
-3.4814316841006927e-06   1.328607566620693e-07   -8.473182289553303e-06
-3.4814316841006927e-06   1.328607566620693e-07   -8.473182289553303e-06
2.6510877757145796e-07   2.0159634079146564e-07   -2.1877068362887366e-06
2.6510877757145796e-07   2.0159634079146564e-07   -2.1877068362887366e-06
2.6510877757145796e-07   2.0159634079146564e-07   -2.1877068362887366e-06
2.6510877757145796e-07   2.0159634079146564e-07   -2.1877068362887366e-06
2.546677155130185e-07   3.122215665142674e-07   -8.447163074685727e-06
2.546677155130185e-07   3.122215665142674e-07   -8.447163074685727e-06
2.546677155130185e-07   3.122215665142674e-07   -8.447163074685727e-06
2.546677155130185e-07   3.122215665142674e-07   -8.447163074685727e-06
-3.4967812353835597e-06   4.185770158076e-07   -2.2585614261007684e-06
-3.4967812353835597e-06   4.185770158076e-07   -2.2585614261007684e-06
-3.4967812353835597e-06   4.185770158076e-07   -2.2585614261007684e-06
-3.4967812353835597e-06   4.185770158076e-07   -2.2585614261007684e-06
-1.6172850078193617e-06   2.5506557265984073e-07   -5.292948272819094e-06
-1.6172850078193617e-06   2.5506557265984073e-07   -5.292948272819094e-06
-1.6172850078193617e-06   2.5506557265984073e-07   -5.292948272819094e-06
-1.6172850078193617e-06   2.5506557265984073e-07   -5.292948272819094e-06
-3.4967812353835597e-06   3.122215665142674e-07   -8.510976344261726e-06
-3.4967812353835597e-06   3.122215665142674e-07   -8.510976344261726e-06
-3.4967812353835597e-06   3.122215665142674e-07   -8.510976344261726e-06
-3.4967812353835597e-06   3.122215665142674e-07   -8.510976344261726e-06
2.546677155130188e-07   4.185770158076e-07   -2.194748156524771e-06
2.546677155130188e-07   4.185770158076e-07   -2.194748156524771e-06
2.546677155130188e-07   4.185770158076e-07   -2.194748156524771e-06
2.546677155130188e-07   4.185770158076e-07   -2.194748156524771e-06
2.2266896339232096e-07   5.189747622321761e-07   -8.43381133738961e-06
2.2266896339232096e-07   5.189747622321761e-07   -8.43381133738961e-06
2.2266896339232096e-07   5.189747622321761e-07   -8.43381133738961e-06
2.2266896339232096e-07   5.189747622321761e-07   -8.43381133738961e-06
-3.4784736352894684e-06   6.442548497987783e-07   -2.3404083921265954e-06
-3.4784736352894684e-06   6.442548497987783e-07   -2.3404083921265954e-06
-3.4784736352894684e-06   6.442548497987783e-07   -2.3404083921265954e-06
-3.4784736352894684e-06   6.442548497987783e-07   -2.3404083921265954e-06
-1.6253454329188113e-06   4.473726059977402e-07   -5.310826049797062e-06
-1.6253454329188113e-06   4.473726059977402e-07   -5.310826049797062e-06
-1.6253454329188113e-06   4.473726059977402e-07   -5.310826049797062e-06
-1.6253454329188113e-06   4.473726059977402e-07   -5.310826049797062e-06
2.709083863563863e-07   -5.897314647185451e-07   -7.737418872760296e-06
2.709083863563863e-07   -5.897314647185451e-07   -7.737418872760296e-06
2.709083863563863e-07   -5.897314647185451e-07   -7.737418872760296e-06
2.709083863563863e-07   -5.897314647185451e-07   -7.737418872760296e-06
4.063218975261459e-06   -6.054846183274268e-07   -1.4263531167505002e-06
4.063218975261459e-06   -6.054846183274268e-07   -1.4263531167505002e-06
4.063218975261459e-06   -6.054846183274268e-07   -1.4263531167505002e-06
4.063218975261459e-06   -6.054846183274268e-07   -1.4263531167505002e-06
4.107814936201627e-06   -4.3987502698654483e-07   -7.835111646253876e-06
4.107814936201627e-06   -4.3987502698654483e-07   -7.835111646253876e-06
4.107814936201627e-06   -4.3987502698654483e-07   -7.835111646253876e-06
4.107814936201627e-06   -4.3987502698654483e-07   -7.835111646253876e-06
2.6510877757145796e-07   -4.021611034686737e-07   -1.4532297359809697e-06
2.6510877757145796e-07   -4.021611034686737e-07   -1.4532297359809697e-06
2.6510877757145796e-07   -4.021611034686737e-07   -1.4532297359809697e-06
2.6510877757145796e-07   -4.021611034686737e-07   -1.4532297359809697e-06
2.149119134389309e-06   -4.844290935147118e-07   -4.543886203316448e-06
2.149119134389309e-06   -4.844290935147118e-07   -4.543886203316448e-06
2.149119134389309e-06   -4.844290935147118e-07   -4.543886203316448e-06
2.149119134389309e-06   -4.844290935147118e-07   -4.543886203316448e-06
2.6510877757145753e-07   -4.3987502698654653e-07   -7.857740000364609e-06
2.6510877757145753e-07   -4.3987502698654653e-07   -7.857740000364609e-06
2.6510877757145753e-07   -4.3987502698654653e-07   -7.857740000364609e-06
2.6510877757145753e-07   -4.3987502698654653e-07   -7.857740000364609e-06
4.1078149362016335e-06   -4.0216110346868046e-07   -1.430601381870241e-06
4.1078149362016335e-06   -4.0216110346868046e-07   -1.430601381870241e-06
4.1078149362016335e-06   -4.0216110346868046e-07   -1.430601381870241e-06
4.1078149362016335e-06   -4.0216110346868046e-07   -1.430601381870241e-06
4.09936258948002e-06   -2.6937832256889554e-07   -7.975702118260156e-06
4.09936258948002e-06   -2.6937832256889554e-07   -7.975702118260156e-06
4.09936258948002e-06   -2.6937832256889554e-07   -7.975702118260156e-06
4.09936258948002e-06   -2.6937832256889554e-07   -7.975702118260156e-06
2.546677155130185e-07   -2.041584295633459e-07   -1.607009264118498e-06
2.546677155130185e-07   -2.041584295633459e-07   -1.607009264118498e-06
2.546677155130185e-07   -2.041584295633459e-07   -1.607009264118498e-06
2.546677155130185e-07   -2.041584295633459e-07   -1.607009264118498e-06
2.1357710845735676e-06   -3.2386010926797117e-07   -4.67036053806329e-06
2.1357710845735676e-06   -3.2386010926797117e-07   -4.67036053806329e-06
2.1357710845735676e-06   -3.2386010926797117e-07   -4.67036053806329e-06
2.1357710845735676e-06   -3.2386010926797117e-07   -4.67036053806329e-06
2.5466771551301817e-07   -2.6937832256889723e-07   -8.01483405406349e-06
2.5466771551301817e-07   -2.6937832256889723e-07   -8.01483405406349e-06
2.5466771551301817e-07   -2.6937832256889723e-07   -8.01483405406349e-06
2.5466771551301817e-07   -2.6937832256889723e-07   -8.01483405406349e-06
4.0993625894800345e-06   -2.041584295633459e-07   -1.5678773283151672e-06
4.0993625894800345e-06   -2.041584295633459e-07   -1.5678773283151672e-06
4.0993625894800345e-06   -2.041584295633459e-07   -1.5678773283151672e-06
4.0993625894800345e-06   -2.041584295633459e-07   -1.5678773283151672e-06
3.9882256800790775e-06   -4.136582522804938e-08   -7.99113727401817e-06
3.9882256800790775e-06   -4.136582522804938e-08   -7.99113727401817e-06
3.9882256800790775e-06   -4.136582522804938e-08   -7.99113727401817e-06
3.9882256800790775e-06   -4.136582522804938e-08   -7.99113727401817e-06
2.2266896339232096e-07   3.929459664858676e-08   -1.7636056659995678e-06
2.2266896339232096e-07   3.929459664858676e-08   -1.7636056659995678e-06
2.2266896339232096e-07   3.929459664858676e-08   -1.7636056659995678e-06
2.2266896339232096e-07   3.929459664858676e-08   -1.7636056659995678e-06
2.121742037759825e-06   -1.3644514598230395e-07   -4.8232836110335315e-06
2.121742037759825e-06   -1.3644514598230395e-07   -4.8232836110335315e-06
2.121742037759825e-06   -1.3644514598230395e-07   -4.8232836110335315e-06
2.121742037759825e-06   -1.3644514598230395e-07   -4.8232836110335315e-06
4.063218975261459e-06   -1.5090194608070862e-06   -4.676603007384274e-06
4.063218975261459e-06   -1.5090194608070862e-06   -4.676603007384274e-06
4.063218975261459e-06   -1.5090194608070862e-06   -4.676603007384274e-06
4.063218975261459e-06   -1.5090194608070862e-06   -4.676603007384274e-06
7.785510151498698e-06   -1.116528855628697e-06   1.7627099827848108e-06
7.785510151498698e-06   -1.116528855628697e-06   1.7627099827848108e-06
7.785510151498698e-06   -1.116528855628697e-06   1.7627099827848108e-06
7.785510151498698e-06   -1.116528855628697e-06   1.7627099827848108e-06
8.108715989617483e-06   -1.2729023402590453e-06   -5.6359468055386765e-06
8.108715989617483e-06   -1.2729023402590453e-06   -5.6359468055386765e-06
8.108715989617483e-06   -1.2729023402590453e-06   -5.6359468055386765e-06
8.108715989617483e-06   -1.2729023402590453e-06   -5.6359468055386765e-06
4.107814936201641e-06   -1.0041020713240348e-06   8.709414554600724e-07
4.107814936201641e-06   -1.0041020713240348e-06   8.709414554600724e-07
4.107814936201641e-06   -1.0041020713240348e-06   8.709414554600724e-07
4.107814936201641e-06   -1.0041020713240348e-06   8.709414554600724e-07
5.7360100320936325e-06   -1.2183100369232865e-06   -1.7141922583337082e-06
5.7360100320936325e-06   -1.2183100369232865e-06   -1.7141922583337082e-06
5.7360100320936325e-06   -1.2183100369232865e-06   -1.7141922583337082e-06
5.7360100320936325e-06   -1.2183100369232865e-06   -1.7141922583337082e-06
4.107814936201629e-06   -1.2729023402590419e-06   -5.797226966899658e-06
4.107814936201629e-06   -1.2729023402590419e-06   -5.797226966899658e-06
4.107814936201629e-06   -1.2729023402590419e-06   -5.797226966899658e-06
4.107814936201629e-06   -1.2729023402590419e-06   -5.797226966899658e-06
8.108715989617483e-06   -1.0041020713240348e-06   1.0322216168210787e-06
8.108715989617483e-06   -1.0041020713240348e-06   1.0322216168210787e-06
8.108715989617483e-06   -1.0041020713240348e-06   1.0322216168210787e-06
8.108715989617483e-06   -1.0041020713240348e-06   1.0322216168210787e-06
8.09577568171032e-06   -1.1592321950489228e-06   -6.116994382389443e-06
8.09577568171032e-06   -1.1592321950489228e-06   -6.116994382389443e-06
8.09577568171032e-06   -1.1592321950489228e-06   -6.116994382389443e-06
8.09577568171032e-06   -1.1592321950489228e-06   -6.116994382389443e-06
4.0993625894800345e-06   -8.903982066399643e-07   3.8239371161564947e-07
4.0993625894800345e-06   -8.903982066399643e-07   3.8239371161564947e-07
4.0993625894800345e-06   -8.903982066399643e-07   3.8239371161564947e-07
4.0993625894800345e-06   -8.903982066399643e-07   3.8239371161564947e-07
5.953187509045142e-06   -1.0697406696986888e-06   -2.5997090098242908e-06
5.953187509045142e-06   -1.0697406696986888e-06   -2.5997090098242908e-06
5.953187509045142e-06   -1.0697406696986888e-06   -2.5997090098242908e-06
5.953187509045142e-06   -1.0697406696986888e-06   -2.5997090098242908e-06
4.099362589480026e-06   -1.159232195048921e-06   -6.278294775434805e-06
4.099362589480026e-06   -1.159232195048921e-06   -6.278294775434805e-06
4.099362589480026e-06   -1.159232195048921e-06   -6.278294775434805e-06
4.099362589480026e-06   -1.159232195048921e-06   -6.278294775434805e-06
8.09577568171032e-06   -8.903982066399643e-07   5.436941046610205e-07
8.09577568171032e-06   -8.903982066399643e-07   5.436941046610205e-07
8.09577568171032e-06   -8.903982066399643e-07   5.436941046610205e-07
8.09577568171032e-06   -8.903982066399643e-07   5.436941046610205e-07
8.067033793345688e-06   -8.880149063447359e-07   -7.109252821842227e-06
8.067033793345688e-06   -8.880149063447359e-07   -7.109252821842227e-06
8.067033793345688e-06   -8.880149063447359e-07   -7.109252821842227e-06
8.067033793345688e-06   -8.880149063447359e-07   -7.109252821842227e-06
3.988225680079092e-06   -6.465139667144847e-07   -4.561398635093921e-07
3.988225680079092e-06   -6.465139667144847e-07   -4.561398635093921e-07
3.988225680079092e-06   -6.465139667144847e-07   -4.561398635093921e-07
3.988225680079092e-06   -6.465139667144847e-07   -4.561398635093921e-07
5.7953664950483695e-06   -9.165560994683092e-07   -3.306015942139219e-06
5.7953664950483695e-06   -9.165560994683092e-07   -3.306015942139219e-06
5.7953664950483695e-06   -9.165560994683092e-07   -3.306015942139219e-06
5.7953664950483695e-06   -9.165560994683092e-07   -3.306015942139219e-06
-8.722253885152236e-06   1.2591770111732728e-06   -6.123381883561722e-06
-8.722253885152236e-06   1.2591770111732728e-06   -6.123381883561722e-06
-8.722253885152236e-06   1.2591770111732728e-06   -6.123381883561722e-06
-8.722253885152236e-06   1.2591770111732728e-06   -6.123381883561722e-06
-5.751454218164616e-06   9.502058877691369e-07   -1.3574317792915073e-06
-5.751454218164616e-06   9.502058877691369e-07   -1.3574317792915073e-06
-5.751454218164616e-06   9.502058877691369e-07   -1.3574317792915073e-06
-5.751454218164616e-06   9.502058877691369e-07   -1.3574317792915073e-06
-5.773877169092929e-06   1.5205112958190572e-06   -5.090427148022919e-06
-5.773877169092929e-06   1.5205112958190572e-06   -5.090427148022919e-06
-5.773877169092929e-06   1.5205112958190572e-06   -5.090427148022919e-06
-5.773877169092929e-06   1.5205112958190572e-06   -5.090427148022919e-06
-8.574336765120513e-06   1.155939216715765e-06   -2.0425124051495796e-07
-8.574336765120513e-06   1.155939216715765e-06   -2.0425124051495796e-07
-8.574336765120513e-06   1.155939216715765e-06   -2.0425124051495796e-07
-8.574336765120513e-06   1.155939216715765e-06   -2.0425124051495796e-07
-6.899941799727387e-06   1.2836294125695977e-06   -3.0715236336824873e-06
-6.899941799727387e-06   1.2836294125695977e-06   -3.0715236336824873e-06
-6.899941799727387e-06   1.2836294125695977e-06   -3.0715236336824873e-06
-6.899941799727387e-06   1.2836294125695977e-06   -3.0715236336824873e-06
-8.574336765120513e-06   1.5205112958190572e-06   -4.8716839005609365e-06
-8.574336765120513e-06   1.5205112958190572e-06   -4.8716839005609365e-06
-8.574336765120513e-06   1.5205112958190572e-06   -4.8716839005609365e-06
-8.574336765120513e-06   1.5205112958190572e-06   -4.8716839005609365e-06
-5.773877169092929e-06   1.155939216715765e-06   -4.229944879769119e-07
-5.773877169092929e-06   1.155939216715765e-06   -4.229944879769119e-07
-5.773877169092929e-06   1.155939216715765e-06   -4.229944879769119e-07
-5.773877169092929e-06   1.155939216715765e-06   -4.229944879769119e-07
-5.76230123090169e-06   1.6388150167610842e-06   -4.359467267611272e-06
-5.76230123090169e-06   1.6388150167610842e-06   -4.359467267611272e-06
-5.76230123090169e-06   1.6388150167610842e-06   -4.359467267611272e-06
-5.76230123090169e-06   1.6388150167610842e-06   -4.359467267611272e-06
-8.433176174937945e-06   1.2474557095963574e-06   3.2680655674796784e-07
-8.433176174937945e-06   1.2474557095963574e-06   3.2680655674796784e-07
-8.433176174937945e-06   1.2474557095963574e-06   3.2680655674796784e-07
-8.433176174937945e-06   1.2474557095963574e-06   3.2680655674796784e-07
-6.9509814648205984e-06   1.402794980441202e-06   -2.2367215226210997e-06
-6.9509814648205984e-06   1.402794980441202e-06   -2.2367215226210997e-06
-6.9509814648205984e-06   1.402794980441202e-06   -2.2367215226210997e-06
-6.9509814648205984e-06   1.402794980441202e-06   -2.2367215226210997e-06
-8.433176174937945e-06   1.6388150167610842e-06   -4.124651683312436e-06
-8.433176174937945e-06   1.6388150167610842e-06   -4.124651683312436e-06
-8.433176174937945e-06   1.6388150167610842e-06   -4.124651683312436e-06
-8.433176174937945e-06   1.6388150167610842e-06   -4.124651683312436e-06
-5.7623012309017e-06   1.247455709596371e-06   9.199097244916463e-08
-5.7623012309017e-06   1.247455709596371e-06   9.199097244916463e-08
-5.7623012309017e-06   1.247455709596371e-06   9.199097244916463e-08
-5.7623012309017e-06   1.247455709596371e-06   9.199097244916463e-08
-5.763947990932091e-06   1.7378306966493127e-06   -3.345095867556599e-06
-5.763947990932091e-06   1.7378306966493127e-06   -3.345095867556599e-06
-5.763947990932091e-06   1.7378306966493127e-06   -3.345095867556599e-06
-5.763947990932091e-06   1.7378306966493127e-06   -3.345095867556599e-06
-8.253119292004562e-06   1.3412360776732382e-06   1.0414797389497637e-06
-8.253119292004562e-06   1.3412360776732382e-06   1.0414797389497637e-06
-8.253119292004562e-06   1.3412360776732382e-06   1.0414797389497637e-06
-8.253119292004562e-06   1.3412360776732382e-06   1.0414797389497637e-06
-6.785538975405973e-06   1.4684440711433015e-06   -1.480812251463144e-06
-6.785538975405973e-06   1.4684440711433015e-06   -1.480812251463144e-06
-6.785538975405973e-06   1.4684440711433015e-06   -1.480812251463144e-06
-6.785538975405973e-06   1.4684440711433015e-06   -1.480812251463144e-06
-5.751454218164616e-06   5.862321843568824e-07   -7.1941350932543144e-06
-5.751454218164616e-06   5.862321843568824e-07   -7.1941350932543144e-06
-5.751454218164616e-06   5.862321843568824e-07   -7.1941350932543144e-06
-5.751454218164616e-06   5.862321843568824e-07   -7.1941350932543144e-06
-2.963389835997112e-06   4.783129438757196e-07   -2.6121126672638248e-06
-2.963389835997112e-06   4.783129438757196e-07   -2.6121126672638248e-06
-2.963389835997112e-06   4.783129438757196e-07   -2.6121126672638248e-06
-2.963389835997112e-06   4.783129438757196e-07   -2.6121126672638248e-06
-2.99494766954607e-06   8.263293104206635e-07   -7.0885298932708065e-06
-2.99494766954607e-06   8.263293104206635e-07   -7.0885298932708065e-06
-2.99494766954607e-06   8.263293104206635e-07   -7.0885298932708065e-06
-2.99494766954607e-06   8.263293104206635e-07   -7.0885298932708065e-06
-5.773877169092919e-06   6.816111693956395e-07   -2.3701498427443655e-06
-5.773877169092919e-06   6.816111693956395e-07   -2.3701498427443655e-06
-5.773877169092919e-06   6.816111693956395e-07   -2.3701498427443655e-06
-5.773877169092919e-06   6.816111693956395e-07   -2.3701498427443655e-06
-4.33284761395497e-06   6.821924976517548e-07   -4.77221456492797e-06
-4.33284761395497e-06   6.821924976517548e-07   -4.77221456492797e-06
-4.33284761395497e-06   6.821924976517548e-07   -4.77221456492797e-06
-4.33284761395497e-06   6.821924976517548e-07   -4.77221456492797e-06
-5.7738771690929225e-06   8.263293104206635e-07   -7.001699008655774e-06
-5.7738771690929225e-06   8.263293104206635e-07   -7.001699008655774e-06
-5.7738771690929225e-06   8.263293104206635e-07   -7.001699008655774e-06
-5.7738771690929225e-06   8.263293104206635e-07   -7.001699008655774e-06
-2.994947669546077e-06   6.816111693956395e-07   -2.456980727359373e-06
-2.994947669546077e-06   6.816111693956395e-07   -2.456980727359373e-06
-2.994947669546077e-06   6.816111693956395e-07   -2.456980727359373e-06
-2.994947669546077e-06   6.816111693956395e-07   -2.456980727359373e-06
-3.0138828539158455e-06   1.0261909764827087e-06   -6.902615734599188e-06
-3.0138828539158455e-06   1.0261909764827087e-06   -6.902615734599188e-06
-3.0138828539158455e-06   1.0261909764827087e-06   -6.902615734599188e-06
-3.0138828539158455e-06   1.0261909764827087e-06   -6.902615734599188e-06
-5.76230123090169e-06   8.636511386437716e-07   -2.224394536919449e-06
-5.76230123090169e-06   8.636511386437716e-07   -2.224394536919449e-06
-5.76230123090169e-06   8.636511386437716e-07   -2.224394536919449e-06
-5.76230123090169e-06   8.636511386437716e-07   -2.224394536919449e-06
-4.3368482894093844e-06   8.504080882349916e-07   -4.592203609161276e-06
-4.3368482894093844e-06   8.504080882349916e-07   -4.592203609161276e-06
-4.3368482894093844e-06   8.504080882349916e-07   -4.592203609161276e-06
-4.3368482894093844e-06   8.504080882349916e-07   -4.592203609161276e-06
-5.76230123090169e-06   1.0261909764827087e-06   -6.805091831895837e-06
-5.76230123090169e-06   1.0261909764827087e-06   -6.805091831895837e-06
-5.76230123090169e-06   1.0261909764827087e-06   -6.805091831895837e-06
-5.76230123090169e-06   1.0261909764827087e-06   -6.805091831895837e-06
-3.0138828539158565e-06   8.636511386437716e-07   -2.3219184396227905e-06
-3.0138828539158565e-06   8.636511386437716e-07   -2.3219184396227905e-06
-3.0138828539158565e-06   8.636511386437716e-07   -2.3219184396227905e-06
-3.0138828539158565e-06   8.636511386437716e-07   -2.3219184396227905e-06
-3.0400300132655576e-06   1.2421844973109896e-06   -6.8871621187553e-06
-3.0400300132655576e-06   1.2421844973109896e-06   -6.8871621187553e-06
-3.0400300132655576e-06   1.2421844973109896e-06   -6.8871621187553e-06
-3.0400300132655576e-06   1.2421844973109896e-06   -6.8871621187553e-06
-5.763947990932084e-06   1.0588057096516955e-06   -2.2372715500488646e-06
-5.763947990932084e-06   1.0588057096516955e-06   -2.2372715500488646e-06
-5.763947990932084e-06   1.0588057096516955e-06   -2.2372715500488646e-06
-5.763947990932084e-06   1.0588057096516955e-06   -2.2372715500488646e-06
-4.384066838850143e-06   1.0182992110876788e-06   -4.512769571046954e-06
-4.384066838850143e-06   1.0182992110876788e-06   -4.512769571046954e-06
-4.384066838850143e-06   1.0182992110876788e-06   -4.512769571046954e-06
-4.384066838850143e-06   1.0182992110876788e-06   -4.512769571046954e-06
-2.963389835997106e-06   -2.0133716568901145e-08   -7.775635967178567e-06
-2.963389835997106e-06   -2.0133716568901145e-08   -7.775635967178567e-06
-2.963389835997106e-06   -2.0133716568901145e-08   -7.775635967178567e-06
-2.963389835997106e-06   -2.0133716568901145e-08   -7.775635967178567e-06
-2.017617292253548e-07   2.6350249549540283e-08   -3.145032076221251e-06
-2.017617292253548e-07   2.6350249549540283e-08   -3.145032076221251e-06
-2.017617292253548e-07   2.6350249549540283e-08   -3.145032076221251e-06
-2.017617292253548e-07   2.6350249549540283e-08   -3.145032076221251e-06
-2.2652224261144225e-07   2.0159634079147242e-07   -7.697929444391328e-06
-2.2652224261144225e-07   2.0159634079147242e-07   -7.697929444391328e-06
-2.2652224261144225e-07   2.0159634079147242e-07   -7.697929444391328e-06
-2.2652224261144225e-07   2.0159634079147242e-07   -7.697929444391328e-06
-2.99494766954607e-06   2.277751437828159e-07   -3.099594347961765e-06
-2.99494766954607e-06   2.277751437828159e-07   -3.099594347961765e-06
-2.99494766954607e-06   2.277751437828159e-07   -3.099594347961765e-06
-2.99494766954607e-06   2.277751437828159e-07   -3.099594347961765e-06
-1.5871099603878328e-06   1.3369208411051384e-07   -5.389540694088793e-06
-1.5871099603878328e-06   1.3369208411051384e-07   -5.389540694088793e-06
-1.5871099603878328e-06   1.3369208411051384e-07   -5.389540694088793e-06
-1.5871099603878328e-06   1.3369208411051384e-07   -5.389540694088793e-06
-2.99494766954607e-06   2.0159634079146564e-07   -7.713636726186149e-06
-2.99494766954607e-06   2.0159634079146564e-07   -7.713636726186149e-06
-2.99494766954607e-06   2.0159634079146564e-07   -7.713636726186149e-06
-2.99494766954607e-06   2.0159634079146564e-07   -7.713636726186149e-06
-2.2652224261144267e-07   2.2777514378280234e-07   -3.083887066166948e-06
-2.2652224261144267e-07   2.2777514378280234e-07   -3.083887066166948e-06
-2.2652224261144267e-07   2.2777514378280234e-07   -3.083887066166948e-06
-2.2652224261144267e-07   2.2777514378280234e-07   -3.083887066166948e-06
-2.4287067114726266e-07   4.185770158076e-07   -7.716563515552098e-06
-2.4287067114726266e-07   4.185770158076e-07   -7.716563515552098e-06
-2.4287067114726266e-07   4.185770158076e-07   -7.716563515552098e-06
-2.4287067114726266e-07   4.185770158076e-07   -7.716563515552098e-06
-3.0138828539158523e-06   4.287337746800452e-07   -3.104303932927948e-06
-3.0138828539158523e-06   4.287337746800452e-07   -3.104303932927948e-06
-3.0138828539158523e-06   4.287337746800452e-07   -3.104303932927948e-06
-3.0138828539158523e-06   4.287337746800452e-07   -3.104303932927948e-06
-1.6203579492599775e-06   3.1167207303157626e-07   -5.356608419698612e-06
-1.6203579492599775e-06   3.1167207303157626e-07   -5.356608419698612e-06
-1.6203579492599775e-06   3.1167207303157626e-07   -5.356608419698612e-06
-1.6203579492599775e-06   3.1167207303157626e-07   -5.356608419698612e-06
-3.0138828539158523e-06   4.185770158076e-07   -7.722657570875574e-06
-3.0138828539158523e-06   4.185770158076e-07   -7.722657570875574e-06
-3.0138828539158523e-06   4.185770158076e-07   -7.722657570875574e-06
-3.0138828539158523e-06   4.185770158076e-07   -7.722657570875574e-06
-2.42870671147263e-07   4.287337746800452e-07   -3.098209877604448e-06
-2.42870671147263e-07   4.287337746800452e-07   -3.098209877604448e-06
-2.42870671147263e-07   4.287337746800452e-07   -3.098209877604448e-06
-2.42870671147263e-07   4.287337746800452e-07   -3.098209877604448e-06
-2.7108481035577744e-07   6.442548497987783e-07   -7.815029473773993e-06
-2.7108481035577744e-07   6.442548497987783e-07   -7.815029473773993e-06
-2.7108481035577744e-07   6.442548497987783e-07   -7.815029473773993e-06
-2.7108481035577744e-07   6.442548497987783e-07   -7.815029473773993e-06
-3.040030013265555e-06   6.34219297806376e-07   -3.194099471062277e-06
-3.040030013265555e-06   6.34219297806376e-07   -3.194099471062277e-06
-3.040030013265555e-06   6.34219297806376e-07   -3.194099471062277e-06
-3.040030013265555e-06   6.34219297806376e-07   -3.194099471062277e-06
-1.655926305166401e-06   4.917795499172727e-07   -5.41547513582737e-06
-1.655926305166401e-06   4.917795499172727e-07   -5.41547513582737e-06
-1.655926305166401e-06   4.917795499172727e-07   -5.41547513582737e-06
-1.655926305166401e-06   4.917795499172727e-07   -5.41547513582737e-06
-2.0176172922535523e-07   -6.054846183274268e-07   -6.936965750721099e-06
-2.0176172922535523e-07   -6.054846183274268e-07   -6.936965750721099e-06
-2.0176172922535523e-07   -6.054846183274268e-07   -6.936965750721099e-06
-2.0176172922535523e-07   -6.054846183274268e-07   -6.936965750721099e-06
2.5372972318276376e-06   -3.982698766609005e-07   -2.2475386372995383e-06
2.5372972318276376e-06   -3.982698766609005e-07   -2.2475386372995383e-06
2.5372972318276376e-06   -3.982698766609005e-07   -2.2475386372995383e-06
2.5372972318276376e-06   -3.982698766609005e-07   -2.2475386372995383e-06
2.539760731885443e-06   -4.021611034686737e-07   -6.849225164782349e-06
2.539760731885443e-06   -4.021611034686737e-07   -6.849225164782349e-06
2.539760731885443e-06   -4.021611034686737e-07   -6.849225164782349e-06
2.539760731885443e-06   -4.021611034686737e-07   -6.849225164782349e-06
-2.2652224261144267e-07   -2.11782471299941e-07   -2.352980719922106e-06
-2.2652224261144267e-07   -2.11782471299941e-07   -2.352980719922106e-06
-2.2652224261144267e-07   -2.11782471299941e-07   -2.352980719922106e-06
-2.2652224261144267e-07   -2.11782471299941e-07   -2.352980719922106e-06
1.153954759302893e-06   -3.8891475587366625e-07   -4.547496352368431e-06
1.153954759302893e-06   -3.8891475587366625e-07   -4.547496352368431e-06
1.153954759302893e-06   -3.8891475587366625e-07   -4.547496352368431e-06
1.153954759302893e-06   -3.8891475587366625e-07   -4.547496352368431e-06
-2.2652224261144267e-07   -4.0216110346868046e-07   -6.963452344083578e-06
-2.2652224261144267e-07   -4.0216110346868046e-07   -6.963452344083578e-06
-2.2652224261144267e-07   -4.0216110346868046e-07   -6.963452344083578e-06
-2.2652224261144267e-07   -4.0216110346868046e-07   -6.963452344083578e-06
2.539760731885443e-06   -2.11782471299941e-07   -2.2387535406208532e-06
2.539760731885443e-06   -2.11782471299941e-07   -2.2387535406208532e-06
2.539760731885443e-06   -2.11782471299941e-07   -2.2387535406208532e-06
2.539760731885443e-06   -2.11782471299941e-07   -2.2387535406208532e-06
2.5583471221051093e-06   -2.041584295633459e-07   -7.0244022060017015e-06
2.5583471221051093e-06   -2.041584295633459e-07   -7.0244022060017015e-06
2.5583471221051093e-06   -2.041584295633459e-07   -7.0244022060017015e-06
2.5583471221051093e-06   -2.041584295633459e-07   -7.0244022060017015e-06
-2.428706711472635e-07   -3.012106765642704e-08   -2.4601283010585753e-06
-2.428706711472635e-07   -3.012106765642704e-08   -2.4601283010585753e-06
-2.428706711472635e-07   -3.012106765642704e-08   -2.4601283010585753e-06
-2.428706711472635e-07   -3.012106765642704e-08   -2.4601283010585753e-06
1.1204421984630724e-06   -2.2764509232618544e-07   -4.613802002273916e-06
1.1204421984630724e-06   -2.2764509232618544e-07   -4.613802002273916e-06
1.1204421984630724e-06   -2.2764509232618544e-07   -4.613802002273916e-06
1.1204421984630724e-06   -2.2764509232618544e-07   -4.613802002273916e-06
-2.428706711472629e-07   -2.041584295633459e-07   -7.128824623145816e-06
-2.428706711472629e-07   -2.041584295633459e-07   -7.128824623145816e-06
-2.428706711472629e-07   -2.041584295633459e-07   -7.128824623145816e-06
-2.428706711472629e-07   -2.041584295633459e-07   -7.128824623145816e-06
2.5583471221051093e-06   -3.0121067656440595e-08   -2.3557058839143903e-06
2.5583471221051093e-06   -3.0121067656440595e-08   -2.3557058839143903e-06
2.5583471221051093e-06   -3.0121067656440595e-08   -2.3557058839143903e-06
2.5583471221051093e-06   -3.0121067656440595e-08   -2.3557058839143903e-06
2.543751259677669e-06   3.929459664858676e-08   -7.2285995381369326e-06
2.543751259677669e-06   3.929459664858676e-08   -7.2285995381369326e-06
2.543751259677669e-06   3.929459664858676e-08   -7.2285995381369326e-06
2.543751259677669e-06   3.929459664858676e-08   -7.2285995381369326e-06
-2.7108481035577797e-07   1.8062003339860836e-07   -2.6220013501312144e-06
-2.7108481035577797e-07   1.8062003339860836e-07   -2.6220013501312144e-06
-2.7108481035577797e-07   1.8062003339860836e-07   -2.6220013501312144e-06
-2.7108481035577797e-07   1.8062003339860836e-07   -2.6220013501312144e-06
1.111166555588849e-06   -5.648396040450784e-08   -4.78349123042369e-06
1.111166555588849e-06   -5.648396040450784e-08   -4.78349123042369e-06
1.111166555588849e-06   -5.648396040450784e-08   -4.78349123042369e-06
1.111166555588849e-06   -5.648396040450784e-08   -4.78349123042369e-06
2.5372972318276343e-06   -1.116528855628697e-06   -3.859068169292912e-06
2.5372972318276343e-06   -1.116528855628697e-06   -3.859068169292912e-06
2.5372972318276343e-06   -1.116528855628697e-06   -3.859068169292912e-06
2.5372972318276343e-06   -1.116528855628697e-06   -3.859068169292912e-06
5.067264018803623e-06   -7.104970415768269e-07   6.01162230764863e-07
5.067264018803623e-06   -7.104970415768269e-07   6.01162230764863e-07
5.067264018803623e-06   -7.104970415768269e-07   6.01162230764863e-07
5.067264018803623e-06   -7.104970415768269e-07   6.01162230764863e-07
5.255397561487477e-06   -1.0041020713240348e-06   -4.305286678226026e-06
5.255397561487477e-06   -1.0041020713240348e-06   -4.305286678226026e-06
5.255397561487477e-06   -1.0041020713240348e-06   -4.305286678226026e-06
5.255397561487477e-06   -1.0041020713240348e-06   -4.305286678226026e-06
2.539760731885438e-06   -6.001093226140592e-07   -2.162094478193983e-08
2.539760731885438e-06   -6.001093226140592e-07   -2.162094478193983e-08
2.539760731885438e-06   -6.001093226140592e-07   -2.162094478193983e-08
2.539760731885438e-06   -6.001093226140592e-07   -2.162094478193983e-08
3.6856948849010167e-06   -8.470183549302471e-07   -1.7833657804181917e-06
3.6856948849010167e-06   -8.470183549302471e-07   -1.7833657804181917e-06
3.6856948849010167e-06   -8.470183549302471e-07   -1.7833657804181917e-06
3.6856948849010167e-06   -8.470183549302471e-07   -1.7833657804181917e-06
2.5397607318854363e-06   -1.0041020713240348e-06   -4.5476823274519984e-06
2.5397607318854363e-06   -1.0041020713240348e-06   -4.5476823274519984e-06
2.5397607318854363e-06   -1.0041020713240348e-06   -4.5476823274519984e-06
2.5397607318854363e-06   -1.0041020713240348e-06   -4.5476823274519984e-06
5.255397561487477e-06   -6.001093226140592e-07   2.2077470444406317e-07
5.255397561487477e-06   -6.001093226140592e-07   2.2077470444406317e-07
5.255397561487477e-06   -6.001093226140592e-07   2.2077470444406317e-07
5.255397561487477e-06   -6.001093226140592e-07   2.2077470444406317e-07
5.4033307514950965e-06   -8.903982066399643e-07   -4.84516819953147e-06
5.4033307514950965e-06   -8.903982066399643e-07   -4.84516819953147e-06
5.4033307514950965e-06   -8.903982066399643e-07   -4.84516819953147e-06
5.4033307514950965e-06   -8.903982066399643e-07   -4.84516819953147e-06
2.558347122105101e-06   -5.08793262407641e-07   -3.3249178375424233e-07
2.558347122105101e-06   -5.08793262407641e-07   -3.3249178375424233e-07
2.558347122105101e-06   -5.08793262407641e-07   -3.3249178375424233e-07
2.558347122105101e-06   -5.08793262407641e-07   -3.3249178375424233e-07
3.820693961186649e-06   -7.761223087603697e-07   -2.2760057544118158e-06
3.820693961186649e-06   -7.761223087603697e-07   -2.2760057544118158e-06
3.820693961186649e-06   -7.761223087603697e-07   -2.2760057544118158e-06
3.820693961186649e-06   -7.761223087603697e-07   -2.2760057544118158e-06
2.5583471221051043e-06   -8.903982066399643e-07   -5.074131166070873e-06
2.5583471221051043e-06   -8.903982066399643e-07   -5.074131166070873e-06
2.5583471221051043e-06   -8.903982066399643e-07   -5.074131166070873e-06
2.5583471221051043e-06   -8.903982066399643e-07   -5.074131166070873e-06
5.40333075149509e-06   -5.08793262407641e-07   -1.0352881721479884e-07
5.40333075149509e-06   -5.08793262407641e-07   -1.0352881721479884e-07
5.40333075149509e-06   -5.08793262407641e-07   -1.0352881721479884e-07
5.40333075149509e-06   -5.08793262407641e-07   -1.0352881721479884e-07
5.563811471509841e-06   -6.465139667144847e-07   -5.7714848140708195e-06
5.563811471509841e-06   -6.465139667144847e-07   -5.7714848140708195e-06
5.563811471509841e-06   -6.465139667144847e-07   -5.7714848140708195e-06
5.563811471509841e-06   -6.465139667144847e-07   -5.7714848140708195e-06
2.5437512596776607e-06   -3.1643867554463525e-07   -9.360963023857868e-07
2.5437512596776607e-06   -3.1643867554463525e-07   -9.360963023857868e-07
2.5437512596776607e-06   -3.1643867554463525e-07   -9.360963023857868e-07
2.5437512596776607e-06   -3.1643867554463525e-07   -9.360963023857868e-07
3.8144451109611366e-06   -6.644891659928739e-07   -2.8450890935892743e-06
3.8144451109611366e-06   -6.644891659928739e-07   -2.8450890935892743e-06
3.8144451109611366e-06   -6.644891659928739e-07   -2.8450890935892743e-06
3.8144451109611366e-06   -6.644891659928739e-07   -2.8450890935892743e-06
-6.150671708092164e-06   9.502058877691369e-07   -4.755541871406589e-06
-6.150671708092164e-06   9.502058877691369e-07   -4.755541871406589e-06
-6.150671708092164e-06   9.502058877691369e-07   -4.755541871406589e-06
-6.150671708092164e-06   9.502058877691369e-07   -4.755541871406589e-06
-4.233603787733879e-06   5.932483656148711e-07   -1.7746031841019968e-06
-4.233603787733879e-06   5.932483656148711e-07   -1.7746031841019968e-06
-4.233603787733879e-06   5.932483656148711e-07   -1.7746031841019968e-06
-4.233603787733879e-06   5.932483656148711e-07   -1.7746031841019968e-06
-4.21729491719343e-06   1.155939216715765e-06   -4.042232305108919e-06
-4.21729491719343e-06   1.155939216715765e-06   -4.042232305108919e-06
-4.21729491719343e-06   1.155939216715765e-06   -4.042232305108919e-06
-4.21729491719343e-06   1.155939216715765e-06   -4.042232305108919e-06
-5.955814029736677e-06   7.609983394570285e-07   -9.077359245149275e-07
-5.955814029736677e-06   7.609983394570285e-07   -9.077359245149275e-07
-5.955814029736677e-06   7.609983394570285e-07   -9.077359245149275e-07
-5.955814029736677e-06   7.609983394570285e-07   -9.077359245149275e-07
-4.9210296207276024e-06   9.170702688371813e-07   -2.726019763824814e-06
-4.9210296207276024e-06   9.170702688371813e-07   -2.726019763824814e-06
-4.9210296207276024e-06   9.170702688371813e-07   -2.726019763824814e-06
-4.9210296207276024e-06   9.170702688371813e-07   -2.726019763824814e-06
-5.955814029736677e-06   1.155939216715765e-06   -3.8052677787536743e-06
-5.955814029736677e-06   1.155939216715765e-06   -3.8052677787536743e-06
-5.955814029736677e-06   1.155939216715765e-06   -3.8052677787536743e-06
-5.955814029736677e-06   1.155939216715765e-06   -3.8052677787536743e-06
-4.217294917193436e-06   7.609983394570285e-07   -1.144700450870173e-06
-4.217294917193436e-06   7.609983394570285e-07   -1.144700450870173e-06
-4.217294917193436e-06   7.609983394570285e-07   -1.144700450870173e-06
-4.217294917193436e-06   7.609983394570285e-07   -1.144700450870173e-06
-4.184705135808002e-06   1.2474557095963574e-06   -3.525624339455736e-06
-4.184705135808002e-06   1.2474557095963574e-06   -3.525624339455736e-06
-4.184705135808002e-06   1.2474557095963574e-06   -3.525624339455736e-06
-4.184705135808002e-06   1.2474557095963574e-06   -3.525624339455736e-06
-5.812071890175214e-06   8.407293137248215e-07   -5.693105779874553e-07
-5.812071890175214e-06   8.407293137248215e-07   -5.693105779874553e-07
-5.812071890175214e-06   8.407293137248215e-07   -5.693105779874553e-07
-5.812071890175214e-06   8.407293137248215e-07   -5.693105779874553e-07
-4.917714375577514e-06   1.0109969759186833e-06   -2.1620670329666313e-06
-4.917714375577514e-06   1.0109969759186833e-06   -2.1620670329666313e-06
-4.917714375577514e-06   1.0109969759186833e-06   -2.1620670329666313e-06
-4.917714375577514e-06   1.0109969759186833e-06   -2.1620670329666313e-06
-5.812071890175214e-06   1.2474557095963574e-06   -3.2815885019328117e-06
-5.812071890175214e-06   1.2474557095963574e-06   -3.2815885019328117e-06
-5.812071890175214e-06   1.2474557095963574e-06   -3.2815885019328117e-06
-5.812071890175214e-06   1.2474557095963574e-06   -3.2815885019328117e-06
-4.184705135808009e-06   8.407293137248215e-07   -8.133464155103609e-07
-4.184705135808009e-06   8.407293137248215e-07   -8.133464155103609e-07
-4.184705135808009e-06   8.407293137248215e-07   -8.133464155103609e-07
-4.184705135808009e-06   8.407293137248215e-07   -8.133464155103609e-07
-4.172912653008194e-06   1.3412360776732382e-06   -2.816368939040405e-06
-4.172912653008194e-06   1.3412360776732382e-06   -2.816368939040405e-06
-4.172912653008194e-06   1.3412360776732382e-06   -2.816368939040405e-06
-4.172912653008194e-06   1.3412360776732382e-06   -2.816368939040405e-06
-5.626228072039299e-06   9.434053337359301e-07   -1.5547812762614242e-07
-5.626228072039299e-06   9.434053337359301e-07   -1.5547812762614242e-07
-5.626228072039299e-06   9.434053337359301e-07   -1.5547812762614242e-07
-5.626228072039299e-06   9.434053337359301e-07   -1.5547812762614242e-07
-4.770320985544559e-06   1.0648864014697364e-06   -1.6548785790910115e-06
-4.770320985544559e-06   1.0648864014697364e-06   -1.6548785790910115e-06
-4.770320985544559e-06   1.0648864014697364e-06   -1.6548785790910115e-06
-4.770320985544559e-06   1.0648864014697364e-06   -1.6548785790910115e-06
-4.233603787733873e-06   4.783129438757196e-07   -6.1596457283827515e-06
-4.233603787733873e-06   4.783129438757196e-07   -6.1596457283827515e-06
-4.233603787733873e-06   4.783129438757196e-07   -6.1596457283827515e-06
-4.233603787733873e-06   4.783129438757196e-07   -6.1596457283827515e-06
-2.4817647377424616e-06   3.141996720396284e-07   -3.3383819414987268e-06
-2.4817647377424616e-06   3.141996720396284e-07   -3.3383819414987268e-06
-2.4817647377424616e-06   3.141996720396284e-07   -3.3383819414987268e-06
-2.4817647377424616e-06   3.141996720396284e-07   -3.3383819414987268e-06
-2.4834107125072437e-06   6.816111693956259e-07   -6.102927801717849e-06
-2.4834107125072437e-06   6.816111693956259e-07   -6.102927801717849e-06
-2.4834107125072437e-06   6.816111693956259e-07   -6.102927801717849e-06
-2.4834107125072437e-06   6.816111693956259e-07   -6.102927801717849e-06
-4.21729491719343e-06   4.923775996598271e-07   -3.0995806520660326e-06
-4.21729491719343e-06   4.923775996598271e-07   -3.0995806520660326e-06
-4.21729491719343e-06   4.923775996598271e-07   -3.0995806520660326e-06
-4.21729491719343e-06   4.923775996598271e-07   -3.0995806520660326e-06
-3.322721361530514e-06   5.278217494396434e-07   -4.6118030680388095e-06
-3.322721361530514e-06   5.278217494396434e-07   -4.6118030680388095e-06
-3.322721361530514e-06   5.278217494396434e-07   -4.6118030680388095e-06
-3.322721361530514e-06   5.278217494396434e-07   -4.6118030680388095e-06
-4.21729491719343e-06   6.816111693956259e-07   -5.9893876598763335e-06
-4.21729491719343e-06   6.816111693956259e-07   -5.9893876598763335e-06
-4.21729491719343e-06   6.816111693956259e-07   -5.9893876598763335e-06
-4.21729491719343e-06   6.816111693956259e-07   -5.9893876598763335e-06
-2.4834107125072437e-06   4.923775996598271e-07   -3.2131207939075316e-06
-2.4834107125072437e-06   4.923775996598271e-07   -3.2131207939075316e-06
-2.4834107125072437e-06   4.923775996598271e-07   -3.2131207939075316e-06
-2.4834107125072437e-06   4.923775996598271e-07   -3.2131207939075316e-06
-2.4822257521514147e-06   8.636511386437851e-07   -5.9665534747617395e-06
-2.4822257521514147e-06   8.636511386437851e-07   -5.9665534747617395e-06
-2.4822257521514147e-06   8.636511386437851e-07   -5.9665534747617395e-06
-2.4822257521514147e-06   8.636511386437851e-07   -5.9665534747617395e-06
-4.184705135808002e-06   6.560784287481034e-07   -3.004544209396677e-06
-4.184705135808002e-06   6.560784287481034e-07   -3.004544209396677e-06
-4.184705135808002e-06   6.560784287481034e-07   -3.004544209396677e-06
-4.184705135808002e-06   6.560784287481034e-07   -3.004544209396677e-06
-3.3079841738579254e-06   6.756147504638618e-07   -4.477467605676224e-06
-3.3079841738579254e-06   6.756147504638618e-07   -4.477467605676224e-06
-3.3079841738579254e-06   6.756147504638618e-07   -4.477467605676224e-06
-3.3079841738579254e-06   6.756147504638618e-07   -4.477467605676224e-06
-4.184705135808002e-06   8.636511386437851e-07   -5.842009848824328e-06
-4.184705135808002e-06   8.636511386437851e-07   -5.842009848824328e-06
-4.184705135808002e-06   8.636511386437851e-07   -5.842009848824328e-06
-4.184705135808002e-06   8.636511386437851e-07   -5.842009848824328e-06
-2.48222575215142e-06   6.560784287481169e-07   -3.129087835334082e-06
-2.48222575215142e-06   6.560784287481169e-07   -3.129087835334082e-06
-2.48222575215142e-06   6.560784287481169e-07   -3.129087835334082e-06
-2.48222575215142e-06   6.560784287481169e-07   -3.129087835334082e-06
-2.485175871958765e-06   1.058805709651709e-06   -5.991149014510235e-06
-2.485175871958765e-06   1.058805709651709e-06   -5.991149014510235e-06
-2.485175871958765e-06   1.058805709651709e-06   -5.991149014510235e-06
-2.485175871958765e-06   1.058805709651709e-06   -5.991149014510235e-06
-4.1729126530082005e-06   8.354964465569334e-07   -3.044268821570974e-06
-4.1729126530082005e-06   8.354964465569334e-07   -3.044268821570974e-06
-4.1729126530082005e-06   8.354964465569334e-07   -3.044268821570974e-06
-4.1729126530082005e-06   8.354964465569334e-07   -3.044268821570974e-06
-3.3300919203095516e-06   8.234774983710861e-07   -4.441758673823868e-06
-3.3300919203095516e-06   8.234774983710861e-07   -4.441758673823868e-06
-3.3300919203095516e-06   8.234774983710861e-07   -4.441758673823868e-06
-3.3300919203095516e-06   8.234774983710861e-07   -4.441758673823868e-06
-2.4817647377424582e-06   2.6350249549540283e-08   -6.818923480112911e-06
-2.4817647377424582e-06   2.6350249549540283e-08   -6.818923480112911e-06
-2.4817647377424582e-06   2.6350249549540283e-08   -6.818923480112911e-06
-2.4817647377424582e-06   2.6350249549540283e-08   -6.818923480112911e-06
-7.473800888264088e-07   5.8760851005522385e-08   -3.908836037712574e-06
-7.473800888264088e-07   5.8760851005522385e-08   -3.908836037712574e-06
-7.473800888264088e-07   5.8760851005522385e-08   -3.908836037712574e-06
-7.473800888264088e-07   5.8760851005522385e-08   -3.908836037712574e-06
-7.495424663824613e-07   2.277751437828159e-07   -6.738477701231066e-06
-7.495424663824613e-07   2.277751437828159e-07   -6.738477701231066e-06
-7.495424663824613e-07   2.277751437828159e-07   -6.738477701231066e-06
-7.495424663824613e-07   2.277751437828159e-07   -6.738477701231066e-06
-2.4834107125072403e-06   2.3954801226474024e-07   -3.855761012112261e-06
-2.4834107125072403e-06   2.3954801226474024e-07   -3.855761012112261e-06
-2.4834107125072403e-06   2.3954801226474024e-07   -3.855761012112261e-06
-2.4834107125072403e-06   2.3954801226474024e-07   -3.855761012112261e-06
-1.6044088630645798e-06   1.6286545962914973e-07   -5.2747545629353455e-06
-1.6044088630645798e-06   1.6286545962914973e-07   -5.2747545629353455e-06
-1.6044088630645798e-06   1.6286545962914973e-07   -5.2747545629353455e-06
-1.6044088630645798e-06   1.6286545962914973e-07   -5.2747545629353455e-06
-2.4834107125072403e-06   2.277751437828159e-07   -6.745541422320223e-06
-2.4834107125072403e-06   2.277751437828159e-07   -6.745541422320223e-06
-2.4834107125072403e-06   2.277751437828159e-07   -6.745541422320223e-06
-2.4834107125072403e-06   2.277751437828159e-07   -6.745541422320223e-06
-7.495424663824613e-07   2.3954801226474024e-07   -3.848697291023107e-06
-7.495424663824613e-07   2.3954801226474024e-07   -3.848697291023107e-06
-7.495424663824613e-07   2.3954801226474024e-07   -3.848697291023107e-06
-7.495424663824613e-07   2.3954801226474024e-07   -3.848697291023107e-06
-7.477352360251359e-07   4.2873377468003165e-07   -6.7536158424213105e-06
-7.477352360251359e-07   4.2873377468003165e-07   -6.7536158424213105e-06
-7.477352360251359e-07   4.2873377468003165e-07   -6.7536158424213105e-06
-7.477352360251359e-07   4.2873377468003165e-07   -6.7536158424213105e-06
-2.4822257521514147e-06   4.209389840892667e-07   -3.858121441189728e-06
-2.4822257521514147e-06   4.209389840892667e-07   -3.858121441189728e-06
-2.4822257521514147e-06   4.209389840892667e-07   -3.858121441189728e-06
-2.4822257521514147e-06   4.209389840892667e-07   -3.858121441189728e-06
-1.615728375262519e-06   3.2195744524809696e-07   -5.242894812699853e-06
-1.615728375262519e-06   3.2195744524809696e-07   -5.242894812699853e-06
-1.615728375262519e-06   3.2195744524809696e-07   -5.242894812699853e-06
-1.615728375262519e-06   3.2195744524809696e-07   -5.242894812699853e-06
-2.4822257521514147e-06   4.2873377468003165e-07   -6.748938968066857e-06
-2.4822257521514147e-06   4.2873377468003165e-07   -6.748938968066857e-06
-2.4822257521514147e-06   4.2873377468003165e-07   -6.748938968066857e-06
-2.4822257521514147e-06   4.2873377468003165e-07   -6.748938968066857e-06
-7.477352360251373e-07   4.209389840892667e-07   -3.862798315544182e-06
-7.477352360251373e-07   4.209389840892667e-07   -3.862798315544182e-06
-7.477352360251373e-07   4.209389840892667e-07   -3.862798315544182e-06
-7.477352360251373e-07   4.209389840892667e-07   -3.862798315544182e-06
-7.491653369271059e-07   6.342192978063625e-07   -6.855180964133003e-06
-7.491653369271059e-07   6.342192978063625e-07   -6.855180964133003e-06
-7.491653369271059e-07   6.342192978063625e-07   -6.855180964133003e-06
-7.491653369271059e-07   6.342192978063625e-07   -6.855180964133003e-06
-2.485175871958763e-06   6.055004624648709e-07   -3.944598771208652e-06
-2.485175871958763e-06   6.055004624648709e-07   -3.944598771208652e-06
-2.485175871958763e-06   6.055004624648709e-07   -3.944598771208652e-06
-2.485175871958763e-06   6.055004624648709e-07   -3.944598771208652e-06
-1.6301715074992515e-06   4.831525477436176e-07   -5.296197296475091e-06
-1.6301715074992515e-06   4.831525477436176e-07   -5.296197296475091e-06
-1.6301715074992515e-06   4.831525477436176e-07   -5.296197296475091e-06
-1.6301715074992515e-06   4.831525477436176e-07   -5.296197296475091e-06
-7.473800888264076e-07   -3.982698766609005e-07   -6.026312525317521e-06
-7.473800888264076e-07   -3.982698766609005e-07   -6.026312525317521e-06
-7.473800888264076e-07   -3.982698766609005e-07   -6.026312525317521e-06
-7.473800888264076e-07   -3.982698766609005e-07   -6.026312525317521e-06
9.511132355269798e-07   -1.735401364468133e-07   -3.060652473933431e-06
9.511132355269798e-07   -1.735401364468133e-07   -3.060652473933431e-06
9.511132355269798e-07   -1.735401364468133e-07   -3.060652473933431e-06
9.511132355269798e-07   -1.735401364468133e-07   -3.060652473933431e-06
9.645989664607426e-07   -2.11782471299941e-07   -5.8814598876949425e-06
9.645989664607426e-07   -2.11782471299941e-07   -5.8814598876949425e-06
9.645989664607426e-07   -2.11782471299941e-07   -5.8814598876949425e-06
9.645989664607426e-07   -2.11782471299941e-07   -5.8814598876949425e-06
-7.495424663824613e-07   -1.5966924811667855e-09   -3.1506689669142023e-06
-7.495424663824613e-07   -1.5966924811667855e-09   -3.1506689669142023e-06
-7.495424663824613e-07   -1.5966924811667855e-09   -3.1506689669142023e-06
-7.495424663824613e-07   -1.5966924811667855e-09   -3.1506689669142023e-06
1.0717670351196555e-07   -1.8033582233604626e-07   -4.471290772158652e-06
1.0717670351196555e-07   -1.8033582233604626e-07   -4.471290772158652e-06
1.0717670351196555e-07   -1.8033582233604626e-07   -4.471290772158652e-06
1.0717670351196555e-07   -1.8033582233604626e-07   -4.471290772158652e-06
-7.495424663824613e-07   -2.11782471299941e-07   -6.007571354986203e-06
-7.495424663824613e-07   -2.11782471299941e-07   -6.007571354986203e-06
-7.495424663824613e-07   -2.11782471299941e-07   -6.007571354986203e-06
-7.495424663824613e-07   -2.11782471299941e-07   -6.007571354986203e-06
9.64598966460746e-07   -1.5966924811667855e-09   -3.0245574996229537e-06
9.64598966460746e-07   -1.5966924811667855e-09   -3.0245574996229537e-06
9.64598966460746e-07   -1.5966924811667855e-09   -3.0245574996229537e-06
9.64598966460746e-07   -1.5966924811667855e-09   -3.0245574996229537e-06
9.990610582824112e-07   -3.012106765642704e-08   -6.000091974798014e-06
9.990610582824112e-07   -3.012106765642704e-08   -6.000091974798014e-06
9.990610582824112e-07   -3.012106765642704e-08   -6.000091974798014e-06
9.990610582824112e-07   -3.012106765642704e-08   -6.000091974798014e-06
-7.477352360251373e-07   1.6228275080588537e-07   -3.204207108696168e-06
-7.477352360251373e-07   1.6228275080588537e-07   -3.204207108696168e-06
-7.477352360251373e-07   1.6228275080588537e-07   -3.204207108696168e-06
-7.477352360251373e-07   1.6228275080588537e-07   -3.204207108696168e-06
9.675646404396076e-08   -3.693330847130325e-08   -4.49216363991167e-06
9.675646404396076e-08   -3.693330847130325e-08   -4.49216363991167e-06
9.675646404396076e-08   -3.693330847130325e-08   -4.49216363991167e-06
9.675646404396076e-08   -3.693330847130325e-08   -4.49216363991167e-06
-7.477352360251365e-07   -3.012106765642704e-08   -6.115534265875394e-06
-7.477352360251365e-07   -3.012106765642704e-08   -6.115534265875394e-06
-7.477352360251365e-07   -3.012106765642704e-08   -6.115534265875394e-06
-7.477352360251365e-07   -3.012106765642704e-08   -6.115534265875394e-06
9.990610582824146e-07   1.6228275080589893e-07   -3.088764817618764e-06
9.990610582824146e-07   1.6228275080589893e-07   -3.088764817618764e-06
9.990610582824146e-07   1.6228275080589893e-07   -3.088764817618764e-06
9.990610582824146e-07   1.6228275080589893e-07   -3.088764817618764e-06
1.0166088336444954e-06   1.8062003339860836e-07   -6.176397911162695e-06
1.0166088336444954e-06   1.8062003339860836e-07   -6.176397911162695e-06
1.0166088336444954e-06   1.8062003339860836e-07   -6.176397911162695e-06
1.0166088336444954e-06   1.8062003339860836e-07   -6.176397911162695e-06
-7.491653369271047e-07   3.483927014715784e-07   -3.3341045610537937e-06
-7.491653369271047e-07   3.483927014715784e-07   -3.3341045610537937e-06
-7.491653369271047e-07   3.483927014715784e-07   -3.3341045610537937e-06
-7.491653369271047e-07   3.483927014715784e-07   -3.3341045610537937e-06
1.0197219852386355e-07   1.1470922370337196e-07   -4.612457033477811e-06
1.0197219852386355e-07   1.1470922370337196e-07   -4.612457033477811e-06
1.0197219852386355e-07   1.1470922370337196e-07   -4.612457033477811e-06
1.0197219852386355e-07   1.1470922370337196e-07   -4.612457033477811e-06
9.511132355269781e-07   -7.104970415768269e-07   -3.2863929015557815e-06
9.511132355269781e-07   -7.104970415768269e-07   -3.2863929015557815e-06
9.511132355269781e-07   -7.104970415768269e-07   -3.2863929015557815e-06
9.511132355269781e-07   -7.104970415768269e-07   -3.2863929015557815e-06
2.419695480126897e-06   -3.093941152621405e-07   -5.98094071433772e-07
2.419695480126897e-06   -3.093941152621405e-07   -5.98094071433772e-07
2.419695480126897e-06   -3.093941152621405e-07   -5.98094071433772e-07
2.419695480126897e-06   -3.093941152621405e-07   -5.98094071433772e-07
2.608351120185264e-06   -6.001093226140592e-07   -3.418733245718866e-06
2.608351120185264e-06   -6.001093226140592e-07   -3.418733245718866e-06
2.608351120185264e-06   -6.001093226140592e-07   -3.418733245718866e-06
2.608351120185264e-06   -6.001093226140592e-07   -3.418733245718866e-06
9.645989664607443e-07   -1.9078591238544623e-07   -9.247403689818405e-07
9.645989664607443e-07   -1.9078591238544623e-07   -9.247403689818405e-07
9.645989664607443e-07   -1.9078591238544623e-07   -9.247403689818405e-07
9.645989664607443e-07   -1.9078591238544623e-07   -9.247403689818405e-07
1.6619146874126073e-06   -4.383159954437989e-07   -1.9384151873999233e-06
1.6619146874126073e-06   -4.383159954437989e-07   -1.9384151873999233e-06
1.6619146874126073e-06   -4.383159954437989e-07   -1.9384151873999233e-06
1.6619146874126073e-06   -4.383159954437989e-07   -1.9384151873999233e-06
9.645989664607426e-07   -6.001093226140592e-07   -3.6643272918560088e-06
9.645989664607426e-07   -6.001093226140592e-07   -3.6643272918560088e-06
9.645989664607426e-07   -6.001093226140592e-07   -3.6643272918560088e-06
9.645989664607426e-07   -6.001093226140592e-07   -3.6643272918560088e-06
2.6083511201852537e-06   -1.9078591238543268e-07   -6.791463228446808e-07
2.6083511201852537e-06   -1.9078591238543268e-07   -6.791463228446808e-07
2.6083511201852537e-06   -1.9078591238543268e-07   -6.791463228446808e-07
2.6083511201852537e-06   -1.9078591238543268e-07   -6.791463228446808e-07
2.755291763476531e-06   -5.087932624076274e-07   -3.738091643599919e-06
2.755291763476531e-06   -5.087932624076274e-07   -3.738091643599919e-06
2.755291763476531e-06   -5.087932624076274e-07   -3.738091643599919e-06
2.755291763476531e-06   -5.087932624076274e-07   -3.738091643599919e-06
9.990610582824146e-07   -1.1081621067776442e-07   -1.0498266993143137e-06
9.990610582824146e-07   -1.1081621067776442e-07   -1.0498266993143137e-06
9.990610582824146e-07   -1.1081621067776442e-07   -1.0498266993143137e-06
9.990610582824146e-07   -1.1081621067776442e-07   -1.0498266993143137e-06
1.7737669843589873e-06   -3.765371950484385e-07   -2.181570652152856e-06
1.7737669843589873e-06   -3.765371950484385e-07   -2.181570652152856e-06
1.7737669843589873e-06   -3.765371950484385e-07   -2.181570652152856e-06
1.7737669843589873e-06   -3.765371950484385e-07   -2.181570652152856e-06
9.99061058282413e-07   -5.087932624076274e-07   -3.976877874637835e-06
9.99061058282413e-07   -5.087932624076274e-07   -3.976877874637835e-06
9.99061058282413e-07   -5.087932624076274e-07   -3.976877874637835e-06
9.99061058282413e-07   -5.087932624076274e-07   -3.976877874637835e-06
2.755291763476521e-06   -1.1081621067776442e-07   -8.110404682763701e-07
2.755291763476521e-06   -1.1081621067776442e-07   -8.110404682763701e-07
2.755291763476521e-06   -1.1081621067776442e-07   -8.110404682763701e-07
2.755291763476521e-06   -1.1081621067776442e-07   -8.110404682763701e-07
2.9530183465206227e-06   -3.164386755446217e-07   -4.359765226703973e-06
2.9530183465206227e-06   -3.164386755446217e-07   -4.359765226703973e-06
2.9530183465206227e-06   -3.164386755446217e-07   -4.359765226703973e-06
2.9530183465206227e-06   -3.164386755446217e-07   -4.359765226703973e-06
1.016608833644497e-06   4.2766155727589424e-08   -1.3479389373404068e-06
1.016608833644497e-06   4.2766155727589424e-08   -1.3479389373404068e-06
1.016608833644497e-06   4.2766155727589424e-08   -1.3479389373404068e-06
1.016608833644497e-06   4.2766155727589424e-08   -1.3479389373404068e-06
1.8169438077762749e-06   -2.8975572173888713e-07   -2.4823174344134997e-06
1.8169438077762749e-06   -2.8975572173888713e-07   -2.4823174344134997e-06
1.8169438077762749e-06   -2.8975572173888713e-07   -2.4823174344134997e-06
1.8169438077762749e-06   -2.8975572173888713e-07   -2.4823174344134997e-06
-3.6195193286015396e-06   5.932483656148575e-07   -3.461230806308676e-06
-3.6195193286015396e-06   5.932483656148575e-07   -3.461230806308676e-06
-3.6195193286015396e-06   5.932483656148575e-07   -3.461230806308676e-06
-3.6195193286015396e-06   5.932483656148575e-07   -3.461230806308676e-06
-2.733402867930055e-06   2.3154583966630425e-07   -2.2013915540920075e-06
-2.733402867930055e-06   2.3154583966630425e-07   -2.2013915540920075e-06
-2.733402867930055e-06   2.3154583966630425e-07   -2.2013915540920075e-06
-2.733402867930055e-06   2.3154583966630425e-07   -2.2013915540920075e-06
-2.6965750955170854e-06   7.609983394570285e-07   -3.053823614461475e-06
-2.6965750955170854e-06   7.609983394570285e-07   -3.053823614461475e-06
-2.6965750955170854e-06   7.609983394570285e-07   -3.053823614461475e-06
-2.6965750955170854e-06   7.609983394570285e-07   -3.053823614461475e-06
-3.4153409944492777e-06   3.689552348213037e-07   -1.6206545867929878e-06
-3.4153409944492777e-06   3.689552348213037e-07   -1.6206545867929878e-06
-3.4153409944492777e-06   3.689552348213037e-07   -1.6206545867929878e-06
-3.4153409944492777e-06   3.689552348213037e-07   -1.6206545867929878e-06
-2.984367924051645e-06   5.341868790539037e-07   -2.4380820239954104e-06
-2.984367924051645e-06   5.341868790539037e-07   -2.4380820239954104e-06
-2.984367924051645e-06   5.341868790539037e-07   -2.4380820239954104e-06
-2.984367924051645e-06   5.341868790539037e-07   -2.4380820239954104e-06
-3.4153409944492777e-06   7.609983394570285e-07   -2.8185977516800078e-06
-3.4153409944492777e-06   7.609983394570285e-07   -2.8185977516800078e-06
-3.4153409944492777e-06   7.609983394570285e-07   -2.8185977516800078e-06
-3.4153409944492777e-06   7.609983394570285e-07   -2.8185977516800078e-06
-2.6965750955170888e-06   3.689552348213037e-07   -1.8558804495744552e-06
-2.6965750955170888e-06   3.689552348213037e-07   -1.8558804495744552e-06
-2.6965750955170888e-06   3.689552348213037e-07   -1.8558804495744552e-06
-2.6965750955170888e-06   3.689552348213037e-07   -1.8558804495744552e-06
-2.6429763621641316e-06   8.407293137248215e-07   -2.7254753640247533e-06
-2.6429763621641316e-06   8.407293137248215e-07   -2.7254753640247533e-06
-2.6429763621641316e-06   8.407293137248215e-07   -2.7254753640247533e-06
-2.6429763621641316e-06   8.407293137248215e-07   -2.7254753640247533e-06
-3.25550088547964e-06   4.4028031494119696e-07   -1.464331759228716e-06
-3.25550088547964e-06   4.4028031494119696e-07   -1.464331759228716e-06
-3.25550088547964e-06   4.4028031494119696e-07   -1.464331759228716e-06
-3.25550088547964e-06   4.4028031494119696e-07   -1.464331759228716e-06
-2.9321896501998905e-06   6.09107404895789e-07   -2.1044800720010855e-06
-2.9321896501998905e-06   6.09107404895789e-07   -2.1044800720010855e-06
-2.9321896501998905e-06   6.09107404895789e-07   -2.1044800720010855e-06
-2.9321896501998905e-06   6.09107404895789e-07   -2.1044800720010855e-06
-3.2555008854796334e-06   8.407293137248215e-07   -2.485205964754584e-06
-3.2555008854796334e-06   8.407293137248215e-07   -2.485205964754584e-06
-3.2555008854796334e-06   8.407293137248215e-07   -2.485205964754584e-06
-3.2555008854796334e-06   8.407293137248215e-07   -2.485205964754584e-06
-2.6429763621641384e-06   4.4028031494119696e-07   -1.7046011584989023e-06
-2.6429763621641384e-06   4.4028031494119696e-07   -1.7046011584989023e-06
-2.6429763621641384e-06   4.4028031494119696e-07   -1.7046011584989023e-06
-2.6429763621641384e-06   4.4028031494119696e-07   -1.7046011584989023e-06
-2.609178690710454e-06   9.434053337359165e-07   -2.308350725573169e-06
-2.609178690710454e-06   9.434053337359165e-07   -2.308350725573169e-06
-2.609178690710454e-06   9.434053337359165e-07   -2.308350725573169e-06
-2.609178690710454e-06   9.434053337359165e-07   -2.308350725573169e-06
-3.0527057842194224e-06   5.54196410697109e-07   -1.3356135492348825e-06
-3.0527057842194224e-06   5.54196410697109e-07   -1.3356135492348825e-06
-3.0527057842194224e-06   5.54196410697109e-07   -1.3356135492348825e-06
-3.0527057842194224e-06   5.54196410697109e-07   -1.3356135492348825e-06
-2.7971941697159576e-06   6.640421942173506e-07   -1.827373710186245e-06
-2.7971941697159576e-06   6.640421942173506e-07   -1.827373710186245e-06
-2.7971941697159576e-06   6.640421942173506e-07   -1.827373710186245e-06
-2.7971941697159576e-06   6.640421942173506e-07   -1.827373710186245e-06
-2.733402867930055e-06   3.141996720396284e-07   -5.143563116172888e-06
-2.733402867930055e-06   3.141996720396284e-07   -5.143563116172888e-06
-2.733402867930055e-06   3.141996720396284e-07   -5.143563116172888e-06
-2.733402867930055e-06   3.141996720396284e-07   -5.143563116172888e-06
-2.005965297357916e-06   1.4318015197702398e-07   -4.033778877256894e-06
-2.005965297357916e-06   1.4318015197702398e-07   -4.033778877256894e-06
-2.005965297357916e-06   1.4318015197702398e-07   -4.033778877256894e-06
-2.005965297357916e-06   1.4318015197702398e-07   -4.033778877256894e-06
-1.984176785089812e-06   4.923775996598271e-07   -5.1230630195423416e-06
-1.984176785089812e-06   4.923775996598271e-07   -5.1230630195423416e-06
-1.984176785089812e-06   4.923775996598271e-07   -5.1230630195423416e-06
-1.984176785089812e-06   4.923775996598271e-07   -5.1230630195423416e-06
-2.6965750955170888e-06   3.0177892651814383e-07   -3.821373298278495e-06
-2.6965750955170888e-06   3.0177892651814383e-07   -3.821373298278495e-06
-2.6965750955170888e-06   3.0177892651814383e-07   -3.821373298278495e-06
-2.6965750955170888e-06   3.0177892651814383e-07   -3.821373298278495e-06
-2.3319813605725003e-06   3.459040887710896e-07   -4.455504620538034e-06
-2.3319813605725003e-06   3.459040887710896e-07   -4.455504620538034e-06
-2.3319813605725003e-06   3.459040887710896e-07   -4.455504620538034e-06
-2.3319813605725003e-06   3.459040887710896e-07   -4.455504620538034e-06
-2.696575095517082e-06   4.923775996598271e-07   -5.008703815657302e-06
-2.696575095517082e-06   4.923775996598271e-07   -5.008703815657302e-06
-2.696575095517082e-06   4.923775996598271e-07   -5.008703815657302e-06
-2.696575095517082e-06   4.923775996598271e-07   -5.008703815657302e-06
-1.984176785089812e-06   3.0177892651811673e-07   -3.935732502163528e-06
-1.984176785089812e-06   3.0177892651811673e-07   -3.935732502163528e-06
-1.984176785089812e-06   3.0177892651811673e-07   -3.935732502163528e-06
-1.984176785089812e-06   3.0177892651811673e-07   -3.935732502163528e-06
-1.9597955057598415e-06   6.560784287481169e-07   -5.039812782663497e-06
-1.9597955057598415e-06   6.560784287481169e-07   -5.039812782663497e-06
-1.9597955057598415e-06   6.560784287481169e-07   -5.039812782663497e-06
-1.9597955057598415e-06   6.560784287481169e-07   -5.039812782663497e-06
-2.642976362164142e-06   4.5084572082741887e-07   -3.778038397237216e-06
-2.642976362164142e-06   4.5084572082741887e-07   -3.778038397237216e-06
-2.642976362164142e-06   4.5084572082741887e-07   -3.778038397237216e-06
-2.642976362164142e-06   4.5084572082741887e-07   -3.778038397237216e-06
-2.30211155033877e-06   4.7587679086636293e-07   -4.361165058969498e-06
-2.30211155033877e-06   4.7587679086636293e-07   -4.361165058969498e-06
-2.30211155033877e-06   4.7587679086636293e-07   -4.361165058969498e-06
-2.30211155033877e-06   4.7587679086636293e-07   -4.361165058969498e-06
-2.6429763621641316e-06   6.560784287481034e-07   -4.916673157911064e-06
-2.6429763621641316e-06   6.560784287481034e-07   -4.916673157911064e-06
-2.6429763621641316e-06   6.560784287481034e-07   -4.916673157911064e-06
-2.6429763621641316e-06   6.560784287481034e-07   -4.916673157911064e-06
-1.959795505759838e-06   4.5084572082741887e-07   -3.901178021989642e-06
-1.959795505759838e-06   4.5084572082741887e-07   -3.901178021989642e-06
-1.959795505759838e-06   4.5084572082741887e-07   -3.901178021989642e-06
-1.959795505759838e-06   4.5084572082741887e-07   -3.901178021989642e-06
-1.939018692966208e-06   8.354964465569334e-07   -5.0889134544585874e-06
-1.939018692966208e-06   8.354964465569334e-07   -5.0889134544585874e-06
-1.939018692966208e-06   8.354964465569334e-07   -5.0889134544585874e-06
-1.939018692966208e-06   8.354964465569334e-07   -5.0889134544585874e-06
-2.6091786907104607e-06   6.180456443853253e-07   -3.841509643581818e-06
-2.6091786907104607e-06   6.180456443853253e-07   -3.841509643581818e-06
-2.6091786907104607e-06   6.180456443853253e-07   -3.841509643581818e-06
-2.6091786907104607e-06   6.180456443853253e-07   -3.841509643581818e-06
-2.293520245294919e-06   6.092614064455285e-07   -4.362336509843892e-06
-2.293520245294919e-06   6.092614064455285e-07   -4.362336509843892e-06
-2.293520245294919e-06   6.092614064455285e-07   -4.362336509843892e-06
-2.293520245294919e-06   6.092614064455285e-07   -4.362336509843892e-06
-2.005965297357911e-06   5.8760851005522385e-08   -5.836075285297896e-06
-2.005965297357911e-06   5.8760851005522385e-08   -5.836075285297896e-06
-2.005965297357911e-06   5.8760851005522385e-08   -5.836075285297896e-06
-2.005965297357911e-06   5.8760851005522385e-08   -5.836075285297896e-06
-1.2907700302662507e-06   8.885260745247043e-08   -4.626028119610284e-06
-1.2907700302662507e-06   8.885260745247043e-08   -4.626028119610284e-06
-1.2907700302662507e-06   8.885260745247043e-08   -4.626028119610284e-06
-1.2907700302662507e-06   8.885260745247043e-08   -4.626028119610284e-06
-1.2700917831933135e-06   2.395480122647267e-07   -5.758124956549795e-06
-1.2700917831933135e-06   2.395480122647267e-07   -5.758124956549795e-06
-1.2700917831933135e-06   2.395480122647267e-07   -5.758124956549795e-06
-1.2700917831933135e-06   2.395480122647267e-07   -5.758124956549795e-06
-1.984176785089812e-06   2.5217848092687995e-07   -4.575561567919542e-06
-1.984176785089812e-06   2.5217848092687995e-07   -4.575561567919542e-06
-1.984176785089812e-06   2.5217848092687995e-07   -4.575561567919542e-06
-1.984176785089812e-06   2.5217848092687995e-07   -4.575561567919542e-06
-1.6270420026733706e-06   1.8359487891886524e-07   -5.129636044075587e-06
-1.6270420026733706e-06   1.8359487891886524e-07   -5.129636044075587e-06
-1.6270420026733706e-06   1.8359487891886524e-07   -5.129636044075587e-06
-1.6270420026733706e-06   1.8359487891886524e-07   -5.129636044075587e-06
-1.9841767850898087e-06   2.3954801226474024e-07   -5.765703237747071e-06
-1.9841767850898087e-06   2.3954801226474024e-07   -5.765703237747071e-06
-1.9841767850898087e-06   2.3954801226474024e-07   -5.765703237747071e-06
-1.9841767850898087e-06   2.3954801226474024e-07   -5.765703237747071e-06
-1.2700917831933135e-06   2.5217848092687995e-07   -4.5679832867222665e-06
-1.2700917831933135e-06   2.5217848092687995e-07   -4.5679832867222665e-06
-1.2700917831933135e-06   2.5217848092687995e-07   -4.5679832867222665e-06
-1.2700917831933135e-06   2.5217848092687995e-07   -4.5679832867222665e-06
-1.2458178697464973e-06   4.2093898408925316e-07   -5.771297840570806e-06
-1.2458178697464973e-06   4.2093898408925316e-07   -5.771297840570806e-06
-1.2458178697464973e-06   4.2093898408925316e-07   -5.771297840570806e-06
-1.2458178697464973e-06   4.2093898408925316e-07   -5.771297840570806e-06
-1.959795505759838e-06   4.16853230669783e-07   -4.578883661830201e-06
-1.959795505759838e-06   4.16853230669783e-07   -4.578883661830201e-06
-1.959795505759838e-06   4.16853230669783e-07   -4.578883661830201e-06
-1.959795505759838e-06   4.16853230669783e-07   -4.578883661830201e-06
-1.6148415934137356e-06   3.2514873470049417e-07   -5.098784151492157e-06
-1.6148415934137356e-06   3.2514873470049417e-07   -5.098784151492157e-06
-1.6148415934137356e-06   3.2514873470049417e-07   -5.098784151492157e-06
-1.6148415934137356e-06   3.2514873470049417e-07   -5.098784151492157e-06
-1.9597955057598347e-06   4.2093898408925316e-07   -5.768846388519129e-06
-1.9597955057598347e-06   4.2093898408925316e-07   -5.768846388519129e-06
-1.9597955057598347e-06   4.2093898408925316e-07   -5.768846388519129e-06
-1.9597955057598347e-06   4.2093898408925316e-07   -5.768846388519129e-06
-1.2458178697464998e-06   4.16853230669783e-07   -4.581335113881905e-06
-1.2458178697464998e-06   4.16853230669783e-07   -4.581335113881905e-06
-1.2458178697464998e-06   4.16853230669783e-07   -4.581335113881905e-06
-1.2458178697464998e-06   4.16853230669783e-07   -4.581335113881905e-06
-1.224300533173556e-06   6.055004624648844e-07   -5.868093196418944e-06
-1.224300533173556e-06   6.055004624648844e-07   -5.868093196418944e-06
-1.224300533173556e-06   6.055004624648844e-07   -5.868093196418944e-06
-1.224300533173556e-06   6.055004624648844e-07   -5.868093196418944e-06
-1.9390186929662097e-06   5.841082121656345e-07   -4.664060913251617e-06
-1.9390186929662097e-06   5.841082121656345e-07   -4.664060913251617e-06
-1.9390186929662097e-06   5.841082121656345e-07   -4.664060913251617e-06
-1.9390186929662097e-06   5.841082121656345e-07   -4.664060913251617e-06
-1.6057639729739974e-06   4.686139208807895e-07   -5.150188871801096e-06
-1.6057639729739974e-06   4.686139208807895e-07   -5.150188871801096e-06
-1.6057639729739974e-06   4.686139208807895e-07   -5.150188871801096e-06
-1.6057639729739974e-06   4.686139208807895e-07   -5.150188871801096e-06
-1.290770030266246e-06   -1.735401364468133e-07   -5.104674511779015e-06
-1.290770030266246e-06   -1.735401364468133e-07   -5.104674511779015e-06
-1.290770030266246e-06   -1.735401364468133e-07   -5.104674511779015e-06
-1.290770030266246e-06   -1.735401364468133e-07   -5.104674511779015e-06
-6.095356661847458e-07   5.0193342711118624e-08   -3.835043817481781e-06
-6.095356661847458e-07   5.0193342711118624e-08   -3.835043817481781e-06
-6.095356661847458e-07   5.0193342711118624e-08   -3.835043817481781e-06
-6.095356661847458e-07   5.0193342711118624e-08   -3.835043817481781e-06
-5.762190759782794e-07   -1.5966924811667855e-09   -4.93326741682996e-06
-5.762190759782794e-07   -1.5966924811667855e-09   -4.93326741682996e-06
-5.762190759782794e-07   -1.5966924811667855e-09   -4.93326741682996e-06
-5.762190759782794e-07   -1.5966924811667855e-09   -4.93326741682996e-06
-1.2700917831933114e-06   2.0978533353703597e-07   -3.903642120415782e-06
-1.2700917831933114e-06   2.0978533353703597e-07   -3.903642120415782e-06
-1.2700917831933114e-06   2.0978533353703597e-07   -3.903642120415782e-06
-1.2700917831933114e-06   2.0978533353703597e-07   -3.903642120415782e-06
-9.271032341825567e-07   3.75171676053848e-08   -4.371928802541472e-06
-9.271032341825567e-07   3.75171676053848e-08   -4.371928802541472e-06
-9.271032341825567e-07   3.75171676053848e-08   -4.371928802541472e-06
-9.271032341825567e-07   3.75171676053848e-08   -4.371928802541472e-06
-1.270091783193309e-06   -1.596692481180338e-09   -5.0600966324408685e-06
-1.270091783193309e-06   -1.596692481180338e-09   -5.0600966324408685e-06
-1.270091783193309e-06   -1.596692481180338e-09   -5.0600966324408685e-06
-1.270091783193309e-06   -1.596692481180338e-09   -5.0600966324408685e-06
-5.762190759782811e-07   2.0978533353703597e-07   -3.776812904804884e-06
-5.762190759782811e-07   2.0978533353703597e-07   -3.776812904804884e-06
-5.762190759782811e-07   2.0978533353703597e-07   -3.776812904804884e-06
-5.762190759782811e-07   2.0978533353703597e-07   -3.776812904804884e-06
-5.228233285335471e-07   1.6228275080589893e-07   -4.9947931946028e-06
-5.228233285335471e-07   1.6228275080589893e-07   -4.9947931946028e-06
-5.228233285335471e-07   1.6228275080589893e-07   -4.9947931946028e-06
-5.228233285335471e-07   1.6228275080589893e-07   -4.9947931946028e-06
-1.2458178697464973e-06   3.588051493391806e-07   -3.907715731701174e-06
-1.2458178697464973e-06   3.588051493391806e-07   -3.907715731701174e-06
-1.2458178697464973e-06   3.588051493391806e-07   -3.907715731701174e-06
-1.2458178697464973e-06   3.588051493391806e-07   -3.907715731701174e-06
-9.08132957037272e-07   1.6719423062144128e-07   -4.355557368319245e-06
-9.08132957037272e-07   1.6719423062144128e-07   -4.355557368319245e-06
-9.08132957037272e-07   1.6719423062144128e-07   -4.355557368319245e-06
-9.08132957037272e-07   1.6719423062144128e-07   -4.355557368319245e-06
-1.2458178697464943e-06   1.6228275080589893e-07   -5.1127066337227554e-06
-1.2458178697464943e-06   1.6228275080589893e-07   -5.1127066337227554e-06
-1.2458178697464943e-06   1.6228275080589893e-07   -5.1127066337227554e-06
-1.2458178697464943e-06   1.6228275080589893e-07   -5.1127066337227554e-06
-5.228233285335488e-07   3.588051493392077e-07   -3.789802292581207e-06
-5.228233285335488e-07   3.588051493392077e-07   -3.789802292581207e-06
-5.228233285335488e-07   3.588051493392077e-07   -3.789802292581207e-06
-5.228233285335488e-07   3.588051493392077e-07   -3.789802292581207e-06
-4.862095874191058e-07   3.483927014715784e-07   -5.134067768084718e-06
-4.862095874191058e-07   3.483927014715784e-07   -5.134067768084718e-06
-4.862095874191058e-07   3.483927014715784e-07   -5.134067768084718e-06
-4.862095874191058e-07   3.483927014715784e-07   -5.134067768084718e-06
-1.224300533173556e-06   5.255592297623507e-07   -4.010216108801722e-06
-1.224300533173556e-06   5.255592297623507e-07   -4.010216108801722e-06
-1.224300533173556e-06   5.255592297623507e-07   -4.010216108801722e-06
-1.224300533173556e-06   5.255592297623507e-07   -4.010216108801722e-06
-8.889893907365922e-07   3.013580645975806e-07   -4.4345473137644985e-06
-8.889893907365922e-07   3.013580645975806e-07   -4.4345473137644985e-06
-8.889893907365922e-07   3.013580645975806e-07   -4.4345473137644985e-06
-8.889893907365922e-07   3.013580645975806e-07   -4.4345473137644985e-06
-6.095356661847441e-07   -3.093941152621405e-07   -2.748537777573417e-06
-6.095356661847441e-07   -3.093941152621405e-07   -2.748537777573417e-06
-6.095356661847441e-07   -3.093941152621405e-07   -2.748537777573417e-06
-6.095356661847441e-07   -3.093941152621405e-07   -2.748537777573417e-06
-1.559538024217866e-07   8.324898043301056e-08   -1.7569821472180746e-06
-1.559538024217866e-07   8.324898043301056e-08   -1.7569821472180746e-06
-1.559538024217866e-07   8.324898043301056e-08   -1.7569821472180746e-06
-1.559538024217866e-07   8.324898043301056e-08   -1.7569821472180746e-06
4.533020214975234e-08   -1.9078591238544623e-07   -2.5923100573437235e-06
4.533020214975234e-08   -1.9078591238544623e-07   -2.5923100573437235e-06
4.533020214975234e-08   -1.9078591238544623e-07   -2.5923100573437235e-06
4.533020214975234e-08   -1.9078591238544623e-07   -2.5923100573437235e-06
-5.762190759782794e-07   2.111144690231158e-07   -1.7975348226420887e-06
-5.762190759782794e-07   2.111144690231158e-07   -1.7975348226420887e-06
-5.762190759782794e-07   2.111144690231158e-07   -1.7975348226420887e-06
-5.762190759782794e-07   2.111144690231158e-07   -1.7975348226420887e-06
-3.1233526789871094e-07   -3.5920980629089916e-08   -2.089119899650104e-06
-3.1233526789871094e-07   -3.5920980629089916e-08   -2.089119899650104e-06
-3.1233526789871094e-07   -3.5920980629089916e-08   -2.089119899650104e-06
-3.1233526789871094e-07   -3.5920980629089916e-08   -2.089119899650104e-06
-5.762190759782777e-07   -1.9078591238543268e-07   -2.83345028618882e-06
-5.762190759782777e-07   -1.9078591238543268e-07   -2.83345028618882e-06
-5.762190759782777e-07   -1.9078591238543268e-07   -2.83345028618882e-06
-5.762190759782777e-07   -1.9078591238543268e-07   -2.83345028618882e-06
4.533020214975234e-08   2.111144690230887e-07   -1.5563945937969922e-06
4.533020214975234e-08   2.111144690230887e-07   -1.5563945937969922e-06
4.533020214975234e-08   2.111144690230887e-07   -1.5563945937969922e-06
4.533020214975234e-08   2.111144690230887e-07   -1.5563945937969922e-06
2.048530882727696e-07   -1.1081621067776442e-07   -2.720086145397911e-06
2.048530882727696e-07   -1.1081621067776442e-07   -2.720086145397911e-06
2.048530882727696e-07   -1.1081621067776442e-07   -2.720086145397911e-06
2.048530882727696e-07   -1.1081621067776442e-07   -2.720086145397911e-06
-5.228233285335471e-07   2.821320074896511e-07   -1.7430610482877935e-06
-5.228233285335471e-07   2.821320074896511e-07   -1.7430610482877935e-06
-5.228233285335471e-07   2.821320074896511e-07   -1.7430610482877935e-06
-5.228233285335471e-07   2.821320074896511e-07   -1.7430610482877935e-06
-2.1562209872760427e-07   2.6833236002062706e-08   -2.10188383507182e-06
-2.1562209872760427e-07   2.6833236002062706e-08   -2.10188383507182e-06
-2.1562209872760427e-07   2.6833236002062706e-08   -2.10188383507182e-06
-2.1562209872760427e-07   2.6833236002062706e-08   -2.10188383507182e-06
-5.228233285335471e-07   -1.1081621067776442e-07   -2.9558550762983293e-06
-5.228233285335471e-07   -1.1081621067776442e-07   -2.9558550762983293e-06
-5.228233285335471e-07   -1.1081621067776442e-07   -2.9558550762983293e-06
-5.228233285335471e-07   -1.1081621067776442e-07   -2.9558550762983293e-06
2.0485308827276622e-07   2.821320074896511e-07   -1.5072921173873652e-06
2.0485308827276622e-07   2.821320074896511e-07   -1.5072921173873652e-06
2.0485308827276622e-07   2.821320074896511e-07   -1.5072921173873652e-06
2.0485308827276622e-07   2.821320074896511e-07   -1.5072921173873652e-06
4.097411931531947e-07   4.276615572757587e-08   -3.0318855396655137e-06
4.097411931531947e-07   4.276615572757587e-08   -3.0318855396655137e-06
4.097411931531947e-07   4.276615572757587e-08   -3.0318855396655137e-06
4.097411931531947e-07   4.276615572757587e-08   -3.0318855396655137e-06
-4.862095874191058e-07   4.038998316436074e-07   -1.7553144442612438e-06
-4.862095874191058e-07   4.038998316436074e-07   -1.7553144442612438e-06
-4.862095874191058e-07   4.038998316436074e-07   -1.7553144442612438e-06
-4.862095874191058e-07   4.038998316436074e-07   -1.7553144442612438e-06
-1.2554755847441706e-07   9.430094967510902e-08   -2.170658496654673e-06
-1.2554755847441706e-07   9.430094967510902e-08   -2.170658496654673e-06
-1.2554755847441706e-07   9.430094967510902e-08   -2.170658496654673e-06
-1.2554755847441706e-07   9.430094967510902e-08   -2.170658496654673e-06
-1.1505938015827073e-06   2.3154583966630425e-07   -2.222660800320868e-06
-1.1505938015827073e-06   2.3154583966630425e-07   -2.222660800320868e-06
-1.1505938015827073e-06   2.3154583966630425e-07   -2.222660800320868e-06
-1.1505938015827073e-06   2.3154583966630425e-07   -2.222660800320868e-06
-1.2723781436914702e-06   -1.2387133554788853e-07   -2.6388850089639854e-06
-1.2723781436914702e-06   -1.2387133554788853e-07   -2.6388850089639854e-06
-1.2723781436914702e-06   -1.2387133554788853e-07   -2.6388850089639854e-06
-1.2723781436914702e-06   -1.2387133554788853e-07   -2.6388850089639854e-06
-1.2148356494154983e-06   3.689552348212766e-07   -2.090965253945731e-06
-1.2148356494154983e-06   3.689552348212766e-07   -2.090965253945731e-06
-1.2148356494154983e-06   3.689552348212766e-07   -2.090965253945731e-06
-1.2148356494154983e-06   3.689552348212766e-07   -2.090965253945731e-06
-9.308733556361352e-07   -1.4802952702269896e-08   -2.3339808310638625e-06
-9.308733556361352e-07   -1.4802952702269896e-08   -2.3339808310638625e-06
-9.308733556361352e-07   -1.4802952702269896e-08   -2.3339808310638625e-06
-9.308733556361352e-07   -1.4802952702269896e-08   -2.3339808310638625e-06
-1.0927107183610781e-06   1.59985694950693e-07   -2.169125081780822e-06
-1.0927107183610781e-06   1.59985694950693e-07   -2.169125081780822e-06
-1.0927107183610781e-06   1.59985694950693e-07   -2.169125081780822e-06
-1.0927107183610781e-06   1.59985694950693e-07   -2.169125081780822e-06
-9.308733556361352e-07   3.689552348212766e-07   -1.8607103414316302e-06
-9.308733556361352e-07   3.689552348212766e-07   -1.8607103414316302e-06
-9.308733556361352e-07   3.689552348212766e-07   -1.8607103414316302e-06
-9.308733556361352e-07   3.689552348212766e-07   -1.8607103414316302e-06
-1.2148356494155017e-06   -1.4802952702242791e-08   -2.5642357435780243e-06
-1.2148356494155017e-06   -1.4802952702242791e-08   -2.5642357435780243e-06
-1.2148356494155017e-06   -1.4802952702242791e-08   -2.5642357435780243e-06
-1.2148356494155017e-06   -1.4802952702242791e-08   -2.5642357435780243e-06
-1.1409647892014166e-06   4.4028031494119696e-07   -1.9394571958186485e-06
-1.1409647892014166e-06   4.4028031494119696e-07   -1.9394571958186485e-06
-1.1409647892014166e-06   4.4028031494119696e-07   -1.9394571958186485e-06
-1.1409647892014166e-06   4.4028031494119696e-07   -1.9394571958186485e-06
-7.527746935364076e-07   4.9084574123433276e-08   -2.351723244102999e-06
-7.527746935364076e-07   4.9084574123433276e-08   -2.351723244102999e-06
-7.527746935364076e-07   4.9084574123433276e-08   -2.351723244102999e-06
-7.527746935364076e-07   4.9084574123433276e-08   -2.351723244102999e-06
-9.920707321203019e-07   2.1719445095176116e-07   -2.0537624392269154e-06
-9.920707321203019e-07   2.1719445095176116e-07   -2.0537624392269154e-06
-9.920707321203019e-07   2.1719445095176116e-07   -2.0537624392269154e-06
-9.920707321203019e-07   2.1719445095176116e-07   -2.0537624392269154e-06
-7.527746935364076e-07   4.4028031494119696e-07   -1.704739751327993e-06
-7.527746935364076e-07   4.4028031494119696e-07   -1.704739751327993e-06
-7.527746935364076e-07   4.4028031494119696e-07   -1.704739751327993e-06
-7.527746935364076e-07   4.4028031494119696e-07   -1.704739751327993e-06
-1.1409647892014166e-06   4.9084574123433276e-08   -2.5864406885936546e-06
-1.1409647892014166e-06   4.9084574123433276e-08   -2.5864406885936546e-06
-1.1409647892014166e-06   4.9084574123433276e-08   -2.5864406885936546e-06
-1.1409647892014166e-06   4.9084574123433276e-08   -2.5864406885936546e-06
-1.0863297748065658e-06   5.54196410697109e-07   -1.8028638766287e-06
-1.0863297748065658e-06   5.54196410697109e-07   -1.8028638766287e-06
-1.0863297748065658e-06   5.54196410697109e-07   -1.8028638766287e-06
-1.0863297748065658e-06   5.54196410697109e-07   -1.8028638766287e-06
-5.328752040213781e-07   1.7574493700554523e-07   -2.4982172770557246e-06
-5.328752040213781e-07   1.7574493700554523e-07   -2.4982172770557246e-06
-5.328752040213781e-07   1.7574493700554523e-07   -2.4982172770557246e-06
-5.328752040213781e-07   1.7574493700554523e-07   -2.4982172770557246e-06
-8.689053306956655e-07   2.747824154134958e-07   -1.997589552976697e-06
-8.689053306956655e-07   2.747824154134958e-07   -1.997589552976697e-06
-8.689053306956655e-07   2.747824154134958e-07   -1.997589552976697e-06
-8.689053306956655e-07   2.747824154134958e-07   -1.997589552976697e-06
-1.2723781436914668e-06   1.4318015197699687e-07   -4.1656867165766815e-06
-1.2723781436914668e-06   1.4318015197699687e-07   -4.1656867165766815e-06
-1.2723781436914668e-06   1.4318015197699687e-07   -4.1656867165766815e-06
-1.2723781436914668e-06   1.4318015197699687e-07   -4.1656867165766815e-06
-1.548387481214506e-06   -1.9685046967612497e-08   -4.723421398481853e-06
-1.548387481214506e-06   -1.9685046967612497e-08   -4.723421398481853e-06
-1.548387481214506e-06   -1.9685046967612497e-08   -4.723421398481853e-06
-1.548387481214506e-06   -1.9685046967612497e-08   -4.723421398481853e-06
-1.5042668400818328e-06   3.0177892651814383e-07   -4.165911475432712e-06
-1.5042668400818328e-06   3.0177892651814383e-07   -4.165911475432712e-06
-1.5042668400818328e-06   3.0177892651814383e-07   -4.165911475432712e-06
-1.5042668400818328e-06   3.0177892651814383e-07   -4.165911475432712e-06
-1.214835649415505e-06   1.1935663854660615e-07   -4.538843420427001e-06
-1.214835649415505e-06   1.1935663854660615e-07   -4.538843420427001e-06
-1.214835649415505e-06   1.1935663854660615e-07   -4.538843420427001e-06
-1.214835649415505e-06   1.1935663854660615e-07   -4.538843420427001e-06
-1.3690336560216528e-06   1.6871214057577336e-07   -4.311460043967703e-06
-1.3690336560216528e-06   1.6871214057577336e-07   -4.311460043967703e-06
-1.3690336560216528e-06   1.6871214057577336e-07   -4.311460043967703e-06
-1.3690336560216528e-06   1.6871214057577336e-07   -4.311460043967703e-06
-1.214835649415495e-06   3.0177892651814383e-07   -4.056458102649771e-06
-1.214835649415495e-06   3.0177892651814383e-07   -4.056458102649771e-06
-1.214835649415495e-06   3.0177892651814383e-07   -4.056458102649771e-06
-1.214835649415495e-06   3.0177892651814383e-07   -4.056458102649771e-06
-1.5042668400818311e-06   1.1935663854660615e-07   -4.6482967932099495e-06
-1.5042668400818311e-06   1.1935663854660615e-07   -4.6482967932099495e-06
-1.5042668400818311e-06   1.1935663854660615e-07   -4.6482967932099495e-06
-1.5042668400818311e-06   1.1935663854660615e-07   -4.6482967932099495e-06
-1.4581700197629324e-06   4.5084572082741887e-07   -4.130602026020618e-06
-1.4581700197629324e-06   4.5084572082741887e-07   -4.130602026020618e-06
-1.4581700197629324e-06   4.5084572082741887e-07   -4.130602026020618e-06
-1.4581700197629324e-06   4.5084572082741887e-07   -4.130602026020618e-06
-1.14096478920142e-06   2.546664017213365e-07   -4.5415698188261395e-06
-1.14096478920142e-06   2.546664017213365e-07   -4.5415698188261395e-06
-1.14096478920142e-06   2.546664017213365e-07   -4.5415698188261395e-06
-1.14096478920142e-06   2.546664017213365e-07   -4.5415698188261395e-06
-1.3250378113010102e-06   2.8267843395202424e-07   -4.251588667998567e-06
-1.3250378113010102e-06   2.8267843395202424e-07   -4.251588667998567e-06
-1.3250378113010102e-06   2.8267843395202424e-07   -4.251588667998567e-06
-1.3250378113010102e-06   2.8267843395202424e-07   -4.251588667998567e-06
-1.1409647892014166e-06   4.5084572082741887e-07   -4.012894434556939e-06
-1.1409647892014166e-06   4.5084572082741887e-07   -4.012894434556939e-06
-1.1409647892014166e-06   4.5084572082741887e-07   -4.012894434556939e-06
-1.1409647892014166e-06   4.5084572082741887e-07   -4.012894434556939e-06
-1.458170019762929e-06   2.546664017213636e-07   -4.659277410289751e-06
-1.458170019762929e-06   2.546664017213636e-07   -4.659277410289751e-06
-1.458170019762929e-06   2.546664017213636e-07   -4.659277410289751e-06
-1.458170019762929e-06   2.546664017213636e-07   -4.659277410289751e-06
-1.4155841938404509e-06   6.180456443853253e-07   -4.1996664342251115e-06
-1.4155841938404509e-06   6.180456443853253e-07   -4.1996664342251115e-06
-1.4155841938404509e-06   6.180456443853253e-07   -4.1996664342251115e-06
-1.4155841938404509e-06   6.180456443853253e-07   -4.1996664342251115e-06
-1.0863297748065658e-06   4.1065928259735097e-07   -4.623991982208798e-06
-1.0863297748065658e-06   4.1065928259735097e-07   -4.623991982208798e-06
-1.0863297748065658e-06   4.1065928259735097e-07   -4.623991982208798e-06
-1.0863297748065658e-06   4.1065928259735097e-07   -4.623991982208798e-06
-1.28730763858071e-06   4.038944247156096e-07   -4.284969961189528e-06
-1.28730763858071e-06   4.038944247156096e-07   -4.284969961189528e-06
-1.28730763858071e-06   4.038944247156096e-07   -4.284969961189528e-06
-1.28730763858071e-06   4.038944247156096e-07   -4.284969961189528e-06
-1.5483874812144976e-06   8.885260745249753e-08   -4.873710132165005e-06
-1.5483874812144976e-06   8.885260745249753e-08   -4.873710132165005e-06
-1.5483874812144976e-06   8.885260745249753e-08   -4.873710132165005e-06
-1.5483874812144976e-06   8.885260745249753e-08   -4.873710132165005e-06
-1.8278056117173738e-06   1.2523416205404846e-07   -5.3175780835755326e-06
-1.8278056117173738e-06   1.2523416205404846e-07   -5.3175780835755326e-06
-1.8278056117173738e-06   1.2523416205404846e-07   -5.3175780835755326e-06
-1.8278056117173738e-06   1.2523416205404846e-07   -5.3175780835755326e-06
-1.7850058914744345e-06   2.5217848092687995e-07   -4.79456267561115e-06
-1.7850058914744345e-06   2.5217848092687995e-07   -4.79456267561115e-06
-1.7850058914744345e-06   2.5217848092687995e-07   -4.79456267561115e-06
-1.7850058914744345e-06   2.5217848092687995e-07   -4.79456267561115e-06
-1.5042668400818311e-06   2.708082568895543e-07   -5.273638960176404e-06
-1.5042668400818311e-06   2.708082568895543e-07   -5.273638960176404e-06
-1.5042668400818311e-06   2.708082568895543e-07   -5.273638960176404e-06
-1.5042668400818311e-06   2.708082568895543e-07   -5.273638960176404e-06
-1.6562652813398053e-06   2.0749563297152007e-07   -4.982320650395715e-06
-1.6562652813398053e-06   2.0749563297152007e-07   -4.982320650395715e-06
-1.6562652813398053e-06   2.0749563297152007e-07   -4.982320650395715e-06
-1.6562652813398053e-06   2.0749563297152007e-07   -4.982320650395715e-06
-1.5042668400818295e-06   2.5217848092690706e-07   -4.805740541188747e-06
-1.5042668400818295e-06   2.5217848092690706e-07   -4.805740541188747e-06
-1.5042668400818295e-06   2.5217848092690706e-07   -4.805740541188747e-06
-1.5042668400818295e-06   2.5217848092690706e-07   -4.805740541188747e-06
-1.7850058914744375e-06   2.708082568895543e-07   -5.262461094598841e-06
-1.7850058914744375e-06   2.708082568895543e-07   -5.262461094598841e-06
-1.7850058914744375e-06   2.708082568895543e-07   -5.262461094598841e-06
-1.7850058914744375e-06   2.708082568895543e-07   -5.262461094598841e-06
-1.739144299772535e-06   4.16853230669783e-07   -4.806847320314858e-06
-1.739144299772535e-06   4.16853230669783e-07   -4.806847320314858e-06
-1.739144299772535e-06   4.16853230669783e-07   -4.806847320314858e-06
-1.739144299772535e-06   4.16853230669783e-07   -4.806847320314858e-06
-1.4581700197629324e-06   4.192871399136093e-07   -5.276598132543818e-06
-1.4581700197629324e-06   4.192871399136093e-07   -5.276598132543818e-06
-1.4581700197629324e-06   4.192871399136093e-07   -5.276598132543818e-06
-1.4581700197629324e-06   4.192871399136093e-07   -5.276598132543818e-06
-1.6216035188643447e-06   3.3331006468525636e-07   -4.9526227222378865e-06
-1.6216035188643447e-06   3.3331006468525636e-07   -4.9526227222378865e-06
-1.6216035188643447e-06   3.3331006468525636e-07   -4.9526227222378865e-06
-1.6216035188643447e-06   3.3331006468525636e-07   -4.9526227222378865e-06
-1.458170019762929e-06   4.16853230669783e-07   -4.808307665861157e-06
-1.458170019762929e-06   4.16853230669783e-07   -4.808307665861157e-06
-1.458170019762929e-06   4.16853230669783e-07   -4.808307665861157e-06
-1.458170019762929e-06   4.16853230669783e-07   -4.808307665861157e-06
-1.739144299772535e-06   4.192871399136093e-07   -5.27513778699753e-06
-1.739144299772535e-06   4.192871399136093e-07   -5.27513778699753e-06
-1.739144299772535e-06   4.192871399136093e-07   -5.27513778699753e-06
-1.739144299772535e-06   4.192871399136093e-07   -5.27513778699753e-06
-1.6961113937926148e-06   5.841082121656345e-07   -4.900233638694367e-06
-1.6961113937926148e-06   5.841082121656345e-07   -4.900233638694367e-06
-1.6961113937926148e-06   5.841082121656345e-07   -4.900233638694367e-06
-1.6961113937926148e-06   5.841082121656345e-07   -4.900233638694367e-06
-1.415584193840456e-06   5.699641853282452e-07   -5.359292555845523e-06
-1.415584193840456e-06   5.699641853282452e-07   -5.359292555845523e-06
-1.415584193840456e-06   5.699641853282452e-07   -5.359292555845523e-06
-1.415584193840456e-06   5.699641853282452e-07   -5.359292555845523e-06
-1.5904863983954198e-06   4.609471096612928e-07   -5.0023786361870644e-06
-1.5904863983954198e-06   4.609471096612928e-07   -5.0023786361870644e-06
-1.5904863983954198e-06   4.609471096612928e-07   -5.0023786361870644e-06
-1.5904863983954198e-06   4.609471096612928e-07   -5.0023786361870644e-06
-1.8278056117173673e-06   5.019334271109152e-08   -4.195136984770325e-06
-1.8278056117173673e-06   5.019334271109152e-08   -4.195136984770325e-06
-1.8278056117173673e-06   5.019334271109152e-08   -4.195136984770325e-06
-1.8278056117173673e-06   5.019334271109152e-08   -4.195136984770325e-06
-2.13077118480858e-06   2.7436543267880483e-07   -4.5655763526084015e-06
-2.13077118480858e-06   2.7436543267880483e-07   -4.5655763526084015e-06
-2.13077118480858e-06   2.7436543267880483e-07   -4.5655763526084015e-06
-2.13077118480858e-06   2.7436543267880483e-07   -4.5655763526084015e-06
-2.0773275299280574e-06   2.0978533353703597e-07   -4.003242925550968e-06
-2.0773275299280574e-06   2.0978533353703597e-07   -4.003242925550968e-06
-2.0773275299280574e-06   2.0978533353703597e-07   -4.003242925550968e-06
-2.0773275299280574e-06   2.0978533353703597e-07   -4.003242925550968e-06
-1.7850058914744345e-06   4.214163064599689e-07   -4.61742424006072e-06
-1.7850058914744345e-06   4.214163064599689e-07   -4.61742424006072e-06
-1.7850058914744345e-06   4.214163064599689e-07   -4.61742424006072e-06
-1.7850058914744345e-06   4.214163064599689e-07   -4.61742424006072e-06
-1.9398560803162446e-06   2.545941360666132e-07   -4.259247289755101e-06
-1.9398560803162446e-06   2.545941360666132e-07   -4.259247289755101e-06
-1.9398560803162446e-06   2.545941360666132e-07   -4.259247289755101e-06
-1.9398560803162446e-06   2.545941360666132e-07   -4.259247289755101e-06
-1.7850058914744316e-06   2.0978533353703597e-07   -4.1302215093046895e-06
-1.7850058914744316e-06   2.0978533353703597e-07   -4.1302215093046895e-06
-1.7850058914744316e-06   2.0978533353703597e-07   -4.1302215093046895e-06
-1.7850058914744316e-06   2.0978533353703597e-07   -4.1302215093046895e-06
-2.0773275299280574e-06   4.214163064599418e-07   -4.490445656307003e-06
-2.0773275299280574e-06   4.214163064599418e-07   -4.490445656307003e-06
-2.0773275299280574e-06   4.214163064599418e-07   -4.490445656307003e-06
-2.0773275299280574e-06   4.214163064599418e-07   -4.490445656307003e-06
-2.004457065584897e-06   3.588051493392077e-07   -4.014983586364461e-06
-2.004457065584897e-06   3.588051493392077e-07   -4.014983586364461e-06
-2.004457065584897e-06   3.588051493392077e-07   -4.014983586364461e-06
-2.004457065584897e-06   3.588051493392077e-07   -4.014983586364461e-06
-1.739144299772532e-06   5.558790689553616e-07   -4.575415881154746e-06
-1.739144299772532e-06   5.558790689553616e-07   -4.575415881154746e-06
-1.739144299772532e-06   5.558790689553616e-07   -4.575415881154746e-06
-1.739144299772532e-06   5.558790689553616e-07   -4.575415881154746e-06
-1.8918459627045494e-06   3.7231152215182715e-07   -4.21077258151931e-06
-1.8918459627045494e-06   3.7231152215182715e-07   -4.21077258151931e-06
-1.8918459627045494e-06   3.7231152215182715e-07   -4.21077258151931e-06
-1.8918459627045494e-06   3.7231152215182715e-07   -4.21077258151931e-06
-1.7391442997725274e-06   3.588051493391806e-07   -4.133227938134129e-06
-1.7391442997725274e-06   3.588051493391806e-07   -4.133227938134129e-06
-1.7391442997725274e-06   3.588051493391806e-07   -4.133227938134129e-06
-1.7391442997725274e-06   3.588051493391806e-07   -4.133227938134129e-06
-2.0044570655849004e-06   5.558790689553616e-07   -4.457171529385058e-06
-2.0044570655849004e-06   5.558790689553616e-07   -4.457171529385058e-06
-2.0044570655849004e-06   5.558790689553616e-07   -4.457171529385058e-06
-2.0044570655849004e-06   5.558790689553616e-07   -4.457171529385058e-06
-1.9481747975030226e-06   5.255592297623236e-07   -4.1260733262756146e-06
-1.9481747975030226e-06   5.255592297623236e-07   -4.1260733262756146e-06
-1.9481747975030226e-06   5.255592297623236e-07   -4.1260733262756146e-06
-1.9481747975030226e-06   5.255592297623236e-07   -4.1260733262756146e-06
-1.6961113937926148e-06   7.046928260779196e-07   -4.653659156915626e-06
-1.6961113937926148e-06   7.046928260779196e-07   -4.653659156915626e-06
-1.6961113937926148e-06   7.046928260779196e-07   -4.653659156915626e-06
-1.6961113937926148e-06   7.046928260779196e-07   -4.653659156915626e-06
-1.8590870085208164e-06   4.909984213301939e-07   -4.253816489519951e-06
-1.8590870085208164e-06   4.909984213301939e-07   -4.253816489519951e-06
-1.8590870085208164e-06   4.909984213301939e-07   -4.253816489519951e-06
-1.8590870085208164e-06   4.909984213301939e-07   -4.253816489519951e-06
-2.1307711848085714e-06   8.324898043301056e-08   -2.218157917943111e-06
-2.1307711848085714e-06   8.324898043301056e-08   -2.218157917943111e-06
-2.1307711848085714e-06   8.324898043301056e-08   -2.218157917943111e-06
-2.1307711848085714e-06   8.324898043301056e-08   -2.218157917943111e-06
-2.6515416749647893e-06   4.68415676286465e-07   -2.8550087173580382e-06
-2.6515416749647893e-06   4.68415676286465e-07   -2.8550087173580382e-06
-2.6515416749647893e-06   4.68415676286465e-07   -2.8550087173580382e-06
-2.6515416749647893e-06   4.68415676286465e-07   -2.8550087173580382e-06
-2.4372778404489415e-06   2.111144690231158e-07   -1.7886031990136232e-06
-2.4372778404489415e-06   2.111144690231158e-07   -1.7886031990136232e-06
-2.4372778404489415e-06   2.111144690231158e-07   -1.7886031990136232e-06
-2.4372778404489415e-06   2.111144690231158e-07   -1.7886031990136232e-06
-2.077327529928054e-06   6.033838763140446e-07   -2.623882027589633e-06
-2.077327529928054e-06   6.033838763140446e-07   -2.623882027589633e-06
-2.077327529928054e-06   6.033838763140446e-07   -2.623882027589633e-06
-2.077327529928054e-06   6.033838763140446e-07   -2.623882027589633e-06
-2.2302733413274386e-06   3.558351813322475e-07   -2.2204431249349415e-06
-2.2302733413274386e-06   3.558351813322475e-07   -2.2204431249349415e-06
-2.2302733413274386e-06   3.558351813322475e-07   -2.2204431249349415e-06
-2.2302733413274386e-06   3.558351813322475e-07   -2.2204431249349415e-06
-2.0773275299280472e-06   2.111144690230887e-07   -2.023964843388159e-06
-2.0773275299280472e-06   2.111144690230887e-07   -2.023964843388159e-06
-2.0773275299280472e-06   2.111144690230887e-07   -2.023964843388159e-06
-2.0773275299280472e-06   2.111144690230887e-07   -2.023964843388159e-06
-2.4372778404489347e-06   6.033838763140446e-07   -2.388520383215094e-06
-2.4372778404489347e-06   6.033838763140446e-07   -2.388520383215094e-06
-2.4372778404489347e-06   6.033838763140446e-07   -2.388520383215094e-06
-2.4372778404489347e-06   6.033838763140446e-07   -2.388520383215094e-06
-2.2630068466188277e-06   2.821320074896511e-07   -1.7385028371821328e-06
-2.2630068466188277e-06   2.821320074896511e-07   -1.7385028371821328e-06
-2.2630068466188277e-06   2.821320074896511e-07   -1.7385028371821328e-06
-2.2630068466188277e-06   2.821320074896511e-07   -1.7385028371821328e-06
-2.004457065584897e-06   6.65031182304495e-07   -2.3991586437942567e-06
-2.004457065584897e-06   6.65031182304495e-07   -2.3991586437942567e-06
-2.004457065584897e-06   6.65031182304495e-07   -2.3991586437942567e-06
-2.004457065584897e-06   6.65031182304495e-07   -2.3991586437942567e-06
-2.1470427238091477e-06   4.202736199160307e-07   -2.0146613426541137e-06
-2.1470427238091477e-06   4.202736199160307e-07   -2.0146613426541137e-06
-2.1470427238091477e-06   4.202736199160307e-07   -2.0146613426541137e-06
-2.1470427238091477e-06   4.202736199160307e-07   -2.0146613426541137e-06
-2.0044570655848937e-06   2.821320074896511e-07   -1.968242342071058e-06
-2.0044570655848937e-06   2.821320074896511e-07   -1.968242342071058e-06
-2.0044570655848937e-06   2.821320074896511e-07   -1.968242342071058e-06
-2.0044570655848937e-06   2.821320074896511e-07   -1.968242342071058e-06
-2.2630068466188277e-06   6.65031182304495e-07   -2.1694191389053314e-06
-2.2630068466188277e-06   6.65031182304495e-07   -2.1694191389053314e-06
-2.2630068466188277e-06   6.65031182304495e-07   -2.1694191389053314e-06
-2.2630068466188277e-06   6.65031182304495e-07   -2.1694191389053314e-06
-2.0457414459142425e-06   4.038998316436074e-07   -1.7662303855263536e-06
-2.0457414459142425e-06   4.038998316436074e-07   -1.7662303855263536e-06
-2.0457414459142425e-06   4.038998316436074e-07   -1.7662303855263536e-06
-2.0457414459142425e-06   4.038998316436074e-07   -1.7662303855263536e-06
-1.9481747975030175e-06   7.559684869489652e-07   -2.140082659394923e-06
-1.9481747975030175e-06   7.559684869489652e-07   -2.140082659394923e-06
-1.9481747975030175e-06   7.559684869489652e-07   -2.140082659394923e-06
-1.9481747975030175e-06   7.559684869489652e-07   -2.140082659394923e-06
-2.009968564650816e-06   4.69329519190673e-07   -1.865109666826967e-06
-2.009968564650816e-06   4.69329519190673e-07   -1.865109666826967e-06
-2.009968564650816e-06   4.69329519190673e-07   -1.865109666826967e-06
-2.009968564650816e-06   4.69329519190673e-07   -1.865109666826967e-06
1.2745496841650762e-06   -1.2387133554788853e-07   -1.0263964628193613e-06
1.2745496841650762e-06   -1.2387133554788853e-07   -1.0263964628193613e-06
1.2745496841650762e-06   -1.2387133554788853e-07   -1.0263964628193613e-06
1.2745496841650762e-06   -1.2387133554788853e-07   -1.0263964628193613e-06
1.5037454932491525e-07   -4.7580514152473826e-07   -3.1111819711390624e-06
1.5037454932491525e-07   -4.7580514152473826e-07   -3.1111819711390624e-06
1.5037454932491525e-07   -4.7580514152473826e-07   -3.1111819711390624e-06
1.5037454932491525e-07   -4.7580514152473826e-07   -3.1111819711390624e-06
2.2778981507190862e-07   -1.4802952702242791e-08   -1.1572553626508953e-06
2.2778981507190862e-07   -1.4802952702242791e-08   -1.1572553626508953e-06
2.2778981507190862e-07   -1.4802952702242791e-08   -1.1572553626508953e-06
2.2778981507190862e-07   -1.4802952702242791e-08   -1.1572553626508953e-06
1.5110558939368513e-06   -3.93629598845072e-07   -3.068736173073434e-06
1.5110558939368513e-06   -3.93629598845072e-07   -3.068736173073434e-06
1.5110558939368513e-06   -3.93629598845072e-07   -3.068736173073434e-06
1.5110558939368513e-06   -3.93629598845072e-07   -3.068736173073434e-06
7.600847809212169e-07   -2.0315020315890922e-07   -1.9314052887924073e-06
7.600847809212169e-07   -2.0315020315890922e-07   -1.9314052887924073e-06
7.600847809212169e-07   -2.0315020315890922e-07   -1.9314052887924073e-06
7.600847809212169e-07   -2.0315020315890922e-07   -1.9314052887924073e-06
1.5110558939368513e-06   -1.4802952702242791e-08   -9.299593749651896e-07
1.5110558939368513e-06   -1.4802952702242791e-08   -9.299593749651896e-07
1.5110558939368513e-06   -1.4802952702242791e-08   -9.299593749651896e-07
1.5110558939368513e-06   -1.4802952702242791e-08   -9.299593749651896e-07
2.2778981507190862e-07   -3.936295988450178e-07   -3.2960321607591398e-06
2.2778981507190862e-07   -3.936295988450178e-07   -3.2960321607591398e-06
2.2778981507190862e-07   -3.936295988450178e-07   -3.2960321607591398e-06
2.2778981507190862e-07   -3.936295988450178e-07   -3.2960321607591398e-06
3.2018635827159495e-07   4.9084574123433276e-08   -1.1738891130340216e-06
3.2018635827159495e-07   4.9084574123433276e-08   -1.1738891130340216e-06
3.2018635827159495e-07   4.9084574123433276e-08   -1.1738891130340216e-06
3.2018635827159495e-07   4.9084574123433276e-08   -1.1738891130340216e-06
1.707174991966944e-06   -3.363026989980063e-07   -3.254304471986719e-06
1.707174991966944e-06   -3.363026989980063e-07   -3.254304471986719e-06
1.707174991966944e-06   -3.363026989980063e-07   -3.254304471986719e-06
1.707174991966944e-06   -3.363026989980063e-07   -3.254304471986719e-06
9.073555654598758e-07   -1.6317408033477408e-07   -2.025149265672991e-06
9.073555654598758e-07   -1.6317408033477408e-07   -2.025149265672991e-06
9.073555654598758e-07   -1.6317408033477408e-07   -2.025149265672991e-06
9.073555654598758e-07   -1.6317408033477408e-07   -2.025149265672991e-06
1.707174991966944e-06   4.9084574123433276e-08   -9.426567491611633e-07
1.707174991966944e-06   4.9084574123433276e-08   -9.426567491611633e-07
1.707174991966944e-06   4.9084574123433276e-08   -9.426567491611633e-07
1.707174991966944e-06   4.9084574123433276e-08   -9.426567491611633e-07
3.2018635827159495e-07   -3.363026989980063e-07   -3.485536835859591e-06
3.2018635827159495e-07   -3.363026989980063e-07   -3.485536835859591e-06
3.2018635827159495e-07   -3.363026989980063e-07   -3.485536835859591e-06
3.2018635827159495e-07   -3.363026989980063e-07   -3.485536835859591e-06
3.933264251091628e-07   1.7574493700554523e-07   -1.3068644026745105e-06
3.933264251091628e-07   1.7574493700554523e-07   -1.3068644026745105e-06
3.933264251091628e-07   1.7574493700554523e-07   -1.3068644026745105e-06
3.933264251091628e-07   1.7574493700554523e-07   -1.3068644026745105e-06
1.943090983113335e-06   -1.943343291883762e-07   -3.667757772965081e-06
1.943090983113335e-06   -1.943343291883762e-07   -3.667757772965081e-06
1.943090983113335e-06   -1.943343291883762e-07   -3.667757772965081e-06
1.943090983113335e-06   -1.943343291883762e-07   -3.667757772965081e-06
1.0182653744537835e-06   -1.0224347212937305e-07   -2.1816362727680394e-06
1.0182653744537835e-06   -1.0224347212937305e-07   -2.1816362727680394e-06
1.0182653744537835e-06   -1.0224347212937305e-07   -2.1816362727680394e-06
1.0182653744537835e-06   -1.0224347212937305e-07   -2.1816362727680394e-06
1.5037454932491525e-07   -1.9685046967612497e-08   -3.224374016556558e-06
1.5037454932491525e-07   -1.9685046967612497e-08   -3.224374016556558e-06
1.5037454932491525e-07   -1.9685046967612497e-08   -3.224374016556558e-06
1.5037454932491525e-07   -1.9685046967612497e-08   -3.224374016556558e-06
-1.114448992874252e-06   -1.7775172424683728e-07   -5.427253259922705e-06
-1.114448992874252e-06   -1.7775172424683728e-07   -5.427253259922705e-06
-1.114448992874252e-06   -1.7775172424683728e-07   -5.427253259922705e-06
-1.114448992874252e-06   -1.7775172424683728e-07   -5.427253259922705e-06
-1.0487360935489216e-06   1.1935663854660615e-07   -3.240865111483809e-06
-1.0487360935489216e-06   1.1935663854660615e-07   -3.240865111483809e-06
-1.0487360935489216e-06   1.1935663854660615e-07   -3.240865111483809e-06
-1.0487360935489216e-06   1.1935663854660615e-07   -3.240865111483809e-06
2.2778981507190862e-07   -6.231348142663557e-08   -5.259406220534591e-06
2.2778981507190862e-07   -6.231348142663557e-08   -5.259406220534591e-06
2.2778981507190862e-07   -6.231348142663557e-08   -5.259406220534591e-06
2.2778981507190862e-07   -6.231348142663557e-08   -5.259406220534591e-06
-4.3660286281865203e-07   1.154579757457275e-09   -4.190165927427457e-06
-4.3660286281865203e-07   1.154579757457275e-09   -4.190165927427457e-06
-4.3660286281865203e-07   1.154579757457275e-09   -4.190165927427457e-06
-4.3660286281865203e-07   1.154579757457275e-09   -4.190165927427457e-06
2.2778981507190862e-07   1.1935663854660615e-07   -3.131863039499872e-06
2.2778981507190862e-07   1.1935663854660615e-07   -3.131863039499872e-06
2.2778981507190862e-07   1.1935663854660615e-07   -3.131863039499872e-06
2.2778981507190862e-07   1.1935663854660615e-07   -3.131863039499872e-06
-1.0487360935489216e-06   -6.231348142663557e-08   -5.368408292518562e-06
-1.0487360935489216e-06   -6.231348142663557e-08   -5.368408292518562e-06
-1.0487360935489216e-06   -6.231348142663557e-08   -5.368408292518562e-06
-1.0487360935489216e-06   -6.231348142663557e-08   -5.368408292518562e-06
-9.825561747125997e-07   2.546664017213636e-07   -3.2470507676133167e-06
-9.825561747125997e-07   2.546664017213636e-07   -3.2470507676133167e-06
-9.825561747125997e-07   2.546664017213636e-07   -3.2470507676133167e-06
-9.825561747125997e-07   2.546664017213636e-07   -3.2470507676133167e-06
3.2018635827159495e-07   5.794552780994094e-08   -5.300255798240127e-06
3.2018635827159495e-07   5.794552780994094e-08   -5.300255798240127e-06
3.2018635827159495e-07   5.794552780994094e-08   -5.300255798240127e-06
3.2018635827159495e-07   5.794552780994094e-08   -5.300255798240127e-06
-3.798051764797276e-07   9.774951520430527e-08   -4.1574856327578785e-06
-3.798051764797276e-07   9.774951520430527e-08   -4.1574856327578785e-06
-3.798051764797276e-07   9.774951520430527e-08   -4.1574856327578785e-06
-3.798051764797276e-07   9.774951520430527e-08   -4.1574856327578785e-06
3.2018635827159495e-07   2.546664017213365e-07   -3.1290182432664793e-06
3.2018635827159495e-07   2.546664017213365e-07   -3.1290182432664793e-06
3.2018635827159495e-07   2.546664017213365e-07   -3.1290182432664793e-06
3.2018635827159495e-07   2.546664017213365e-07   -3.1290182432664793e-06
-9.825561747125997e-07   5.794552780999515e-08   -5.418288322586991e-06
-9.825561747125997e-07   5.794552780999515e-08   -5.418288322586991e-06
-9.825561747125997e-07   5.794552780999515e-08   -5.418288322586991e-06
-9.825561747125997e-07   5.794552780999515e-08   -5.418288322586991e-06
-9.200942655296249e-07   4.1065928259735097e-07   -3.330922108402937e-06
-9.200942655296249e-07   4.1065928259735097e-07   -3.330922108402937e-06
-9.200942655296249e-07   4.1065928259735097e-07   -3.330922108402937e-06
-9.200942655296249e-07   4.1065928259735097e-07   -3.330922108402937e-06
3.933264251091594e-07   2.0173614128011531e-07   -5.394602708010591e-06
3.933264251091594e-07   2.0173614128011531e-07   -5.394602708010591e-06
3.933264251091594e-07   2.0173614128011531e-07   -5.394602708010591e-06
3.933264251091594e-07   2.0173614128011531e-07   -5.394602708010591e-06
-3.150116949249725e-07   2.0623668036762405e-07   -4.216739498072947e-06
-3.150116949249725e-07   2.0623668036762405e-07   -4.216739498072947e-06
-3.150116949249725e-07   2.0623668036762405e-07   -4.216739498072947e-06
-3.150116949249725e-07   2.0623668036762405e-07   -4.216739498072947e-06
-1.114448992874252e-06   1.2523416205407556e-07   -3.93519964077873e-06
-1.114448992874252e-06   1.2523416205407556e-07   -3.93519964077873e-06
-1.114448992874252e-06   1.2523416205407556e-07   -3.93519964077873e-06
-1.114448992874252e-06   1.2523416205407556e-07   -3.93519964077873e-06
-2.3642455470321296e-06   1.5722592338506718e-07   -5.998998840909918e-06
-2.3642455470321296e-06   1.5722592338506718e-07   -5.998998840909918e-06
-2.3642455470321296e-06   1.5722592338506718e-07   -5.998998840909918e-06
-2.3642455470321296e-06   1.5722592338506718e-07   -5.998998840909918e-06
-2.298558166278202e-06   2.708082568895543e-07   -3.8600032253064765e-06
-2.298558166278202e-06   2.708082568895543e-07   -3.8600032253064765e-06
-2.298558166278202e-06   2.708082568895543e-07   -3.8600032253064765e-06
-2.298558166278202e-06   2.708082568895543e-07   -3.8600032253064765e-06
-1.048736093548925e-06   2.8114834546262915e-07   -5.949244066332452e-06
-1.048736093548925e-06   2.8114834546262915e-07   -5.949244066332452e-06
-1.048736093548925e-06   2.8114834546262915e-07   -5.949244066332452e-06
-1.048736093548925e-06   2.8114834546262915e-07   -5.949244066332452e-06
-1.6967326350164349e-06   2.3354337636591165e-07   -4.8406868490952464e-06
-1.6967326350164349e-06   2.3354337636591165e-07   -4.8406868490952464e-06
-1.6967326350164349e-06   2.3354337636591165e-07   -4.8406868490952464e-06
-1.6967326350164349e-06   2.3354337636591165e-07   -4.8406868490952464e-06
-1.048736093548925e-06   2.708082568895543e-07   -3.866207278450324e-06
-1.048736093548925e-06   2.708082568895543e-07   -3.866207278450324e-06
-1.048736093548925e-06   2.708082568895543e-07   -3.866207278450324e-06
-1.048736093548925e-06   2.708082568895543e-07   -3.866207278450324e-06
-2.298558166278202e-06   2.8114834546262915e-07   -5.943040013188625e-06
-2.298558166278202e-06   2.8114834546262915e-07   -5.943040013188625e-06
-2.298558166278202e-06   2.8114834546262915e-07   -5.943040013188625e-06
-2.298558166278202e-06   2.8114834546262915e-07   -5.943040013188625e-06
-2.2311154168572466e-06   4.192871399136093e-07   -3.869023441561666e-06
-2.2311154168572466e-06   4.192871399136093e-07   -3.869023441561666e-06
-2.2311154168572466e-06   4.192871399136093e-07   -3.869023441561666e-06
-2.2311154168572466e-06   4.192871399136093e-07   -3.869023441561666e-06
-9.825561747125997e-07   4.1153388708983123e-07   -5.945303560108445e-06
-9.825561747125997e-07   4.1153388708983123e-07   -5.945303560108445e-06
-9.825561747125997e-07   4.1153388708983123e-07   -5.945303560108445e-06
-9.825561747125997e-07   4.1153388708983123e-07   -5.945303560108445e-06
-1.6399413184487457e-06   3.427441270466205e-07   -4.808387797855702e-06
-1.6399413184487457e-06   3.427441270466205e-07   -4.808387797855702e-06
-1.6399413184487457e-06   3.427441270466205e-07   -4.808387797855702e-06
-1.6399413184487457e-06   3.427441270466205e-07   -4.808387797855702e-06
-9.825561747125997e-07   4.192871399136093e-07   -3.864371489867394e-06
-9.825561747125997e-07   4.192871399136093e-07   -3.864371489867394e-06
-9.825561747125997e-07   4.192871399136093e-07   -3.864371489867394e-06
-9.825561747125997e-07   4.192871399136093e-07   -3.864371489867394e-06
-2.231115416857243e-06   4.11533887089777e-07   -5.9499555118027304e-06
-2.231115416857243e-06   4.11533887089777e-07   -5.9499555118027304e-06
-2.231115416857243e-06   4.11533887089777e-07   -5.9499555118027304e-06
-2.231115416857243e-06   4.11533887089777e-07   -5.9499555118027304e-06
-2.166938113698843e-06   5.699641853282452e-07   -3.957210755924258e-06
-2.166938113698843e-06   5.699641853282452e-07   -3.957210755924258e-06
-2.166938113698843e-06   5.699641853282452e-07   -3.957210755924258e-06
-2.166938113698843e-06   5.699641853282452e-07   -3.957210755924258e-06
-9.200942655296215e-07   5.442643670659449e-07   -6.0198639452489164e-06
-9.200942655296215e-07   5.442643670659449e-07   -6.0198639452489164e-06
-9.200942655296215e-07   5.442643670659449e-07   -6.0198639452489164e-06
-9.200942655296215e-07   5.442643670659449e-07   -6.0198639452489164e-06
-1.5878692957946456e-06   4.537100286537688e-07   -4.852572958426635e-06
-1.5878692957946456e-06   4.537100286537688e-07   -4.852572958426635e-06
-1.5878692957946456e-06   4.537100286537688e-07   -4.852572958426635e-06
-1.5878692957946456e-06   4.537100286537688e-07   -4.852572958426635e-06
-2.364245547032133e-06   2.7436543267877773e-07   -3.2985061069936024e-06
-2.364245547032133e-06   2.7436543267877773e-07   -3.2985061069936024e-06
-2.364245547032133e-06   2.7436543267877773e-07   -3.2985061069936024e-06
-2.364245547032133e-06   2.7436543267877773e-07   -3.2985061069936024e-06
-3.6148207895398645e-06   4.868870461223278e-07   -5.255285209773702e-06
-3.6148207895398645e-06   4.868870461223278e-07   -5.255285209773702e-06
-3.6148207895398645e-06   4.868870461223278e-07   -5.255285209773702e-06
-3.6148207895398645e-06   4.868870461223278e-07   -5.255285209773702e-06
-3.538536475683773e-06   4.214163064599689e-07   -3.0962332480387073e-06
-3.538536475683773e-06   4.214163064599689e-07   -3.0962332480387073e-06
-3.538536475683773e-06   4.214163064599689e-07   -3.0962332480387073e-06
-3.538536475683773e-06   4.214163064599689e-07   -3.0962332480387073e-06
-2.298558166278202e-06   6.19304844342737e-07   -5.281596886444311e-06
-2.298558166278202e-06   6.19304844342737e-07   -5.281596886444311e-06
-2.298558166278202e-06   6.19304844342737e-07   -5.281596886444311e-06
-2.298558166278202e-06   6.19304844342737e-07   -5.281596886444311e-06
-2.9333585535326868e-06   4.6636142473938536e-07   -4.1318301892581775e-06
-2.9333585535326868e-06   4.6636142473938536e-07   -4.1318301892581775e-06
-2.9333585535326868e-06   4.6636142473938536e-07   -4.1318301892581775e-06
-2.9333585535326868e-06   4.6636142473938536e-07   -4.1318301892581775e-06
-2.298558166278206e-06   4.214163064599418e-07   -3.2149663707683736e-06
-2.298558166278206e-06   4.214163064599418e-07   -3.2149663707683736e-06
-2.298558166278206e-06   4.214163064599418e-07   -3.2149663707683736e-06
-2.298558166278206e-06   4.214163064599418e-07   -3.2149663707683736e-06
-3.5385364756837787e-06   6.19304844342737e-07   -5.162863763714704e-06
-3.5385364756837787e-06   6.19304844342737e-07   -5.162863763714704e-06
-3.5385364756837787e-06   6.19304844342737e-07   -5.162863763714704e-06
-3.5385364756837787e-06   6.19304844342737e-07   -5.162863763714704e-06
-3.443755260778318e-06   5.558790689553616e-07   -3.060257008110365e-06
-3.443755260778318e-06   5.558790689553616e-07   -3.060257008110365e-06
-3.443755260778318e-06   5.558790689553616e-07   -3.060257008110365e-06
-3.443755260778318e-06   5.558790689553616e-07   -3.060257008110365e-06
-2.2311154168572466e-06   7.376199483028747e-07   -5.190367942253982e-06
-2.2311154168572466e-06   7.376199483028747e-07   -5.190367942253982e-06
-2.2311154168572466e-06   7.376199483028747e-07   -5.190367942253982e-06
-2.2311154168572466e-06   7.376199483028747e-07   -5.190367942253982e-06
-2.8547667613825186e-06   5.720445117399231e-07   -4.051603772774187e-06
-2.8547667613825186e-06   5.720445117399231e-07   -4.051603772774187e-06
-2.8547667613825186e-06   5.720445117399231e-07   -4.051603772774187e-06
-2.8547667613825186e-06   5.720445117399231e-07   -4.051603772774187e-06
-2.231115416857244e-06   5.558790689553616e-07   -3.1693015357188485e-06
-2.231115416857244e-06   5.558790689553616e-07   -3.1693015357188485e-06
-2.231115416857244e-06   5.558790689553616e-07   -3.1693015357188485e-06
-2.231115416857244e-06   5.558790689553616e-07   -3.1693015357188485e-06
-3.443755260778318e-06   7.376199483028205e-07   -5.081323414645529e-06
-3.443755260778318e-06   7.376199483028205e-07   -5.081323414645529e-06
-3.443755260778318e-06   7.376199483028205e-07   -5.081323414645529e-06
-3.443755260778318e-06   7.376199483028205e-07   -5.081323414645529e-06
-3.365677267298999e-06   7.046928260779196e-07   -3.145164933469007e-06
-3.365677267298999e-06   7.046928260779196e-07   -3.145164933469007e-06
-3.365677267298999e-06   7.046928260779196e-07   -3.145164933469007e-06
-3.365677267298999e-06   7.046928260779196e-07   -3.145164933469007e-06
-2.166938113698843e-06   8.679028384494993e-07   -5.240989530225536e-06
-2.166938113698843e-06   8.679028384494993e-07   -5.240989530225536e-06
-2.166938113698843e-06   8.679028384494993e-07   -5.240989530225536e-06
-2.166938113698843e-06   8.679028384494993e-07   -5.240989530225536e-06
-2.807199120910183e-06   6.748519461471339e-07   -4.058057316158568e-06
-2.807199120910183e-06   6.748519461471339e-07   -4.058057316158568e-06
-2.807199120910183e-06   6.748519461471339e-07   -4.058057316158568e-06
-2.807199120910183e-06   6.748519461471339e-07   -4.058057316158568e-06
-3.6148207895398645e-06   4.68415676286465e-07   -1.6915255211892225e-06
-3.6148207895398645e-06   4.68415676286465e-07   -1.6915255211892225e-06
-3.6148207895398645e-06   4.68415676286465e-07   -1.6915255211892225e-06
-3.6148207895398645e-06   4.68415676286465e-07   -1.6915255211892225e-06
-5.057165393949132e-06   8.40062506753407e-07   -3.87244509692452e-06
-5.057165393949132e-06   8.40062506753407e-07   -3.87244509692452e-06
-5.057165393949132e-06   8.40062506753407e-07   -3.87244509692452e-06
-5.057165393949132e-06   8.40062506753407e-07   -3.87244509692452e-06
-4.826009629929091e-06   6.033838763140446e-07   -1.0041517279335544e-06
-4.826009629929091e-06   6.033838763140446e-07   -1.0041517279335544e-06
-4.826009629929091e-06   6.033838763140446e-07   -1.0041517279335544e-06
-4.826009629929091e-06   6.033838763140446e-07   -1.0041517279335544e-06
-3.538536475683773e-06   9.79247028627065e-07   -3.37545820973023e-06
-3.538536475683773e-06   9.79247028627065e-07   -3.37545820973023e-06
-3.538536475683773e-06   9.79247028627065e-07   -3.37545820973023e-06
-3.538536475683773e-06   9.79247028627065e-07   -3.37545820973023e-06
-4.086253948615491e-06   7.36041100905002e-07   -2.3166721982108133e-06
-4.086253948615491e-06   7.36041100905002e-07   -2.3166721982108133e-06
-4.086253948615491e-06   7.36041100905002e-07   -2.3166721982108133e-06
-4.086253948615491e-06   7.36041100905002e-07   -2.3166721982108133e-06
-3.5385364756837753e-06   6.033838763140446e-07   -1.2296696193213747e-06
-3.5385364756837753e-06   6.033838763140446e-07   -1.2296696193213747e-06
-3.5385364756837753e-06   6.033838763140446e-07   -1.2296696193213747e-06
-3.5385364756837753e-06   6.033838763140446e-07   -1.2296696193213747e-06
-4.826009629929074e-06   9.792470286270922e-07   -3.14994031834243e-06
-4.826009629929074e-06   9.792470286270922e-07   -3.14994031834243e-06
-4.826009629929074e-06   9.792470286270922e-07   -3.14994031834243e-06
-4.826009629929074e-06   9.792470286270922e-07   -3.14994031834243e-06
-4.635099792388056e-06   6.65031182304495e-07   -7.83455149259857e-07
-4.635099792388056e-06   6.65031182304495e-07   -7.83455149259857e-07
-4.635099792388056e-06   6.65031182304495e-07   -7.83455149259857e-07
-4.635099792388056e-06   6.65031182304495e-07   -7.83455149259857e-07
-3.443755260778313e-06   1.0296794710707097e-06   -2.987818341869165e-06
-3.443755260778313e-06   1.0296794710707097e-06   -2.987818341869165e-06
-3.443755260778313e-06   1.0296794710707097e-06   -2.987818341869165e-06
-3.443755260778313e-06   1.0296794710707097e-06   -2.987818341869165e-06
-4.012993404828141e-06   8.009842287832374e-07   -1.9018709564136532e-06
-4.012993404828141e-06   8.009842287832374e-07   -1.9018709564136532e-06
-4.012993404828141e-06   8.009842287832374e-07   -1.9018709564136532e-06
-4.012993404828141e-06   8.009842287832374e-07   -1.9018709564136532e-06
-3.443755260778318e-06   6.65031182304495e-07   -1.0022441225196048e-06
-3.443755260778318e-06   6.65031182304495e-07   -1.0022441225196048e-06
-3.443755260778318e-06   6.65031182304495e-07   -1.0022441225196048e-06
-3.443755260778318e-06   6.65031182304495e-07   -1.0022441225196048e-06
-4.6350997923880495e-06   1.0296794710707368e-06   -2.769029368609446e-06
-4.6350997923880495e-06   1.0296794710707368e-06   -2.769029368609446e-06
-4.6350997923880495e-06   1.0296794710707368e-06   -2.769029368609446e-06
-4.6350997923880495e-06   1.0296794710707368e-06   -2.769029368609446e-06
-4.4048574306768e-06   7.559684869489652e-07   -5.394454522480074e-07
-4.4048574306768e-06   7.559684869489652e-07   -5.394454522480074e-07
-4.4048574306768e-06   7.559684869489652e-07   -5.394454522480074e-07
-4.4048574306768e-06   7.559684869489652e-07   -5.394454522480074e-07
-3.365677267298999e-06   1.08867372276505e-06   -2.471035532700665e-06
-3.365677267298999e-06   1.08867372276505e-06   -2.471035532700665e-06
-3.365677267298999e-06   1.08867372276505e-06   -2.471035532700665e-06
-3.365677267298999e-06   1.08867372276505e-06   -2.471035532700665e-06
-3.8286840883174436e-06   8.305480114915499e-07   -1.544482070905849e-06
-3.8286840883174436e-06   8.305480114915499e-07   -1.544482070905849e-06
-3.8286840883174436e-06   8.305480114915499e-07   -1.544482070905849e-06
-3.8286840883174436e-06   8.305480114915499e-07   -1.544482070905849e-06
3.680966166636786e-06   -4.7580514152468405e-07   1.4244345177352475e-07
3.680966166636786e-06   -4.7580514152468405e-07   1.4244345177352475e-07
3.680966166636786e-06   -4.7580514152468405e-07   1.4244345177352475e-07
3.680966166636786e-06   -4.7580514152468405e-07   1.4244345177352475e-07
1.539074385135089e-06   -8.35689701366956e-07   -3.6433069199680025e-06
1.539074385135089e-06   -8.35689701366956e-07   -3.6433069199680025e-06
1.539074385135089e-06   -8.35689701366956e-07   -3.6433069199680025e-06
1.539074385135089e-06   -8.35689701366956e-07   -3.6433069199680025e-06
1.632408858861034e-06   -3.93629598845072e-07   -2.408732325497845e-07
1.632408858861034e-06   -3.93629598845072e-07   -2.408732325497845e-07
1.632408858861034e-06   -3.93629598845072e-07   -2.408732325497845e-07
1.632408858861034e-06   -3.93629598845072e-07   -2.408732325497845e-07
3.932488555191795e-06   -7.797913287911368e-07   -3.842642355133435e-06
3.932488555191795e-06   -7.797913287911368e-07   -3.842642355133435e-06
3.932488555191795e-06   -7.797913287911368e-07   -3.842642355133435e-06
3.932488555191795e-06   -7.797913287911368e-07   -3.842642355133435e-06
2.5860570720392386e-06   -5.579522718163481e-07   -1.7316933173973703e-06
2.5860570720392386e-06   -5.579522718163481e-07   -1.7316933173973703e-06
2.5860570720392386e-06   -5.579522718163481e-07   -1.7316933173973703e-06
2.5860570720392386e-06   -5.579522718163481e-07   -1.7316933173973703e-06
3.9324885551918014e-06   -3.93629598845072e-07   -9.176194582178124e-09
3.9324885551918014e-06   -3.93629598845072e-07   -9.176194582178124e-09
3.9324885551918014e-06   -3.93629598845072e-07   -9.176194582178124e-09
3.9324885551918014e-06   -3.93629598845072e-07   -9.176194582178124e-09
1.6324088588610306e-06   -7.797913287911368e-07   -4.074339393101055e-06
1.6324088588610306e-06   -7.797913287911368e-07   -4.074339393101055e-06
1.6324088588610306e-06   -7.797913287911368e-07   -4.074339393101055e-06
1.6324088588610306e-06   -7.797913287911368e-07   -4.074339393101055e-06
1.736652358995926e-06   -3.363026989980063e-07   -4.1353247332047904e-07
1.736652358995926e-06   -3.363026989980063e-07   -4.1353247332047904e-07
1.736652358995926e-06   -3.363026989980063e-07   -4.1353247332047904e-07
1.736652358995926e-06   -3.363026989980063e-07   -4.1353247332047904e-07
4.140348967819164e-06   -7.285047235424985e-07   -4.1843722732991685e-06
4.140348967819164e-06   -7.285047235424985e-07   -4.1843722732991685e-06
4.140348967819164e-06   -7.285047235424985e-07   -4.1843722732991685e-06
4.140348967819164e-06   -7.285047235424985e-07   -4.1843722732991685e-06
2.7744436190343082e-06   -5.349107199269405e-07   -2.024019760827109e-06
2.7744436190343082e-06   -5.349107199269405e-07   -2.024019760827109e-06
2.7744436190343082e-06   -5.349107199269405e-07   -2.024019760827109e-06
2.7744436190343082e-06   -5.349107199269405e-07   -2.024019760827109e-06
4.140348967819178e-06   -3.363026989980063e-07   -1.7821125859379997e-07
4.140348967819178e-06   -3.363026989980063e-07   -1.7821125859379997e-07
4.140348967819178e-06   -3.363026989980063e-07   -1.7821125859379997e-07
4.140348967819178e-06   -3.363026989980063e-07   -1.7821125859379997e-07
1.7366523589959227e-06   -7.285047235424985e-07   -4.419693488025902e-06
1.7366523589959227e-06   -7.285047235424985e-07   -4.419693488025902e-06
1.7366523589959227e-06   -7.285047235424985e-07   -4.419693488025902e-06
1.7366523589959227e-06   -7.285047235424985e-07   -4.419693488025902e-06
1.8201224578164358e-06   -1.943343291883762e-07   -8.013779824935928e-07
1.8201224578164358e-06   -1.943343291883762e-07   -8.013779824935928e-07
1.8201224578164358e-06   -1.943343291883762e-07   -8.013779824935928e-07
1.8201224578164358e-06   -1.943343291883762e-07   -8.013779824935928e-07
4.382186116122662e-06   -5.69964335054695e-07   -4.846106076150848e-06
4.382186116122662e-06   -5.69964335054695e-07   -4.846106076150848e-06
4.382186116122662e-06   -5.69964335054695e-07   -4.846106076150848e-06
4.382186116122662e-06   -5.69964335054695e-07   -4.846106076150848e-06
2.8668624165791203e-06   -4.696982944579677e-07   -2.380726201269787e-06
2.8668624165791203e-06   -4.696982944579677e-07   -2.380726201269787e-06
2.8668624165791203e-06   -4.696982944579677e-07   -2.380726201269787e-06
2.8668624165791203e-06   -4.696982944579677e-07   -2.380726201269787e-06
1.539074385135089e-06   -1.7775172424683728e-07   -2.2947185665479677e-06
1.539074385135089e-06   -1.7775172424683728e-07   -2.2947185665479677e-06
1.539074385135089e-06   -1.7775172424683728e-07   -2.2947185665479677e-06
1.539074385135089e-06   -1.7775172424683728e-07   -2.2947185665479677e-06
-6.964748442637032e-07   -3.744856870962609e-07   -6.138674326588913e-06
-6.964748442637032e-07   -3.744856870962609e-07   -6.138674326588913e-06
-6.964748442637032e-07   -3.744856870962609e-07   -6.138674326588913e-06
-6.964748442637032e-07   -3.744856870962609e-07   -6.138674326588913e-06
-6.115579045350885e-07   -6.231348142658136e-08   -2.3418391164685263e-06
-6.115579045350885e-07   -6.231348142658136e-08   -2.3418391164685263e-06
-6.115579045350885e-07   -6.231348142658136e-08   -2.3418391164685263e-06
-6.115579045350885e-07   -6.231348142658136e-08   -2.3418391164685263e-06
1.6324088588610306e-06   -2.9163318833203564e-07   -5.944191897985494e-06
1.6324088588610306e-06   -2.9163318833203564e-07   -5.944191897985494e-06
1.6324088588610306e-06   -2.9163318833203564e-07   -5.944191897985494e-06
1.6324088588610306e-06   -2.9163318833203564e-07   -5.944191897985494e-06
4.7048496638251995e-07   -1.7798507799977057e-07   -4.075840943387318e-06
4.7048496638251995e-07   -1.7798507799977057e-07   -4.075840943387318e-06
4.7048496638251995e-07   -1.7798507799977057e-07   -4.075840943387318e-06
4.7048496638251995e-07   -1.7798507799977057e-07   -4.075840943387318e-06
1.6324088588610306e-06   -6.231348142658136e-08   -2.20424729232527e-06
1.6324088588610306e-06   -6.231348142658136e-08   -2.20424729232527e-06
1.6324088588610306e-06   -6.231348142658136e-08   -2.20424729232527e-06
1.6324088588610306e-06   -6.231348142658136e-08   -2.20424729232527e-06
-6.115579045350885e-07   -2.9163318833203564e-07   -6.0817837221287236e-06
-6.115579045350885e-07   -2.9163318833203564e-07   -6.0817837221287236e-06
-6.115579045350885e-07   -2.9163318833203564e-07   -6.0817837221287236e-06
-6.115579045350885e-07   -2.9163318833203564e-07   -6.0817837221287236e-06
-5.305494772953935e-07   5.794552780994094e-08   -2.3775246066935296e-06
-5.305494772953935e-07   5.794552780994094e-08   -2.3775246066935296e-06
-5.305494772953935e-07   5.794552780994094e-08   -2.3775246066935296e-06
-5.305494772953935e-07   5.794552780994094e-08   -2.3775246066935296e-06
1.7366523589959227e-06   -1.9084309051088048e-07   -6.00692116285322e-06
1.7366523589959227e-06   -1.9084309051088048e-07   -6.00692116285322e-06
1.7366523589959227e-06   -1.9084309051088048e-07   -6.00692116285322e-06
1.7366523589959227e-06   -1.9084309051088048e-07   -6.00692116285322e-06
5.353993819417526e-07   -1.0344199200115409e-07   -4.057273526868702e-06
5.353993819417526e-07   -1.0344199200115409e-07   -4.057273526868702e-06
5.353993819417526e-07   -1.0344199200115409e-07   -4.057273526868702e-06
5.353993819417526e-07   -1.0344199200115409e-07   -4.057273526868702e-06
1.736652358995926e-06   5.794552780994094e-08   -2.228251435701015e-06
1.736652358995926e-06   5.794552780994094e-08   -2.228251435701015e-06
1.736652358995926e-06   5.794552780994094e-08   -2.228251435701015e-06
1.736652358995926e-06   5.794552780994094e-08   -2.228251435701015e-06
-5.305494772953935e-07   -1.9084309051082627e-07   -6.156194333845728e-06
-5.305494772953935e-07   -1.9084309051082627e-07   -6.156194333845728e-06
-5.305494772953935e-07   -1.9084309051082627e-07   -6.156194333845728e-06
-5.305494772953935e-07   -1.9084309051082627e-07   -6.156194333845728e-06
-4.5515552015363474e-07   2.0173614128016952e-07   -2.464960803834072e-06
-4.5515552015363474e-07   2.0173614128016952e-07   -2.464960803834072e-06
-4.5515552015363474e-07   2.0173614128016952e-07   -2.464960803834072e-06
-4.5515552015363474e-07   2.0173614128016952e-07   -2.464960803834072e-06
1.8201224578164358e-06   -6.290626873876534e-08   -6.098305321106181e-06
1.8201224578164358e-06   -6.290626873876534e-08   -6.098305321106181e-06
1.8201224578164358e-06   -6.290626873876534e-08   -6.098305321106181e-06
1.8201224578164358e-06   -6.290626873876534e-08   -6.098305321106181e-06
6.203515992978899e-07   -1.075913855691545e-08   -4.1299755016844765e-06
6.203515992978899e-07   -1.075913855691545e-08   -4.1299755016844765e-06
6.203515992978899e-07   -1.075913855691545e-08   -4.1299755016844765e-06
6.203515992978899e-07   -1.075913855691545e-08   -4.1299755016844765e-06
-6.964748442637032e-07   1.5722592338501297e-07   -3.003699582043403e-06
-6.964748442637032e-07   1.5722592338501297e-07   -3.003699582043403e-06
-6.964748442637032e-07   1.5722592338501297e-07   -3.003699582043403e-06
-6.964748442637032e-07   1.5722592338501297e-07   -3.003699582043403e-06
-2.8925175688470398e-06   1.0149163271291114e-07   -6.6972113640855835e-06
-2.8925175688470398e-06   1.0149163271291114e-07   -6.6972113640855835e-06
-2.8925175688470398e-06   1.0149163271291114e-07   -6.6972113640855835e-06
-2.8925175688470398e-06   1.0149163271291114e-07   -6.6972113640855835e-06
-2.801367889599424e-06   2.8114834546262915e-07   -2.973878316008411e-06
-2.801367889599424e-06   2.8114834546262915e-07   -2.973878316008411e-06
-2.801367889599424e-06   2.8114834546262915e-07   -2.973878316008411e-06
-2.801367889599424e-06   2.8114834546262915e-07   -2.973878316008411e-06
-6.115579045350885e-07   1.9580930258602733e-07   -6.572358198722976e-06
-6.115579045350885e-07   1.9580930258602733e-07   -6.572358198722976e-06
-6.115579045350885e-07   1.9580930258602733e-07   -6.572358198722976e-06
-6.115579045350885e-07   1.9580930258602733e-07   -6.572358198722976e-06
-1.7391631816574695e-06   2.169321192471707e-07   -4.705689760182391e-06
-1.7391631816574695e-06   2.169321192471707e-07   -4.705689760182391e-06
-1.7391631816574695e-06   2.169321192471707e-07   -4.705689760182391e-06
-1.7391631816574695e-06   2.169321192471707e-07   -4.705689760182391e-06
-6.115579045350885e-07   2.8114834546262915e-07   -2.92267489028245e-06
-6.115579045350885e-07   2.8114834546262915e-07   -2.92267489028245e-06
-6.115579045350885e-07   2.8114834546262915e-07   -2.92267489028245e-06
-6.115579045350885e-07   2.8114834546262915e-07   -2.92267489028245e-06
-2.801367889599424e-06   1.9580930258602733e-07   -6.623561624448967e-06
-2.801367889599424e-06   1.9580930258602733e-07   -6.623561624448967e-06
-2.801367889599424e-06   1.9580930258602733e-07   -6.623561624448967e-06
-2.801367889599424e-06   1.9580930258602733e-07   -6.623561624448967e-06
-2.713010772849622e-06   4.1153388708983123e-07   -2.9695479126949154e-06
-2.713010772849622e-06   4.1153388708983123e-07   -2.9695479126949154e-06
-2.713010772849622e-06   4.1153388708983123e-07   -2.9695479126949154e-06
-2.713010772849622e-06   4.1153388708983123e-07   -2.9695479126949154e-06
-5.305494772953969e-07   3.0318710628993465e-07   -6.54197533680538e-06
-5.305494772953969e-07   3.0318710628993465e-07   -6.54197533680538e-06
-5.305494772953969e-07   3.0318710628993465e-07   -6.54197533680538e-06
-5.305494772953969e-07   3.0318710628993465e-07   -6.54197533680538e-06
-1.6616684866456965e-06   3.055695641362294e-07   -4.658206462595957e-06
-1.6616684866456965e-06   3.055695641362294e-07   -4.658206462595957e-06
-1.6616684866456965e-06   3.055695641362294e-07   -4.658206462595957e-06
-1.6616684866456965e-06   3.055695641362294e-07   -4.658206462595957e-06
-5.305494772953969e-07   4.1153388708983123e-07   -2.90453984421501e-06
-5.305494772953969e-07   4.1153388708983123e-07   -2.90453984421501e-06
-5.305494772953969e-07   4.1153388708983123e-07   -2.90453984421501e-06
-5.305494772953969e-07   4.1153388708983123e-07   -2.90453984421501e-06
-2.713010772849622e-06   3.0318710628993465e-07   -6.606983405285329e-06
-2.713010772849622e-06   3.0318710628993465e-07   -6.606983405285329e-06
-2.713010772849622e-06   3.0318710628993465e-07   -6.606983405285329e-06
-2.713010772849622e-06   3.0318710628993465e-07   -6.606983405285329e-06
-2.6314397715321335e-06   5.442643670659449e-07   -3.0431411678260906e-06
-2.6314397715321335e-06   5.442643670659449e-07   -3.0431411678260906e-06
-2.6314397715321335e-06   5.442643670659449e-07   -3.0431411678260906e-06
-2.6314397715321335e-06   5.442643670659449e-07   -3.0431411678260906e-06
-4.5515552015363813e-07   4.138093478258981e-07   -6.59200857524622e-06
-4.5515552015363813e-07   4.138093478258981e-07   -6.59200857524622e-06
-4.5515552015363813e-07   4.138093478258981e-07   -6.59200857524622e-06
-4.5515552015363813e-07   4.138093478258981e-07   -6.59200857524622e-06
-1.5932590790149755e-06   3.96465953516386e-07   -4.684763273891666e-06
-1.5932590790149755e-06   3.96465953516386e-07   -4.684763273891666e-06
-1.5932590790149755e-06   3.96465953516386e-07   -4.684763273891666e-06
-1.5932590790149755e-06   3.96465953516386e-07   -4.684763273891666e-06
-2.892517568847044e-06   4.868870461223278e-07   -2.420939493376562e-06
-2.892517568847044e-06   4.868870461223278e-07   -2.420939493376562e-06
-2.892517568847044e-06   4.868870461223278e-07   -2.420939493376562e-06
-2.892517568847044e-06   4.868870461223278e-07   -2.420939493376562e-06
-5.067093527554653e-06   5.951678050569492e-07   -5.9802643025284245e-06
-5.067093527554653e-06   5.951678050569492e-07   -5.9802643025284245e-06
-5.067093527554653e-06   5.951678050569492e-07   -5.9802643025284245e-06
-5.067093527554653e-06   5.951678050569492e-07   -5.9802643025284245e-06
-4.956015854456084e-06   6.19304844342737e-07   -2.2564399967251575e-06
-4.956015854456084e-06   6.19304844342737e-07   -2.2564399967251575e-06
-4.956015854456084e-06   6.19304844342737e-07   -2.2564399967251575e-06
-4.956015854456084e-06   6.19304844342737e-07   -2.2564399967251575e-06
-2.801367889599428e-06   7.126301652409959e-07   -5.903515130691918e-06
-2.801367889599428e-06   7.126301652409959e-07   -5.903515130691918e-06
-2.801367889599428e-06   7.126301652409959e-07   -5.903515130691918e-06
-2.801367889599428e-06   7.126301652409959e-07   -5.903515130691918e-06
-3.900935787275224e-06   6.253707358410353e-07   -4.018546310258941e-06
-3.900935787275224e-06   6.253707358410353e-07   -4.018546310258941e-06
-3.900935787275224e-06   6.253707358410353e-07   -4.018546310258941e-06
-3.900935787275224e-06   6.253707358410353e-07   -4.018546310258941e-06
-2.801367889599428e-06   6.193048443426828e-07   -2.312435189264129e-06
-2.801367889599428e-06   6.193048443426828e-07   -2.312435189264129e-06
-2.801367889599428e-06   6.193048443426828e-07   -2.312435189264129e-06
-2.801367889599428e-06   6.193048443426828e-07   -2.312435189264129e-06
-4.956015854456092e-06   7.126301652409959e-07   -5.847519938152957e-06
-4.956015854456092e-06   7.126301652409959e-07   -5.847519938152957e-06
-4.956015854456092e-06   7.126301652409959e-07   -5.847519938152957e-06
-4.956015854456092e-06   7.126301652409959e-07   -5.847519938152957e-06
-4.830425959270102e-06   7.376199483028747e-07   -2.1644695476929923e-06
-4.830425959270102e-06   7.376199483028747e-07   -2.1644695476929923e-06
-4.830425959270102e-06   7.376199483028747e-07   -2.1644695476929923e-06
-4.830425959270102e-06   7.376199483028747e-07   -2.1644695476929923e-06
-2.7130107728496264e-06   8.134379407248702e-07   -5.738985653847007e-06
-2.7130107728496264e-06   8.134379407248702e-07   -5.738985653847007e-06
-2.7130107728496264e-06   8.134379407248702e-07   -5.738985653847007e-06
-2.7130107728496264e-06   8.134379407248702e-07   -5.738985653847007e-06
-3.785837739546771e-06   7.182693618321308e-07   -3.893839562016098e-06
-3.785837739546771e-06   7.182693618321308e-07   -3.893839562016098e-06
-3.785837739546771e-06   7.182693618321308e-07   -3.893839562016098e-06
-3.785837739546771e-06   7.182693618321308e-07   -3.893839562016098e-06
-2.7130107728496247e-06   7.376199483028747e-07   -2.209960343146184e-06
-2.7130107728496247e-06   7.376199483028747e-07   -2.209960343146184e-06
-2.7130107728496247e-06   7.376199483028747e-07   -2.209960343146184e-06
-2.7130107728496247e-06   7.376199483028747e-07   -2.209960343146184e-06
-4.830425959270102e-06   8.134379407248702e-07   -5.693494858393793e-06
-4.830425959270102e-06   8.134379407248702e-07   -5.693494858393793e-06
-4.830425959270102e-06   8.134379407248702e-07   -5.693494858393793e-06
-4.830425959270102e-06   8.134379407248702e-07   -5.693494858393793e-06
-4.725006608025725e-06   8.679028384494993e-07   -2.215708519737094e-06
-4.725006608025725e-06   8.679028384494993e-07   -2.215708519737094e-06
-4.725006608025725e-06   8.679028384494993e-07   -2.215708519737094e-06
-4.725006608025725e-06   8.679028384494993e-07   -2.215708519737094e-06
-2.6314397715321386e-06   9.231334086298509e-07   -5.738124922667964e-06
-2.6314397715321386e-06   9.231334086298509e-07   -5.738124922667964e-06
-2.6314397715321386e-06   9.231334086298509e-07   -5.738124922667964e-06
-2.6314397715321386e-06   9.231334086298509e-07   -5.738124922667964e-06
-3.720861124109276e-06   8.031168953047548e-07   -3.850412760377674e-06
-3.720861124109276e-06   8.031168953047548e-07   -3.850412760377674e-06
-3.720861124109276e-06   8.031168953047548e-07   -3.850412760377674e-06
-3.720861124109276e-06   8.031168953047548e-07   -3.850412760377674e-06
-5.067093527554653e-06   8.40062506753407e-07   -1.196119023446745e-06
-5.067093527554653e-06   8.40062506753407e-07   -1.196119023446745e-06
-5.067093527554653e-06   8.40062506753407e-07   -1.196119023446745e-06
-5.067093527554653e-06   8.40062506753407e-07   -1.196119023446745e-06
-7.383909689009654e-06   1.142820059292103e-06   -4.875824761015231e-06
-7.383909689009654e-06   1.142820059292103e-06   -4.875824761015231e-06
-7.383909689009654e-06   1.142820059292103e-06   -4.875824761015231e-06
-7.383909689009654e-06   1.142820059292103e-06   -4.875824761015231e-06
-7.110073723087688e-06   9.79247028627065e-07   -2.770422604326725e-07
-7.110073723087688e-06   9.79247028627065e-07   -2.770422604326725e-07
-7.110073723087688e-06   9.79247028627065e-07   -2.770422604326725e-07
-7.110073723087688e-06   9.79247028627065e-07   -2.770422604326725e-07
-4.956015854456084e-06   1.2992339991405011e-06   -4.059130890460063e-06
-4.956015854456084e-06   1.2992339991405011e-06   -4.059130890460063e-06
-4.956015854456084e-06   1.2992339991405011e-06   -4.059130890460063e-06
-4.956015854456084e-06   1.2992339991405011e-06   -4.059130890460063e-06
-5.876986639120193e-06   1.0877826640881463e-06   -2.39730878165515e-06
-5.876986639120193e-06   1.0877826640881463e-06   -2.39730878165515e-06
-5.876986639120193e-06   1.0877826640881463e-06   -2.39730878165515e-06
-5.876986639120193e-06   1.0877826640881463e-06   -2.39730878165515e-06
-4.956015854456089e-06   9.792470286270922e-07   -4.69034442740745e-07
-4.956015854456089e-06   9.792470286270922e-07   -4.69034442740745e-07
-4.956015854456089e-06   9.792470286270922e-07   -4.69034442740745e-07
-4.956015854456089e-06   9.792470286270922e-07   -4.69034442740745e-07
-7.110073723087676e-06   1.2992339991405553e-06   -3.867138708152015e-06
-7.110073723087676e-06   1.2992339991405553e-06   -3.867138708152015e-06
-7.110073723087676e-06   1.2992339991405553e-06   -3.867138708152015e-06
-7.110073723087676e-06   1.2992339991405553e-06   -3.867138708152015e-06
-6.8851120228180925e-06   1.0296794710706826e-06   1.1608214949267669e-07
-6.8851120228180925e-06   1.0296794710706826e-06   1.1608214949267669e-07
-6.8851120228180925e-06   1.0296794710706826e-06   1.1608214949267669e-07
-6.8851120228180925e-06   1.0296794710706826e-06   1.1608214949267669e-07
-4.830425959270102e-06   1.341423845086225e-06   -3.4954412474966203e-06
-4.830425959270102e-06   1.341423845086225e-06   -3.4954412474966203e-06
-4.830425959270102e-06   1.341423845086225e-06   -3.4954412474966203e-06
-4.830425959270102e-06   1.341423845086225e-06   -3.4954412474966203e-06
-5.798674898111534e-06   1.1534797419168676e-06   -1.7689265541925565e-06
-5.798674898111534e-06   1.1534797419168676e-06   -1.7689265541925565e-06
-5.798674898111534e-06   1.1534797419168676e-06   -1.7689265541925565e-06
-5.798674898111534e-06   1.1534797419168676e-06   -1.7689265541925565e-06
-4.830425959270102e-06   1.0296794710706826e-06   -7.09644749166433e-08
-4.830425959270102e-06   1.0296794710706826e-06   -7.09644749166433e-08
-4.830425959270102e-06   1.0296794710706826e-06   -7.09644749166433e-08
-4.830425959270102e-06   1.0296794710706826e-06   -7.09644749166433e-08
-6.885112022818067e-06   1.3414238450862792e-06   -3.3083946230873435e-06
-6.885112022818067e-06   1.3414238450862792e-06   -3.3083946230873435e-06
-6.885112022818067e-06   1.3414238450862792e-06   -3.3083946230873435e-06
-6.885112022818067e-06   1.3414238450862792e-06   -3.3083946230873435e-06
-6.637687204412171e-06   1.08867372276505e-06   6.264038065524494e-07
-6.637687204412171e-06   1.08867372276505e-06   6.264038065524494e-07
-6.637687204412171e-06   1.08867372276505e-06   6.264038065524494e-07
-6.637687204412171e-06   1.08867372276505e-06   6.264038065524494e-07
-4.725006608025725e-06   1.372147616411092e-06   -2.7314815236125654e-06
-4.725006608025725e-06   1.372147616411092e-06   -2.7314815236125654e-06
-4.725006608025725e-06   1.372147616411092e-06   -2.7314815236125654e-06
-4.725006608025725e-06   1.372147616411092e-06   -2.7314815236125654e-06
-5.562352140315055e-06   1.163360049458498e-06   -1.210633096292171e-06
-5.562352140315055e-06   1.163360049458498e-06   -1.210633096292171e-06
-5.562352140315055e-06   1.163360049458498e-06   -1.210633096292171e-06
-5.562352140315055e-06   1.163360049458498e-06   -1.210633096292171e-06
6.063588091952482e-06   -8.356897013670102e-07   1.3707400285029362e-06
6.063588091952482e-06   -8.356897013670102e-07   1.3707400285029362e-06
6.063588091952482e-06   -8.356897013670102e-07   1.3707400285029362e-06
6.063588091952482e-06   -8.356897013670102e-07   1.3707400285029362e-06
2.884390475583943e-06   -1.21190434229884e-06   -4.153651450003736e-06
2.884390475583943e-06   -1.21190434229884e-06   -4.153651450003736e-06
2.884390475583943e-06   -1.21190434229884e-06   -4.153651450003736e-06
2.884390475583943e-06   -1.21190434229884e-06   -4.153651450003736e-06
2.9867844100863897e-06   -7.797913287910826e-07   7.497713871577384e-07
2.9867844100863897e-06   -7.797913287910826e-07   7.497713871577384e-07
2.9867844100863897e-06   -7.797913287910826e-07   7.497713871577384e-07
2.9867844100863897e-06   -7.797913287910826e-07   7.497713871577384e-07
6.3162526989081025e-06   -1.1866079190986584e-06   -4.555252473360584e-06
6.3162526989081025e-06   -1.1866079190986584e-06   -4.555252473360584e-06
6.3162526989081025e-06   -1.1866079190986584e-06   -4.555252473360584e-06
6.3162526989081025e-06   -1.1866079190986584e-06   -4.555252473360584e-06
4.375461852895226e-06   -9.093132769661099e-07   -1.4869778486186521e-06
4.375461852895226e-06   -9.093132769661099e-07   -1.4869778486186521e-06
4.375461852895226e-06   -9.093132769661099e-07   -1.4869778486186521e-06
4.375461852895226e-06   -9.093132769661099e-07   -1.4869778486186521e-06
6.316252698908116e-06   -7.797913287910826e-07   9.938613413422947e-07
6.316252698908116e-06   -7.797913287910826e-07   9.938613413422947e-07
6.316252698908116e-06   -7.797913287910826e-07   9.938613413422947e-07
6.316252698908116e-06   -7.797913287910826e-07   9.938613413422947e-07
2.986784410086383e-06   -1.1866079190986584e-06   -4.799342427545133e-06
2.986784410086383e-06   -1.1866079190986584e-06   -4.799342427545133e-06
2.986784410086383e-06   -1.1866079190986584e-06   -4.799342427545133e-06
2.986784410086383e-06   -1.1866079190986584e-06   -4.799342427545133e-06
3.089050610487691e-06   -7.285047235424443e-07   4.3893249767148514e-07
3.089050610487691e-06   -7.285047235424443e-07   4.3893249767148514e-07
3.089050610487691e-06   -7.285047235424443e-07   4.3893249767148514e-07
3.089050610487691e-06   -7.285047235424443e-07   4.3893249767148514e-07
6.507901205058547e-06   -1.1444002341656485e-06   -5.0096145202393135e-06
6.507901205058547e-06   -1.1444002341656485e-06   -5.0096145202393135e-06
6.507901205058547e-06   -1.1444002341656485e-06   -5.0096145202393135e-06
6.507901205058547e-06   -1.1444002341656485e-06   -5.0096145202393135e-06
4.590716360392114e-06   -9.056573561540943e-07   -1.9575521726021924e-06
4.590716360392114e-06   -9.056573561540943e-07   -1.9575521726021924e-06
4.590716360392114e-06   -9.056573561540943e-07   -1.9575521726021924e-06
4.590716360392114e-06   -9.056573561540943e-07   -1.9575521726021924e-06
6.507901205058547e-06   -7.285047235424443e-07   6.884698040454293e-07
6.507901205058547e-06   -7.285047235424443e-07   6.884698040454293e-07
6.507901205058547e-06   -7.285047235424443e-07   6.884698040454293e-07
6.507901205058547e-06   -7.285047235424443e-07   6.884698040454293e-07
3.089050610487691e-06   -1.1444002341657027e-06   -5.2591518266132645e-06
3.089050610487691e-06   -1.1444002341657027e-06   -5.2591518266132645e-06
3.089050610487691e-06   -1.1444002341657027e-06   -5.2591518266132645e-06
3.089050610487691e-06   -1.1444002341657027e-06   -5.2591518266132645e-06
3.155938388801972e-06   -5.69964335054695e-07   -1.752516884003907e-07
3.155938388801972e-06   -5.69964335054695e-07   -1.752516884003907e-07
3.155938388801972e-06   -5.69964335054695e-07   -1.752516884003907e-07
3.155938388801972e-06   -5.69964335054695e-07   -1.752516884003907e-07
6.711403774932876e-06   -9.834421164536095e-07   -5.8529406631125725e-06
6.711403774932876e-06   -9.834421164536095e-07   -5.8529406631125725e-06
6.711403774932876e-06   -9.834421164536095e-07   -5.8529406631125725e-06
6.711403774932876e-06   -9.834421164536095e-07   -5.8529406631125725e-06
4.639362975950091e-06   -8.341223813919797e-07   -2.4891311725116507e-06
4.639362975950091e-06   -8.341223813919797e-07   -2.4891311725116507e-06
4.639362975950091e-06   -8.341223813919797e-07   -2.4891311725116507e-06
4.639362975950091e-06   -8.341223813919797e-07   -2.4891311725116507e-06
2.8843904755839464e-06   -3.744856870962067e-07   -1.2323157849674477e-06
2.8843904755839464e-06   -3.744856870962067e-07   -1.2323157849674477e-06
2.8843904755839464e-06   -3.744856870962067e-07   -1.2323157849674477e-06
2.8843904755839464e-06   -3.744856870962067e-07   -1.2323157849674477e-06
-2.4242336661974167e-07   -7.445221613421103e-07   -6.665694073187777e-06
-2.4242336661974167e-07   -7.445221613421103e-07   -6.665694073187777e-06
-2.4242336661974167e-07   -7.445221613421103e-07   -6.665694073187777e-06
-2.4242336661974167e-07   -7.445221613421103e-07   -6.665694073187777e-06
-1.387971191247261e-07   -2.9163318833203564e-07   -1.367015451079627e-06
-1.387971191247261e-07   -2.9163318833203564e-07   -1.367015451079627e-06
-1.387971191247261e-07   -2.9163318833203564e-07   -1.367015451079627e-06
-1.387971191247261e-07   -2.9163318833203564e-07   -1.367015451079627e-06
2.9867844100863897e-06   -7.03190410586993e-07   -6.329383666411866e-06
2.9867844100863897e-06   -7.03190410586993e-07   -6.329383666411866e-06
2.9867844100863897e-06   -7.03190410586993e-07   -6.329383666411866e-06
2.9867844100863897e-06   -7.03190410586993e-07   -6.329383666411866e-06
1.3753146373134664e-06   -4.523034902627755e-07   -3.7941328639848402e-06
1.3753146373134664e-06   -4.523034902627755e-07   -3.7941328639848402e-06
1.3753146373134664e-06   -4.523034902627755e-07   -3.7941328639848402e-06
1.3753146373134664e-06   -4.523034902627755e-07   -3.7941328639848402e-06
2.9867844100863863e-06   -2.9163318833203564e-07   -1.1200811177266472e-06
2.9867844100863863e-06   -2.9163318833203564e-07   -1.1200811177266472e-06
2.9867844100863863e-06   -2.9163318833203564e-07   -1.1200811177266472e-06
2.9867844100863863e-06   -2.9163318833203564e-07   -1.1200811177266472e-06
-1.387971191247261e-07   -7.03190410586993e-07   -6.576317999764866e-06
-1.387971191247261e-07   -7.03190410586993e-07   -6.576317999764866e-06
-1.387971191247261e-07   -7.03190410586993e-07   -6.576317999764866e-06
-1.387971191247261e-07   -7.03190410586993e-07   -6.576317999764866e-06
-4.787129208926673e-08   -1.9084309051082627e-07   -1.4120380479847993e-06
-4.787129208926673e-08   -1.9084309051082627e-07   -1.4120380479847993e-06
-4.787129208926673e-08   -1.9084309051082627e-07   -1.4120380479847993e-06
-4.787129208926673e-08   -1.9084309051082627e-07   -1.4120380479847993e-06
3.089050610487691e-06   -6.30414541892511e-07   -6.376498348117433e-06
3.089050610487691e-06   -6.30414541892511e-07   -6.376498348117433e-06
3.089050610487691e-06   -6.30414541892511e-07   -6.376498348117433e-06
3.089050610487691e-06   -6.30414541892511e-07   -6.376498348117433e-06
1.4423087137098952e-06   -4.091248999458434e-07   -3.7647023053223637e-06
1.4423087137098952e-06   -4.091248999458434e-07   -3.7647023053223637e-06
1.4423087137098952e-06   -4.091248999458434e-07   -3.7647023053223637e-06
1.4423087137098952e-06   -4.091248999458434e-07   -3.7647023053223637e-06
3.089050610487691e-06   -1.9084309051088048e-07   -1.1482951771558535e-06
3.089050610487691e-06   -1.9084309051088048e-07   -1.1482951771558535e-06
3.089050610487691e-06   -1.9084309051088048e-07   -1.1482951771558535e-06
3.089050610487691e-06   -1.9084309051088048e-07   -1.1482951771558535e-06
-4.787129208926673e-08   -6.304145418924568e-07   -6.640241218946433e-06
-4.787129208926673e-08   -6.304145418924568e-07   -6.640241218946433e-06
-4.787129208926673e-08   -6.304145418924568e-07   -6.640241218946433e-06
-4.787129208926673e-08   -6.304145418924568e-07   -6.640241218946433e-06
1.557147288850047e-08   -6.290626873876534e-08   -1.4802570881810586e-06
1.557147288850047e-08   -6.290626873876534e-08   -1.4802570881810586e-06
1.557147288850047e-08   -6.290626873876534e-08   -1.4802570881810586e-06
1.557147288850047e-08   -6.290626873876534e-08   -1.4802570881810586e-06
3.155938388801979e-06   -5.265465326473057e-07   -6.4360177896917616e-06
3.155938388801979e-06   -5.265465326473057e-07   -6.4360177896917616e-06
3.155938388801979e-06   -5.265465326473057e-07   -6.4360177896917616e-06
3.155938388801979e-06   -5.265465326473057e-07   -6.4360177896917616e-06
1.5278761507254663e-06   -3.3563490836087395e-07   -3.8371277008028375e-06
1.5278761507254663e-06   -3.3563490836087395e-07   -3.8371277008028375e-06
1.5278761507254663e-06   -3.3563490836087395e-07   -3.8371277008028375e-06
1.5278761507254663e-06   -3.3563490836087395e-07   -3.8371277008028375e-06
-2.4242336661974167e-07   1.0149163271291114e-07   -1.9794341326083507e-06
-2.4242336661974167e-07   1.0149163271291114e-07   -1.9794341326083507e-06
-2.4242336661974167e-07   1.0149163271291114e-07   -1.9794341326083507e-06
-2.4242336661974167e-07   1.0149163271291114e-07   -1.9794341326083507e-06
-3.323244781654485e-06   -3.2755113917308943e-07   -7.371562154131236e-06
-3.323244781654485e-06   -3.2755113917308943e-07   -7.371562154131236e-06
-3.323244781654485e-06   -3.2755113917308943e-07   -7.371562154131236e-06
-3.323244781654485e-06   -3.2755113917308943e-07   -7.371562154131236e-06
-3.1983619782131936e-06   1.9580930258602733e-07   -2.141317438376385e-06
-3.1983619782131936e-06   1.9580930258602733e-07   -2.141317438376385e-06
-3.1983619782131936e-06   1.9580930258602733e-07   -2.141317438376385e-06
-3.1983619782131936e-06   1.9580930258602733e-07   -2.141317438376385e-06
-1.387971191247261e-07   -2.770698819181479e-07   -6.956864692821339e-06
-1.387971191247261e-07   -2.770698819181479e-07   -6.956864692821339e-06
-1.387971191247261e-07   -2.770698819181479e-07   -6.956864692821339e-06
-1.387971191247261e-07   -2.770698819181479e-07   -6.956864692821339e-06
-1.7075181173828696e-06   -2.201494002829381e-08   -4.495362660858311e-06
-1.7075181173828696e-06   -2.201494002829381e-08   -4.495362660858311e-06
-1.7075181173828696e-06   -2.201494002829381e-08   -4.495362660858311e-06
-1.7075181173828696e-06   -2.201494002829381e-08   -4.495362660858311e-06
-1.387971191247261e-07   1.9580930258597312e-07   -1.8575899276738962e-06
-1.387971191247261e-07   1.9580930258597312e-07   -1.8575899276738962e-06
-1.387971191247261e-07   1.9580930258597312e-07   -1.8575899276738962e-06
-1.387971191247261e-07   1.9580930258597312e-07   -1.8575899276738962e-06
-3.1983619782131936e-06   -2.770698819180937e-07   -7.240592203523841e-06
-3.1983619782131936e-06   -2.770698819180937e-07   -7.240592203523841e-06
-3.1983619782131936e-06   -2.770698819180937e-07   -7.240592203523841e-06
-3.1983619782131936e-06   -2.770698819180937e-07   -7.240592203523841e-06
-3.083855123355351e-06   3.0318710628993465e-07   -2.10242753353806e-06
-3.083855123355351e-06   3.0318710628993465e-07   -2.10242753353806e-06
-3.083855123355351e-06   3.0318710628993465e-07   -2.10242753353806e-06
-3.083855123355351e-06   3.0318710628993465e-07   -2.10242753353806e-06
-4.787129208926673e-08   -2.0449369803271847e-07   -6.857792103054642e-06
-4.787129208926673e-08   -2.0449369803271847e-07   -6.857792103054642e-06
-4.787129208926673e-08   -2.0449369803271847e-07   -6.857792103054642e-06
-4.787129208926673e-08   -2.0449369803271847e-07   -6.857792103054642e-06
-1.6070359244383263e-06   3.354965287972068e-08   -4.40201039302031e-06
-1.6070359244383263e-06   3.354965287972068e-08   -4.40201039302031e-06
-1.6070359244383263e-06   3.354965287972068e-08   -4.40201039302031e-06
-1.6070359244383263e-06   3.354965287972068e-08   -4.40201039302031e-06
-4.787129208926673e-08   3.0318710628993465e-07   -1.7978190509444953e-06
-4.787129208926673e-08   3.0318710628993465e-07   -1.7978190509444953e-06
-4.787129208926673e-08   3.0318710628993465e-07   -1.7978190509444953e-06
-4.787129208926673e-08   3.0318710628993465e-07   -1.7978190509444953e-06
-3.0838551233553576e-06   -2.0449369803266426e-07   -7.16240058564824e-06
-3.0838551233553576e-06   -2.0449369803266426e-07   -7.16240058564824e-06
-3.0838551233553576e-06   -2.0449369803266426e-07   -7.16240058564824e-06
-3.0838551233553576e-06   -2.0449369803266426e-07   -7.16240058564824e-06
-3.0071571652787722e-06   4.138093478258981e-07   -2.144353470071936e-06
-3.0071571652787722e-06   4.138093478258981e-07   -2.144353470071936e-06
-3.0071571652787722e-06   4.138093478258981e-07   -2.144353470071936e-06
-3.0071571652787722e-06   4.138093478258981e-07   -2.144353470071936e-06
1.557147288850047e-08   -1.348216084444149e-07   -6.853055959921901e-06
1.557147288850047e-08   -1.348216084444149e-07   -6.853055959921901e-06
1.557147288850047e-08   -1.348216084444149e-07   -6.853055959921901e-06
1.557147288850047e-08   -1.348216084444149e-07   -6.853055959921901e-06
-1.5366901611973665e-06   9.520824587755123e-08   -4.4039711490387144e-06
-1.5366901611973665e-06   9.520824587755123e-08   -4.4039711490387144e-06
-1.5366901611973665e-06   9.520824587755123e-08   -4.4039711490387144e-06
-1.5366901611973665e-06   9.520824587755123e-08   -4.4039711490387144e-06
-3.323244781654478e-06   5.951678050570034e-07   -1.5848811895436462e-06
-3.323244781654478e-06   5.951678050570034e-07   -1.5848811895436462e-06
-3.323244781654478e-06   5.951678050570034e-07   -1.5848811895436462e-06
-3.323244781654478e-06   5.951678050570034e-07   -1.5848811895436462e-06
-6.455410345545941e-06   2.1911973619684767e-07   -7.030785970678832e-06
-6.455410345545941e-06   2.1911973619684767e-07   -7.030785970678832e-06
-6.455410345545941e-06   2.1911973619684767e-07   -7.030785970678832e-06
-6.455410345545941e-06   2.1911973619684767e-07   -7.030785970678832e-06
-6.2769523725889e-06   7.126301652409959e-07   -1.6664336952456173e-06
-6.2769523725889e-06   7.126301652409959e-07   -1.6664336952456173e-06
-6.2769523725889e-06   7.126301652409959e-07   -1.6664336952456173e-06
-6.2769523725889e-06   7.126301652409959e-07   -1.6664336952456173e-06
-3.198361978213187e-06   3.0402558086383216e-07   -6.552254935245505e-06
-3.198361978213187e-06   3.0402558086383216e-07   -6.552254935245505e-06
-3.198361978213187e-06   3.0402558086383216e-07   -6.552254935245505e-06
-3.198361978213187e-06   3.0402558086383216e-07   -6.552254935245505e-06
-4.766803655819874e-06   4.93452671225655e-07   -4.051841726784795e-06
-4.766803655819874e-06   4.93452671225655e-07   -4.051841726784795e-06
-4.766803655819874e-06   4.93452671225655e-07   -4.051841726784795e-06
-4.766803655819874e-06   4.93452671225655e-07   -4.051841726784795e-06
-3.198361978213187e-06   7.126301652409959e-07   -1.421270944619319e-06
-3.198361978213187e-06   7.126301652409959e-07   -1.421270944619319e-06
-3.198361978213187e-06   7.126301652409959e-07   -1.421270944619319e-06
-3.198361978213187e-06   7.126301652409959e-07   -1.421270944619319e-06
-6.2769523725889105e-06   3.0402558086377795e-07   -6.7974176858718205e-06
-6.2769523725889105e-06   3.0402558086377795e-07   -6.7974176858718205e-06
-6.2769523725889105e-06   3.0402558086377795e-07   -6.7974176858718205e-06
-6.2769523725889105e-06   3.0402558086377795e-07   -6.7974176858718205e-06
-6.1016012598361754e-06   8.134379407248702e-07   -1.4937091745472462e-06
-6.1016012598361754e-06   8.134379407248702e-07   -1.4937091745472462e-06
-6.1016012598361754e-06   8.134379407248702e-07   -1.4937091745472462e-06
-6.1016012598361754e-06   8.134379407248702e-07   -1.4937091745472462e-06
-3.0838551233553576e-06   3.8130561997901276e-07   -6.264006676234475e-06
-3.0838551233553576e-06   3.8130561997901276e-07   -6.264006676234475e-06
-3.0838551233553576e-06   3.8130561997901276e-07   -6.264006676234475e-06
-3.0838551233553576e-06   3.8130561997901276e-07   -6.264006676234475e-06
-4.601306044918593e-06   5.674589333038858e-07   -3.846613794957274e-06
-4.601306044918593e-06   5.674589333038858e-07   -3.846613794957274e-06
-4.601306044918593e-06   5.674589333038858e-07   -3.846613794957274e-06
-4.601306044918593e-06   5.674589333038858e-07   -3.846613794957274e-06
-3.083855123355349e-06   8.134379407248702e-07   -1.2344297820997155e-06
-3.083855123355349e-06   8.134379407248702e-07   -1.2344297820997155e-06
-3.083855123355349e-06   8.134379407248702e-07   -1.2344297820997155e-06
-3.083855123355349e-06   8.134379407248702e-07   -1.2344297820997155e-06
-6.1016012598361864e-06   3.8130561997901276e-07   -6.523286068681959e-06
-6.1016012598361864e-06   3.8130561997901276e-07   -6.523286068681959e-06
-6.1016012598361864e-06   3.8130561997901276e-07   -6.523286068681959e-06
-6.1016012598361864e-06   3.8130561997901276e-07   -6.523286068681959e-06
-5.972709148312047e-06   9.231334086299051e-07   -1.4992037984043341e-06
-5.972709148312047e-06   9.231334086299051e-07   -1.4992037984043341e-06
-5.972709148312047e-06   9.231334086299051e-07   -1.4992037984043341e-06
-5.972709148312047e-06   9.231334086299051e-07   -1.4992037984043341e-06
-3.0071571652787773e-06   4.4478842120543576e-07   -6.154783444338472e-06
-3.0071571652787773e-06   4.4478842120543576e-07   -6.154783444338472e-06
-3.0071571652787773e-06   4.4478842120543576e-07   -6.154783444338472e-06
-3.0071571652787773e-06   4.4478842120543576e-07   -6.154783444338472e-06
-4.5182103945418525e-06   6.196636019461144e-07   -3.741286504011044e-06
-4.5182103945418525e-06   6.196636019461144e-07   -3.741286504011044e-06
-4.5182103945418525e-06   6.196636019461144e-07   -3.741286504011044e-06
-4.5182103945418525e-06   6.196636019461144e-07   -3.741286504011044e-06
-6.455410345545941e-06   1.142820059292103e-06   -8.877250208697636e-07
-6.455410345545941e-06   1.142820059292103e-06   -8.877250208697636e-07
-6.455410345545941e-06   1.142820059292103e-06   -8.877250208697636e-07
-6.455410345545941e-06   1.142820059292103e-06   -8.877250208697636e-07
-9.752303978146515e-06   1.1052964520656921e-06   -6.405061906206578e-06
-9.752303978146515e-06   1.1052964520656921e-06   -6.405061906206578e-06
-9.752303978146515e-06   1.1052964520656921e-06   -6.405061906206578e-06
-9.752303978146515e-06   1.1052964520656921e-06   -6.405061906206578e-06
-9.377592213800894e-06   1.2992339991405011e-06   1.603096288414177e-07
-9.377592213800894e-06   1.2992339991405011e-06   1.603096288414177e-07
-9.377592213800894e-06   1.2992339991405011e-06   1.603096288414177e-07
-9.377592213800894e-06   1.2992339991405011e-06   1.603096288414177e-07
-6.2769523725888885e-06   1.363157793130823e-06   -5.045777716239446e-06
-6.2769523725888885e-06   1.363157793130823e-06   -5.045777716239446e-06
-6.2769523725888885e-06   1.363157793130823e-06   -5.045777716239446e-06
-6.2769523725888885e-06   1.363157793130823e-06   -5.045777716239446e-06
-7.623525147060738e-06   1.2805666467182505e-06   -2.7519350709387846e-06
-7.623525147060738e-06   1.2805666467182505e-06   -2.7519350709387846e-06
-7.623525147060738e-06   1.2805666467182505e-06   -2.7519350709387846e-06
-7.623525147060738e-06   1.2805666467182505e-06   -2.7519350709387846e-06
-6.2769523725889046e-06   1.2992339991405011e-06   1.219553524472517e-07
-6.2769523725889046e-06   1.2992339991405011e-06   1.219553524472517e-07
-6.2769523725889046e-06   1.2992339991405011e-06   1.219553524472517e-07
-6.2769523725889046e-06   1.2992339991405011e-06   1.219553524472517e-07
-9.377592213800894e-06   1.363157793130823e-06   -5.007423439845268e-06
-9.377592213800894e-06   1.363157793130823e-06   -5.007423439845268e-06
-9.377592213800894e-06   1.363157793130823e-06   -5.007423439845268e-06
-9.377592213800894e-06   1.363157793130823e-06   -5.007423439845268e-06
-9.07023280340242e-06   1.341423845086225e-06   7.531366841059123e-07
-9.07023280340242e-06   1.341423845086225e-06   7.531366841059123e-07
-9.07023280340242e-06   1.341423845086225e-06   7.531366841059123e-07
-9.07023280340242e-06   1.341423845086225e-06   7.531366841059123e-07
-6.1016012598361754e-06   1.4227442580129132e-06   -4.243374802927187e-06
-6.1016012598361754e-06   1.4227442580129132e-06   -4.243374802927187e-06
-6.1016012598361754e-06   1.4227442580129132e-06   -4.243374802927187e-06
-6.1016012598361754e-06   1.4227442580129132e-06   -4.243374802927187e-06
-7.502017644928289e-06   1.3697163010862419e-06   -1.8775307202842302e-06
-7.502017644928289e-06   1.3697163010862419e-06   -1.8775307202842302e-06
-7.502017644928289e-06   1.3697163010862419e-06   -1.8775307202842302e-06
-7.502017644928289e-06   1.3697163010862419e-06   -1.8775307202842302e-06
-6.1016012598361864e-06   1.3414238450862792e-06   7.043444363499102e-07
-6.1016012598361864e-06   1.3414238450862792e-06   7.043444363499102e-07
-6.1016012598361864e-06   1.3414238450862792e-06   7.043444363499102e-07
-6.1016012598361864e-06   1.3414238450862792e-06   7.043444363499102e-07
-9.070232803402403e-06   1.4227442580129132e-06   -4.194582555171184e-06
-9.070232803402403e-06   1.4227442580129132e-06   -4.194582555171184e-06
-9.070232803402403e-06   1.4227442580129132e-06   -4.194582555171184e-06
-9.070232803402403e-06   1.4227442580129132e-06   -4.194582555171184e-06
-8.745144751109447e-06   1.372147616411092e-06   1.5595778062343804e-06
-8.745144751109447e-06   1.372147616411092e-06   1.5595778062343804e-06
-8.745144751109447e-06   1.372147616411092e-06   1.5595778062343804e-06
-8.745144751109447e-06   1.372147616411092e-06   1.5595778062343804e-06
-5.972709148312047e-06   1.5142751958969265e-06   -3.1464247461195323e-06
-5.972709148312047e-06   1.5142751958969265e-06   -3.1464247461195323e-06
-5.972709148312047e-06   1.5142751958969265e-06   -3.1464247461195323e-06
-5.972709148312047e-06   1.5142751958969265e-06   -3.1464247461195323e-06
-7.180665830365965e-06   1.395293608133204e-06   -1.0617746567048264e-06
-7.180665830365965e-06   1.395293608133204e-06   -1.0617746567048264e-06
-7.180665830365965e-06   1.395293608133204e-06   -1.0617746567048264e-06
-7.180665830365965e-06   1.395293608133204e-06   -1.0617746567048264e-06
8.19311890727568e-06   -1.21190434229884e-06   2.928268936349044e-06
8.19311890727568e-06   -1.21190434229884e-06   2.928268936349044e-06
8.19311890727568e-06   -1.21190434229884e-06   2.928268936349044e-06
8.19311890727568e-06   -1.21190434229884e-06   2.928268936349044e-06
4.077868940374768e-06   -1.5127167944780024e-06   -4.11096847979331e-06
4.077868940374768e-06   -1.5127167944780024e-06   -4.11096847979331e-06
4.077868940374768e-06   -1.5127167944780024e-06   -4.11096847979331e-06
4.077868940374768e-06   -1.5127167944780024e-06   -4.11096847979331e-06
4.164041627523253e-06   -1.1866079190986584e-06   2.1331545679541134e-06
4.164041627523253e-06   -1.1866079190986584e-06   2.1331545679541134e-06
4.164041627523253e-06   -1.1866079190986584e-06   2.1331545679541134e-06
4.164041627523253e-06   -1.1866079190986584e-06   2.1331545679541134e-06
8.379826754190854e-06   -1.5506965923079352e-06   -4.674700772566389e-06
8.379826754190854e-06   -1.5506965923079352e-06   -4.674700772566389e-06
8.379826754190854e-06   -1.5506965923079352e-06   -4.674700772566389e-06
8.379826754190854e-06   -1.5506965923079352e-06   -4.674700772566389e-06
5.953720533048667e-06   -1.2372410644979144e-06   -8.192637206820856e-07
5.953720533048667e-06   -1.2372410644979144e-06   -8.192637206820856e-07
5.953720533048667e-06   -1.2372410644979144e-06   -8.192637206820856e-07
5.953720533048667e-06   -1.2372410644979144e-06   -8.192637206820856e-07
8.379826754190854e-06   -1.1866079190986584e-06   2.351607771879636e-06
8.379826754190854e-06   -1.1866079190986584e-06   2.351607771879636e-06
8.379826754190854e-06   -1.1866079190986584e-06   2.351607771879636e-06
8.379826754190854e-06   -1.1866079190986584e-06   2.351607771879636e-06
4.164041627523253e-06   -1.5506965923079352e-06   -4.893153976491912e-06
4.164041627523253e-06   -1.5506965923079352e-06   -4.893153976491912e-06
4.164041627523253e-06   -1.5506965923079352e-06   -4.893153976491912e-06
4.164041627523253e-06   -1.5506965923079352e-06   -4.893153976491912e-06
4.236562745070945e-06   -1.1444002341657027e-06   1.7004146537691258e-06
4.236562745070945e-06   -1.1444002341657027e-06   1.7004146537691258e-06
4.236562745070945e-06   -1.1444002341657027e-06   1.7004146537691258e-06
4.236562745070945e-06   -1.1444002341657027e-06   1.7004146537691258e-06
8.494814710923786e-06   -1.5340213242104393e-06   -5.162899301958784e-06
8.494814710923786e-06   -1.5340213242104393e-06   -5.162899301958784e-06
8.494814710923786e-06   -1.5340213242104393e-06   -5.162899301958784e-06
8.494814710923786e-06   -1.5340213242104393e-06   -5.162899301958784e-06
6.151568302450545e-06   -1.273091544001044e-06   -1.4140464892956593e-06
6.151568302450545e-06   -1.273091544001044e-06   -1.4140464892956593e-06
6.151568302450545e-06   -1.273091544001044e-06   -1.4140464892956593e-06
6.151568302450545e-06   -1.273091544001044e-06   -1.4140464892956593e-06
8.494814710923786e-06   -1.1444002341657027e-06   1.9341873077959406e-06
8.494814710923786e-06   -1.1444002341657027e-06   1.9341873077959406e-06
8.494814710923786e-06   -1.1444002341657027e-06   1.9341873077959406e-06
8.494814710923786e-06   -1.1444002341657027e-06   1.9341873077959406e-06
4.236562745070945e-06   -1.5340213242104393e-06   -5.396671955985605e-06
4.236562745070945e-06   -1.5340213242104393e-06   -5.396671955985605e-06
4.236562745070945e-06   -1.5340213242104393e-06   -5.396671955985605e-06
4.236562745070945e-06   -1.5340213242104393e-06   -5.396671955985605e-06
4.310351863881494e-06   -9.834421164536637e-07   8.761482791881593e-07
4.310351863881494e-06   -9.834421164536637e-07   8.761482791881593e-07
4.310351863881494e-06   -9.834421164536637e-07   8.761482791881593e-07
4.310351863881494e-06   -9.834421164536637e-07   8.761482791881593e-07
8.608199659741119e-06   -1.4410482882852918e-06   -6.012367677478872e-06
8.608199659741119e-06   -1.4410482882852918e-06   -6.012367677478872e-06
8.608199659741119e-06   -1.4410482882852918e-06   -6.012367677478872e-06
8.608199659741119e-06   -1.4410482882852918e-06   -6.012367677478872e-06
6.141719070642439e-06   -1.2209975414822702e-06   -2.0335971437295772e-06
6.141719070642439e-06   -1.2209975414822702e-06   -2.0335971437295772e-06
6.141719070642439e-06   -1.2209975414822702e-06   -2.0335971437295772e-06
6.141719070642439e-06   -1.2209975414822702e-06   -2.0335971437295772e-06
4.077868940374768e-06   -7.445221613420561e-07   4.577607264050047e-07
4.077868940374768e-06   -7.445221613420561e-07   4.577607264050047e-07
4.077868940374768e-06   -7.445221613420561e-07   4.577607264050047e-07
4.077868940374768e-06   -7.445221613420561e-07   4.577607264050047e-07
3.753783291181648e-07   -1.4195104753583353e-06   -6.1180499474324185e-06
3.753783291181648e-07   -1.4195104753583353e-06   -6.1180499474324185e-06
3.753783291181648e-07   -1.4195104753583353e-06   -6.1180499474324185e-06
3.753783291181648e-07   -1.4195104753583353e-06   -6.1180499474324185e-06
4.7452656058038535e-07   -7.03190410586993e-07   1.8081556598964921e-07
4.7452656058038535e-07   -7.03190410586993e-07   1.8081556598964921e-07
4.7452656058038535e-07   -7.03190410586993e-07   1.8081556598964921e-07
4.7452656058038535e-07   -7.03190410586993e-07   1.8081556598964921e-07
4.164041627523263e-06   -1.4070200157498356e-06   -5.546078449150751e-06
4.164041627523263e-06   -1.4070200157498356e-06   -5.546078449150751e-06
4.164041627523263e-06   -1.4070200157498356e-06   -5.546078449150751e-06
4.164041627523263e-06   -1.4070200157498356e-06   -5.546078449150751e-06
2.2793318660577174e-06   -9.633497962555299e-07   -2.671097645071474e-06
2.2793318660577174e-06   -9.633497962555299e-07   -2.671097645071474e-06
2.2793318660577174e-06   -9.633497962555299e-07   -2.671097645071474e-06
2.2793318660577174e-06   -9.633497962555299e-07   -2.671097645071474e-06
4.164041627523249e-06   -7.031904105870472e-07   6.031133290873602e-07
4.164041627523249e-06   -7.031904105870472e-07   6.031133290873602e-07
4.164041627523249e-06   -7.031904105870472e-07   6.031133290873602e-07
4.164041627523249e-06   -7.031904105870472e-07   6.031133290873602e-07
4.7452656058038196e-07   -1.4070200157498356e-06   -5.968376212248469e-06
4.7452656058038196e-07   -1.4070200157498356e-06   -5.968376212248469e-06
4.7452656058038196e-07   -1.4070200157498356e-06   -5.968376212248469e-06
4.7452656058038196e-07   -1.4070200157498356e-06   -5.968376212248469e-06
5.638625043754441e-07   -6.30414541892511e-07   1.3264711113119155e-07
5.638625043754441e-07   -6.30414541892511e-07   1.3264711113119155e-07
5.638625043754441e-07   -6.30414541892511e-07   1.3264711113119155e-07
5.638625043754441e-07   -6.30414541892511e-07   1.3264711113119155e-07
4.236562745070945e-06   -1.3811162437820756e-06   -5.538098935560882e-06
4.236562745070945e-06   -1.3811162437820756e-06   -5.538098935560882e-06
4.236562745070945e-06   -1.3811162437820756e-06   -5.538098935560882e-06
4.236562745070945e-06   -1.3811162437820756e-06   -5.538098935560882e-06
2.331134033977768e-06   -9.676964579487593e-07   -2.610436288572114e-06
2.331134033977768e-06   -9.676964579487593e-07   -2.610436288572114e-06
2.331134033977768e-06   -9.676964579487593e-07   -2.610436288572114e-06
2.331134033977768e-06   -9.676964579487593e-07   -2.610436288572114e-06
4.236562745070945e-06   -6.304145418924568e-07   5.830681322649574e-07
4.236562745070945e-06   -6.304145418924568e-07   5.830681322649574e-07
4.236562745070945e-06   -6.304145418924568e-07   5.830681322649574e-07
4.236562745070945e-06   -6.304145418924568e-07   5.830681322649574e-07
5.638625043754441e-07   -1.3811162437820756e-06   -5.988519956694655e-06
5.638625043754441e-07   -1.3811162437820756e-06   -5.988519956694655e-06
5.638625043754441e-07   -1.3811162437820756e-06   -5.988519956694655e-06
5.638625043754441e-07   -1.3811162437820756e-06   -5.988519956694655e-06
6.98280227106584e-07   -5.265465326472515e-07   5.673788337363906e-08
6.98280227106584e-07   -5.265465326472515e-07   5.673788337363906e-08
6.98280227106584e-07   -5.265465326472515e-07   5.673788337363906e-08
6.98280227106584e-07   -5.265465326472515e-07   5.673788337363906e-08
4.310351863881491e-06   -1.333913096105083e-06   -5.478961573176536e-06
4.310351863881491e-06   -1.333913096105083e-06   -5.478961573176536e-06
4.310351863881491e-06   -1.333913096105083e-06   -5.478961573176536e-06
4.310351863881491e-06   -1.333913096105083e-06   -5.478961573176536e-06
2.441264088457873e-06   -9.444296401490428e-07   -2.597505354377447e-06
2.441264088457873e-06   -9.444296401490428e-07   -2.597505354377447e-06
2.441264088457873e-06   -9.444296401490428e-07   -2.597505354377447e-06
2.441264088457873e-06   -9.444296401490428e-07   -2.597505354377447e-06
3.753783291181648e-07   -3.2755113917308943e-07   -3.9567467981655715e-07
3.753783291181648e-07   -3.2755113917308943e-07   -3.9567467981655715e-07
3.753783291181648e-07   -3.2755113917308943e-07   -3.9567467981655715e-07
3.753783291181648e-07   -3.2755113917308943e-07   -3.9567467981655715e-07
-3.2843063660075865e-06   -1.6084870864229014e-06   -7.263710740042695e-06
-3.2843063660075865e-06   -1.6084870864229014e-06   -7.263710740042695e-06
-3.2843063660075865e-06   -1.6084870864229014e-06   -7.263710740042695e-06
-3.2843063660075865e-06   -1.6084870864229014e-06   -7.263710740042695e-06
-3.128683979075317e-06   -2.770698819180937e-07   -1.0151345362289078e-06
-3.128683979075317e-06   -2.770698819180937e-07   -1.0151345362289078e-06
-3.128683979075317e-06   -2.770698819180937e-07   -1.0151345362289078e-06
-3.128683979075317e-06   -2.770698819180937e-07   -1.0151345362289078e-06
4.7452656058038196e-07   -1.6360755638548789e-06   -6.205082026493005e-06
4.7452656058038196e-07   -1.6360755638548789e-06   -6.205082026493005e-06
4.7452656058038196e-07   -1.6360755638548789e-06   -6.205082026493005e-06
4.7452656058038196e-07   -1.6360755638548789e-06   -6.205082026493005e-06
-1.3531499919718437e-06   -8.838127047968228e-07   -3.6103121543408154e-06
-1.3531499919718437e-06   -8.838127047968228e-07   -3.6103121543408154e-06
-1.3531499919718437e-06   -8.838127047968228e-07   -3.6103121543408154e-06
-1.3531499919718437e-06   -8.838127047968228e-07   -3.6103121543408154e-06
4.7452656058038196e-07   -2.770698819180937e-07   -1.9973112706686384e-07
4.7452656058038196e-07   -2.770698819180937e-07   -1.9973112706686384e-07
4.7452656058038196e-07   -2.770698819180937e-07   -1.9973112706686384e-07
4.7452656058038196e-07   -2.770698819180937e-07   -1.9973112706686384e-07
-3.128683979075322e-06   -1.6360755638548789e-06   -7.020485435655076e-06
-3.128683979075322e-06   -1.6360755638548789e-06   -7.020485435655076e-06
-3.128683979075322e-06   -1.6360755638548789e-06   -7.020485435655076e-06
-3.128683979075322e-06   -1.6360755638548789e-06   -7.020485435655076e-06
-2.9932271497185564e-06   -2.0449369803271847e-07   -9.334815765287355e-07
-2.9932271497185564e-06   -2.0449369803271847e-07   -9.334815765287355e-07
-2.9932271497185564e-06   -2.0449369803271847e-07   -9.334815765287355e-07
-2.9932271497185564e-06   -2.0449369803271847e-07   -9.334815765287355e-07
5.638625043754441e-07   -1.6187900372855888e-06   -6.013386529800363e-06
5.638625043754441e-07   -1.6187900372855888e-06   -6.013386529800363e-06
5.638625043754441e-07   -1.6187900372855888e-06   -6.013386529800363e-06
5.638625043754441e-07   -1.6187900372855888e-06   -6.013386529800363e-06
-1.2432695838561876e-06   -8.969091387294814e-07   -3.4346282552146244e-06
-1.2432695838561876e-06   -8.969091387294814e-07   -3.4346282552146244e-06
-1.2432695838561876e-06   -8.969091387294814e-07   -3.4346282552146244e-06
-1.2432695838561876e-06   -8.969091387294814e-07   -3.4346282552146244e-06
5.638625043754441e-07   -2.0449369803271847e-07   -8.490377297702407e-08
5.638625043754441e-07   -2.0449369803271847e-07   -8.490377297702407e-08
5.638625043754441e-07   -2.0449369803271847e-07   -8.490377297702407e-08
5.638625043754441e-07   -2.0449369803271847e-07   -8.490377297702407e-08
-2.9932271497185665e-06   -1.6187900372855888e-06   -6.861964333352118e-06
-2.9932271497185665e-06   -1.6187900372855888e-06   -6.861964333352118e-06
-2.9932271497185665e-06   -1.6187900372855888e-06   -6.861964333352118e-06
-2.9932271497185665e-06   -1.6187900372855888e-06   -6.861964333352118e-06
-2.7586668838013395e-06   -1.348216084444691e-07   -9.316701935784715e-07
-2.7586668838013395e-06   -1.348216084444691e-07   -9.316701935784715e-07
-2.7586668838013395e-06   -1.348216084444691e-07   -9.316701935784715e-07
-2.7586668838013395e-06   -1.348216084444691e-07   -9.316701935784715e-07
6.982802271065806e-07   -1.5507450502229162e-06   -5.843694646691268e-06
6.982802271065806e-07   -1.5507450502229162e-06   -5.843694646691268e-06
6.982802271065806e-07   -1.5507450502229162e-06   -5.843694646691268e-06
6.982802271065806e-07   -1.5507450502229162e-06   -5.843694646691268e-06
-1.0999505256768916e-06   -8.682176260621424e-07   -3.2561598465485924e-06
-1.0999505256768916e-06   -8.682176260621424e-07   -3.2561598465485924e-06
-1.0999505256768916e-06   -8.682176260621424e-07   -3.2561598465485924e-06
-1.0999505256768916e-06   -8.682176260621424e-07   -3.2561598465485924e-06
-3.2843063660075797e-06   2.1911973619684767e-07   -5.978312233979953e-07
-3.2843063660075797e-06   2.1911973619684767e-07   -5.978312233979953e-07
-3.2843063660075797e-06   2.1911973619684767e-07   -5.978312233979953e-07
-3.2843063660075797e-06   2.1911973619684767e-07   -5.978312233979953e-07
-7.325490504993206e-06   -1.904046028214227e-06   -8.60703758035397e-06
-7.325490504993206e-06   -1.904046028214227e-06   -8.60703758035397e-06
-7.325490504993206e-06   -1.904046028214227e-06   -8.60703758035397e-06
-7.325490504993206e-06   -1.904046028214227e-06   -8.60703758035397e-06
-7.131630440276892e-06   3.0402558086377795e-07   -1.8097078929090002e-06
-7.131630440276892e-06   3.0402558086377795e-07   -1.8097078929090002e-06
-7.131630440276892e-06   3.0402558086377795e-07   -1.8097078929090002e-06
-7.131630440276892e-06   3.0402558086377795e-07   -1.8097078929090002e-06
-3.128683979075317e-06   -2.1674921274002137e-06   -6.998374703286539e-06
-3.128683979075317e-06   -2.1674921274002137e-06   -6.998374703286539e-06
-3.128683979075317e-06   -2.1674921274002137e-06   -6.998374703286539e-06
-3.128683979075317e-06   -2.1674921274002137e-06   -6.998374703286539e-06
-5.1478858970825445e-06   -9.15220416227954e-07   -4.384401199977812e-06
-5.1478858970825445e-06   -9.15220416227954e-07   -4.384401199977812e-06
-5.1478858970825445e-06   -9.15220416227954e-07   -4.384401199977812e-06
-5.1478858970825445e-06   -9.15220416227954e-07   -4.384401199977812e-06
-3.128683979075317e-06   3.0402558086383216e-07   -3.26797267950589e-07
-3.128683979075317e-06   3.0402558086383216e-07   -3.26797267950589e-07
-3.128683979075317e-06   3.0402558086383216e-07   -3.26797267950589e-07
-3.128683979075317e-06   3.0402558086383216e-07   -3.26797267950589e-07
-7.131630440276892e-06   -2.1674921274002137e-06   -8.481285328244934e-06
-7.131630440276892e-06   -2.1674921274002137e-06   -8.481285328244934e-06
-7.131630440276892e-06   -2.1674921274002137e-06   -8.481285328244934e-06
-7.131630440276892e-06   -2.1674921274002137e-06   -8.481285328244934e-06
-6.946690370611439e-06   3.8130561997906697e-07   -1.5657732277835892e-06
-6.946690370611439e-06   3.8130561997906697e-07   -1.5657732277835892e-06
-6.946690370611439e-06   3.8130561997906697e-07   -1.5657732277835892e-06
-6.946690370611439e-06   3.8130561997906697e-07   -1.5657732277835892e-06
-2.993227149718563e-06   -2.1698369811352773e-06   -6.624193035269806e-06
-2.993227149718563e-06   -2.1698369811352773e-06   -6.624193035269806e-06
-2.993227149718563e-06   -2.1698369811352773e-06   -6.624193035269806e-06
-2.993227149718563e-06   -2.1698369811352773e-06   -6.624193035269806e-06
-4.958589471789845e-06   -9.095302079214053e-07   -4.104773229079289e-06
-4.958589471789845e-06   -9.095302079214053e-07   -4.104773229079289e-06
-4.958589471789845e-06   -9.095302079214053e-07   -4.104773229079289e-06
-4.958589471789845e-06   -9.095302079214053e-07   -4.104773229079289e-06
-2.9932271497185598e-06   3.8130561997906697e-07   -3.508766711500435e-08
-2.9932271497185598e-06   3.8130561997906697e-07   -3.508766711500435e-08
-2.9932271497185598e-06   3.8130561997906697e-07   -3.508766711500435e-08
-2.9932271497185598e-06   3.8130561997906697e-07   -3.508766711500435e-08
-6.94669037061145e-06   -2.1698369811352773e-06   -8.15487859593837e-06
-6.94669037061145e-06   -2.1698369811352773e-06   -8.15487859593837e-06
-6.94669037061145e-06   -2.1698369811352773e-06   -8.15487859593837e-06
-6.94669037061145e-06   -2.1698369811352773e-06   -8.15487859593837e-06
-6.637370820869334e-06   4.4478842120538155e-07   -1.3243532280629046e-06
-6.637370820869334e-06   4.4478842120538155e-07   -1.3243532280629046e-06
-6.637370820869334e-06   4.4478842120538155e-07   -1.3243532280629046e-06
-6.637370820869334e-06   4.4478842120538155e-07   -1.3243532280629046e-06
-2.758666883801348e-06   -1.9221017851780097e-06   -6.368725666012842e-06
-2.758666883801348e-06   -1.9221017851780097e-06   -6.368725666012842e-06
-2.758666883801348e-06   -1.9221017851780097e-06   -6.368725666012842e-06
-2.758666883801348e-06   -1.9221017851780097e-06   -6.368725666012842e-06
-4.779130167278324e-06   -7.618098857966661e-07   -3.697461999846598e-06
-4.779130167278324e-06   -7.618098857966661e-07   -3.697461999846598e-06
-4.779130167278324e-06   -7.618098857966661e-07   -3.697461999846598e-06
-4.779130167278324e-06   -7.618098857966661e-07   -3.697461999846598e-06
-7.325490504993206e-06   1.1052964520656921e-06   -1.2234924532365668e-06
-7.325490504993206e-06   1.1052964520656921e-06   -1.2234924532365668e-06
-7.325490504993206e-06   1.1052964520656921e-06   -1.2234924532365668e-06
-7.325490504993206e-06   1.1052964520656921e-06   -1.2234924532365668e-06
-1.2387208762958743e-05   0.0   -1.0322867421085264e-05
-1.2387208762958743e-05   0.0   -1.0322867421085264e-05
-1.2387208762958743e-05   0.0   -1.0322867421085264e-05
-1.2387208762958743e-05   0.0   -1.0322867421085264e-05
-1.2110883604841884e-05   1.363157793130823e-06   -8.75962599155124e-07
-1.2110883604841884e-05   1.363157793130823e-06   -8.75962599155124e-07
-1.2110883604841884e-05   1.363157793130823e-06   -8.75962599155124e-07
-1.2110883604841884e-05   1.363157793130823e-06   -8.75962599155124e-07
-7.131630440276879e-06   0.0   -8.356823197551645e-06
-7.131630440276879e-06   0.0   -8.356823197551645e-06
-7.131630440276879e-06   0.0   -8.356823197551645e-06
-7.131630440276879e-06   0.0   -8.356823197551645e-06
-9.32708402661056e-06   4.374380334800352e-07   -4.960196707083558e-06
-9.32708402661056e-06   4.374380334800352e-07   -4.960196707083558e-06
-9.32708402661056e-06   4.374380334800352e-07   -4.960196707083558e-06
-9.32708402661056e-06   4.374380334800352e-07   -4.960196707083558e-06
-7.131630440276886e-06   1.363157793130823e-06   -5.806792327661399e-08
-7.131630440276886e-06   1.363157793130823e-06   -5.806792327661399e-08
-7.131630440276886e-06   1.363157793130823e-06   -5.806792327661399e-08
-7.131630440276886e-06   1.363157793130823e-06   -5.806792327661399e-08
-1.2110883604841863e-05   0.0   -9.174717873430138e-06
-1.2110883604841863e-05   0.0   -9.174717873430138e-06
-1.2110883604841863e-05   0.0   -9.174717873430138e-06
-1.2110883604841863e-05   0.0   -9.174717873430138e-06
-1.1872425845010117e-05   1.4227442580129132e-06   -1.3950851683654252e-07
-1.1872425845010117e-05   1.4227442580129132e-06   -1.3950851683654252e-07
-1.1872425845010117e-05   1.4227442580129132e-06   -1.3950851683654252e-07
-1.1872425845010117e-05   1.4227442580129132e-06   -1.3950851683654252e-07
-6.94669037061145e-06   0.0   -7.495421086026611e-06
-6.94669037061145e-06   0.0   -7.495421086026611e-06
-6.94669037061145e-06   0.0   -7.495421086026611e-06
-6.94669037061145e-06   0.0   -7.495421086026611e-06
-9.264449050753238e-06   6.651419423545795e-07   -4.031575117869577e-06
-9.264449050753238e-06   6.651419423545795e-07   -4.031575117869577e-06
-9.264449050753238e-06   6.651419423545795e-07   -4.031575117869577e-06
-9.264449050753238e-06   6.651419423545795e-07   -4.031575117869577e-06
-6.94669037061145e-06   1.4227442580129132e-06   7.141380379711837e-07
-6.94669037061145e-06   1.4227442580129132e-06   7.141380379711837e-07
-6.94669037061145e-06   1.4227442580129132e-06   7.141380379711837e-07
-6.94669037061145e-06   1.4227442580129132e-06   7.141380379711837e-07
-1.1872425845010097e-05   0.0   -8.349067640834337e-06
-1.1872425845010097e-05   0.0   -8.349067640834337e-06
-1.1872425845010097e-05   0.0   -8.349067640834337e-06
-1.1872425845010097e-05   0.0   -8.349067640834337e-06
-1.1391855755313352e-05   1.5142751958969808e-06   1.0624473450725224e-06
-1.1391855755313352e-05   1.5142751958969808e-06   1.0624473450725224e-06
-1.1391855755313352e-05   1.5142751958969808e-06   1.0624473450725224e-06
-1.1391855755313352e-05   1.5142751958969808e-06   1.0624473450725224e-06
-6.637370820869346e-06   0.0   -5.953129094796026e-06
-6.637370820869346e-06   0.0   -5.953129094796026e-06
-6.637370820869346e-06   0.0   -5.953129094796026e-06
-6.637370820869346e-06   0.0   -5.953129094796026e-06
-8.828467917471128e-06   8.120865231747384e-07   -2.7885525143645293e-06
-8.828467917471128e-06   8.120865231747384e-07   -2.7885525143645293e-06
-8.828467917471128e-06   8.120865231747384e-07   -2.7885525143645293e-06
-8.828467917471128e-06   8.120865231747384e-07   -2.7885525143645293e-06
9.060968009607396e-06   -1.5127167944780024e-06   5.32942732318182e-06
9.060968009607396e-06   -1.5127167944780024e-06   5.32942732318182e-06
9.060968009607396e-06   -1.5127167944780024e-06   5.32942732318182e-06
9.060968009607396e-06   -1.5127167944780024e-06   5.32942732318182e-06
4.649787394960542e-06   -1.205313602013877e-06   -1.8380984524178135e-06
4.649787394960542e-06   -1.205313602013877e-06   -1.8380984524178135e-06
4.649787394960542e-06   -1.205313602013877e-06   -1.8380984524178135e-06
4.649787394960542e-06   -1.205313602013877e-06   -1.8380984524178135e-06
4.543286135188457e-06   -1.5506965923079352e-06   4.660623087816314e-06
4.543286135188457e-06   -1.5506965923079352e-06   4.660623087816314e-06
4.543286135188457e-06   -1.5506965923079352e-06   4.660623087816314e-06
4.543286135188457e-06   -1.5506965923079352e-06   4.660623087816314e-06
8.978572636545339e-06   -1.3177853823206757e-06   -2.8712678071041534e-06
8.978572636545339e-06   -1.3177853823206757e-06   -2.8712678071041534e-06
8.978572636545339e-06   -1.3177853823206757e-06   -2.8712678071041534e-06
8.978572636545339e-06   -1.3177853823206757e-06   -2.8712678071041534e-06
6.526999758163783e-06   -1.324801016658252e-06   1.2188963708009769e-06
6.526999758163783e-06   -1.324801016658252e-06   1.2188963708009769e-06
6.526999758163783e-06   -1.324801016658252e-06   1.2188963708009769e-06
6.526999758163783e-06   -1.324801016658252e-06   1.2188963708009769e-06
8.978572636545339e-06   -1.5506965923079352e-06   4.520876361824002e-06
8.978572636545339e-06   -1.5506965923079352e-06   4.520876361824002e-06
8.978572636545339e-06   -1.5506965923079352e-06   4.520876361824002e-06
8.978572636545339e-06   -1.5506965923079352e-06   4.520876361824002e-06
4.543286135188457e-06   -1.3177853823206757e-06   -2.7315210811118106e-06
4.543286135188457e-06   -1.3177853823206757e-06   -2.7315210811118106e-06
4.543286135188457e-06   -1.3177853823206757e-06   -2.7315210811118106e-06
4.543286135188457e-06   -1.3177853823206757e-06   -2.7315210811118106e-06
4.445960767300359e-06   -1.5340213242104393e-06   4.161072996890518e-06
4.445960767300359e-06   -1.5340213242104393e-06   4.161072996890518e-06
4.445960767300359e-06   -1.5340213242104393e-06   4.161072996890518e-06
4.445960767300359e-06   -1.5340213242104393e-06   4.161072996890518e-06
8.879506581200867e-06   -1.325132808774874e-06   -3.3535031355383083e-06
8.879506581200867e-06   -1.325132808774874e-06   -3.3535031355383083e-06
8.879506581200867e-06   -1.325132808774874e-06   -3.3535031355383083e-06
8.879506581200867e-06   -1.325132808774874e-06   -3.3535031355383083e-06
6.534406835149875e-06   -1.3481399102232465e-06   5.688007020823542e-07
6.534406835149875e-06   -1.3481399102232465e-06   5.688007020823542e-07
6.534406835149875e-06   -1.3481399102232465e-06   5.688007020823542e-07
6.534406835149875e-06   -1.3481399102232465e-06   5.688007020823542e-07
8.879506581200884e-06   -1.5340213242104393e-06   4.0357398876292164e-06
8.879506581200884e-06   -1.5340213242104393e-06   4.0357398876292164e-06
8.879506581200884e-06   -1.5340213242104393e-06   4.0357398876292164e-06
8.879506581200884e-06   -1.5340213242104393e-06   4.0357398876292164e-06
4.445960767300359e-06   -1.325132808774874e-06   -3.228170026276997e-06
4.445960767300359e-06   -1.325132808774874e-06   -3.228170026276997e-06
4.445960767300359e-06   -1.325132808774874e-06   -3.228170026276997e-06
4.445960767300359e-06   -1.325132808774874e-06   -3.228170026276997e-06
4.326690905273821e-06   -1.4410482882852918e-06   3.3482279243020135e-06
4.326690905273821e-06   -1.4410482882852918e-06   3.3482279243020135e-06
4.326690905273821e-06   -1.4410482882852918e-06   3.3482279243020135e-06
4.326690905273821e-06   -1.4410482882852918e-06   3.3482279243020135e-06
8.723940912378196e-06   -1.287273783011063e-06   -4.07278679070316e-06
8.723940912378196e-06   -1.287273783011063e-06   -4.07278679070316e-06
8.723940912378196e-06   -1.287273783011063e-06   -4.07278679070316e-06
8.723940912378196e-06   -1.287273783011063e-06   -4.07278679070316e-06
6.3224366114737554e-06   -1.2808444096772597e-06   -7.413724652939439e-08
6.3224366114737554e-06   -1.2808444096772597e-06   -7.413724652939439e-08
6.3224366114737554e-06   -1.2808444096772597e-06   -7.413724652939439e-08
6.3224366114737554e-06   -1.2808444096772597e-06   -7.413724652939439e-08
4.649787394960542e-06   -1.4195104753583353e-06   3.9117807594309e-06
4.649787394960542e-06   -1.4195104753583353e-06   3.9117807594309e-06
4.649787394960542e-06   -1.4195104753583353e-06   3.9117807594309e-06
4.649787394960542e-06   -1.4195104753583353e-06   3.9117807594309e-06
8.452105816071135e-07   -6.998128690765756e-07   -1.9973620323890677e-06
8.452105816071135e-07   -6.998128690765756e-07   -1.9973620323890677e-06
8.452105816071135e-07   -6.998128690765756e-07   -1.9973620323890677e-06
8.452105816071135e-07   -6.998128690765756e-07   -1.9973620323890677e-06
6.768910777085057e-07   -1.4070200157498356e-06   4.4084625983601875e-06
6.768910777085057e-07   -1.4070200157498356e-06   4.4084625983601875e-06
6.768910777085057e-07   -1.4070200157498356e-06   4.4084625983601875e-06
6.768910777085057e-07   -1.4070200157498356e-06   4.4084625983601875e-06
4.543286135188457e-06   -7.390800437453754e-07   -2.4362931473090956e-06
4.543286135188457e-06   -7.390800437453754e-07   -2.4362931473090956e-06
4.543286135188457e-06   -7.390800437453754e-07   -2.4362931473090956e-06
4.543286135188457e-06   -7.390800437453754e-07   -2.4362931473090956e-06
2.6729611240715324e-06   -1.02609117904912e-06   8.531218857347545e-07
2.6729611240715324e-06   -1.02609117904912e-06   8.531218857347545e-07
2.6729611240715324e-06   -1.02609117904912e-06   8.531218857347545e-07
2.6729611240715324e-06   -1.02609117904912e-06   8.531218857347545e-07
4.54328613518846e-06   -1.4070200157498356e-06   4.007698615157495e-06
4.54328613518846e-06   -1.4070200157498356e-06   4.007698615157495e-06
4.54328613518846e-06   -1.4070200157498356e-06   4.007698615157495e-06
4.54328613518846e-06   -1.4070200157498356e-06   4.007698615157495e-06
6.768910777085057e-07   -7.390800437453754e-07   -2.0355291641063896e-06
6.768910777085057e-07   -7.390800437453754e-07   -2.0355291641063896e-06
6.768910777085057e-07   -7.390800437453754e-07   -2.0355291641063896e-06
6.768910777085057e-07   -7.390800437453754e-07   -2.0355291641063896e-06
5.552608698150488e-07   -1.3811162437820756e-06   4.396793037752915e-06
5.552608698150488e-07   -1.3811162437820756e-06   4.396793037752915e-06
5.552608698150488e-07   -1.3811162437820756e-06   4.396793037752915e-06
5.552608698150488e-07   -1.3811162437820756e-06   4.396793037752915e-06
4.445960767300359e-06   -7.525378763859774e-07   -2.464853811826943e-06
4.445960767300359e-06   -7.525378763859774e-07   -2.464853811826943e-06
4.445960767300359e-06   -7.525378763859774e-07   -2.464853811826943e-06
4.445960767300359e-06   -7.525378763859774e-07   -2.464853811826943e-06
2.524862883653854e-06   -1.0020155030255684e-06   8.866625702344408e-07
2.524862883653854e-06   -1.0020155030255684e-06   8.866625702344408e-07
2.524862883653854e-06   -1.0020155030255684e-06   8.866625702344408e-07
2.524862883653854e-06   -1.0020155030255684e-06   8.866625702344408e-07
4.4459607673003655e-06   -1.3811162437820756e-06   4.019646017315234e-06
4.4459607673003655e-06   -1.3811162437820756e-06   4.019646017315234e-06
4.4459607673003655e-06   -1.3811162437820756e-06   4.019646017315234e-06
4.4459607673003655e-06   -1.3811162437820756e-06   4.019646017315234e-06
5.552608698150488e-07   -7.525378763859774e-07   -2.0877067913892863e-06
5.552608698150488e-07   -7.525378763859774e-07   -2.0877067913892863e-06
5.552608698150488e-07   -7.525378763859774e-07   -2.0877067913892863e-06
5.552608698150488e-07   -7.525378763859774e-07   -2.0877067913892863e-06
4.2061812397774923e-07   -1.333913096105083e-06   4.519479902529528e-06
4.2061812397774923e-07   -1.333913096105083e-06   4.519479902529528e-06
4.2061812397774923e-07   -1.333913096105083e-06   4.519479902529528e-06
4.2061812397774923e-07   -1.333913096105083e-06   4.519479902529528e-06
4.326690905273816e-06   -7.284428113947809e-07   -2.3539235704567686e-06
4.326690905273816e-06   -7.284428113947809e-07   -2.3539235704567686e-06
4.326690905273816e-06   -7.284428113947809e-07   -2.3539235704567686e-06
4.326690905273816e-06   -7.284428113947809e-07   -2.3539235704567686e-06
2.437446349968463e-06   -9.525333887355509e-07   9.292717014566392e-07
2.437446349968463e-06   -9.525333887355509e-07   9.292717014566392e-07
2.437446349968463e-06   -9.525333887355509e-07   9.292717014566392e-07
2.437446349968463e-06   -9.525333887355509e-07   9.292717014566392e-07
8.452105816071203e-07   -1.6084870864229014e-06   3.9665000989396045e-06
8.452105816071203e-07   -1.6084870864229014e-06   3.9665000989396045e-06
8.452105816071203e-07   -1.6084870864229014e-06   3.9665000989396045e-06
8.452105816071203e-07   -1.6084870864229014e-06   3.9665000989396045e-06
-2.8199645966175633e-06   -2.2410075583656573e-07   -1.3114933997497287e-06
-2.8199645966175633e-06   -2.2410075583656573e-07   -1.3114933997497287e-06
-2.8199645966175633e-06   -2.2410075583656573e-07   -1.3114933997497287e-06
-2.8199645966175633e-06   -2.2410075583656573e-07   -1.3114933997497287e-06
-3.0806037310296494e-06   -1.6360755638548789e-06   5.012756881955967e-06
-3.0806037310296494e-06   -1.6360755638548789e-06   5.012756881955967e-06
-3.0806037310296494e-06   -1.6360755638548789e-06   5.012756881955967e-06
-3.0806037310296494e-06   -1.6360755638548789e-06   5.012756881955967e-06
6.768910777085091e-07   -2.3440873412103715e-07   -2.090734563781274e-06
6.768910777085091e-07   -2.3440873412103715e-07   -2.090734563781274e-06
6.768910777085091e-07   -2.3440873412103715e-07   -2.090734563781274e-06
6.768910777085091e-07   -2.3440873412103715e-07   -2.090734563781274e-06
-1.0659566639695102e-06   -8.941226469079107e-07   1.2098400200208901e-06
-1.0659566639695102e-06   -8.941226469079107e-07   1.2098400200208901e-06
-1.0659566639695102e-06   -8.941226469079107e-07   1.2098400200208901e-06
-1.0659566639695102e-06   -8.941226469079107e-07   1.2098400200208901e-06
6.768910777085057e-07   -1.6360755638548789e-06   4.171756784115651e-06
6.768910777085057e-07   -1.6360755638548789e-06   4.171756784115651e-06
6.768910777085057e-07   -1.6360755638548789e-06   4.171756784115651e-06
6.768910777085057e-07   -1.6360755638548789e-06   4.171756784115651e-06
-3.0806037310296443e-06   -2.3440873412103715e-07   -1.2497344659409613e-06
-3.0806037310296443e-06   -2.3440873412103715e-07   -1.2497344659409613e-06
-3.0806037310296443e-06   -2.3440873412103715e-07   -1.2497344659409613e-06
-3.0806037310296443e-06   -2.3440873412103715e-07   -1.2497344659409613e-06
-3.2425619367813363e-06   -1.6187900372855888e-06   5.194331716115301e-06
-3.2425619367813363e-06   -1.6187900372855888e-06   5.194331716115301e-06
-3.2425619367813363e-06   -1.6187900372855888e-06   5.194331716115301e-06
-3.2425619367813363e-06   -1.6187900372855888e-06   5.194331716115301e-06
5.552608698150488e-07   -2.4811461817210575e-07   -1.957778213013438e-06
5.552608698150488e-07   -2.4811461817210575e-07   -1.957778213013438e-06
5.552608698150488e-07   -2.4811461817210575e-07   -1.957778213013438e-06
5.552608698150488e-07   -2.4811461817210575e-07   -1.957778213013438e-06
-1.2436942760426655e-06   -8.840124502753352e-07   1.4220190626780592e-06
-1.2436942760426655e-06   -8.840124502753352e-07   1.4220190626780592e-06
-1.2436942760426655e-06   -8.840124502753352e-07   1.4220190626780592e-06
-1.2436942760426655e-06   -8.840124502753352e-07   1.4220190626780592e-06
5.552608698150522e-07   -1.6187900372855888e-06   4.37192646464719e-06
5.552608698150522e-07   -1.6187900372855888e-06   4.37192646464719e-06
5.552608698150522e-07   -1.6187900372855888e-06   4.37192646464719e-06
5.552608698150522e-07   -1.6187900372855888e-06   4.37192646464719e-06
-3.2425619367813295e-06   -2.4811461817210575e-07   -1.1353729615453366e-06
-3.2425619367813295e-06   -2.4811461817210575e-07   -1.1353729615453366e-06
-3.2425619367813295e-06   -2.4811461817210575e-07   -1.1353729615453366e-06
-3.2425619367813295e-06   -2.4811461817210575e-07   -1.1353729615453366e-06
-3.429892966057052e-06   -1.5507450502229162e-06   5.425067718275387e-06
-3.429892966057052e-06   -1.5507450502229162e-06   5.425067718275387e-06
-3.429892966057052e-06   -1.5507450502229162e-06   5.425067718275387e-06
-3.429892966057052e-06   -1.5507450502229162e-06   5.425067718275387e-06
4.206181239777526e-07   -2.409101315797315e-07   -1.778351716301861e-06
4.206181239777526e-07   -2.409101315797315e-07   -1.778351716301861e-06
4.206181239777526e-07   -2.409101315797315e-07   -1.778351716301861e-06
4.206181239777526e-07   -2.409101315797315e-07   -1.778351716301861e-06
-1.3897931124918994e-06   -8.391579869226808e-07   1.5979490576866786e-06
-1.3897931124918994e-06   -8.391579869226808e-07   1.5979490576866786e-06
-1.3897931124918994e-06   -8.391579869226808e-07   1.5979490576866786e-06
-1.3897931124918994e-06   -8.391579869226808e-07   1.5979490576866786e-06
-2.8199645966175666e-06   -1.904046028214227e-06   4.72770451562677e-06
-2.8199645966175666e-06   -1.904046028214227e-06   4.72770451562677e-06
-2.8199645966175666e-06   -1.904046028214227e-06   4.72770451562677e-06
-2.8199645966175666e-06   -1.904046028214227e-06   4.72770451562677e-06
-6.914857369101181e-06   4.41508937857086e-07   -6.897837922031306e-07
-6.914857369101181e-06   4.41508937857086e-07   -6.897837922031306e-07
-6.914857369101181e-06   4.41508937857086e-07   -6.897837922031306e-07
-6.914857369101181e-06   4.41508937857086e-07   -6.897837922031306e-07
-7.237945325822977e-06   -2.1674921274002137e-06   6.595382547701199e-06
-7.237945325822977e-06   -2.1674921274002137e-06   6.595382547701199e-06
-7.237945325822977e-06   -2.1674921274002137e-06   6.595382547701199e-06
-7.237945325822977e-06   -2.1674921274002137e-06   6.595382547701199e-06
-3.0806037310296443e-06   4.333660948943499e-07   -1.894035043664384e-06
-3.0806037310296443e-06   4.333660948943499e-07   -1.894035043664384e-06
-3.0806037310296443e-06   4.333660948943499e-07   -1.894035043664384e-06
-3.0806037310296443e-06   4.333660948943499e-07   -1.894035043664384e-06
-4.949753616268561e-06   -6.99374453722154e-07   1.900859094236998e-06
-4.949753616268561e-06   -6.99374453722154e-07   1.900859094236998e-06
-4.949753616268561e-06   -6.99374453722154e-07   1.900859094236998e-06
-4.949753616268561e-06   -6.99374453722154e-07   1.900859094236998e-06
-3.0806037310296494e-06   -2.1674921274002137e-06   5.0348676143244665e-06
-3.0806037310296494e-06   -2.1674921274002137e-06   5.0348676143244665e-06
-3.0806037310296494e-06   -2.1674921274002137e-06   5.0348676143244665e-06
-3.0806037310296494e-06   -2.1674921274002137e-06   5.0348676143244665e-06
-7.237945325822977e-06   4.333660948942957e-07   -3.3352011028766823e-07
-7.237945325822977e-06   4.333660948942957e-07   -3.3352011028766823e-07
-7.237945325822977e-06   4.333660948942957e-07   -3.3352011028766823e-07
-7.237945325822977e-06   4.333660948942957e-07   -3.3352011028766823e-07
-7.4329042052349995e-06   -2.1698369811352773e-06   6.977434224004868e-06
-7.4329042052349995e-06   -2.1698369811352773e-06   6.977434224004868e-06
-7.4329042052349995e-06   -2.1698369811352773e-06   6.977434224004868e-06
-7.4329042052349995e-06   -2.1698369811352773e-06   6.977434224004868e-06
-3.2425619367813295e-06   4.0571503521016645e-07   -1.5518007665585061e-06
-3.2425619367813295e-06   4.0571503521016645e-07   -1.5518007665585061e-06
-3.2425619367813295e-06   4.0571503521016645e-07   -1.5518007665585061e-06
-3.2425619367813295e-06   4.0571503521016645e-07   -1.5518007665585061e-06
-5.152914644924439e-06   -8.38301610667073e-07   2.378530401206364e-06
-5.152914644924439e-06   -8.38301610667073e-07   2.378530401206364e-06
-5.152914644924439e-06   -8.38301610667073e-07   2.378530401206364e-06
-5.152914644924439e-06   -8.38301610667073e-07   2.378530401206364e-06
-3.242561936781328e-06   -2.1698369811352773e-06   5.43210301419758e-06
-3.242561936781328e-06   -2.1698369811352773e-06   5.43210301419758e-06
-3.242561936781328e-06   -2.1698369811352773e-06   5.43210301419758e-06
-3.242561936781328e-06   -2.1698369811352773e-06   5.43210301419758e-06
-7.432904205234984e-06   4.0571503521016645e-07   -6.469556751214842e-09
-7.432904205234984e-06   4.0571503521016645e-07   -6.469556751214842e-09
-7.432904205234984e-06   4.0571503521016645e-07   -6.469556751214842e-09
-7.432904205234984e-06   4.0571503521016645e-07   -6.469556751214842e-09
-7.645233413255482e-06   -1.9221017851780097e-06   7.126511508339007e-06
-7.645233413255482e-06   -1.9221017851780097e-06   7.126511508339007e-06
-7.645233413255482e-06   -1.9221017851780097e-06   7.126511508339007e-06
-7.645233413255482e-06   -1.9221017851780097e-06   7.126511508339007e-06
-3.42989296605704e-06   3.727661220188547e-07   -1.2759766479764679e-06
-3.42989296605704e-06   3.727661220188547e-07   -1.2759766479764679e-06
-3.42989296605704e-06   3.727661220188547e-07   -1.2759766479764679e-06
-3.42989296605704e-06   3.727661220188547e-07   -1.2759766479764679e-06
-5.3703492150903305e-06   -8.382635822834624e-07   2.6847349229937756e-06
-5.3703492150903305e-06   -8.382635822834624e-07   2.6847349229937756e-06
-5.3703492150903305e-06   -8.382635822834624e-07   2.6847349229937756e-06
-5.3703492150903305e-06   -8.382635822834624e-07   2.6847349229937756e-06
-6.914857369101157e-06   0.0   5.082385525777673e-06
-6.914857369101157e-06   0.0   5.082385525777673e-06
-6.914857369101157e-06   0.0   5.082385525777673e-06
-6.914857369101157e-06   0.0   5.082385525777673e-06
-1.194434719763979e-05   1.5930653551295484e-06   -2.3442583087089934e-06
-1.194434719763979e-05   1.5930653551295484e-06   -2.3442583087089934e-06
-1.194434719763979e-05   1.5930653551295484e-06   -2.3442583087089934e-06
-1.194434719763979e-05   1.5930653551295484e-06   -2.3442583087089934e-06
-1.2371269832292073e-05   0.0   7.655748785597539e-06
-1.2371269832292073e-05   0.0   7.655748785597539e-06
-1.2371269832292073e-05   0.0   7.655748785597539e-06
-1.2371269832292073e-05   0.0   7.655748785597539e-06
-7.237945325822963e-06   1.5598401786717417e-06   -1.8356961657207653e-06
-7.237945325822963e-06   1.5598401786717417e-06   -1.8356961657207653e-06
-7.237945325822963e-06   1.5598401786717417e-06   -1.8356961657207653e-06
-7.237945325822963e-06   1.5598401786717417e-06   -1.8356961657207653e-06
-9.21072802568937e-06   9.435372303852807e-07   1.8220567696951566e-06
-9.21072802568937e-06   9.435372303852807e-07   1.8220567696951566e-06
-9.21072802568937e-06   9.435372303852807e-07   1.8220567696951566e-06
-9.21072802568937e-06   9.435372303852807e-07   1.8220567696951566e-06
-7.237945325822957e-06   0.0   6.719844678394478e-06
-7.237945325822957e-06   0.0   6.719844678394478e-06
-7.237945325822957e-06   0.0   6.719844678394478e-06
-7.237945325822957e-06   0.0   6.719844678394478e-06
-1.2371269832292095e-05   1.5598401786717417e-06   -8.997920585176837e-07
-1.2371269832292095e-05   1.5598401786717417e-06   -8.997920585176837e-07
-1.2371269832292095e-05   1.5598401786717417e-06   -8.997920585176837e-07
-1.2371269832292095e-05   1.5598401786717417e-06   -8.997920585176837e-07
-1.258398935346097e-05   0.0   8.553758010100364e-06
-1.258398935346097e-05   0.0   8.553758010100364e-06
-1.258398935346097e-05   0.0   8.553758010100364e-06
-1.258398935346097e-05   0.0   8.553758010100364e-06
-7.432904205234984e-06   1.5281104603062558e-06   -9.482501797933841e-07
-7.432904205234984e-06   1.5281104603062558e-06   -9.482501797933841e-07
-7.432904205234984e-06   1.5281104603062558e-06   -9.482501797933841e-07
-7.432904205234984e-06   1.5281104603062558e-06   -9.482501797933841e-07
-9.64662940266855e-06   7.939890626065186e-07   3.181764654549147e-06
-9.64662940266855e-06   7.939890626065186e-07   3.181764654549147e-06
-9.64662940266855e-06   7.939890626065186e-07   3.181764654549147e-06
-9.64662940266855e-06   7.939890626065186e-07   3.181764654549147e-06
-7.432904205234984e-06   0.0   7.636891733916627e-06
-7.432904205234984e-06   0.0   7.636891733916627e-06
-7.432904205234984e-06   0.0   7.636891733916627e-06
-7.432904205234984e-06   0.0   7.636891733916627e-06
-1.2583989353461011e-05   1.5281104603062558e-06   -3.138390360964008e-08
-1.2583989353461011e-05   1.5281104603062558e-06   -3.138390360964008e-08
-1.2583989353461011e-05   1.5281104603062558e-06   -3.138390360964008e-08
-1.2583989353461011e-05   1.5281104603062558e-06   -3.138390360964008e-08
-1.2812086978113651e-05   0.0   9.746642872811122e-06
-1.2812086978113651e-05   0.0   9.746642872811122e-06
-1.2812086978113651e-05   0.0   9.746642872811122e-06
-1.2812086978113651e-05   0.0   9.746642872811122e-06
-7.645233413255482e-06   1.3073344490421163e-06   3.5081959528887564e-07
-7.645233413255482e-06   1.3073344490421163e-06   3.5081959528887564e-07
-7.645233413255482e-06   1.3073344490421163e-06   3.5081959528887564e-07
-7.645233413255482e-06   1.3073344490421163e-06   3.5081959528887564e-07
-9.696065176205727e-06   5.735970172215444e-07   4.209114992631655e-06
-9.696065176205727e-06   5.735970172215444e-07   4.209114992631655e-06
-9.696065176205727e-06   5.735970172215444e-07   4.209114992631655e-06
-9.696065176205727e-06   5.735970172215444e-07   4.209114992631655e-06
8.142488052037966e-06   -1.205313602013877e-06   5.629245596551041e-06
8.142488052037966e-06   -1.205313602013877e-06   5.629245596551041e-06
8.142488052037966e-06   -1.205313602013877e-06   5.629245596551041e-06
8.142488052037966e-06   -1.205313602013877e-06   5.629245596551041e-06
4.082083243753398e-06   -9.416026021794358e-07   -9.798691506892644e-07
4.082083243753398e-06   -9.416026021794358e-07   -9.798691506892644e-07
4.082083243753398e-06   -9.416026021794358e-07   -9.798691506892644e-07
4.082083243753398e-06   -9.416026021794358e-07   -9.798691506892644e-07
3.984448702882847e-06   -1.3177853823206757e-06   4.880022112253347e-06
3.984448702882847e-06   -1.3177853823206757e-06   4.880022112253347e-06
3.984448702882847e-06   -1.3177853823206757e-06   4.880022112253347e-06
3.984448702882847e-06   -1.3177853823206757e-06   4.880022112253347e-06
7.972592386992688e-06   -1.058484988117228e-06   -1.922464264451798e-06
7.972592386992688e-06   -1.058484988117228e-06   -1.922464264451798e-06
7.972592386992688e-06   -1.058484988117228e-06   -1.922464264451798e-06
7.972592386992688e-06   -1.058484988117228e-06   -1.922464264451798e-06
5.776288119871254e-06   -1.0881794580010315e-06   1.7558595293475576e-06
5.776288119871254e-06   -1.0881794580010315e-06   1.7558595293475576e-06
5.776288119871254e-06   -1.0881794580010315e-06   1.7558595293475576e-06
5.776288119871254e-06   -1.0881794580010315e-06   1.7558595293475576e-06
7.972592386992674e-06   -1.3177853823206757e-06   4.724441875731268e-06
7.972592386992674e-06   -1.3177853823206757e-06   4.724441875731268e-06
7.972592386992674e-06   -1.3177853823206757e-06   4.724441875731268e-06
7.972592386992674e-06   -1.3177853823206757e-06   4.724441875731268e-06
3.984448702882854e-06   -1.058484988117228e-06   -1.7668840279297133e-06
3.984448702882854e-06   -1.058484988117228e-06   -1.7668840279297133e-06
3.984448702882854e-06   -1.058484988117228e-06   -1.7668840279297133e-06
3.984448702882854e-06   -1.058484988117228e-06   -1.7668840279297133e-06
3.858837618349065e-06   -1.325132808774874e-06   4.359845380797487e-06
3.858837618349065e-06   -1.325132808774874e-06   4.359845380797487e-06
3.858837618349065e-06   -1.325132808774874e-06   4.359845380797487e-06
3.858837618349065e-06   -1.325132808774874e-06   4.359845380797487e-06
7.798700023266562e-06   -1.0737603330364756e-06   -2.3574154461747336e-06
7.798700023266562e-06   -1.0737603330364756e-06   -2.3574154461747336e-06
7.798700023266562e-06   -1.0737603330364756e-06   -2.3574154461747336e-06
7.798700023266562e-06   -1.0737603330364756e-06   -2.3574154461747336e-06
5.738725479626079e-06   -1.133651943979329e-06   1.1118104264584418e-06
5.738725479626079e-06   -1.133651943979329e-06   1.1118104264584418e-06
5.738725479626079e-06   -1.133651943979329e-06   1.1118104264584418e-06
5.738725479626079e-06   -1.133651943979329e-06   1.1118104264584418e-06
7.798700023266562e-06   -1.325132808774874e-06   4.209021895354426e-06
7.798700023266562e-06   -1.325132808774874e-06   4.209021895354426e-06
7.798700023266562e-06   -1.325132808774874e-06   4.209021895354426e-06
7.798700023266562e-06   -1.325132808774874e-06   4.209021895354426e-06
3.858837618349065e-06   -1.0737603330364756e-06   -2.206591960731666e-06
3.858837618349065e-06   -1.0737603330364756e-06   -2.206591960731666e-06
3.858837618349065e-06   -1.0737603330364756e-06   -2.206591960731666e-06
3.858837618349065e-06   -1.0737603330364756e-06   -2.206591960731666e-06
3.7262847116513644e-06   -1.287273783011063e-06   3.580386559028483e-06
3.7262847116513644e-06   -1.287273783011063e-06   3.580386559028483e-06
3.7262847116513644e-06   -1.287273783011063e-06   3.580386559028483e-06
3.7262847116513644e-06   -1.287273783011063e-06   3.580386559028483e-06
7.5803888185495806e-06   -1.057646264815968e-06   -2.980896796718973e-06
7.5803888185495806e-06   -1.057646264815968e-06   -2.980896796718973e-06
7.5803888185495806e-06   -1.057646264815968e-06   -2.980896796718973e-06
7.5803888185495806e-06   -1.057646264815968e-06   -2.980896796718973e-06
5.499978139093452e-06   -1.1008598862602588e-06   5.123825085746035e-07
5.499978139093452e-06   -1.1008598862602588e-06   5.123825085746035e-07
5.499978139093452e-06   -1.1008598862602588e-06   5.123825085746035e-07
5.499978139093452e-06   -1.1008598862602588e-06   5.123825085746035e-07
4.082083243753405e-06   -6.998128690765756e-07   5.196390052711385e-06
4.082083243753405e-06   -6.998128690765756e-07   5.196390052711385e-06
4.082083243753405e-06   -6.998128690765756e-07   5.196390052711385e-06
4.082083243753405e-06   -6.998128690765756e-07   5.196390052711385e-06
3.6027464712019123e-07   -3.20883229774254e-07   -7.792664914292526e-07
3.6027464712019123e-07   -3.20883229774254e-07   -7.792664914292526e-07
3.6027464712019123e-07   -3.20883229774254e-07   -7.792664914292526e-07
3.6027464712019123e-07   -3.20883229774254e-07   -7.792664914292526e-07
2.622615839908728e-07   -7.390800437453754e-07   5.389708980948994e-06
2.622615839908728e-07   -7.390800437453754e-07   5.389708980948994e-06
2.622615839908728e-07   -7.390800437453754e-07   5.389708980948994e-06
2.622615839908728e-07   -7.390800437453754e-07   5.389708980948994e-06
3.984448702882854e-06   -3.8164848559045766e-07   -1.0283951520972626e-06
3.984448702882854e-06   -3.8164848559045766e-07   -1.0283951520972626e-06
3.984448702882854e-06   -3.8164848559045766e-07   -1.0283951520972626e-06
3.984448702882854e-06   -3.8164848559045766e-07   -1.0283951520972626e-06
2.1508851795458794e-06   -4.992161430844924e-07   2.0980846479607795e-06
2.1508851795458794e-06   -4.992161430844924e-07   2.0980846479607795e-06
2.1508851795458794e-06   -4.992161430844924e-07   2.0980846479607795e-06
2.1508851795458794e-06   -4.992161430844924e-07   2.0980846479607795e-06
3.984448702882851e-06   -7.390800437453754e-07   5.175250046056076e-06
3.984448702882851e-06   -7.390800437453754e-07   5.175250046056076e-06
3.984448702882851e-06   -7.390800437453754e-07   5.175250046056076e-06
3.984448702882851e-06   -7.390800437453754e-07   5.175250046056076e-06
2.622615839908728e-07   -3.8164848559045766e-07   -8.139362172043276e-07
2.622615839908728e-07   -3.8164848559045766e-07   -8.139362172043276e-07
2.622615839908728e-07   -3.8164848559045766e-07   -8.139362172043276e-07
2.622615839908728e-07   -3.8164848559045766e-07   -8.139362172043276e-07
1.382469264048614e-07   -7.525378763859774e-07   5.323475207359062e-06
1.382469264048614e-07   -7.525378763859774e-07   5.323475207359062e-06
1.382469264048614e-07   -7.525378763859774e-07   5.323475207359062e-06
1.382469264048614e-07   -7.525378763859774e-07   5.323475207359062e-06
3.858837618349065e-06   -4.186818562000507e-07   -1.0778228913261282e-06
3.858837618349065e-06   -4.186818562000507e-07   -1.0778228913261282e-06
3.858837618349065e-06   -4.186818562000507e-07   -1.0778228913261282e-06
3.858837618349065e-06   -4.186818562000507e-07   -1.0778228913261282e-06
2.0247847757932794e-06   -5.20723995505964e-07   2.0401571298504865e-06
2.0247847757932794e-06   -5.20723995505964e-07   2.0401571298504865e-06
2.0247847757932794e-06   -5.20723995505964e-07   2.0401571298504865e-06
2.0247847757932794e-06   -5.20723995505964e-07   2.0401571298504865e-06
3.858837618349058e-06   -7.525378763859774e-07   5.123161595247517e-06
3.858837618349058e-06   -7.525378763859774e-07   5.123161595247517e-06
3.858837618349058e-06   -7.525378763859774e-07   5.123161595247517e-06
3.858837618349058e-06   -7.525378763859774e-07   5.123161595247517e-06
1.382469264048614e-07   -4.186818562000507e-07   -8.775092792145966e-07
1.382469264048614e-07   -4.186818562000507e-07   -8.775092792145966e-07
1.382469264048614e-07   -4.186818562000507e-07   -8.775092792145966e-07
1.382469264048614e-07   -4.186818562000507e-07   -8.775092792145966e-07
1.374725304739802e-09   -7.284428113948352e-07   5.385780831994091e-06
1.374725304739802e-09   -7.284428113948352e-07   5.385780831994091e-06
1.374725304739802e-09   -7.284428113948352e-07   5.385780831994091e-06
1.374725304739802e-09   -7.284428113948352e-07   5.385780831994091e-06
3.726284711651361e-06   -4.3044988492184485e-07   -1.0011982344673979e-06
3.726284711651361e-06   -4.3044988492184485e-07   -1.0011982344673979e-06
3.726284711651361e-06   -4.3044988492184485e-07   -1.0011982344673979e-06
3.726284711651361e-06   -4.3044988492184485e-07   -1.0011982344673979e-06
1.926576634250926e-06   -5.118367088904007e-07   2.047147322247923e-06
1.926576634250926e-06   -5.118367088904007e-07   2.047147322247923e-06
1.926576634250926e-06   -5.118367088904007e-07   2.047147322247923e-06
1.926576634250926e-06   -5.118367088904007e-07   2.047147322247923e-06
3.6027464712018784e-07   -2.2410075583656573e-07   5.278984670580342e-06
3.6027464712018784e-07   -2.2410075583656573e-07   5.278984670580342e-06
3.6027464712018784e-07   -2.2410075583656573e-07   5.278984670580342e-06
3.6027464712018784e-07   -2.2410075583656573e-07   5.278984670580342e-06
-3.2537653963207328e-06   3.098272698123729e-07   -4.2405858643180237e-07
-3.2537653963207328e-06   3.098272698123729e-07   -4.2405858643180237e-07
-3.2537653963207328e-06   3.098272698123729e-07   -4.2405858643180237e-07
-3.2537653963207328e-06   3.098272698123729e-07   -4.2405858643180237e-07
-3.364616070356717e-06   -2.3440873412103715e-07   5.6353653821043564e-06
-3.364616070356717e-06   -2.3440873412103715e-07   5.6353653821043564e-06
-3.364616070356717e-06   -2.3440873412103715e-07   5.6353653821043564e-06
-3.364616070356717e-06   -2.3440873412103715e-07   5.6353653821043564e-06
2.622615839908728e-07   2.670276005960464e-07   -7.102925093052313e-07
2.622615839908728e-07   2.670276005960464e-07   -7.102925093052313e-07
2.622615839908728e-07   2.670276005960464e-07   -7.102925093052313e-07
2.622615839908728e-07   2.670276005960464e-07   -7.102925093052313e-07
-1.4965906161332426e-06   5.222891605506262e-08   2.350007034959586e-06
-1.4965906161332426e-06   5.222891605506262e-08   2.350007034959586e-06
-1.4965906161332426e-06   5.222891605506262e-08   2.350007034959586e-06
-1.4965906161332426e-06   5.222891605506262e-08   2.350007034959586e-06
2.622615839908728e-07   -2.3440873412103715e-07   5.334503581274106e-06
2.622615839908728e-07   -2.3440873412103715e-07   5.334503581274106e-06
2.622615839908728e-07   -2.3440873412103715e-07   5.334503581274106e-06
2.622615839908728e-07   -2.3440873412103715e-07   5.334503581274106e-06
-3.364616070356717e-06   2.670276005961006e-07   -4.094307084749507e-07
-3.364616070356717e-06   2.670276005961006e-07   -4.094307084749507e-07
-3.364616070356717e-06   2.670276005961006e-07   -4.094307084749507e-07
-3.364616070356717e-06   2.670276005961006e-07   -4.094307084749507e-07
-3.5107381947408815e-06   -2.4811461817210575e-07   5.738602295271523e-06
-3.5107381947408815e-06   -2.4811461817210575e-07   5.738602295271523e-06
-3.5107381947408815e-06   -2.4811461817210575e-07   5.738602295271523e-06
-3.5107381947408815e-06   -2.4811461817210575e-07   5.738602295271523e-06
1.382469264048614e-07   2.2721623105557238e-07   -6.282380828413392e-07
1.382469264048614e-07   2.2721623105557238e-07   -6.282380828413392e-07
1.382469264048614e-07   2.2721623105557238e-07   -6.282380828413392e-07
1.382469264048614e-07   2.2721623105557238e-07   -6.282380828413392e-07
-1.6052611508103704e-06   4.277293394954829e-08   2.3882746907810177e-06
-1.6052611508103704e-06   4.277293394954829e-08   2.3882746907810177e-06
-1.6052611508103704e-06   4.277293394954829e-08   2.3882746907810177e-06
-1.6052611508103704e-06   4.277293394954829e-08   2.3882746907810177e-06
1.382469264048614e-07   -2.4811461817210575e-07   5.4534037857349e-06
1.382469264048614e-07   -2.4811461817210575e-07   5.4534037857349e-06
1.382469264048614e-07   -2.4811461817210575e-07   5.4534037857349e-06
1.382469264048614e-07   -2.4811461817210575e-07   5.4534037857349e-06
-3.510738194740878e-06   2.2721623105557238e-07   -3.430395733046822e-07
-3.510738194740878e-06   2.2721623105557238e-07   -3.430395733046822e-07
-3.510738194740878e-06   2.2721623105557238e-07   -3.430395733046822e-07
-3.510738194740878e-06   2.2721623105557238e-07   -3.430395733046822e-07
-3.6663576381037785e-06   -2.409101315797315e-07   5.862293435252258e-06
-3.6663576381037785e-06   -2.409101315797315e-07   5.862293435252258e-06
-3.6663576381037785e-06   -2.409101315797315e-07   5.862293435252258e-06
-3.6663576381037785e-06   -2.409101315797315e-07   5.862293435252258e-06
1.374725304739802e-09   1.9946140163596294e-07   -5.148167570246862e-07
1.374725304739802e-09   1.9946140163596294e-07   -5.148167570246862e-07
1.374725304739802e-09   1.9946140163596294e-07   -5.148167570246862e-07
1.374725304739802e-09   1.9946140163596294e-07   -5.148167570246862e-07
-1.7428765619395644e-06   3.739901663888951e-08   2.489506152714125e-06
-1.7428765619395644e-06   3.739901663888951e-08   2.489506152714125e-06
-1.7428765619395644e-06   3.739901663888951e-08   2.489506152714125e-06
-1.7428765619395644e-06   3.739901663888951e-08   2.489506152714125e-06
-3.253765396320726e-06   4.415089378571402e-07   4.8137181138735105e-06
-3.253765396320726e-06   4.415089378571402e-07   4.8137181138735105e-06
-3.253765396320726e-06   4.415089378571402e-07   4.8137181138735105e-06
-3.253765396320726e-06   4.415089378571402e-07   4.8137181138735105e-06
-6.8230691891901495e-06   9.771699007696017e-07   -8.137249631613686e-07
-6.8230691891901495e-06   9.771699007696017e-07   -8.137249631613686e-07
-6.8230691891901495e-06   9.771699007696017e-07   -8.137249631613686e-07
-6.8230691891901495e-06   9.771699007696017e-07   -8.137249631613686e-07
-6.979224456995395e-06   4.333660948942957e-07   5.29284032118227e-06
-6.979224456995395e-06   4.333660948942957e-07   5.29284032118227e-06
-6.979224456995395e-06   4.333660948942957e-07   5.29284032118227e-06
-6.979224456995395e-06   4.333660948942957e-07   5.29284032118227e-06
-3.3646160703567067e-06   9.363252895631816e-07   -1.0332825066835012e-06
-3.3646160703567067e-06   9.363252895631816e-07   -1.0332825066835012e-06
-3.3646160703567067e-06   9.363252895631816e-07   -1.0332825066835012e-06
-3.3646160703567067e-06   9.363252895631816e-07   -1.0332825066835012e-06
-5.068517992861203e-06   7.034367619195014e-07   1.946287147410177e-06
-5.068517992861203e-06   7.034367619195014e-07   1.946287147410177e-06
-5.068517992861203e-06   7.034367619195014e-07   1.946287147410177e-06
-5.068517992861203e-06   7.034367619195014e-07   1.946287147410177e-06
-3.3646160703567135e-06   4.333660948943499e-07   4.991064804380971e-06
-3.3646160703567135e-06   4.333660948943499e-07   4.991064804380971e-06
-3.3646160703567135e-06   4.333660948943499e-07   4.991064804380971e-06
-3.3646160703567135e-06   4.333660948943499e-07   4.991064804380971e-06
-6.979224456995385e-06   9.363252895631816e-07   -7.315069898821953e-07
-6.979224456995385e-06   9.363252895631816e-07   -7.315069898821953e-07
-6.979224456995385e-06   9.363252895631816e-07   -7.315069898821953e-07
-6.979224456995385e-06   9.363252895631816e-07   -7.315069898821953e-07
-7.172410148534715e-06   4.0571503521016645e-07   5.616738325550365e-06
-7.172410148534715e-06   4.0571503521016645e-07   5.616738325550365e-06
-7.172410148534715e-06   4.0571503521016645e-07   5.616738325550365e-06
-7.172410148534715e-06   4.0571503521016645e-07   5.616738325550365e-06
-3.510738194740878e-06   8.96654760696846e-07   -7.806120993979917e-07
-3.510738194740878e-06   8.96654760696846e-07   -7.806120993979917e-07
-3.510738194740878e-06   8.96654760696846e-07   -7.806120993979917e-07
-3.510738194740878e-06   8.96654760696846e-07   -7.806120993979917e-07
-5.181174123068008e-06   6.983268705330675e-07   2.1224445152454176e-06
-5.181174123068008e-06   6.983268705330675e-07   2.1224445152454176e-06
-5.181174123068008e-06   6.983268705330675e-07   2.1224445152454176e-06
-5.181174123068008e-06   6.983268705330675e-07   2.1224445152454176e-06
-3.5107381947408713e-06   4.0571503521016645e-07   5.322174490258357e-06
-3.5107381947408713e-06   4.0571503521016645e-07   5.322174490258357e-06
-3.5107381947408713e-06   4.0571503521016645e-07   5.322174490258357e-06
-3.5107381947408713e-06   4.0571503521016645e-07   5.322174490258357e-06
-7.172410148534715e-06   8.96654760696846e-07   -4.860482641060179e-07
-7.172410148534715e-06   8.96654760696846e-07   -4.860482641060179e-07
-7.172410148534715e-06   8.96654760696846e-07   -4.860482641060179e-07
-7.172410148534715e-06   8.96654760696846e-07   -4.860482641060179e-07
-7.374773858918682e-06   3.727661220188005e-07   5.859805436201932e-06
-7.374773858918682e-06   3.727661220188005e-07   5.859805436201932e-06
-7.374773858918682e-06   3.727661220188005e-07   5.859805436201932e-06
-7.374773858918682e-06   3.727661220188005e-07   5.859805436201932e-06
-3.666357638103765e-06   8.411625950358655e-07   -6.019261489664609e-07
-3.666357638103765e-06   8.411625950358655e-07   -6.019261489664609e-07
-3.666357638103765e-06   8.411625950358655e-07   -6.019261489664609e-07
-3.666357638103765e-06   8.411625950358655e-07   -6.019261489664609e-07
-5.381706656274093e-06   6.676847820240393e-07   2.3610755691246747e-06
-5.381706656274093e-06   6.676847820240393e-07   2.3610755691246747e-06
-5.381706656274093e-06   6.676847820240393e-07   2.3610755691246747e-06
-5.381706656274093e-06   6.676847820240393e-07   2.3610755691246747e-06
-6.8230691891901495e-06   1.5930653551295484e-06   2.5248009620374226e-06
-6.8230691891901495e-06   1.5930653551295484e-06   2.5248009620374226e-06
-6.8230691891901495e-06   1.5930653551295484e-06   2.5248009620374226e-06
-6.8230691891901495e-06   1.5930653551295484e-06   2.5248009620374226e-06
-1.027693906321352e-05   1.5892836574951446e-06   -3.233917846582159e-06
-1.027693906321352e-05   1.5892836574951446e-06   -3.233917846582159e-06
-1.027693906321352e-05   1.5892836574951446e-06   -3.233917846582159e-06
-1.027693906321352e-05   1.5892836574951446e-06   -3.233917846582159e-06
-1.0560297409058085e-05   1.5598401786717417e-06   3.832369610118607e-06
-1.0560297409058085e-05   1.5598401786717417e-06   3.832369610118607e-06
-1.0560297409058085e-05   1.5598401786717417e-06   3.832369610118607e-06
-1.0560297409058085e-05   1.5598401786717417e-06   3.832369610118607e-06
-6.979224456995385e-06   1.629349085954107e-06   -2.1777906543553243e-06
-6.979224456995385e-06   1.629349085954107e-06   -2.1777906543553243e-06
-6.979224456995385e-06   1.629349085954107e-06   -2.1777906543553243e-06
-6.979224456995385e-06   1.629349085954107e-06   -2.1777906543553243e-06
-8.311265063082113e-06   1.6093759846293534e-06   5.426088325070834e-08
-8.311265063082113e-06   1.6093759846293534e-06   5.426088325070834e-08
-8.311265063082113e-06   1.6093759846293534e-06   5.426088325070834e-08
-8.311265063082113e-06   1.6093759846293534e-06   5.426088325070834e-08
-6.979224456995378e-06   1.5598401786717417e-06   3.7906642657492204e-06
-6.979224456995378e-06   1.5598401786717417e-06   3.7906642657492204e-06
-6.979224456995378e-06   1.5598401786717417e-06   3.7906642657492204e-06
-6.979224456995378e-06   1.5598401786717417e-06   3.7906642657492204e-06
-1.0560297409058085e-05   1.629349085954107e-06   -2.136085309985931e-06
-1.0560297409058085e-05   1.629349085954107e-06   -2.136085309985931e-06
-1.0560297409058085e-05   1.629349085954107e-06   -2.136085309985931e-06
-1.0560297409058085e-05   1.629349085954107e-06   -2.136085309985931e-06
-1.0837957306654952e-05   1.5281104603062016e-06   4.7305440381257104e-06
-1.0837957306654952e-05   1.5281104603062016e-06   4.7305440381257104e-06
-1.0837957306654952e-05   1.5281104603062016e-06   4.7305440381257104e-06
-1.0837957306654952e-05   1.5281104603062016e-06   4.7305440381257104e-06
-7.172410148534705e-06   1.6207543530020758e-06   -1.4342875610255762e-06
-7.172410148534705e-06   1.6207543530020758e-06   -1.4342875610255762e-06
-7.172410148534705e-06   1.6207543530020758e-06   -1.4342875610255762e-06
-7.172410148534705e-06   1.6207543530020758e-06   -1.4342875610255762e-06
-8.653133265730184e-06   1.6176039739833835e-06   1.035474528378227e-06
-8.653133265730184e-06   1.6176039739833835e-06   1.035474528378227e-06
-8.653133265730184e-06   1.6176039739833835e-06   1.035474528378227e-06
-8.653133265730184e-06   1.6176039739833835e-06   1.035474528378227e-06
-7.172410148534705e-06   1.5281104603062558e-06   4.674957702508229e-06
-7.172410148534705e-06   1.5281104603062558e-06   4.674957702508229e-06
-7.172410148534705e-06   1.5281104603062558e-06   4.674957702508229e-06
-7.172410148534705e-06   1.5281104603062558e-06   4.674957702508229e-06
-1.0837957306654952e-05   1.6207543530020758e-06   -1.3787012254080477e-06
-1.0837957306654952e-05   1.6207543530020758e-06   -1.3787012254080477e-06
-1.0837957306654952e-05   1.6207543530020758e-06   -1.3787012254080477e-06
-1.0837957306654952e-05   1.6207543530020758e-06   -1.3787012254080477e-06
-1.1167026439455368e-05   1.3073344490421163e-06   6.226230686288097e-06
-1.1167026439455368e-05   1.3073344490421163e-06   6.226230686288097e-06
-1.1167026439455368e-05   1.3073344490421163e-06   6.226230686288097e-06
-1.1167026439455368e-05   1.3073344490421163e-06   6.226230686288097e-06
-7.374773858918655e-06   1.5015840342736861e-06   -2.1074003241202468e-07
-7.374773858918655e-06   1.5015840342736861e-06   -2.1074003241202468e-07
-7.374773858918655e-06   1.5015840342736861e-06   -2.1074003241202468e-07
-7.374773858918655e-06   1.5015840342736861e-06   -2.1074003241202468e-07
-8.751172086842544e-06   1.5478215879561599e-06   2.055514481918378e-06
-8.751172086842544e-06   1.5478215879561599e-06   2.055514481918378e-06
-8.751172086842544e-06   1.5478215879561599e-06   2.055514481918378e-06
-8.751172086842544e-06   1.5478215879561599e-06   2.055514481918378e-06
6.793915726178124e-06   -9.416026021794358e-07   5.086331857914397e-06
6.793915726178124e-06   -9.416026021794358e-07   5.086331857914397e-06
6.793915726178124e-06   -9.416026021794358e-07   5.086331857914397e-06
6.793915726178124e-06   -9.416026021794358e-07   5.086331857914397e-06
3.3342440135769977e-06   -7.155818515151391e-07   -5.441752126888945e-07
3.3342440135769977e-06   -7.155818515151391e-07   -5.441752126888945e-07
3.3342440135769977e-06   -7.155818515151391e-07   -5.441752126888945e-07
3.3342440135769977e-06   -7.155818515151391e-07   -5.441752126888945e-07
3.2212294926050954e-06   -1.058484988117228e-06   4.39966223972238e-06
3.2212294926050954e-06   -1.058484988117228e-06   4.39966223972238e-06
3.2212294926050954e-06   -1.058484988117228e-06   4.39966223972238e-06
3.2212294926050954e-06   -1.058484988117228e-06   4.39966223972238e-06
6.58747359372336e-06   -8.22442581096107e-07   -1.3523700396873395e-06
6.58747359372336e-06   -8.22442581096107e-07   -1.3523700396873395e-06
6.58747359372336e-06   -8.22442581096107e-07   -1.3523700396873395e-06
6.58747359372336e-06   -8.22442581096107e-07   -1.3523700396873395e-06
4.756522913889816e-06   -8.74908211692259e-07   1.7306938050595588e-06
4.756522913889816e-06   -8.74908211692259e-07   1.7306938050595588e-06
4.756522913889816e-06   -8.74908211692259e-07   1.7306938050595588e-06
4.756522913889816e-06   -8.74908211692259e-07   1.7306938050595588e-06
6.587473593723348e-06   -1.058484988117228e-06   4.25803679550974e-06
6.587473593723348e-06   -1.058484988117228e-06   4.25803679550974e-06
6.587473593723348e-06   -1.058484988117228e-06   4.25803679550974e-06
6.587473593723348e-06   -1.058484988117228e-06   4.25803679550974e-06
3.2212294926051055e-06   -8.22442581096107e-07   -1.2107445954746842e-06
3.2212294926051055e-06   -8.22442581096107e-07   -1.2107445954746842e-06
3.2212294926051055e-06   -8.22442581096107e-07   -1.2107445954746842e-06
3.2212294926051055e-06   -8.22442581096107e-07   -1.2107445954746842e-06
3.0947951901920233e-06   -1.0737603330364756e-06   3.927517343353844e-06
3.0947951901920233e-06   -1.0737603330364756e-06   3.927517343353844e-06
3.0947951901920233e-06   -1.0737603330364756e-06   3.927517343353844e-06
3.0947951901920233e-06   -1.0737603330364756e-06   3.927517343353844e-06
6.398752016665856e-06   -8.424830339369351e-07   -1.7178437468955929e-06
6.398752016665856e-06   -8.424830339369351e-07   -1.7178437468955929e-06
6.398752016665856e-06   -8.424830339369351e-07   -1.7178437468955929e-06
6.398752016665856e-06   -8.424830339369351e-07   -1.7178437468955929e-06
4.688285508509067e-06   -9.169753055717129e-07   1.1776291296799172e-06
4.688285508509067e-06   -9.169753055717129e-07   1.1776291296799172e-06
4.688285508509067e-06   -9.169753055717129e-07   1.1776291296799172e-06
4.688285508509067e-06   -9.169753055717129e-07   1.1776291296799172e-06
6.398752016665833e-06   -1.0737603330364756e-06   3.7887509638941086e-06
6.398752016665833e-06   -1.0737603330364756e-06   3.7887509638941086e-06
6.398752016665833e-06   -1.0737603330364756e-06   3.7887509638941086e-06
6.398752016665833e-06   -1.0737603330364756e-06   3.7887509638941086e-06
3.0947951901920284e-06   -8.424830339369351e-07   -1.5790773674358692e-06
3.0947951901920284e-06   -8.424830339369351e-07   -1.5790773674358692e-06
3.0947951901920284e-06   -8.424830339369351e-07   -1.5790773674358692e-06
3.0947951901920284e-06   -8.424830339369351e-07   -1.5790773674358692e-06
2.9723935444731594e-06   -1.0576462648159137e-06   3.2572636290745434e-06
2.9723935444731594e-06   -1.0576462648159137e-06   3.2572636290745434e-06
2.9723935444731594e-06   -1.0576462648159137e-06   3.2572636290745434e-06
2.9723935444731594e-06   -1.0576462648159137e-06   3.2572636290745434e-06
6.183329261126354e-06   -8.433098747119279e-07   -2.2228977327431674e-06
6.183329261126354e-06   -8.433098747119279e-07   -2.2228977327431674e-06
6.183329261126354e-06   -8.433098747119279e-07   -2.2228977327431674e-06
6.183329261126354e-06   -8.433098747119279e-07   -2.2228977327431674e-06
4.465937701213626e-06   -8.985119686204289e-07   6.72542790123269e-07
4.465937701213626e-06   -8.985119686204289e-07   6.72542790123269e-07
4.465937701213626e-06   -8.985119686204289e-07   6.72542790123269e-07
4.465937701213626e-06   -8.985119686204289e-07   6.72542790123269e-07
3.3342440135769977e-06   -3.2088322977419977e-07   5.1951891839915995e-06
3.3342440135769977e-06   -3.2088322977419977e-07   5.1951891839915995e-06
3.3342440135769977e-06   -3.2088322977419977e-07   5.1951891839915995e-06
3.3342440135769977e-06   -3.2088322977419977e-07   5.1951891839915995e-06
8.535846954475153e-08   -1.397403275023388e-07   -1.1093431469901037e-07
8.535846954475153e-08   -1.397403275023388e-07   -1.1093431469901037e-07
8.535846954475153e-08   -1.397403275023388e-07   -1.1093431469901037e-07
8.535846954475153e-08   -1.397403275023388e-07   -1.1093431469901037e-07
-2.403395262303977e-08   -3.8164848559051187e-07   5.238927099506858e-06
-2.403395262303977e-08   -3.8164848559051187e-07   5.238927099506858e-06
-2.403395262303977e-08   -3.8164848559051187e-07   5.238927099506858e-06
-2.403395262303977e-08   -3.8164848559051187e-07   5.238927099506858e-06
3.2212294926051055e-06   -2.1368851233719705e-07   -2.7062129315870396e-07
3.2212294926051055e-06   -2.1368851233719705e-07   -2.7062129315870396e-07
3.2212294926051055e-06   -2.1368851233719705e-07   -2.7062129315870396e-07
3.2212294926051055e-06   -2.1368851233719705e-07   -2.7062129315870396e-07
1.6336285350213365e-06   -2.5516066293180097e-07   2.4002635931709898e-06
1.6336285350213365e-06   -2.5516066293180097e-07   2.4002635931709898e-06
1.6336285350213365e-06   -2.5516066293180097e-07   2.4002635931709898e-06
1.6336285350213365e-06   -2.5516066293180097e-07   2.4002635931709898e-06
3.221229492605104e-06   -3.8164848559051187e-07   5.138151115554847e-06
3.221229492605104e-06   -3.8164848559051187e-07   5.138151115554847e-06
3.221229492605104e-06   -3.8164848559051187e-07   5.138151115554847e-06
3.221229492605104e-06   -3.8164848559051187e-07   5.138151115554847e-06
-2.403395262303977e-08   -2.1368851233719705e-07   -1.6984530920669677e-07
-2.403395262303977e-08   -2.1368851233719705e-07   -1.6984530920669677e-07
-2.403395262303977e-08   -2.1368851233719705e-07   -1.6984530920669677e-07
-2.403395262303977e-08   -2.1368851233719705e-07   -1.6984530920669677e-07
-1.3780724165722905e-07   -4.186818562001049e-07   5.1477062244381655e-06
-1.3780724165722905e-07   -4.186818562001049e-07   5.1477062244381655e-06
-1.3780724165722905e-07   -4.186818562001049e-07   5.1477062244381655e-06
-1.3780724165722905e-07   -4.186818562001049e-07   5.1477062244381655e-06
3.0947951901920284e-06   -2.663155034021182e-07   -3.313843069893594e-07
3.0947951901920284e-06   -2.663155034021182e-07   -3.313843069893594e-07
3.0947951901920284e-06   -2.663155034021182e-07   -3.313843069893594e-07
3.0947951901920284e-06   -2.663155034021182e-07   -3.313843069893594e-07
1.5059463000972446e-06   -2.9285584300176373e-07   2.3326213802617564e-06
1.5059463000972446e-06   -2.9285584300176373e-07   2.3326213802617564e-06
1.5059463000972446e-06   -2.9285584300176373e-07   2.3326213802617564e-06
1.5059463000972446e-06   -2.9285584300176373e-07   2.3326213802617564e-06
3.0947951901920233e-06   -4.186818562000507e-07   5.056286412759368e-06
3.0947951901920233e-06   -4.186818562000507e-07   5.056286412759368e-06
3.0947951901920233e-06   -4.186818562000507e-07   5.056286412759368e-06
3.0947951901920233e-06   -4.186818562000507e-07   5.056286412759368e-06
-1.3780724165722905e-07   -2.663155034021724e-07   -2.3996449531059924e-07
-1.3780724165722905e-07   -2.663155034021724e-07   -2.3996449531059924e-07
-1.3780724165722905e-07   -2.663155034021724e-07   -2.3996449531059924e-07
-1.3780724165722905e-07   -2.663155034021724e-07   -2.3996449531059924e-07
-2.562786133061548e-07   -4.3044988492184485e-07   5.174420764163869e-06
-2.562786133061548e-07   -4.3044988492184485e-07   5.174420764163869e-06
-2.562786133061548e-07   -4.3044988492184485e-07   5.174420764163869e-06
-2.562786133061548e-07   -4.3044988492184485e-07   5.174420764163869e-06
2.972393544473168e-06   -3.050580786637634e-07   -2.8193458255649226e-07
2.972393544473168e-06   -3.050580786637634e-07   -2.8193458255649226e-07
2.972393544473168e-06   -3.050580786637634e-07   -2.8193458255649226e-07
2.972393544473168e-06   -3.050580786637634e-07   -2.8193458255649226e-07
1.4135691036657448e-06   -3.103172866759929e-07   2.319261676929978e-06
1.4135691036657448e-06   -3.103172866759929e-07   2.319261676929978e-06
1.4135691036657448e-06   -3.103172866759929e-07   2.319261676929978e-06
1.4135691036657448e-06   -3.103172866759929e-07   2.319261676929978e-06
8.535846954475153e-08   3.098272698124271e-07   5.3387260149627435e-06
8.535846954475153e-08   3.098272698124271e-07   5.3387260149627435e-06
8.535846954475153e-08   3.098272698124271e-07   5.3387260149627435e-06
8.535846954475153e-08   3.098272698124271e-07   5.3387260149627435e-06
-3.0748860130242954e-06   4.311543525546192e-07   1.4444812699302345e-07
-3.0748860130242954e-06   4.311543525546192e-07   1.4444812699302345e-07
-3.0748860130242954e-06   4.311543525546192e-07   1.4444812699302345e-07
-3.0748860130242954e-06   4.311543525546192e-07   1.4444812699302345e-07
-3.189712901865463e-06   2.670276005961006e-07   5.405722407839027e-06
-3.189712901865463e-06   2.670276005961006e-07   5.405722407839027e-06
-3.189712901865463e-06   2.670276005961006e-07   5.405722407839027e-06
-3.189712901865463e-06   2.670276005961006e-07   5.405722407839027e-06
-2.403395262303977e-08   3.722802679845499e-07   6.643922533524653e-08
-2.403395262303977e-08   3.722802679845499e-07   6.643922533524653e-08
-2.403395262303977e-08   3.722802679845499e-07   6.643922533524653e-08
-2.403395262303977e-08   3.722802679845499e-07   6.643922533524653e-08
-1.55301592612867e-06   3.465875125131671e-07   2.6301581677941766e-06
-1.55301592612867e-06   3.465875125131671e-07   2.6301581677941766e-06
-1.55301592612867e-06   3.465875125131671e-07   2.6301581677941766e-06
-1.55301592612867e-06   3.465875125131671e-07   2.6301581677941766e-06
-2.403395262303977e-08   2.670276005961006e-07   5.3425708074059575e-06
-2.403395262303977e-08   2.670276005961006e-07   5.3425708074059575e-06
-2.403395262303977e-08   2.670276005961006e-07   5.3425708074059575e-06
-2.403395262303977e-08   2.670276005961006e-07   5.3425708074059575e-06
-3.189712901865463e-06   3.722802679845499e-07   1.295908257683263e-07
-3.189712901865463e-06   3.722802679845499e-07   1.295908257683263e-07
-3.189712901865463e-06   3.722802679845499e-07   1.295908257683263e-07
-3.189712901865463e-06   3.722802679845499e-07   1.295908257683263e-07
-3.3102621788638822e-06   2.272162310556266e-07   5.449788021825861e-06
-3.3102621788638822e-06   2.272162310556266e-07   5.449788021825861e-06
-3.3102621788638822e-06   2.272162310556266e-07   5.449788021825861e-06
-3.3102621788638822e-06   2.272162310556266e-07   5.449788021825861e-06
-1.3780724165723244e-07   3.15233899412994e-07   1.0955252546700762e-07
-1.3780724165723244e-07   3.15233899412994e-07   1.0955252546700762e-07
-1.3780724165723244e-07   3.15233899412994e-07   1.0955252546700762e-07
-1.3780724165723244e-07   3.15233899412994e-07   1.0955252546700762e-07
-1.6592246445779053e-06   3.1446009127146166e-07   2.6457124818864087e-06
-1.6592246445779053e-06   3.1446009127146166e-07   2.6457124818864087e-06
-1.6592246445779053e-06   3.1446009127146166e-07   2.6457124818864087e-06
-1.6592246445779053e-06   3.1446009127146166e-07   2.6457124818864087e-06
-1.3780724165722905e-07   2.2721623105557238e-07   5.39697742081143e-06
-1.3780724165722905e-07   2.2721623105557238e-07   5.39697742081143e-06
-1.3780724165722905e-07   2.2721623105557238e-07   5.39697742081143e-06
-1.3780724165722905e-07   2.2721623105557238e-07   5.39697742081143e-06
-3.3102621788638924e-06   3.15233899412994e-07   1.623631264814423e-07
-3.3102621788638924e-06   3.15233899412994e-07   1.623631264814423e-07
-3.3102621788638924e-06   3.15233899412994e-07   1.623631264814423e-07
-3.3102621788638924e-06   3.15233899412994e-07   1.623631264814423e-07
-3.4342569914406586e-06   1.9946140163596294e-07   5.521103462220077e-06
-3.4342569914406586e-06   1.9946140163596294e-07   5.521103462220077e-06
-3.4342569914406586e-06   1.9946140163596294e-07   5.521103462220077e-06
-3.4342569914406586e-06   1.9946140163596294e-07   5.521103462220077e-06
-2.562786133061514e-07   2.64623029131415e-07   1.8537585549861625e-07
-2.562786133061514e-07   2.64623029131415e-07   1.8537585549861625e-07
-2.562786133061514e-07   2.64623029131415e-07   1.8537585549861625e-07
-2.562786133061514e-07   2.64623029131415e-07   1.8537585549861625e-07
-1.7742269437704407e-06   2.8398503757950944e-07   2.703672534537017e-06
-1.7742269437704407e-06   2.8398503757950944e-07   2.703672534537017e-06
-1.7742269437704407e-06   2.8398503757950944e-07   2.703672534537017e-06
-1.7742269437704407e-06   2.8398503757950944e-07   2.703672534537017e-06
-3.074886013024309e-06   9.771699007696017e-07   4.700459310131059e-06
-3.074886013024309e-06   9.771699007696017e-07   4.700459310131059e-06
-3.074886013024309e-06   9.771699007696017e-07   4.700459310131059e-06
-3.074886013024309e-06   9.771699007696017e-07   4.700459310131059e-06
-6.1627623370727065e-06   9.901736924497755e-07   -4.38198954941509e-07
-6.1627623370727065e-06   9.901736924497755e-07   -4.38198954941509e-07
-6.1627623370727065e-06   9.901736924497755e-07   -4.38198954941509e-07
-6.1627623370727065e-06   9.901736924497755e-07   -4.38198954941509e-07
-6.295721651331835e-06   9.363252895631816e-07   4.7818691088381544e-06
-6.295721651331835e-06   9.363252895631816e-07   4.7818691088381544e-06
-6.295721651331835e-06   9.363252895631816e-07   4.7818691088381544e-06
-6.295721651331835e-06   9.363252895631816e-07   4.7818691088381544e-06
-3.189712901865473e-06   9.363227882426333e-07   -3.9481063948010607e-07
-3.189712901865473e-06   9.363227882426333e-07   -3.9481063948010607e-07
-3.189712901865473e-06   9.363227882426333e-07   -3.9481063948010607e-07
-3.189712901865473e-06   9.363227882426333e-07   -3.9481063948010607e-07
-4.65997919526583e-06   9.542428804437892e-07   2.0448811275330746e-06
-4.65997919526583e-06   9.542428804437892e-07   2.0448811275330746e-06
-4.65997919526583e-06   9.542428804437892e-07   2.0448811275330746e-06
-4.65997919526583e-06   9.542428804437892e-07   2.0448811275330746e-06
-3.189712901865473e-06   9.363252895631816e-07   4.7818706096305105e-06
-3.189712901865473e-06   9.363252895631816e-07   4.7818706096305105e-06
-3.189712901865473e-06   9.363252895631816e-07   4.7818706096305105e-06
-3.189712901865473e-06   9.363252895631816e-07   4.7818706096305105e-06
-6.295721651331825e-06   9.363227882426333e-07   -3.9481214027245535e-07
-6.295721651331825e-06   9.363227882426333e-07   -3.9481214027245535e-07
-6.295721651331825e-06   9.363227882426333e-07   -3.9481214027245535e-07
-6.295721651331825e-06   9.363227882426333e-07   -3.9481214027245535e-07
-6.441769460448769e-06   8.96654760696846e-07   5.005006709768927e-06
-6.441769460448769e-06   8.96654760696846e-07   5.005006709768927e-06
-6.441769460448769e-06   8.96654760696846e-07   5.005006709768927e-06
-6.441769460448769e-06   8.96654760696846e-07   5.005006709768927e-06
-3.3102621788638924e-06   8.8464011742406e-07   -2.0696330690889555e-07
-3.3102621788638924e-06   8.8464011742406e-07   -2.0696330690889555e-07
-3.3102621788638924e-06   8.8464011742406e-07   -2.0696330690889555e-07
-3.3102621788638924e-06   8.8464011742406e-07   -2.0696330690889555e-07
-4.751933978356991e-06   9.251945452449671e-07   2.1714903688870604e-06
-4.751933978356991e-06   9.251945452449671e-07   2.1714903688870604e-06
-4.751933978356991e-06   9.251945452449671e-07   2.1714903688870604e-06
-4.751933978356991e-06   9.251945452449671e-07   2.1714903688870604e-06
-3.3102621788638856e-06   8.96654760696846e-07   5.012215495732572e-06
-3.3102621788638856e-06   8.96654760696846e-07   5.012215495732572e-06
-3.3102621788638856e-06   8.96654760696846e-07   5.012215495732572e-06
-3.3102621788638856e-06   8.96654760696846e-07   5.012215495732572e-06
-6.4417694604487585e-06   8.8464011742406e-07   -2.1417209287254006e-07
-6.4417694604487585e-06   8.8464011742406e-07   -2.1417209287254006e-07
-6.4417694604487585e-06   8.8464011742406e-07   -2.1417209287254006e-07
-6.4417694604487585e-06   8.8464011742406e-07   -2.1417209287254006e-07
-6.5801748470561736e-06   8.411625950358113e-07   5.156877972885152e-06
-6.5801748470561736e-06   8.411625950358113e-07   5.156877972885152e-06
-6.5801748470561736e-06   8.411625950358113e-07   5.156877972885152e-06
-6.5801748470561736e-06   8.411625950358113e-07   5.156877972885152e-06
-3.434256991440672e-06   8.196739659295537e-07   -7.342527567692872e-08
-3.434256991440672e-06   8.196739659295537e-07   -7.342527567692872e-08
-3.434256991440672e-06   8.196739659295537e-07   -7.342527567692872e-08
-3.434256991440672e-06   8.196739659295537e-07   -7.342527567692872e-08
-4.907541275914876e-06   8.848017503681766e-07   2.342971861117108e-06
-4.907541275914876e-06   8.848017503681766e-07   2.342971861117108e-06
-4.907541275914876e-06   8.848017503681766e-07   2.342971861117108e-06
-4.907541275914876e-06   8.848017503681766e-07   2.342971861117108e-06
-6.1627623370727e-06   1.5892836574951988e-06   2.2903377202989717e-06
-6.1627623370727e-06   1.5892836574951988e-06   2.2903377202989717e-06
-6.1627623370727e-06   1.5892836574951988e-06   2.2903377202989717e-06
-6.1627623370727e-06   1.5892836574951988e-06   2.2903377202989717e-06
-9.144911877438555e-06   1.4488507347970385e-06   -2.7641712672630154e-06
-9.144911877438555e-06   1.4488507347970385e-06   -2.7641712672630154e-06
-9.144911877438555e-06   1.4488507347970385e-06   -2.7641712672630154e-06
-9.144911877438555e-06   1.4488507347970385e-06   -2.7641712672630154e-06
-9.354859979568195e-06   1.629349085954107e-06   3.2409963900549934e-06
-9.354859979568195e-06   1.629349085954107e-06   3.2409963900549934e-06
-9.354859979568195e-06   1.629349085954107e-06   3.2409963900549934e-06
-9.354859979568195e-06   1.629349085954107e-06   3.2409963900549934e-06
-6.295721651331835e-06   1.4717006621040875e-06   -1.762978436028949e-06
-6.295721651331835e-06   1.4717006621040875e-06   -1.762978436028949e-06
-6.295721651331835e-06   1.4717006621040875e-06   -1.762978436028949e-06
-6.295721651331835e-06   1.4717006621040875e-06   -1.762978436028949e-06
-7.441994461298108e-06   1.5214855492370893e-06   1.1760531496840933e-07
-7.441994461298108e-06   1.5214855492370893e-06   1.1760531496840933e-07
-7.441994461298108e-06   1.5214855492370893e-06   1.1760531496840933e-07
-7.441994461298108e-06   1.5214855492370893e-06   1.1760531496840933e-07
-6.2957216513318146e-06   1.629349085954107e-06   3.335585444364978e-06
-6.2957216513318146e-06   1.629349085954107e-06   3.335585444364978e-06
-6.2957216513318146e-06   1.629349085954107e-06   3.335585444364978e-06
-6.2957216513318146e-06   1.629349085954107e-06   3.335585444364978e-06
-9.354859979568228e-06   1.4717006621040875e-06   -1.857567490338988e-06
-9.354859979568228e-06   1.4717006621040875e-06   -1.857567490338988e-06
-9.354859979568228e-06   1.4717006621040875e-06   -1.857567490338988e-06
-9.354859979568228e-06   1.4717006621040875e-06   -1.857567490338988e-06
-9.557909132019731e-06   1.6207543530020758e-06   3.958875131533028e-06
-9.557909132019731e-06   1.6207543530020758e-06   3.958875131533028e-06
-9.557909132019731e-06   1.6207543530020758e-06   3.958875131533028e-06
-9.557909132019731e-06   1.6207543530020758e-06   3.958875131533028e-06
-6.441769460448769e-06   1.4576005508082032e-06   -1.1367987064356426e-06
-6.441769460448769e-06   1.4576005508082032e-06   -1.1367987064356426e-06
-6.441769460448769e-06   1.4576005508082032e-06   -1.1367987064356426e-06
-6.441769460448769e-06   1.4576005508082032e-06   -1.1367987064356426e-06
-7.713594878609562e-06   1.5521805891564096e-06   9.261623008235487e-07
-7.713594878609562e-06   1.5521805891564096e-06   9.261623008235487e-07
-7.713594878609562e-06   1.5521805891564096e-06   9.261623008235487e-07
-7.713594878609562e-06   1.5521805891564096e-06   9.261623008235487e-07
-6.441769460448769e-06   1.6207543530020758e-06   4.056767412849362e-06
-6.441769460448769e-06   1.6207543530020758e-06   4.056767412849362e-06
-6.441769460448769e-06   1.6207543530020758e-06   4.056767412849362e-06
-6.441769460448769e-06   1.6207543530020758e-06   4.056767412849362e-06
-9.557909132019765e-06   1.4576005508082032e-06   -1.2346909877519703e-06
-9.557909132019765e-06   1.4576005508082032e-06   -1.2346909877519703e-06
-9.557909132019765e-06   1.4576005508082032e-06   -1.2346909877519703e-06
-9.557909132019765e-06   1.4576005508082032e-06   -1.2346909877519703e-06
-9.793079307877291e-06   1.501584034273632e-06   5.176399029856811e-06
-9.793079307877291e-06   1.501584034273632e-06   5.176399029856811e-06
-9.793079307877291e-06   1.501584034273632e-06   5.176399029856811e-06
-9.793079307877291e-06   1.501584034273632e-06   5.176399029856811e-06
-6.5801748470561736e-06   1.350538741319465e-06   -8.781456240589683e-08
-6.5801748470561736e-06   1.350538741319465e-06   -8.781456240589683e-08
-6.5801748470561736e-06   1.350538741319465e-06   -8.781456240589683e-08
-6.5801748470561736e-06   1.350538741319465e-06   -8.781456240589683e-08
-7.762230888218746e-06   1.5075469412990385e-06   1.7880739195441278e-06
-7.762230888218746e-06   1.5075469412990385e-06   1.7880739195441278e-06
-7.762230888218746e-06   1.5075469412990385e-06   1.7880739195441278e-06
-7.762230888218746e-06   1.5075469412990385e-06   1.7880739195441278e-06
5.338262463500239e-06   -7.155818515151391e-07   4.376530185368969e-06
5.338262463500239e-06   -7.155818515151391e-07   4.376530185368969e-06
5.338262463500239e-06   -7.155818515151391e-07   4.376530185368969e-06
5.338262463500239e-06   -7.155818515151391e-07   4.376530185368969e-06
2.4969306814264442e-06   -4.952010831042568e-07   -2.267943237074842e-07
2.4969306814264442e-06   -4.952010831042568e-07   -2.267943237074842e-07
2.4969306814264442e-06   -4.952010831042568e-07   -2.267943237074842e-07
2.4969306814264442e-06   -4.952010831042568e-07   -2.267943237074842e-07
2.3944633586325294e-06   -8.22442581096107e-07   3.826281264068148e-06
2.3944633586325294e-06   -8.22442581096107e-07   3.826281264068148e-06
2.3944633586325294e-06   -8.22442581096107e-07   3.826281264068148e-06
2.3944633586325294e-06   -8.22442581096107e-07   3.826281264068148e-06
5.138755821938175e-06   -5.928866698233352e-07   -8.852730548715712e-07
5.138755821938175e-06   -5.928866698233352e-07   -8.852730548715712e-07
5.138755821938175e-06   -5.928866698233352e-07   -8.852730548715712e-07
5.138755821938175e-06   -5.928866698233352e-07   -8.852730548715712e-07
3.662027021306033e-06   -6.599532902775221e-07   1.6161815851211862e-06
3.662027021306033e-06   -6.599532902775221e-07   1.6161815851211862e-06
3.662027021306033e-06   -6.599532902775221e-07   1.6161815851211862e-06
3.662027021306033e-06   -6.599532902775221e-07   1.6161815851211862e-06
5.138755821938175e-06   -8.22442581096107e-07   3.6885477173044902e-06
5.138755821938175e-06   -8.22442581096107e-07   3.6885477173044902e-06
5.138755821938175e-06   -8.22442581096107e-07   3.6885477173044902e-06
5.138755821938175e-06   -8.22442581096107e-07   3.6885477173044902e-06
2.3944633586325345e-06   -5.928866698233352e-07   -7.475395081079186e-07
2.3944633586325345e-06   -5.928866698233352e-07   -7.475395081079186e-07
2.3944633586325345e-06   -5.928866698233352e-07   -7.475395081079186e-07
2.3944633586325345e-06   -5.928866698233352e-07   -7.475395081079186e-07
2.2801456521154434e-06   -8.424830339368809e-07   3.4415001665379845e-06
2.2801456521154434e-06   -8.424830339368809e-07   3.4415001665379845e-06
2.2801456521154434e-06   -8.424830339368809e-07   3.4415001665379845e-06
2.2801456521154434e-06   -8.424830339368809e-07   3.4415001665379845e-06
4.962362129239832e-06   -6.177680589920689e-07   -1.1636896136361716e-06
4.962362129239832e-06   -6.177680589920689e-07   -1.1636896136361716e-06
4.962362129239832e-06   -6.177680589920689e-07   -1.1636896136361716e-06
4.962362129239832e-06   -6.177680589920689e-07   -1.1636896136361716e-06
3.587745490900399e-06   -7.00265638359579e-07   1.176836664550077e-06
3.587745490900399e-06   -7.00265638359579e-07   1.176836664550077e-06
3.587745490900399e-06   -7.00265638359579e-07   1.176836664550077e-06
3.587745490900399e-06   -7.00265638359579e-07   1.176836664550077e-06
4.962362129239823e-06   -8.424830339368809e-07   3.306671181571108e-06
4.962362129239823e-06   -8.424830339368809e-07   3.306671181571108e-06
4.962362129239823e-06   -8.424830339368809e-07   3.306671181571108e-06
4.962362129239823e-06   -8.424830339368809e-07   3.306671181571108e-06
2.2801456521154485e-06   -6.177680589920689e-07   -1.0288606286693004e-06
2.2801456521154485e-06   -6.177680589920689e-07   -1.0288606286693004e-06
2.2801456521154485e-06   -6.177680589920689e-07   -1.0288606286693004e-06
2.2801456521154485e-06   -6.177680589920689e-07   -1.0288606286693004e-06
2.173901325229214e-06   -8.433098747119279e-07   2.9089951849801932e-06
2.173901325229214e-06   -8.433098747119279e-07   2.9089951849801932e-06
2.173901325229214e-06   -8.433098747119279e-07   2.9089951849801932e-06
2.173901325229214e-06   -8.433098747119279e-07   2.9089951849801932e-06
4.763017236172744e-06   -6.353835451247203e-07   -1.5309537976780188e-06
4.763017236172744e-06   -6.353835451247203e-07   -1.5309537976780188e-06
4.763017236172744e-06   -6.353835451247203e-07   -1.5309537976780188e-06
4.763017236172744e-06   -6.353835451247203e-07   -1.5309537976780188e-06
3.3950072027889614e-06   -6.93391661356845e-07   7.838677943676514e-07
3.3950072027889614e-06   -6.93391661356845e-07   7.838677943676514e-07
3.3950072027889614e-06   -6.93391661356845e-07   7.838677943676514e-07
3.3950072027889614e-06   -6.93391661356845e-07   7.838677943676514e-07
2.496930681426435e-06   -1.3974032750228458e-07   4.833313803042239e-06
2.496930681426435e-06   -1.3974032750228458e-07   4.833313803042239e-06
2.496930681426435e-06   -1.3974032750228458e-07   4.833313803042239e-06
2.496930681426435e-06   -1.3974032750228458e-07   4.833313803042239e-06
-1.8324993163971334e-07   -1.4267343326950302e-08   4.4162990510385777e-07
-1.8324993163971334e-07   -1.4267343326950302e-08   4.4162990510385777e-07
-1.8324993163971334e-07   -1.4267343326950302e-08   4.4162990510385777e-07
-1.8324993163971334e-07   -1.4267343326950302e-08   4.4162990510385777e-07
-2.8026505624619856e-07   -2.1368851233719705e-07   4.8363543976164295e-06
-2.8026505624619856e-07   -2.1368851233719705e-07   4.8363543976164295e-06
-2.8026505624619856e-07   -2.1368851233719705e-07   4.8363543976164295e-06
-2.8026505624619856e-07   -2.1368851233719705e-07   4.8363543976164295e-06
2.3944633586325345e-06   -9.710546028336492e-08   3.0852387491956913e-07
2.3944633586325345e-06   -9.710546028336492e-08   3.0852387491956913e-07
2.3944633586325345e-06   -9.710546028336492e-08   3.0852387491956913e-07
2.3944633586325345e-06   -9.710546028336492e-08   3.0852387491956913e-07
1.0886673665365313e-06   -1.1955435207019202e-07   2.4983198634849984e-06
1.0886673665365313e-06   -1.1955435207019202e-07   2.4983198634849984e-06
1.0886673665365313e-06   -1.1955435207019202e-07   2.4983198634849984e-06
1.0886673665365313e-06   -1.1955435207019202e-07   2.4983198634849984e-06
2.3944633586325277e-06   -2.1368851233719705e-07   4.766404566384125e-06
2.3944633586325277e-06   -2.1368851233719705e-07   4.766404566384125e-06
2.3944633586325277e-06   -2.1368851233719705e-07   4.766404566384125e-06
2.3944633586325277e-06   -2.1368851233719705e-07   4.766404566384125e-06
-2.8026505624619856e-07   -9.710546028336492e-08   3.784737061519026e-07
-2.8026505624619856e-07   -9.710546028336492e-08   3.784737061519026e-07
-2.8026505624619856e-07   -9.710546028336492e-08   3.784737061519026e-07
-2.8026505624619856e-07   -9.710546028336492e-08   3.784737061519026e-07
-3.796229844527426e-07   -2.663155034021724e-07   4.752763531174902e-06
-3.796229844527426e-07   -2.663155034021724e-07   4.752763531174902e-06
-3.796229844527426e-07   -2.663155034021724e-07   4.752763531174902e-06
-3.796229844527426e-07   -2.663155034021724e-07   4.752763531174902e-06
2.2801456521154485e-06   -1.6036499641815206e-07   2.5624549937084983e-07
2.2801456521154485e-06   -1.6036499641815206e-07   2.5624549937084983e-07
2.2801456521154485e-06   -1.6036499641815206e-07   2.5624549937084983e-07
2.2801456521154485e-06   -1.6036499641815206e-07   2.5624549937084983e-07
9.779858684026462e-07   -1.6960754085709132e-07   2.432057332222391e-06
9.779858684026462e-07   -1.6960754085709132e-07   2.432057332222391e-06
9.779858684026462e-07   -1.6960754085709132e-07   2.432057332222391e-06
9.779858684026462e-07   -1.6960754085709132e-07   2.432057332222391e-06
2.2801456521154434e-06   -2.663155034021182e-07   4.689193226984511e-06
2.2801456521154434e-06   -2.663155034021182e-07   4.689193226984511e-06
2.2801456521154434e-06   -2.663155034021182e-07   4.689193226984511e-06
2.2801456521154434e-06   -2.663155034021182e-07   4.689193226984511e-06
-3.796229844527426e-07   -1.6036499641809785e-07   3.1981580356124206e-07
-3.796229844527426e-07   -1.6036499641809785e-07   3.1981580356124206e-07
-3.796229844527426e-07   -1.6036499641809785e-07   3.1981580356124206e-07
-3.796229844527426e-07   -1.6036499641809785e-07   3.1981580356124206e-07
-4.796905916259752e-07   -3.050580786637634e-07   4.774534002817502e-06
-4.796905916259752e-07   -3.050580786637634e-07   4.774534002817502e-06
-4.796905916259752e-07   -3.050580786637634e-07   4.774534002817502e-06
-4.796905916259752e-07   -3.050580786637634e-07   4.774534002817502e-06
2.1739013252292157e-06   -2.1642890914212948e-07   2.9870330634583267e-07
2.1739013252292157e-06   -2.1642890914212948e-07   2.9870330634583267e-07
2.1739013252292157e-06   -2.1642890914212948e-07   2.9870330634583267e-07
2.1739013252292157e-06   -2.1642890914212948e-07   2.9870330634583267e-07
8.965034825025137e-07   -2.042249007768891e-07   2.420377305871314e-06
8.965034825025137e-07   -2.042249007768891e-07   2.420377305871314e-06
8.965034825025137e-07   -2.042249007768891e-07   2.420377305871314e-06
8.965034825025137e-07   -2.042249007768891e-07   2.420377305871314e-06
-1.8324993163971334e-07   4.311543525546192e-07   5.09118378559412e-06
-1.8324993163971334e-07   4.311543525546192e-07   5.09118378559412e-06
-1.8324993163971334e-07   4.311543525546192e-07   5.09118378559412e-06
-1.8324993163971334e-07   4.311543525546192e-07   5.09118378559412e-06
-2.806923258351935e-06   4.483534480604853e-07   7.287143650439227e-07
-2.806923258351935e-06   4.483534480604853e-07   7.287143650439227e-07
-2.806923258351935e-06   4.483534480604853e-07   7.287143650439227e-07
-2.806923258351935e-06   4.483534480604853e-07   7.287143650439227e-07
-2.9051473002997484e-06   3.722802679845499e-07   5.075978752800786e-06
-2.9051473002997484e-06   3.722802679845499e-07   5.075978752800786e-06
-2.9051473002997484e-06   3.722802679845499e-07   5.075978752800786e-06
-2.9051473002997484e-06   3.722802679845499e-07   5.075978752800786e-06
-2.8026505624620195e-07   3.7784663572184305e-07   6.978351920691637e-07
-2.8026505624620195e-07   3.7784663572184305e-07   6.978351920691637e-07
-2.8026505624620195e-07   3.7784663572184305e-07   6.978351920691637e-07
-2.8026505624620195e-07   3.7784663572184305e-07   6.978351920691637e-07
-1.5477545592747316e-06   3.9892406990011276e-07   2.797671236609732e-06
-1.5477545592747316e-06   3.9892406990011276e-07   2.797671236609732e-06
-1.5477545592747316e-06   3.9892406990011276e-07   2.797671236609732e-06
-1.5477545592747316e-06   3.9892406990011276e-07   2.797671236609732e-06
-2.8026505624620195e-07   3.722802679845499e-07   5.072638932158437e-06
-2.8026505624620195e-07   3.722802679845499e-07   5.072638932158437e-06
-2.8026505624620195e-07   3.722802679845499e-07   5.072638932158437e-06
-2.8026505624620195e-07   3.722802679845499e-07   5.072638932158437e-06
-2.9051473002997484e-06   3.7784663572184305e-07   7.011750127115498e-07
-2.9051473002997484e-06   3.7784663572184305e-07   7.011750127115498e-07
-2.9051473002997484e-06   3.7784663572184305e-07   7.011750127115498e-07
-2.9051473002997484e-06   3.7784663572184305e-07   7.011750127115498e-07
-3.0054507584576957e-06   3.15233899412994e-07   5.098279463864279e-06
-3.0054507584576957e-06   3.15233899412994e-07   5.098279463864279e-06
-3.0054507584576957e-06   3.15233899412994e-07   5.098279463864279e-06
-3.0054507584576957e-06   3.15233899412994e-07   5.098279463864279e-06
-3.796229844527426e-07   3.0856541926595725e-07   7.25900928610937e-07
-3.796229844527426e-07   3.0856541926595725e-07   7.25900928610937e-07
-3.796229844527426e-07   3.0856541926595725e-07   7.25900928610937e-07
-3.796229844527426e-07   3.0856541926595725e-07   7.25900928610937e-07
-1.6383224801685065e-06   3.525257846108496e-07   2.7973572022636518e-06
-1.6383224801685065e-06   3.525257846108496e-07   2.7973572022636518e-06
-1.6383224801685065e-06   3.525257846108496e-07   2.7973572022636518e-06
-1.6383224801685065e-06   3.525257846108496e-07   2.7973572022636518e-06
-3.796229844527426e-07   3.15233899412994e-07   5.102280551952566e-06
-3.796229844527426e-07   3.15233899412994e-07   5.102280551952566e-06
-3.796229844527426e-07   3.15233899412994e-07   5.102280551952566e-06
-3.796229844527426e-07   3.15233899412994e-07   5.102280551952566e-06
-3.0054507584576957e-06   3.0856541926590304e-07   7.218998405226736e-07
-3.0054507584576957e-06   3.0856541926590304e-07   7.218998405226736e-07
-3.0054507584576957e-06   3.0856541926590304e-07   7.218998405226736e-07
-3.0054507584576957e-06   3.0856541926590304e-07   7.218998405226736e-07
-3.10537289002966e-06   2.64623029131415e-07   5.153635274536761e-06
-3.10537289002966e-06   2.64623029131415e-07   5.153635274536761e-06
-3.10537289002966e-06   2.64623029131415e-07   5.153635274536761e-06
-3.10537289002966e-06   2.64623029131415e-07   5.153635274536761e-06
-4.796905916259752e-07   2.4299955816314313e-07   7.904721931116183e-07
-4.796905916259752e-07   2.4299955816314313e-07   7.904721931116183e-07
-4.796905916259752e-07   2.4299955816314313e-07   7.904721931116183e-07
-4.796905916259752e-07   2.4299955816314313e-07   7.904721931116183e-07
-1.733454484926627e-06   3.076033655521372e-07   2.8413163975127585e-06
-1.733454484926627e-06   3.076033655521372e-07   2.8413163975127585e-06
-1.733454484926627e-06   3.076033655521372e-07   2.8413163975127585e-06
-1.733454484926627e-06   3.076033655521372e-07   2.8413163975127585e-06
-2.8069232583519283e-06   9.901736924497213e-07   4.511053885955009e-06
-2.8069232583519283e-06   9.901736924497213e-07   4.511053885955009e-06
-2.8069232583519283e-06   9.901736924497213e-07   4.511053885955009e-06
-2.8069232583519283e-06   9.901736924497213e-07   4.511053885955009e-06
-5.392091354550896e-06   8.967944736819507e-07   1.4641286102936235e-07
-5.392091354550896e-06   8.967944736819507e-07   1.4641286102936235e-07
-5.392091354550896e-06   8.967944736819507e-07   1.4641286102936235e-07
-5.392091354550896e-06   8.967944736819507e-07   1.4641286102936235e-07
-5.498364026211532e-06   9.363227882426333e-07   4.488530784837525e-06
-5.498364026211532e-06   9.363227882426333e-07   4.488530784837525e-06
-5.498364026211532e-06   9.363227882426333e-07   4.488530784837525e-06
-5.498364026211532e-06   9.363227882426333e-07   4.488530784837525e-06
-2.905147300299752e-06   8.312452837179441e-07   2.2954941103273514e-07
-2.905147300299752e-06   8.312452837179441e-07   2.2954941103273514e-07
-2.905147300299752e-06   8.312452837179441e-07   2.2954941103273514e-07
-2.905147300299752e-06   8.312452837179441e-07   2.2954941103273514e-07
-4.136385218078475e-06   8.99316699961455e-07   2.2407697575844477e-06
-4.136385218078475e-06   8.99316699961455e-07   2.2407697575844477e-06
-4.136385218078475e-06   8.99316699961455e-07   2.2407697575844477e-06
-4.136385218078475e-06   8.99316699961455e-07   2.2407697575844477e-06
-2.9051473002997484e-06   9.363227882425791e-07   4.551577287552333e-06
-2.9051473002997484e-06   9.363227882425791e-07   4.551577287552333e-06
-2.9051473002997484e-06   9.363227882425791e-07   4.551577287552333e-06
-2.9051473002997484e-06   9.363227882425791e-07   4.551577287552333e-06
-5.498364026211532e-06   8.312452837179441e-07   1.665029083179067e-07
-5.498364026211532e-06   8.312452837179441e-07   1.665029083179067e-07
-5.498364026211532e-06   8.312452837179441e-07   1.665029083179067e-07
-5.498364026211532e-06   8.312452837179441e-07   1.665029083179067e-07
-5.614421064801479e-06   8.8464011742406e-07   4.659163166271873e-06
-5.614421064801479e-06   8.8464011742406e-07   4.659163166271873e-06
-5.614421064801479e-06   8.8464011742406e-07   4.659163166271873e-06
-5.614421064801479e-06   8.8464011742406e-07   4.659163166271873e-06
-3.005450758457699e-06   7.683236770873064e-07   3.806691865676631e-07
-3.005450758457699e-06   7.683236770873064e-07   3.806691865676631e-07
-3.005450758457699e-06   7.683236770873064e-07   3.806691865676631e-07
-3.005450758457699e-06   7.683236770873064e-07   3.806691865676631e-07
-4.208726245809734e-06   8.583087497084823e-07   2.3321372885818064e-06
-4.208726245809734e-06   8.583087497084823e-07   2.3321372885818064e-06
-4.208726245809734e-06   8.583087497084823e-07   2.3321372885818064e-06
-4.208726245809734e-06   8.583087497084823e-07   2.3321372885818064e-06
-3.005450758457699e-06   8.8464011742406e-07   4.728953030473941e-06
-3.005450758457699e-06   8.8464011742406e-07   4.728953030473941e-06
-3.005450758457699e-06   8.8464011742406e-07   4.728953030473941e-06
-3.005450758457699e-06   8.8464011742406e-07   4.728953030473941e-06
-5.614421064801479e-06   7.683236770873064e-07   3.1087932236557436e-07
-5.614421064801479e-06   7.683236770873064e-07   3.1087932236557436e-07
-5.614421064801479e-06   7.683236770873064e-07   3.1087932236557436e-07
-5.614421064801479e-06   7.683236770873064e-07   3.1087932236557436e-07
-5.719433584201553e-06   8.196739659295537e-07   4.779945654757167e-06
-5.719433584201553e-06   8.196739659295537e-07   4.779945654757167e-06
-5.719433584201553e-06   8.196739659295537e-07   4.779945654757167e-06
-5.719433584201553e-06   8.196739659295537e-07   4.779945654757167e-06
-3.1053728900296636e-06   6.933547790849231e-07   4.989693432441692e-07
-3.1053728900296636e-06   6.933547790849231e-07   4.989693432441692e-07
-3.1053728900296636e-06   6.933547790849231e-07   4.989693432441692e-07
-3.1053728900296636e-06   6.933547790849231e-07   4.989693432441692e-07
-4.33197022129977e-06   8.100065896078342e-07   2.473307142380758e-06
-4.33197022129977e-06   8.100065896078342e-07   2.473307142380758e-06
-4.33197022129977e-06   8.100065896078342e-07   2.473307142380758e-06
-4.33197022129977e-06   8.100065896078342e-07   2.473307142380758e-06
-5.392091354550896e-06   1.4488507347970385e-06   2.213313795991701e-06
-5.392091354550896e-06   1.4488507347970385e-06   2.213313795991701e-06
-5.392091354550896e-06   1.4488507347970385e-06   2.213313795991701e-06
-5.392091354550896e-06   1.4488507347970385e-06   2.213313795991701e-06
-7.891714657847985e-06   1.260158365340425e-06   -2.0659404645107264e-06
-7.891714657847985e-06   1.260158365340425e-06   -2.0659404645107264e-06
-7.891714657847985e-06   1.260158365340425e-06   -2.0659404645107264e-06
-7.891714657847985e-06   1.260158365340425e-06   -2.0659404645107264e-06
-8.084909405904408e-06   1.4717006621040875e-06   2.993934642555614e-06
-8.084909405904408e-06   1.4717006621040875e-06   2.993934642555614e-06
-8.084909405904408e-06   1.4717006621040875e-06   2.993934642555614e-06
-8.084909405904408e-06   1.4717006621040875e-06   2.993934642555614e-06
-5.498364026211532e-06   1.2609842512284236e-06   -1.1905444770738132e-06
-5.498364026211532e-06   1.2609842512284236e-06   -1.1905444770738132e-06
-5.498364026211532e-06   1.2609842512284236e-06   -1.1905444770738132e-06
-5.498364026211532e-06   1.2609842512284236e-06   -1.1905444770738132e-06
-6.460178077140577e-06   1.3376755620119482e-06   3.664641546711491e-07
-6.460178077140577e-06   1.3376755620119482e-06   3.664641546711491e-07
-6.460178077140577e-06   1.3376755620119482e-06   3.664641546711491e-07
-6.460178077140577e-06   1.3376755620119482e-06   3.664641546711491e-07
-5.498364026211526e-06   1.4717006621040875e-06   3.120364489081018e-06
-5.498364026211526e-06   1.4717006621040875e-06   3.120364489081018e-06
-5.498364026211526e-06   1.4717006621040875e-06   3.120364489081018e-06
-5.498364026211526e-06   1.4717006621040875e-06   3.120364489081018e-06
-8.084909405904422e-06   1.2609842512284236e-06   -1.3169743235992034e-06
-8.084909405904422e-06   1.2609842512284236e-06   -1.3169743235992034e-06
-8.084909405904422e-06   1.2609842512284236e-06   -1.3169743235992034e-06
-8.084909405904422e-06   1.2609842512284236e-06   -1.3169743235992034e-06
-8.255837338626206e-06   1.457600550808149e-06   3.6045706072914123e-06
-8.255837338626206e-06   1.457600550808149e-06   3.6045706072914123e-06
-8.255837338626206e-06   1.457600550808149e-06   3.6045706072914123e-06
-8.255837338626206e-06   1.457600550808149e-06   3.6045706072914123e-06
-5.614421064801479e-06   1.237657308445861e-06   -6.658239036657861e-07
-5.614421064801479e-06   1.237657308445861e-06   -6.658239036657861e-07
-5.614421064801479e-06   1.237657308445861e-06   -6.658239036657861e-07
-5.614421064801479e-06   1.237657308445861e-06   -6.658239036657861e-07
-6.6923808410199476e-06   1.3550450344124274e-06   1.060343087785307e-06
-6.6923808410199476e-06   1.3550450344124274e-06   1.060343087785307e-06
-6.6923808410199476e-06   1.3550450344124274e-06   1.060343087785307e-06
-6.6923808410199476e-06   1.3550450344124274e-06   1.060343087785307e-06
-5.614421064801479e-06   1.4576005508082032e-06   3.7365365527087906e-06
-5.614421064801479e-06   1.4576005508082032e-06   3.7365365527087906e-06
-5.614421064801479e-06   1.4576005508082032e-06   3.7365365527087906e-06
-5.614421064801479e-06   1.4576005508082032e-06   3.7365365527087906e-06
-8.25583733862622e-06   1.237657308445861e-06   -7.977898490831915e-07
-8.25583733862622e-06   1.237657308445861e-06   -7.977898490831915e-07
-8.25583733862622e-06   1.237657308445861e-06   -7.977898490831915e-07
-8.25583733862622e-06   1.237657308445861e-06   -7.977898490831915e-07
-8.450278357393337e-06   1.3505387413194109e-06   4.645565879283272e-06
-8.450278357393337e-06   1.3505387413194109e-06   4.645565879283272e-06
-8.450278357393337e-06   1.3505387413194109e-06   4.645565879283272e-06
-8.450278357393337e-06   1.3505387413194109e-06   4.645565879283272e-06
-5.719433584201553e-06   1.129065964304923e-06   2.270415901722882e-07
-5.719433584201553e-06   1.129065964304923e-06   2.270415901722882e-07
-5.719433584201553e-06   1.129065964304923e-06   2.270415901722882e-07
-5.719433584201553e-06   1.129065964304923e-06   2.270415901722882e-07
-6.7255386097782115e-06   1.3093410256560757e-06   1.7957182626562125e-06
-6.7255386097782115e-06   1.3093410256560757e-06   1.7957182626562125e-06
-6.7255386097782115e-06   1.3093410256560757e-06   1.7957182626562125e-06
-6.7255386097782115e-06   1.3093410256560757e-06   1.7957182626562125e-06
3.8493864633696685e-06   -4.95201083104311e-07   3.6799179720683442e-06
3.8493864633696685e-06   -4.95201083104311e-07   3.6799179720683442e-06
3.8493864633696685e-06   -4.95201083104311e-07   3.6799179720683442e-06
3.8493864633696685e-06   -4.95201083104311e-07   3.6799179720683442e-06
1.6080249541370484e-06   -2.6802768375537166e-07   8.061949628999964e-08
1.6080249541370484e-06   -2.6802768375537166e-07   8.061949628999964e-08
1.6080249541370484e-06   -2.6802768375537166e-07   8.061949628999964e-08
1.6080249541370484e-06   -2.6802768375537166e-07   8.061949628999964e-08
1.5234344494056073e-06   -5.928866698233352e-07   3.2886986895519336e-06
1.5234344494056073e-06   -5.928866698233352e-07   3.2886986895519336e-06
1.5234344494056073e-06   -5.928866698233352e-07   3.2886986895519336e-06
1.5234344494056073e-06   -5.928866698233352e-07   3.2886986895519336e-06
3.6665220467398952e-06   -3.581118333929954e-07   -4.2397887453007566e-07
3.6665220467398952e-06   -3.581118333929954e-07   -4.2397887453007566e-07
3.6665220467398952e-06   -3.581118333929954e-07   -4.2397887453007566e-07
3.6665220467398952e-06   -3.581118333929954e-07   -4.2397887453007566e-07
2.5305942260113634e-06   -4.372370830709989e-07   1.5167093098243672e-06
2.5305942260113634e-06   -4.372370830709989e-07   1.5167093098243672e-06
2.5305942260113634e-06   -4.372370830709989e-07   1.5167093098243672e-06
2.5305942260113634e-06   -4.372370830709989e-07   1.5167093098243672e-06
3.666522046739902e-06   -5.928866698233352e-07   3.147833787693757e-06
3.666522046739902e-06   -5.928866698233352e-07   3.147833787693757e-06
3.666522046739902e-06   -5.928866698233352e-07   3.147833787693757e-06
3.666522046739902e-06   -5.928866698233352e-07   3.147833787693757e-06
1.5234344494056022e-06   -3.581118333929954e-07   -2.831139726718599e-07
1.5234344494056022e-06   -3.581118333929954e-07   -2.831139726718599e-07
1.5234344494056022e-06   -3.581118333929954e-07   -2.831139726718599e-07
1.5234344494056022e-06   -3.581118333929954e-07   -2.831139726718599e-07
1.427042529788351e-06   -6.177680589921231e-07   3.0008460888122847e-06
1.427042529788351e-06   -6.177680589921231e-07   3.0008460888122847e-06
1.427042529788351e-06   -6.177680589921231e-07   3.0008460888122847e-06
1.427042529788351e-06   -6.177680589921231e-07   3.0008460888122847e-06
3.5081254615264804e-06   -3.8767157232988663e-07   -6.056833560819311e-07
3.5081254615264804e-06   -3.8767157232988663e-07   -6.056833560819311e-07
3.5081254615264804e-06   -3.8767157232988663e-07   -6.056833560819311e-07
3.5081254615264804e-06   -3.8767157232988663e-07   -6.056833560819311e-07
2.456115035228349e-06   -4.7596363282056357e-07   1.2006425907094321e-06
2.456115035228349e-06   -4.7596363282056357e-07   1.2006425907094321e-06
2.456115035228349e-06   -4.7596363282056357e-07   1.2006425907094321e-06
2.456115035228349e-06   -4.7596363282056357e-07   1.2006425907094321e-06
3.5081254615264863e-06   -6.177680589921231e-07   2.862788196814959e-06
3.5081254615264863e-06   -6.177680589921231e-07   2.862788196814959e-06
3.5081254615264863e-06   -6.177680589921231e-07   2.862788196814959e-06
3.5081254615264863e-06   -6.177680589921231e-07   2.862788196814959e-06
1.4270425297883485e-06   -3.8767157232988663e-07   -4.6762546408461226e-07
1.4270425297883485e-06   -3.8767157232988663e-07   -4.6762546408461226e-07
1.4270425297883485e-06   -3.8767157232988663e-07   -4.6762546408461226e-07
1.4270425297883485e-06   -3.8767157232988663e-07   -4.6762546408461226e-07
1.3400516087304676e-06   -6.353835451247203e-07   2.6163345206337853e-06
1.3400516087304676e-06   -6.353835451247203e-07   2.6163345206337853e-06
1.3400516087304676e-06   -6.353835451247203e-07   2.6163345206337853e-06
1.3400516087304676e-06   -6.353835451247203e-07   2.6163345206337853e-06
3.32605650874176e-06   -4.2208232167427495e-07   -8.216543801219442e-07
3.32605650874176e-06   -4.2208232167427495e-07   -8.216543801219442e-07
3.32605650874176e-06   -4.2208232167427495e-07   -8.216543801219442e-07
3.32605650874176e-06   -4.2208232167427495e-07   -8.216543801219442e-07
2.297514293773347e-06   -4.803587506673791e-07   9.275485022212492e-07
2.297514293773347e-06   -4.803587506673791e-07   9.275485022212492e-07
2.297514293773347e-06   -4.803587506673791e-07   9.275485022212492e-07
2.297514293773347e-06   -4.803587506673791e-07   9.275485022212492e-07
1.6080249541370544e-06   -1.4267343327004512e-08   4.409362449983849e-06
1.6080249541370544e-06   -1.4267343327004512e-08   4.409362449983849e-06
1.6080249541370544e-06   -1.4267343327004512e-08   4.409362449983849e-06
1.6080249541370544e-06   -1.4267343327004512e-08   4.409362449983849e-06
-4.823936969082817e-07   1.0505161019335948e-07   9.969227370205155e-07
-4.823936969082817e-07   1.0505161019335948e-07   9.969227370205155e-07
-4.823936969082817e-07   1.0505161019335948e-07   9.969227370205155e-07
-4.823936969082817e-07   1.0505161019335948e-07   9.969227370205155e-07
-5.607254472517849e-07   -9.710546028336492e-08   4.412880141954704e-06
-5.607254472517849e-07   -9.710546028336492e-08   4.412880141954704e-06
-5.607254472517849e-07   -9.710546028336492e-08   4.412880141954704e-06
-5.607254472517849e-07   -9.710546028336492e-08   4.412880141954704e-06
1.5234344494056022e-06   1.6424655342121407e-08   8.711622448171387e-07
1.5234344494056022e-06   1.6424655342121407e-08   8.711622448171387e-07
1.5234344494056022e-06   1.6424655342121407e-08   8.711622448171387e-07
1.5234344494056022e-06   1.6424655342121407e-08   8.711622448171387e-07
5.06710406482758e-07   -5.701250274073484e-09   2.578977859725025e-06
5.06710406482758e-07   -5.701250274073484e-09   2.578977859725025e-06
5.06710406482758e-07   -5.701250274073484e-09   2.578977859725025e-06
5.06710406482758e-07   -5.701250274073484e-09   2.578977859725025e-06
1.5234344494056064e-06   -9.710546028336492e-08   4.344762072579423e-06
1.5234344494056064e-06   -9.710546028336492e-08   4.344762072579423e-06
1.5234344494056064e-06   -9.710546028336492e-08   4.344762072579423e-06
1.5234344494056064e-06   -9.710546028336492e-08   4.344762072579423e-06
-5.607254472517849e-07   1.6424655342121407e-08   9.392803141924162e-07
-5.607254472517849e-07   1.6424655342121407e-08   9.392803141924162e-07
-5.607254472517849e-07   1.6424655342121407e-08   9.392803141924162e-07
-5.607254472517849e-07   1.6424655342121407e-08   9.392803141924162e-07
-6.411254294926584e-07   -1.6036499641809785e-07   4.349670281094471e-06
-6.411254294926584e-07   -1.6036499641809785e-07   4.349670281094471e-06
-6.411254294926584e-07   -1.6036499641809785e-07   4.349670281094471e-06
-6.411254294926584e-07   -1.6036499641809785e-07   4.349670281094471e-06
1.4270425297883485e-06   -5.4168222681346074e-08   8.390056180507497e-07
1.4270425297883485e-06   -5.4168222681346074e-08   8.390056180507497e-07
1.4270425297883485e-06   -5.4168222681346074e-08   8.390056180507497e-07
1.4270425297883485e-06   -5.4168222681346074e-08   8.390056180507497e-07
4.1920008042449905e-07   -6.366052811030559e-08   2.524438416914702e-06
4.1920008042449905e-07   -6.366052811030559e-08   2.524438416914702e-06
4.1920008042449905e-07   -6.366052811030559e-08   2.524438416914702e-06
4.1920008042449905e-07   -6.366052811030559e-08   2.524438416914702e-06
1.4270425297883535e-06   -1.6036499641815206e-07   4.2859522168524095e-06
1.4270425297883535e-06   -1.6036499641815206e-07   4.2859522168524095e-06
1.4270425297883535e-06   -1.6036499641815206e-07   4.2859522168524095e-06
1.4270425297883535e-06   -1.6036499641815206e-07   4.2859522168524095e-06
-6.411254294926584e-07   -5.4168222681346074e-08   9.027236822928286e-07
-6.411254294926584e-07   -5.4168222681346074e-08   9.027236822928286e-07
-6.411254294926584e-07   -5.4168222681346074e-08   9.027236822928286e-07
-6.411254294926584e-07   -5.4168222681346074e-08   9.027236822928286e-07
-7.210867832370453e-07   -2.1642890914212948e-07   4.37831997897198e-06
-7.210867832370453e-07   -2.1642890914212948e-07   4.37831997897198e-06
-7.210867832370453e-07   -2.1642890914212948e-07   4.37831997897198e-06
-7.210867832370453e-07   -2.1642890914212948e-07   4.37831997897198e-06
1.3400516087304616e-06   -1.2128865569755115e-07   8.86005173626101e-07
1.3400516087304616e-06   -1.2128865569755115e-07   8.86005173626101e-07
1.3400516087304616e-06   -1.2128865569755115e-07   8.86005173626101e-07
1.3400516087304616e-06   -1.2128865569755115e-07   8.86005173626101e-07
3.52342185389927e-07   -1.0965801799787305e-07   2.5252091632405136e-06
3.52342185389927e-07   -1.0965801799787305e-07   2.5252091632405136e-06
3.52342185389927e-07   -1.0965801799787305e-07   2.5252091632405136e-06
3.52342185389927e-07   -1.0965801799787305e-07   2.5252091632405136e-06
-4.823936969082817e-07   4.4835344806043106e-07   4.757718824732629e-06
-4.823936969082817e-07   4.4835344806043106e-07   4.757718824732629e-06
-4.823936969082817e-07   4.4835344806043106e-07   4.757718824732629e-06
-4.823936969082817e-07   4.4835344806043106e-07   4.757718824732629e-06
-2.533519911339984e-06   4.4778753971694307e-07   1.33883558900701e-06
-2.533519911339984e-06   4.4778753971694307e-07   1.33883558900701e-06
-2.533519911339984e-06   4.4778753971694307e-07   1.33883558900701e-06
-2.533519911339984e-06   4.4778753971694307e-07   1.33883558900701e-06
-2.6114799079238685e-06   3.7784663572184305e-07   4.727173757717413e-06
-2.6114799079238685e-06   3.7784663572184305e-07   4.727173757717413e-06
-2.6114799079238685e-06   3.7784663572184305e-07   4.727173757717413e-06
-2.6114799079238685e-06   3.7784663572184305e-07   4.727173757717413e-06
-5.607254472517815e-07   3.694001854642303e-07   1.3143175267518786e-06
-5.607254472517815e-07   3.694001854642303e-07   1.3143175267518786e-06
-5.607254472517815e-07   3.694001854642303e-07   1.3143175267518786e-06
-5.607254472517815e-07   3.694001854642303e-07   1.3143175267518786e-06
-1.5510972043917416e-06   3.9920249153319216e-07   2.947055738343795e-06
-1.5510972043917416e-06   3.9920249153319216e-07   2.947055738343795e-06
-1.5510972043917416e-06   3.9920249153319216e-07   2.947055738343795e-06
-1.5510972043917416e-06   3.9920249153319216e-07   2.947055738343795e-06
-5.607254472517849e-07   3.7784663572184305e-07   4.732241627872002e-06
-5.607254472517849e-07   3.7784663572184305e-07   4.732241627872002e-06
-5.607254472517849e-07   3.7784663572184305e-07   4.732241627872002e-06
-5.607254472517849e-07   3.7784663572184305e-07   4.732241627872002e-06
-2.6114799079238685e-06   3.694001854642303e-07   1.309249656597286e-06
-2.6114799079238685e-06   3.694001854642303e-07   1.309249656597286e-06
-2.6114799079238685e-06   3.694001854642303e-07   1.309249656597286e-06
-2.6114799079238685e-06   3.694001854642303e-07   1.309249656597286e-06
-2.6910399789284236e-06   3.0856541926595725e-07   4.745804113646826e-06
-2.6910399789284236e-06   3.0856541926595725e-07   4.745804113646826e-06
-2.6910399789284236e-06   3.0856541926595725e-07   4.745804113646826e-06
-2.6910399789284236e-06   3.0856541926595725e-07   4.745804113646826e-06
-6.41125429492655e-07   2.919799317704409e-07   1.3392311570845645e-06
-6.41125429492655e-07   2.919799317704409e-07   1.3392311570845645e-06
-6.41125429492655e-07   2.919799317704409e-07   1.3392311570845645e-06
-6.41125429492655e-07   2.919799317704409e-07   1.3392311570845645e-06
-1.6218200508823635e-06   3.4322292617381105e-07   2.9429763960921453e-06
-1.6218200508823635e-06   3.4322292617381105e-07   2.9429763960921453e-06
-1.6218200508823635e-06   3.4322292617381105e-07   2.9429763960921453e-06
-1.6218200508823635e-06   3.4322292617381105e-07   2.9429763960921453e-06
-6.411254294926584e-07   3.0856541926595725e-07   4.755755406144163e-06
-6.411254294926584e-07   3.0856541926595725e-07   4.755755406144163e-06
-6.411254294926584e-07   3.0856541926595725e-07   4.755755406144163e-06
-6.411254294926584e-07   3.0856541926595725e-07   4.755755406144163e-06
-2.6910399789284236e-06   2.919799317704138e-07   1.3292798645872614e-06
-2.6910399789284236e-06   2.919799317704138e-07   1.3292798645872614e-06
-2.6910399789284236e-06   2.919799317704138e-07   1.3292798645872614e-06
-2.6910399789284236e-06   2.919799317704138e-07   1.3292798645872614e-06
-2.769399406265799e-06   2.4299955816314313e-07   4.801764321197394e-06
-2.769399406265799e-06   2.4299955816314313e-07   4.801764321197394e-06
-2.769399406265799e-06   2.4299955816314313e-07   4.801764321197394e-06
-2.769399406265799e-06   2.4299955816314313e-07   4.801764321197394e-06
-7.210867832370453e-07   2.1775448678411293e-07   1.4030569923102275e-06
-7.210867832370453e-07   2.1775448678411293e-07   1.4030569923102275e-06
-7.210867832370453e-07   2.1775448678411293e-07   1.4030569923102275e-06
-7.210867832370453e-07   2.1775448678411293e-07   1.4030569923102275e-06
-1.6961462277640168e-06   2.888005009388456e-07   2.9855284580289704e-06
-1.6961462277640168e-06   2.888005009388456e-07   2.9855284580289704e-06
-1.6961462277640168e-06   2.888005009388456e-07   2.9855284580289704e-06
-1.6961462277640168e-06   2.888005009388456e-07   2.9855284580289704e-06
-2.533519911339984e-06   8.967944736819507e-07   4.231105306972636e-06
-2.533519911339984e-06   8.967944736819507e-07   4.231105306972636e-06
-2.533519911339984e-06   8.967944736819507e-07   4.231105306972636e-06
-2.533519911339984e-06   8.967944736819507e-07   4.231105306972636e-06
-4.5644582926419536e-06   7.828640637337918e-07   7.778497588337971e-07
-4.5644582926419536e-06   7.828640637337918e-07   7.778497588337971e-07
-4.5644582926419536e-06   7.828640637337918e-07   7.778497588337971e-07
-4.5644582926419536e-06   7.828640637337918e-07   7.778497588337971e-07
-4.648892062646164e-06   8.312452837179441e-07   4.181475070320694e-06
-4.648892062646164e-06   8.312452837179441e-07   4.181475070320694e-06
-4.648892062646164e-06   8.312452837179441e-07   4.181475070320694e-06
-4.648892062646164e-06   8.312452837179441e-07   4.181475070320694e-06
-2.6114799079238618e-06   7.07790140854755e-07   8.598612315014516e-07
-2.6114799079238618e-06   7.07790140854755e-07   8.598612315014516e-07
-2.6114799079238618e-06   7.07790140854755e-07   8.598612315014516e-07
-2.6114799079238618e-06   7.07790140854755e-07   8.598612315014516e-07
-3.5789718776462204e-06   7.88677711082179e-07   2.423815305569009e-06
-3.5789718776462204e-06   7.88677711082179e-07   2.423815305569009e-06
-3.5789718776462204e-06   7.88677711082179e-07   2.423815305569009e-06
-3.5789718776462204e-06   7.88677711082179e-07   2.423815305569009e-06
-2.6114799079238685e-06   8.312452837179441e-07   4.255548156038619e-06
-2.6114799079238685e-06   8.312452837179441e-07   4.255548156038619e-06
-2.6114799079238685e-06   8.312452837179441e-07   4.255548156038619e-06
-2.6114799079238685e-06   8.312452837179441e-07   4.255548156038619e-06
-4.6488920626461505e-06   7.077901408547279e-07   7.857881457835273e-07
-4.6488920626461505e-06   7.077901408547279e-07   7.857881457835273e-07
-4.6488920626461505e-06   7.077901408547279e-07   7.857881457835273e-07
-4.6488920626461505e-06   7.077901408547279e-07   7.857881457835273e-07
-4.743171289869155e-06   7.683236770873064e-07   4.325616486935486e-06
-4.743171289869155e-06   7.683236770873064e-07   4.325616486935486e-06
-4.743171289869155e-06   7.683236770873064e-07   4.325616486935486e-06
-4.743171289869155e-06   7.683236770873064e-07   4.325616486935486e-06
-2.691039978928417e-06   6.36728722493439e-07   9.843546081239412e-07
-2.691039978928417e-06   6.36728722493439e-07   9.843546081239412e-07
-2.691039978928417e-06   6.36728722493439e-07   9.843546081239412e-07
-2.691039978928417e-06   6.36728722493439e-07   9.843546081239412e-07
-3.63414445237163e-06   7.382271269144088e-07   2.4952963545434807e-06
-3.63414445237163e-06   7.382271269144088e-07   2.4952963545434807e-06
-3.63414445237163e-06   7.382271269144088e-07   2.4952963545434807e-06
-3.63414445237163e-06   7.382271269144088e-07   2.4952963545434807e-06
-2.6910399789284236e-06   7.683236770873064e-07   4.404573459691768e-06
-2.6910399789284236e-06   7.683236770873064e-07   4.404573459691768e-06
-2.6910399789284236e-06   7.683236770873064e-07   4.404573459691768e-06
-2.6910399789284236e-06   7.683236770873064e-07   4.404573459691768e-06
-4.743171289869148e-06   6.36728722493439e-07   9.053976353676452e-07
-4.743171289869148e-06   6.36728722493439e-07   9.053976353676452e-07
-4.743171289869148e-06   6.36728722493439e-07   9.053976353676452e-07
-4.743171289869148e-06   6.36728722493439e-07   9.053976353676452e-07
-4.8258056761272424e-06   6.933547790849231e-07   4.440653130260573e-06
-4.8258056761272424e-06   6.933547790849231e-07   4.440653130260573e-06
-4.8258056761272424e-06   6.933547790849231e-07   4.440653130260573e-06
-4.8258056761272424e-06   6.933547790849231e-07   4.440653130260573e-06
-2.769399406265792e-06   5.557174063343276e-07   1.09589177080854e-06
-2.769399406265792e-06   5.557174063343276e-07   1.09589177080854e-06
-2.769399406265792e-06   5.557174063343276e-07   1.09589177080854e-06
-2.769399406265792e-06   5.557174063343276e-07   1.09589177080854e-06
-3.7304960714120315e-06   6.833312976829383e-07   2.6211512112432074e-06
-3.7304960714120315e-06   6.833312976829383e-07   2.6211512112432074e-06
-3.7304960714120315e-06   6.833312976829383e-07   2.6211512112432074e-06
-3.7304960714120315e-06   6.833312976829383e-07   2.6211512112432074e-06
-4.5644582926419536e-06   1.260158365340425e-06   2.0636091571376387e-06
-4.5644582926419536e-06   1.260158365340425e-06   2.0636091571376387e-06
-4.5644582926419536e-06   1.260158365340425e-06   2.0636091571376387e-06
-4.5644582926419536e-06   1.260158365340425e-06   2.0636091571376387e-06
-6.5112092154715455e-06   1.0502074571682775e-06   -1.3069462591483395e-06
-6.5112092154715455e-06   1.0502074571682775e-06   -1.3069462591483395e-06
-6.5112092154715455e-06   1.0502074571682775e-06   -1.3069462591483395e-06
-6.5112092154715455e-06   1.0502074571682775e-06   -1.3069462591483395e-06
-6.690816884537883e-06   1.2609842512284236e-06   2.6859561456911787e-06
-6.690816884537883e-06   1.2609842512284236e-06   2.6859561456911787e-06
-6.690816884537883e-06   1.2609842512284236e-06   2.6859561456911787e-06
-6.690816884537883e-06   1.2609842512284236e-06   2.6859561456911787e-06
-4.648892062646144e-06   1.0301983524987142e-06   -5.787803515572645e-07
-4.648892062646144e-06   1.0301983524987142e-06   -5.787803515572645e-07
-4.648892062646144e-06   1.0301983524987142e-06   -5.787803515572645e-07
-4.648892062646144e-06   1.0301983524987142e-06   -5.787803515572645e-07
-5.392776323700747e-06   1.1268013962758942e-06   6.03064923934197e-07
-5.392776323700747e-06   1.1268013962758942e-06   6.03064923934197e-07
-5.392776323700747e-06   1.1268013962758942e-06   6.03064923934197e-07
-5.392776323700747e-06   1.1268013962758942e-06   6.03064923934197e-07
-4.648892062646164e-06   1.2609842512284236e-06   2.824427684928934e-06
-4.648892062646164e-06   1.2609842512284236e-06   2.824427684928934e-06
-4.648892062646164e-06   1.2609842512284236e-06   2.824427684928934e-06
-4.648892062646164e-06   1.2609842512284236e-06   2.824427684928934e-06
-6.690816884537897e-06   1.0301983524987413e-06   -7.172518907950603e-07
-6.690816884537897e-06   1.0301983524987413e-06   -7.172518907950603e-07
-6.690816884537897e-06   1.0301983524987413e-06   -7.172518907950603e-07
-6.690816884537897e-06   1.0301983524987413e-06   -7.172518907950603e-07
-6.845479166478976e-06   1.237657308445861e-06   3.206149398571486e-06
-6.845479166478976e-06   1.237657308445861e-06   3.206149398571486e-06
-6.845479166478976e-06   1.237657308445861e-06   3.206149398571486e-06
-6.845479166478976e-06   1.237657308445861e-06   3.206149398571486e-06
-4.7431712898691415e-06   9.997175378914983e-07   -1.5493320011226335e-07
-4.7431712898691415e-06   9.997175378914983e-07   -1.5493320011226335e-07
-4.7431712898691415e-06   9.997175378914983e-07   -1.5493320011226335e-07
-4.7431712898691415e-06   9.997175378914983e-07   -1.5493320011226335e-07
-5.589901220229571e-06   1.1305211125033662e-06   1.1778012057215518e-06
-5.589901220229571e-06   1.1305211125033662e-06   1.1778012057215518e-06
-5.589901220229571e-06   1.1305211125033662e-06   1.1778012057215518e-06
-5.589901220229571e-06   1.1305211125033662e-06   1.1778012057215518e-06
-4.743171289869155e-06   1.237657308445861e-06   3.3489132609041523e-06
-4.743171289869155e-06   1.237657308445861e-06   3.3489132609041523e-06
-4.743171289869155e-06   1.237657308445861e-06   3.3489132609041523e-06
-4.743171289869155e-06   1.237657308445861e-06   3.3489132609041523e-06
-6.845479166478976e-06   9.997175378914983e-07   -2.97697062444862e-07
-6.845479166478976e-06   9.997175378914983e-07   -2.97697062444862e-07
-6.845479166478976e-06   9.997175378914983e-07   -2.97697062444862e-07
-6.845479166478976e-06   9.997175378914983e-07   -2.97697062444862e-07
-7.023105678480219e-06   1.1290659643049773e-06   4.102718808121934e-06
-7.023105678480219e-06   1.1290659643049773e-06   4.102718808121934e-06
-7.023105678480219e-06   1.1290659643049773e-06   4.102718808121934e-06
-7.023105678480219e-06   1.1290659643049773e-06   4.102718808121934e-06
-4.825805676127229e-06   8.927358290157516e-07   5.823502187071998e-07
-4.825805676127229e-06   8.927358290157516e-07   5.823502187071998e-07
-4.825805676127229e-06   8.927358290157516e-07   5.823502187071998e-07
-4.825805676127229e-06   8.927358290157516e-07   5.823502187071998e-07
-5.621041632539022e-06   1.0834861156245636e-06   1.793293307428219e-06
-5.621041632539022e-06   1.0834861156245636e-06   1.793293307428219e-06
-5.621041632539022e-06   1.0834861156245636e-06   1.793293307428219e-06
-5.621041632539022e-06   1.0834861156245636e-06   1.793293307428219e-06
2.322014608139997e-06   -2.6802768375537166e-07   2.9999801455000844e-06
2.322014608139997e-06   -2.6802768375537166e-07   2.9999801455000844e-06
2.322014608139997e-06   -2.6802768375537166e-07   2.9999801455000844e-06
2.322014608139997e-06   -2.6802768375537166e-07   2.9999801455000844e-06
6.78721994661503e-07   -3.506292549064634e-08   4.009379779947638e-07
6.78721994661503e-07   -3.506292549064634e-08   4.009379779947638e-07
6.78721994661503e-07   -3.506292549064634e-08   4.009379779947638e-07
6.78721994661503e-07   -3.506292549064634e-08   4.009379779947638e-07
6.12498155137148e-07   -3.581118333929954e-07   2.7724751125088445e-06
6.12498155137148e-07   -3.581118333929954e-07   2.7724751125088445e-06
6.12498155137148e-07   -3.581118333929954e-07   2.7724751125088445e-06
6.12498155137148e-07   -3.581118333929954e-07   2.7724751125088445e-06
2.156208371112368e-06   -1.1756351072175373e-07   5.529575894746246e-08
2.156208371112368e-06   -1.1756351072175373e-07   5.529575894746246e-08
2.156208371112368e-06   -1.1756351072175373e-07   5.529575894746246e-08
2.156208371112368e-06   -1.1756351072175373e-07   5.529575894746246e-08
1.360577107211462e-06   -2.0632596821356687e-07   1.4346053399441594e-06
1.360577107211462e-06   -2.0632596821356687e-07   1.4346053399441594e-06
1.360577107211462e-06   -2.0632596821356687e-07   1.4346053399441594e-06
1.360577107211462e-06   -2.0632596821356687e-07   1.4346053399441594e-06
2.1562083711123714e-06   -3.581118333929954e-07   2.6281461189061348e-06
2.1562083711123714e-06   -3.581118333929954e-07   2.6281461189061348e-06
2.1562083711123714e-06   -3.581118333929954e-07   2.6281461189061348e-06
2.1562083711123714e-06   -3.581118333929954e-07   2.6281461189061348e-06
6.124981551371472e-07   -1.1756351072175373e-07   1.9962475255019254e-07
6.124981551371472e-07   -1.1756351072175373e-07   1.9962475255019254e-07
6.124981551371472e-07   -1.1756351072175373e-07   1.9962475255019254e-07
6.124981551371472e-07   -1.1756351072175373e-07   1.9962475255019254e-07
5.340159401942544e-07   -3.8767157232988663e-07   2.5856841854673447e-06
5.340159401942544e-07   -3.8767157232988663e-07   2.5856841854673447e-06
5.340159401942544e-07   -3.8767157232988663e-07   2.5856841854673447e-06
5.340159401942544e-07   -3.8767157232988663e-07   2.5856841854673447e-06
2.014320052642703e-06   -1.510723676087511e-07   -2.3448858112743104e-08
2.014320052642703e-06   -1.510723676087511e-07   -2.3448858112743104e-08
2.014320052642703e-06   -1.510723676087511e-07   -2.3448858112743104e-08
2.014320052642703e-06   -1.510723676087511e-07   -2.3448858112743104e-08
1.2854472354156157e-06   -2.425407578445784e-07   1.2462202047405787e-06
1.2854472354156157e-06   -2.425407578445784e-07   1.2462202047405787e-06
1.2854472354156157e-06   -2.425407578445784e-07   1.2462202047405787e-06
1.2854472354156157e-06   -2.425407578445784e-07   1.2462202047405787e-06
2.014320052642708e-06   -3.876715723298595e-07   2.4437246626346715e-06
2.014320052642708e-06   -3.876715723298595e-07   2.4437246626346715e-06
2.014320052642708e-06   -3.876715723298595e-07   2.4437246626346715e-06
2.014320052642708e-06   -3.876715723298595e-07   2.4437246626346715e-06
5.340159401942519e-07   -1.510723676087511e-07   1.1851066471994364e-07
5.340159401942519e-07   -1.510723676087511e-07   1.1851066471994364e-07
5.340159401942519e-07   -1.510723676087511e-07   1.1851066471994364e-07
5.340159401942519e-07   -1.510723676087511e-07   1.1851066471994364e-07
4.653384996235251e-07   -4.2208232167430205e-07   2.3571804102178026e-06
4.653384996235251e-07   -4.2208232167430205e-07   2.3571804102178026e-06
4.653384996235251e-07   -4.2208232167430205e-07   2.3571804102178026e-06
4.653384996235251e-07   -4.2208232167430205e-07   2.3571804102178026e-06
1.8460136750348752e-06   -2.0298777389212222e-07   -7.540161080369352e-08
1.8460136750348752e-06   -2.0298777389212222e-07   -7.540161080369352e-08
1.8460136750348752e-06   -2.0298777389212222e-07   -7.540161080369352e-08
1.8460136750348752e-06   -2.0298777389212222e-07   -7.540161080369352e-08
1.1607940506414057e-06   -2.574548643168473e-07   1.0993113507736177e-06
1.1607940506414057e-06   -2.574548643168473e-07   1.0993113507736177e-06
1.1607940506414057e-06   -2.574548643168473e-07   1.0993113507736177e-06
1.1607940506414057e-06   -2.574548643168473e-07   1.0993113507736177e-06
6.787219946615038e-07   1.0505161019335948e-07   3.984470869077271e-06
6.787219946615038e-07   1.0505161019335948e-07   3.984470869077271e-06
6.787219946615038e-07   1.0505161019335948e-07   3.984470869077271e-06
6.787219946615038e-07   1.0505161019335948e-07   3.984470869077271e-06
-8.06330849155515e-07   2.147623804264298e-07   1.5752092581887504e-06
-8.06330849155515e-07   2.147623804264298e-07   1.5752092581887504e-06
-8.06330849155515e-07   2.147623804264298e-07   1.5752092581887504e-06
-8.06330849155515e-07   2.147623804264298e-07   1.5752092581887504e-06
-8.652197781813067e-07   1.6424655342121407e-08   3.9914649289401105e-06
-8.652197781813067e-07   1.6424655342121407e-08   3.9914649289401105e-06
-8.652197781813067e-07   1.6424655342121407e-08   3.9914649289401105e-06
-8.652197781813067e-07   1.6424655342121407e-08   3.9914649289401105e-06
6.124981551371472e-07   1.2428065357920773e-07   1.463888107800473e-06
6.124981551371472e-07   1.2428065357920773e-07   1.463888107800473e-06
6.124981551371472e-07   1.2428065357920773e-07   1.463888107800473e-06
6.124981551371472e-07   1.2428065357920773e-07   1.463888107800473e-06
-1.070588615258054e-07   1.0492754311448339e-07   2.6747616685176537e-06
-1.070588615258054e-07   1.0492754311448339e-07   2.6747616685176537e-06
-1.070588615258054e-07   1.0492754311448339e-07   2.6747616685176537e-06
-1.070588615258054e-07   1.0492754311448339e-07   2.6747616685176537e-06
6.12498155137148e-07   1.6424655342148512e-08   3.926751329997826e-06
6.12498155137148e-07   1.6424655342148512e-08   3.926751329997826e-06
6.12498155137148e-07   1.6424655342148512e-08   3.926751329997826e-06
6.12498155137148e-07   1.6424655342148512e-08   3.926751329997826e-06
-8.652197781813067e-07   1.2428065357923484e-07   1.5286017067427159e-06
-8.652197781813067e-07   1.2428065357923484e-07   1.5286017067427159e-06
-8.652197781813067e-07   1.2428065357923484e-07   1.5286017067427159e-06
-8.652197781813067e-07   1.2428065357923484e-07   1.5286017067427159e-06
-9.261277276781801e-07   -5.416822268137318e-08   3.954594693241886e-06
-9.261277276781801e-07   -5.416822268137318e-08   3.954594693241886e-06
-9.261277276781801e-07   -5.416822268137318e-08   3.954594693241886e-06
-9.261277276781801e-07   -5.416822268137318e-08   3.954594693241886e-06
5.340159401942519e-07   4.963082005066772e-08   1.4587424878153215e-06
5.340159401942519e-07   4.963082005066772e-08   1.4587424878153215e-06
5.340159401942519e-07   4.963082005066772e-08   1.4587424878153215e-06
5.340159401942519e-07   4.963082005066772e-08   1.4587424878153215e-06
-1.7077324711430007e-07   4.310452137758214e-08   2.6373069125334485e-06
-1.7077324711430007e-07   4.310452137758214e-08   2.6373069125334485e-06
-1.7077324711430007e-07   4.310452137758214e-08   2.6373069125334485e-06
-1.7077324711430007e-07   4.310452137758214e-08   2.6373069125334485e-06
5.340159401942544e-07   -5.4168222681346074e-08   3.89231526760271e-06
5.340159401942544e-07   -5.4168222681346074e-08   3.89231526760271e-06
5.340159401942544e-07   -5.4168222681346074e-08   3.89231526760271e-06
5.340159401942544e-07   -5.4168222681346074e-08   3.89231526760271e-06
-9.261277276781801e-07   4.963082005066772e-08   1.521021913454532e-06
-9.261277276781801e-07   4.963082005066772e-08   1.521021913454532e-06
-9.261277276781801e-07   4.963082005066772e-08   1.521021913454532e-06
-9.261277276781801e-07   4.963082005066772e-08   1.521021913454532e-06
-9.86468921535933e-07   -1.2128865569755115e-07   3.995131735762427e-06
-9.86468921535933e-07   -1.2128865569755115e-07   3.995131735762427e-06
-9.86468921535933e-07   -1.2128865569755115e-07   3.995131735762427e-06
-9.86468921535933e-07   -1.2128865569755115e-07   3.995131735762427e-06
4.653384996235234e-07   -2.4167812586172463e-08   1.5171801946298702e-06
4.653384996235234e-07   -2.4167812586172463e-08   1.5171801946298702e-06
4.653384996235234e-07   -2.4167812586172463e-08   1.5171801946298702e-06
4.653384996235234e-07   -2.4167812586172463e-08   1.5171801946298702e-06
-2.2334739489981816e-07   -1.0045537309107122e-08   2.6565166536692382e-06
-2.2334739489981816e-07   -1.0045537309107122e-08   2.6565166536692382e-06
-2.2334739489981816e-07   -1.0045537309107122e-08   2.6565166536692382e-06
-2.2334739489981816e-07   -1.0045537309107122e-08   2.6565166536692382e-06
-8.06330849155515e-07   4.4778753971694307e-07   4.392549728209739e-06
-8.06330849155515e-07   4.4778753971694307e-07   4.392549728209739e-06
-8.06330849155515e-07   4.4778753971694307e-07   4.392549728209739e-06
-8.06330849155515e-07   4.4778753971694307e-07   4.392549728209739e-06
-2.2582497159006314e-06   4.285890335869785e-07   1.9611658466232222e-06
-2.2582497159006314e-06   4.285890335869785e-07   1.9611658466232222e-06
-2.2582497159006314e-06   4.285890335869785e-07   1.9611658466232222e-06
-2.2582497159006314e-06   4.285890335869785e-07   1.9611658466232222e-06
-2.315389395948934e-06   3.694001854642303e-07   4.353210877545613e-06
-2.315389395948934e-06   3.694001854642303e-07   4.353210877545613e-06
-2.315389395948934e-06   3.694001854642303e-07   4.353210877545613e-06
-2.315389395948934e-06   3.694001854642303e-07   4.353210877545613e-06
-8.652197781813033e-07   3.47248078874326e-07   1.949552778553533e-06
-8.652197781813033e-07   3.47248078874326e-07   1.949552778553533e-06
-8.652197781813033e-07   3.47248078874326e-07   1.949552778553533e-06
-8.652197781813033e-07   3.47248078874326e-07   1.949552778553533e-06
-1.5648346476480766e-06   3.868518345258559e-07   3.091815307607378e-06
-1.5648346476480766e-06   3.868518345258559e-07   3.091815307607378e-06
-1.5648346476480766e-06   3.868518345258559e-07   3.091815307607378e-06
-1.5648346476480766e-06   3.868518345258559e-07   3.091815307607378e-06
-8.652197781813067e-07   3.694001854642303e-07   4.366502141499556e-06
-8.652197781813067e-07   3.694001854642303e-07   4.366502141499556e-06
-8.652197781813067e-07   3.694001854642303e-07   4.366502141499556e-06
-8.652197781813067e-07   3.694001854642303e-07   4.366502141499556e-06
-2.315389395948924e-06   3.47248078874326e-07   1.9362615145996107e-06
-2.315389395948924e-06   3.47248078874326e-07   1.9362615145996107e-06
-2.315389395948924e-06   3.47248078874326e-07   1.9362615145996107e-06
-2.315389395948924e-06   3.47248078874326e-07   1.9362615145996107e-06
-2.374156559941804e-06   2.919799317704409e-07   4.375745097008951e-06
-2.374156559941804e-06   2.919799317704409e-07   4.375745097008951e-06
-2.374156559941804e-06   2.919799317704409e-07   4.375745097008951e-06
-2.374156559941804e-06   2.919799317704409e-07   4.375745097008951e-06
-9.261277276781767e-07   2.6638481339592477e-07   1.977720780927631e-06
-9.261277276781767e-07   2.6638481339592477e-07   1.977720780927631e-06
-9.261277276781767e-07   2.6638481339592477e-07   1.977720780927631e-06
-9.261277276781767e-07   2.6638481339592477e-07   1.977720780927631e-06
-1.6152055512356553e-06   3.259408053587695e-07   3.0904502250123883e-06
-1.6152055512356553e-06   3.259408053587695e-07   3.0904502250123883e-06
-1.6152055512356553e-06   3.259408053587695e-07   3.0904502250123883e-06
-1.6152055512356553e-06   3.259408053587695e-07   3.0904502250123883e-06
-9.261277276781801e-07   2.919799317704409e-07   4.391102168033656e-06
-9.261277276781801e-07   2.919799317704409e-07   4.391102168033656e-06
-9.261277276781801e-07   2.919799317704409e-07   4.391102168033656e-06
-9.261277276781801e-07   2.919799317704409e-07   4.391102168033656e-06
-2.3741565599418004e-06   2.6638481339595187e-07   1.96236370990294e-06
-2.3741565599418004e-06   2.6638481339595187e-07   1.96236370990294e-06
-2.3741565599418004e-06   2.6638481339595187e-07   1.96236370990294e-06
-2.3741565599418004e-06   2.6638481339595187e-07   1.96236370990294e-06
-2.431838222533936e-06   2.1775448678411293e-07   4.438145746887785e-06
-2.431838222533936e-06   2.1775448678411293e-07   4.438145746887785e-06
-2.431838222533936e-06   2.1775448678411293e-07   4.438145746887785e-06
-2.431838222533936e-06   2.1775448678411293e-07   4.438145746887785e-06
-9.864689215359296e-07   1.8949839429737076e-07   2.046150567383201e-06
-9.864689215359296e-07   1.8949839429737076e-07   2.046150567383201e-06
-9.864689215359296e-07   1.8949839429737076e-07   2.046150567383201e-06
-9.864689215359296e-07   1.8949839429737076e-07   2.046150567383201e-06
-1.6690658217873385e-06   2.6652254354826753e-07   3.137597578251714e-06
-1.6690658217873385e-06   2.6652254354826753e-07   3.137597578251714e-06
-1.6690658217873385e-06   2.6652254354826753e-07   3.137597578251714e-06
-1.6690658217873385e-06   2.6652254354826753e-07   3.137597578251714e-06
-2.2582497159006314e-06   7.828640637337918e-07   3.888403040327391e-06
-2.2582497159006314e-06   7.828640637337918e-07   3.888403040327391e-06
-2.2582497159006314e-06   7.828640637337918e-07   3.888403040327391e-06
-2.2582497159006314e-06   7.828640637337918e-07   3.888403040327391e-06
-3.695001622706409e-06   6.509663685519006e-07   1.4146779118753071e-06
-3.695001622706409e-06   6.509663685519006e-07   1.4146779118753071e-06
-3.695001622706409e-06   6.509663685519006e-07   1.4146779118753071e-06
-3.695001622706409e-06   6.509663685519006e-07   1.4146779118753071e-06
-3.7579847848702325e-06   7.07790140854755e-07   3.821080090924469e-06
-3.7579847848702325e-06   7.07790140854755e-07   3.821080090924469e-06
-3.7579847848702325e-06   7.07790140854755e-07   3.821080090924469e-06
-3.7579847848702325e-06   7.07790140854755e-07   3.821080090924469e-06
-2.3153893959489205e-06   5.698862049791792e-07   1.49949680424765e-06
-2.3153893959489205e-06   5.698862049791792e-07   1.49949680424765e-06
-2.3153893959489205e-06   5.698862049791792e-07   1.49949680424765e-06
-2.3153893959489205e-06   5.698862049791792e-07   1.49949680424765e-06
-2.9991200277487396e-06   6.64232359356764e-07   2.5824401646209756e-06
-2.9991200277487396e-06   6.64232359356764e-07   2.5824401646209756e-06
-2.9991200277487396e-06   6.64232359356764e-07   2.5824401646209756e-06
-2.9991200277487396e-06   6.64232359356764e-07   2.5824401646209756e-06
-2.315389395948934e-06   7.07790140854755e-07   3.903822452449793e-06
-2.315389395948934e-06   7.07790140854755e-07   3.903822452449793e-06
-2.315389395948934e-06   7.07790140854755e-07   3.903822452449793e-06
-2.315389395948934e-06   7.07790140854755e-07   3.903822452449793e-06
-3.7579847848702257e-06   5.698862049792063e-07   1.4167544427223262e-06
-3.7579847848702257e-06   5.698862049792063e-07   1.4167544427223262e-06
-3.7579847848702257e-06   5.698862049792063e-07   1.4167544427223262e-06
-3.7579847848702257e-06   5.698862049792063e-07   1.4167544427223262e-06
-3.831732966943383e-06   6.36728722493439e-07   3.945671301090579e-06
-3.831732966943383e-06   6.36728722493439e-07   3.945671301090579e-06
-3.831732966943383e-06   6.36728722493439e-07   3.945671301090579e-06
-3.831732966943383e-06   6.36728722493439e-07   3.945671301090579e-06
-2.374156559941797e-06   4.948144900683257e-07   1.601525828876352e-06
-2.374156559941797e-06   4.948144900683257e-07   1.601525828876352e-06
-2.374156559941797e-06   4.948144900683257e-07   1.601525828876352e-06
-2.374156559941797e-06   4.948144900683257e-07   1.601525828876352e-06
-3.037739613030495e-06   6.076291154979128e-07   2.6398088087664076e-06
-3.037739613030495e-06   6.076291154979128e-07   2.6398088087664076e-06
-3.037739613030495e-06   6.076291154979128e-07   2.6398088087664076e-06
-3.037739613030495e-06   6.076291154979128e-07   2.6398088087664076e-06
-2.3741565599418004e-06   6.36728722493439e-07   4.030819840545604e-06
-2.3741565599418004e-06   6.36728722493439e-07   4.030819840545604e-06
-2.3741565599418004e-06   6.36728722493439e-07   4.030819840545604e-06
-2.3741565599418004e-06   6.36728722493439e-07   4.030819840545604e-06
-3.831732966943377e-06   4.948144900683257e-07   1.51637728942128e-06
-3.831732966943377e-06   4.948144900683257e-07   1.51637728942128e-06
-3.831732966943377e-06   4.948144900683257e-07   1.51637728942128e-06
-3.831732966943377e-06   4.948144900683257e-07   1.51637728942128e-06
-3.893956092370684e-06   5.557174063343547e-07   4.060589911179243e-06
-3.893956092370684e-06   5.557174063343547e-07   4.060589911179243e-06
-3.893956092370684e-06   5.557174063343547e-07   4.060589911179243e-06
-3.893956092370684e-06   5.557174063343547e-07   4.060589911179243e-06
-2.4318382225339222e-06   4.1315464461059125e-07   1.7092644518189502e-06
-2.4318382225339222e-06   4.1315464461059125e-07   1.7092644518189502e-06
-2.4318382225339222e-06   4.1315464461059125e-07   1.7092644518189502e-06
-2.4318382225339222e-06   4.1315464461059125e-07   1.7092644518189502e-06
-3.1082670495007987e-06   5.493945770102503e-07   2.7549018706574e-06
-3.1082670495007987e-06   5.493945770102503e-07   2.7549018706574e-06
-3.1082670495007987e-06   5.493945770102503e-07   2.7549018706574e-06
-3.1082670495007987e-06   5.493945770102503e-07   2.7549018706574e-06
-3.6950016227064225e-06   1.0502074571682775e-06   1.8504389501394108e-06
-3.6950016227064225e-06   1.0502074571682775e-06   1.8504389501394108e-06
-3.6950016227064225e-06   1.0502074571682775e-06   1.8504389501394108e-06
-3.6950016227064225e-06   1.0502074571682775e-06   1.8504389501394108e-06
-5.034120466998647e-06   8.231511731689829e-07   -5.17659560747166e-07
-5.034120466998647e-06   8.231511731689829e-07   -5.17659560747166e-07
-5.034120466998647e-06   8.231511731689829e-07   -5.17659560747166e-07
-5.034120466998647e-06   8.231511731689829e-07   -5.17659560747166e-07
-5.197466862898497e-06   1.0301983524987413e-06   2.3086906576920267e-06
-5.197466862898497e-06   1.0301983524987413e-06   2.3086906576920267e-06
-5.197466862898497e-06   1.0301983524987413e-06   2.3086906576920267e-06
-5.197466862898497e-06   1.0301983524987413e-06   2.3086906576920267e-06
-3.757984784870219e-06   7.838301260127388e-07   5.73747968699072e-08
-3.757984784870219e-06   7.838301260127388e-07   5.73747968699072e-08
-3.757984784870219e-06   7.838301260127388e-07   5.73747968699072e-08
-3.757984784870219e-06   7.838301260127388e-07   5.73747968699072e-08
-4.258959927444349e-06   9.018728962439308e-07   8.215077056882388e-07
-4.258959927444349e-06   9.018728962439308e-07   8.215077056882388e-07
-4.258959927444349e-06   9.018728962439308e-07   8.215077056882388e-07
-4.258959927444349e-06   9.018728962439308e-07   8.215077056882388e-07
-3.757984784870219e-06   1.0301983524987142e-06   2.45651159358365e-06
-3.757984784870219e-06   1.0301983524987142e-06   2.45651159358365e-06
-3.757984784870219e-06   1.0301983524987142e-06   2.45651159358365e-06
-3.757984784870219e-06   1.0301983524987142e-06   2.45651159358365e-06
-5.197466862898504e-06   7.838301260127388e-07   -9.044613902170923e-08
-5.197466862898504e-06   7.838301260127388e-07   -9.044613902170923e-08
-5.197466862898504e-06   7.838301260127388e-07   -9.044613902170923e-08
-5.197466862898504e-06   7.838301260127388e-07   -9.044613902170923e-08
-5.336183876965409e-06   9.997175378914983e-07   2.7344311978932598e-06
-5.336183876965409e-06   9.997175378914983e-07   2.7344311978932598e-06
-5.336183876965409e-06   9.997175378914983e-07   2.7344311978932598e-06
-5.336183876965409e-06   9.997175378914983e-07   2.7344311978932598e-06
-3.831732966943377e-06   7.482020916958223e-07   3.779222822406365e-07
-3.831732966943377e-06   7.482020916958223e-07   3.779222822406365e-07
-3.831732966943377e-06   7.482020916958223e-07   3.779222822406365e-07
-3.831732966943377e-06   7.482020916958223e-07   3.779222822406365e-07
-4.419991463943869e-06   8.93521873858872e-07   1.2711612412770256e-06
-4.419991463943869e-06   8.93521873858872e-07   1.2711612412770256e-06
-4.419991463943869e-06   8.93521873858872e-07   1.2711612412770256e-06
-4.419991463943869e-06   8.93521873858872e-07   1.2711612412770256e-06
-3.831732966943377e-06   9.997175378914983e-07   2.885340465610671e-06
-3.831732966943377e-06   9.997175378914983e-07   2.885340465610671e-06
-3.831732966943377e-06   9.997175378914983e-07   2.885340465610671e-06
-3.831732966943377e-06   9.997175378914983e-07   2.885340465610671e-06
-5.336183876965423e-06   7.482020916958223e-07   2.270130145232187e-07
-5.336183876965423e-06   7.482020916958223e-07   2.270130145232187e-07
-5.336183876965423e-06   7.482020916958223e-07   2.270130145232187e-07
-5.336183876965423e-06   7.482020916958223e-07   2.270130145232187e-07
-5.50007161943438e-06   8.927358290157516e-07   3.4820574750489357e-06
-5.50007161943438e-06   8.927358290157516e-07   3.4820574750489357e-06
-5.50007161943438e-06   8.927358290157516e-07   3.4820574750489357e-06
-5.50007161943438e-06   8.927358290157516e-07   3.4820574750489357e-06
-3.893956092370671e-06   6.467803162169493e-07   9.527715709554019e-07
-3.893956092370671e-06   6.467803162169493e-07   9.527715709554019e-07
-3.893956092370671e-06   6.467803162169493e-07   9.527715709554019e-07
-3.893956092370671e-06   6.467803162169493e-07   9.527715709554019e-07
-4.451301504424795e-06   8.473775558631475e-07   1.7613222472579566e-06
-4.451301504424795e-06   8.473775558631475e-07   1.7613222472579566e-06
-4.451301504424795e-06   8.473775558631475e-07   1.7613222472579566e-06
-4.451301504424795e-06   8.473775558631475e-07   1.7613222472579566e-06
7.388443027160846e-07   -3.506292549061924e-08   2.335582476942544e-06
7.388443027160846e-07   -3.506292549061924e-08   2.335582476942544e-06
7.388443027160846e-07   -3.506292549061924e-08   2.335582476942544e-06
7.388443027160846e-07   -3.506292549061924e-08   2.335582476942544e-06
-2.833695289168921e-07   1.9543469444543147e-07   7.701913295158914e-07
-2.833695289168921e-07   1.9543469444543147e-07   7.701913295158914e-07
-2.833695289168921e-07   1.9543469444543147e-07   7.701913295158914e-07
-2.833695289168921e-07   1.9543469444543147e-07   7.701913295158914e-07
-3.344548850266998e-07   -1.1756351072175373e-07   2.2687389378032253e-06
-3.344548850266998e-07   -1.1756351072175373e-07   2.2687389378032253e-06
-3.344548850266998e-07   -1.1756351072175373e-07   2.2687389378032253e-06
-3.344548850266998e-07   -1.1756351072175373e-07   2.2687389378032253e-06
5.868042785301695e-07   1.1818656115054893e-07   5.918569554184021e-07
5.868042785301695e-07   1.1818656115054893e-07   5.918569554184021e-07
5.868042785301695e-07   1.1818656115054893e-07   5.918569554184021e-07
5.868042785301695e-07   1.1818656115054893e-07   5.918569554184021e-07
1.4530663316921679e-07   2.6006265042930604e-08   1.3829945420178945e-06
1.4530663316921679e-07   2.6006265042930604e-08   1.3829945420178945e-06
1.4530663316921679e-07   2.6006265042930604e-08   1.3829945420178945e-06
1.4530663316921679e-07   2.6006265042930604e-08   1.3829945420178945e-06
5.868042785301695e-07   -1.1756351072175373e-07   2.1272888946798546e-06
5.868042785301695e-07   -1.1756351072175373e-07   2.1272888946798546e-06
5.868042785301695e-07   -1.1756351072175373e-07   2.1272888946798546e-06
5.868042785301695e-07   -1.1756351072175373e-07   2.1272888946798546e-06
-3.344548850266998e-07   1.1818656115054893e-07   7.333069985417763e-07
-3.344548850266998e-07   1.1818656115054893e-07   7.333069985417763e-07
-3.344548850266998e-07   1.1818656115054893e-07   7.333069985417763e-07
-3.344548850266998e-07   1.1818656115054893e-07   7.333069985417763e-07
-3.9826350067151947e-07   -1.510723676087511e-07   2.1872404091190017e-06
-3.9826350067151947e-07   -1.510723676087511e-07   2.1872404091190017e-06
-3.9826350067151947e-07   -1.510723676087511e-07   2.1872404091190017e-06
-3.9826350067151947e-07   -1.510723676087511e-07   2.1872404091190017e-06
4.530377179070741e-07   7.859157257026229e-08   6.306066807139218e-07
4.530377179070741e-07   7.859157257026229e-08   6.306066807139218e-07
4.530377179070741e-07   7.859157257026229e-08   6.306066807139218e-07
4.530377179070741e-07   7.859157257026229e-08   6.306066807139218e-07
6.63085204550135e-08   -6.686486926209961e-09   1.3263221788319127e-06
6.63085204550135e-08   -6.686486926209961e-09   1.3263221788319127e-06
6.63085204550135e-08   -6.686486926209961e-09   1.3263221788319127e-06
6.63085204550135e-08   -6.686486926209961e-09   1.3263221788319127e-06
4.530377179070758e-07   -1.510723676087511e-07   2.049442045011564e-06
4.530377179070758e-07   -1.510723676087511e-07   2.049442045011564e-06
4.530377179070758e-07   -1.510723676087511e-07   2.049442045011564e-06
4.530377179070758e-07   -1.510723676087511e-07   2.049442045011564e-06
-3.982635006715178e-07   7.859157257026229e-08   7.684050448213359e-07
-3.982635006715178e-07   7.859157257026229e-08   7.684050448213359e-07
-3.982635006715178e-07   7.859157257026229e-08   7.684050448213359e-07
-3.982635006715178e-07   7.859157257026229e-08   7.684050448213359e-07
-4.527795764646363e-07   -2.0298777389212222e-07   2.1256402131158086e-06
-4.527795764646363e-07   -2.0298777389212222e-07   2.1256402131158086e-06
-4.527795764646363e-07   -2.0298777389212222e-07   2.1256402131158086e-06
-4.527795764646363e-07   -2.0298777389212222e-07   2.1256402131158086e-06
2.8377178865946796e-07   -2.5537152910436005e-09   7.777941694150173e-07
2.8377178865946796e-07   -2.5537152910436005e-09   7.777941694150173e-07
2.8377178865946796e-07   -2.5537152910436005e-09   7.777941694150173e-07
2.8377178865946796e-07   -2.5537152910436005e-09   7.777941694150173e-07
-2.9091686251941036e-08   -3.2362827960346306e-08   1.3171187618689315e-06
-2.9091686251941036e-08   -3.2362827960346306e-08   1.3171187618689315e-06
-2.9091686251941036e-08   -3.2362827960346306e-08   1.3171187618689315e-06
-2.9091686251941036e-08   -3.2362827960346306e-08   1.3171187618689315e-06
-2.833695289168921e-07   2.147623804264298e-07   3.582325866958289e-06
-2.833695289168921e-07   2.147623804264298e-07   3.582325866958289e-06
-2.833695289168921e-07   2.147623804264298e-07   3.582325866958289e-06
-2.833695289168921e-07   2.147623804264298e-07   3.582325866958289e-06
-1.1331820174545017e-06   2.6582075988019734e-07   2.1966067470678756e-06
-1.1331820174545017e-06   2.6582075988019734e-07   2.1966067470678756e-06
-1.1331820174545017e-06   2.6582075988019734e-07   2.1966067470678756e-06
-1.1331820174545017e-06   2.6582075988019734e-07   2.1966067470678756e-06
-1.1731817269381958e-06   1.2428065357920773e-07   3.5671142918513075e-06
-1.1731817269381958e-06   1.2428065357920773e-07   3.5671142918513075e-06
-1.1731817269381958e-06   1.2428065357920773e-07   3.5671142918513075e-06
-1.1731817269381958e-06   1.2428065357920773e-07   3.5671142918513075e-06
-3.344548850266998e-07   1.8113398490883785e-07   2.13512422320103e-06
-3.344548850266998e-07   1.8113398490883785e-07   2.13512422320103e-06
-3.344548850266998e-07   1.8113398490883785e-07   2.13512422320103e-06
-3.344548850266998e-07   1.8113398490883785e-07   2.13512422320103e-06
-7.384181424441641e-07   1.8501885584869845e-07   2.8060653963328665e-06
-7.384181424441641e-07   1.8501885584869845e-07   2.8060653963328665e-06
-7.384181424441641e-07   1.8501885584869845e-07   2.8060653963328665e-06
-7.384181424441641e-07   1.8501885584869845e-07   2.8060653963328665e-06
-3.34454885026699e-07   1.2428065357920773e-07   3.533002293053505e-06
-3.34454885026699e-07   1.2428065357920773e-07   3.533002293053505e-06
-3.34454885026699e-07   1.2428065357920773e-07   3.533002293053505e-06
-3.34454885026699e-07   1.2428065357920773e-07   3.533002293053505e-06
-1.1731817269381924e-06   1.8113398490883785e-07   2.1692362219987886e-06
-1.1731817269381924e-06   1.8113398490883785e-07   2.1692362219987886e-06
-1.1731817269381924e-06   1.8113398490883785e-07   2.1692362219987886e-06
-1.1731817269381924e-06   1.8113398490883785e-07   2.1692362219987886e-06
-1.214650489182073e-06   4.963082005064062e-08   3.561050640169035e-06
-1.214650489182073e-06   4.963082005064062e-08   3.561050640169035e-06
-1.214650489182073e-06   4.963082005064062e-08   3.561050640169035e-06
-1.214650489182073e-06   4.963082005064062e-08   3.561050640169035e-06
-3.982635006715178e-07   1.055948333083959e-07   2.1668272513634517e-06
-3.982635006715178e-07   1.055948333083959e-07   2.1668272513634517e-06
-3.982635006715178e-07   1.055948333083959e-07   2.1668272513634517e-06
-3.982635006715178e-07   1.055948333083959e-07   2.1668272513634517e-06
-7.797240152251599e-07   1.2469415974666583e-07   2.7911351797565902e-06
-7.797240152251599e-07   1.2469415974666583e-07   2.7911351797565902e-06
-7.797240152251599e-07   1.2469415974666583e-07   2.7911351797565902e-06
-7.797240152251599e-07   1.2469415974666583e-07   2.7911351797565902e-06
-3.9826350067151947e-07   4.963082005066772e-08   3.52747223221436e-06
-3.9826350067151947e-07   4.963082005066772e-08   3.52747223221436e-06
-3.9826350067151947e-07   4.963082005066772e-08   3.52747223221436e-06
-3.9826350067151947e-07   4.963082005066772e-08   3.52747223221436e-06
-1.214650489182073e-06   1.055948333083959e-07   2.2004056593180935e-06
-1.214650489182073e-06   1.055948333083959e-07   2.2004056593180935e-06
-1.214650489182073e-06   1.055948333083959e-07   2.2004056593180935e-06
-1.214650489182073e-06   1.055948333083959e-07   2.2004056593180935e-06
-1.2558866308481037e-06   -2.4167812586172463e-08   3.6171989449900014e-06
-1.2558866308481037e-06   -2.4167812586172463e-08   3.6171989449900014e-06
-1.2558866308481037e-06   -2.4167812586172463e-08   3.6171989449900014e-06
-1.2558866308481037e-06   -2.4167812586172463e-08   3.6171989449900014e-06
-4.527795764646363e-07   2.6554945930330406e-08   2.2482535325743202e-06
-4.527795764646363e-07   2.6554945930330406e-08   2.2482535325743202e-06
-4.527795764646363e-07   2.6554945930330406e-08   2.2482535325743202e-06
-4.527795764646363e-07   2.6554945930330406e-08   2.2482535325743202e-06
-8.200278466323035e-07   6.792815569108272e-08   2.8355100569973324e-06
-8.200278466323035e-07   6.792815569108272e-08   2.8355100569973324e-06
-8.200278466323035e-07   6.792815569108272e-08   2.8355100569973324e-06
-8.200278466323035e-07   6.792815569108272e-08   2.8355100569973324e-06
-1.1331820174544983e-06   4.285890335869785e-07   4.0104365867430056e-06
-1.1331820174544983e-06   4.285890335869785e-07   4.0104365867430056e-06
-1.1331820174544983e-06   4.285890335869785e-07   4.0104365867430056e-06
-1.1331820174544983e-06   4.285890335869785e-07   4.0104365867430056e-06
-1.965364972226187e-06   3.3618723145931824e-07   2.5680239141802604e-06
-1.965364972226187e-06   3.3618723145931824e-07   2.5680239141802604e-06
-1.965364972226187e-06   3.3618723145931824e-07   2.5680239141802604e-06
-1.965364972226187e-06   3.3618723145931824e-07   2.5680239141802604e-06
-2.0001914456988404e-06   3.47248078874326e-07   3.935594406385571e-06
-2.0001914456988404e-06   3.47248078874326e-07   3.935594406385571e-06
-2.0001914456988404e-06   3.47248078874326e-07   3.935594406385571e-06
-2.0001914456988404e-06   3.47248078874326e-07   3.935594406385571e-06
-1.1731817269381924e-06   2.5979648341338817e-07   2.6097158323943858e-06
-1.1731817269381924e-06   2.5979648341338817e-07   2.6097158323943858e-06
-1.1731817269381924e-06   2.5979648341338817e-07   2.6097158323943858e-06
-1.1731817269381924e-06   2.5979648341338817e-07   2.6097158323943858e-06
-1.5697866321837786e-06   3.3416090761917926e-07   3.22610535328021e-06
-1.5697866321837786e-06   3.3416090761917926e-07   3.22610535328021e-06
-1.5697866321837786e-06   3.3416090761917926e-07   3.22610535328021e-06
-1.5697866321837786e-06   3.3416090761917926e-07   3.22610535328021e-06
-1.1731817269381924e-06   3.47248078874326e-07   3.988065363662131e-06
-1.1731817269381924e-06   3.47248078874326e-07   3.988065363662131e-06
-1.1731817269381924e-06   3.47248078874326e-07   3.988065363662131e-06
-1.1731817269381924e-06   3.47248078874326e-07   3.988065363662131e-06
-2.0001914456988404e-06   2.5979648341338817e-07   2.557244875117819e-06
-2.0001914456988404e-06   2.5979648341338817e-07   2.557244875117819e-06
-2.0001914456988404e-06   2.5979648341338817e-07   2.557244875117819e-06
-2.0001914456988404e-06   2.5979648341338817e-07   2.557244875117819e-06
-2.0371333395695232e-06   2.6638481339595187e-07   3.96734350416371e-06
-2.0371333395695232e-06   2.6638481339595187e-07   3.96734350416371e-06
-2.0371333395695232e-06   2.6638481339595187e-07   3.96734350416371e-06
-2.0371333395695232e-06   2.6638481339595187e-07   3.96734350416371e-06
-1.214650489182073e-06   1.8237480759855152e-07   2.6469447569963777e-06
-1.214650489182073e-06   1.8237480759855152e-07   2.6469447569963777e-06
-1.214650489182073e-06   1.8237480759855152e-07   2.6469447569963777e-06
-1.214650489182073e-06   1.8237480759855152e-07   2.6469447569963777e-06
-1.599604522675961e-06   2.74123200503406e-07   3.2334857770766192e-06
-1.599604522675961e-06   2.74123200503406e-07   3.2334857770766192e-06
-1.599604522675961e-06   2.74123200503406e-07   3.2334857770766192e-06
-1.599604522675961e-06   2.74123200503406e-07   3.2334857770766192e-06
-1.214650489182073e-06   2.6638481339595187e-07   4.017749507642107e-06
-1.214650489182073e-06   2.6638481339595187e-07   4.017749507642107e-06
-1.214650489182073e-06   2.6638481339595187e-07   4.017749507642107e-06
-1.214650489182073e-06   2.6638481339595187e-07   4.017749507642107e-06
-2.0371333395695164e-06   1.8237480759855152e-07   2.5965387535179402e-06
-2.0371333395695164e-06   1.8237480759855152e-07   2.5965387535179402e-06
-2.0371333395695164e-06   1.8237480759855152e-07   2.5965387535179402e-06
-2.0371333395695164e-06   1.8237480759855152e-07   2.5965387535179402e-06
-2.0733358052580023e-06   1.8949839429737076e-07   4.0402102601859934e-06
-2.0733358052580023e-06   1.8949839429737076e-07   4.0402102601859934e-06
-2.0733358052580023e-06   1.8949839429737076e-07   4.0402102601859934e-06
-2.0733358052580023e-06   1.8949839429737076e-07   4.0402102601859934e-06
-1.2558866308481037e-06   1.1002080814651711e-07   2.7254815211933596e-06
-1.2558866308481037e-06   1.1002080814651711e-07   2.7254815211933596e-06
-1.2558866308481037e-06   1.1002080814651711e-07   2.7254815211933596e-06
-1.2558866308481037e-06   1.1002080814651711e-07   2.7254815211933596e-06
-1.632746228268506e-06   2.154174561012326e-07   3.2903428614545636e-06
-1.632746228268506e-06   2.154174561012326e-07   3.2903428614545636e-06
-1.632746228268506e-06   2.154174561012326e-07   3.2903428614545636e-06
-1.632746228268506e-06   2.154174561012326e-07   3.2903428614545636e-06
-1.9653649722262004e-06   6.509663685518735e-07   3.4876461878276548e-06
-1.9653649722262004e-06   6.509663685518735e-07   3.4876461878276548e-06
-1.9653649722262004e-06   6.509663685518735e-07   3.4876461878276548e-06
-1.9653649722262004e-06   6.509663685518735e-07   3.4876461878276548e-06
-2.79080537702287e-06   4.657850024080779e-07   2.0008033601469076e-06
-2.79080537702287e-06   4.657850024080779e-07   2.0008033601469076e-06
-2.79080537702287e-06   4.657850024080779e-07   2.0008033601469076e-06
-2.79080537702287e-06   4.657850024080779e-07   2.0008033601469076e-06
-2.8294042465847906e-06   5.698862049791792e-07   3.388299742025473e-06
-2.8294042465847906e-06   5.698862049791792e-07   3.388299742025473e-06
-2.8294042465847906e-06   5.698862049791792e-07   3.388299742025473e-06
-2.8294042465847906e-06   5.698862049791792e-07   3.388299742025473e-06
-2.0001914456988404e-06   3.856696149656257e-07   2.1168083612236937e-06
-2.0001914456988404e-06   3.856696149656257e-07   2.1168083612236937e-06
-2.0001914456988404e-06   3.856696149656257e-07   2.1168083612236937e-06
-2.0001914456988404e-06   3.856696149656257e-07   2.1168083612236937e-06
-2.3913091278265585e-06   5.107612442111203e-07   2.6936161872225938e-06
-2.3913091278265585e-06   5.107612442111203e-07   2.6936161872225938e-06
-2.3913091278265585e-06   5.107612442111203e-07   2.6936161872225938e-06
-2.3913091278265585e-06   5.107612442111203e-07   2.6936161872225938e-06
-2.0001914456988404e-06   5.698862049792063e-07   3.4988296960335836e-06
-2.0001914456988404e-06   5.698862049792063e-07   3.4988296960335836e-06
-2.0001914456988404e-06   5.698862049792063e-07   3.4988296960335836e-06
-2.0001914456988404e-06   5.698862049792063e-07   3.4988296960335836e-06
-2.829404246584777e-06   3.856696149656257e-07   2.0062784072155494e-06
-2.829404246584777e-06   3.856696149656257e-07   2.0062784072155494e-06
-2.829404246584777e-06   3.856696149656257e-07   2.0062784072155494e-06
-2.829404246584777e-06   3.856696149656257e-07   2.0062784072155494e-06
-2.8807513217275153e-06   4.948144900683257e-07   3.4976251175817326e-06
-2.8807513217275153e-06   4.948144900683257e-07   3.4976251175817326e-06
-2.8807513217275153e-06   4.948144900683257e-07   3.4976251175817326e-06
-2.8807513217275153e-06   4.948144900683257e-07   3.4976251175817326e-06
-2.0371333395695232e-06   3.1334698080934145e-07   2.200475652873838e-06
-2.0371333395695232e-06   3.1334698080934145e-07   2.200475652873838e-06
-2.0371333395695232e-06   3.1334698080934145e-07   2.200475652873838e-06
-2.0371333395695232e-06   3.1334698080934145e-07   2.200475652873838e-06
-2.4121403243376632e-06   4.5264914499298274e-07   2.7419059956438566e-06
-2.4121403243376632e-06   4.5264914499298274e-07   2.7419059956438566e-06
-2.4121403243376632e-06   4.5264914499298274e-07   2.7419059956438566e-06
-2.4121403243376632e-06   4.5264914499298274e-07   2.7419059956438566e-06
-2.0371333395695232e-06   4.948144900683257e-07   3.606505623137061e-06
-2.0371333395695232e-06   4.948144900683257e-07   3.606505623137061e-06
-2.0371333395695232e-06   4.948144900683257e-07   3.606505623137061e-06
-2.0371333395695232e-06   4.948144900683257e-07   3.606505623137061e-06
-2.880751321727495e-06   3.1334698080931435e-07   2.0915951473184216e-06
-2.880751321727495e-06   3.1334698080931435e-07   2.0915951473184216e-06
-2.880751321727495e-06   3.1334698080931435e-07   2.0915951473184216e-06
-2.880751321727495e-06   3.1334698080931435e-07   2.0915951473184216e-06
-2.9214509297999575e-06   4.1315464461061835e-07   3.6155152942384027e-06
-2.9214509297999575e-06   4.1315464461061835e-07   3.6155152942384027e-06
-2.9214509297999575e-06   4.1315464461061835e-07   3.6155152942384027e-06
-2.9214509297999575e-06   4.1315464461061835e-07   3.6155152942384027e-06
-2.0733358052579955e-06   2.385504681516181e-07   2.306752592543855e-06
-2.0733358052579955e-06   2.385504681516181e-07   2.306752592543855e-06
-2.0733358052579955e-06   2.385504681516181e-07   2.306752592543855e-06
-2.0733358052579955e-06   2.385504681516181e-07   2.306752592543855e-06
-2.455773589446888e-06   3.961633342631891e-07   2.8495811798584563e-06
-2.455773589446888e-06   3.961633342631891e-07   2.8495811798584563e-06
-2.455773589446888e-06   3.961633342631891e-07   2.8495811798584563e-06
-2.455773589446888e-06   3.961633342631891e-07   2.8495811798584563e-06
-2.79080537702287e-06   8.2315117316901e-07   1.5804336659184511e-06
-2.79080537702287e-06   8.2315117316901e-07   1.5804336659184511e-06
-2.79080537702287e-06   8.2315117316901e-07   1.5804336659184511e-06
-2.79080537702287e-06   8.2315117316901e-07   1.5804336659184511e-06
-3.4906541638620586e-06   5.69911474679872e-07   2.6207520209301485e-07
-3.4906541638620586e-06   5.69911474679872e-07   2.6207520209301485e-07
-3.4906541638620586e-06   5.69911474679872e-07   2.6207520209301485e-07
-3.4906541638620586e-06   5.69911474679872e-07   2.6207520209301485e-07
-3.6304626621058695e-06   7.838301260127117e-07   1.8687594482312748e-06
-3.6304626621058695e-06   7.838301260127117e-07   1.8687594482312748e-06
-3.6304626621058695e-06   7.838301260127117e-07   1.8687594482312748e-06
-3.6304626621058695e-06   7.838301260127117e-07   1.8687594482312748e-06
-2.829404246584784e-06   5.168957127764579e-07   6.938227369711905e-07
-2.829404246584784e-06   5.168957127764579e-07   6.938227369711905e-07
-2.829404246584784e-06   5.168957127764579e-07   6.938227369711905e-07
-2.829404246584784e-06   5.168957127764579e-07   6.938227369711905e-07
-3.0735413210742955e-06   6.629490834901986e-07   1.013085838692137e-06
-3.0735413210742955e-06   6.629490834901986e-07   1.013085838692137e-06
-3.0735413210742955e-06   6.629490834901986e-07   1.013085838692137e-06
-3.0735413210742955e-06   6.629490834901986e-07   1.013085838692137e-06
-2.829404246584784e-06   7.838301260127117e-07   2.028920096173e-06
-2.829404246584784e-06   7.838301260127117e-07   2.028920096173e-06
-2.829404246584784e-06   7.838301260127117e-07   2.028920096173e-06
-2.829404246584784e-06   7.838301260127117e-07   2.028920096173e-06
-3.630462662105883e-06   5.168957127764579e-07   5.336620890294349e-07
-3.630462662105883e-06   5.168957127764579e-07   5.336620890294349e-07
-3.630462662105883e-06   5.168957127764579e-07   5.336620890294349e-07
-3.630462662105883e-06   5.168957127764579e-07   5.336620890294349e-07
-3.748986958038237e-06   7.482020916958223e-07   2.1979622063004285e-06
-3.748986958038237e-06   7.482020916958223e-07   2.1979622063004285e-06
-3.748986958038237e-06   7.482020916958223e-07   2.1979622063004285e-06
-3.748986958038237e-06   7.482020916958223e-07   2.1979622063004285e-06
-2.8807513217275085e-06   4.795222515280816e-07   9.121107165498409e-07
-2.8807513217275085e-06   4.795222515280816e-07   9.121107165498409e-07
-2.8807513217275085e-06   4.795222515280816e-07   9.121107165498409e-07
-2.8807513217275085e-06   4.795222515280816e-07   9.121107165498409e-07
-3.194587151334443e-06   6.440832812464308e-07   1.3364338147304783e-06
-3.194587151334443e-06   6.440832812464308e-07   1.3364338147304783e-06
-3.194587151334443e-06   6.440832812464308e-07   1.3364338147304783e-06
-3.194587151334443e-06   6.440832812464308e-07   1.3364338147304783e-06
-2.8807513217275085e-06   7.482020916958223e-07   2.3591701104010485e-06
-2.8807513217275085e-06   7.482020916958223e-07   2.3591701104010485e-06
-2.8807513217275085e-06   7.482020916958223e-07   2.3591701104010485e-06
-2.8807513217275085e-06   7.482020916958223e-07   2.3591701104010485e-06
-3.7489869580382507e-06   4.795222515280816e-07   7.509028124491988e-07
-3.7489869580382507e-06   4.795222515280816e-07   7.509028124491988e-07
-3.7489869580382507e-06   4.795222515280816e-07   7.509028124491988e-07
-3.7489869580382507e-06   4.795222515280816e-07   7.509028124491988e-07
-3.896578082488926e-06   6.467803162169493e-07   2.7898624697974606e-06
-3.896578082488926e-06   6.467803162169493e-07   2.7898624697974606e-06
-3.896578082488926e-06   6.467803162169493e-07   2.7898624697974606e-06
-3.896578082488926e-06   6.467803162169493e-07   2.7898624697974606e-06
-2.9214509297999575e-06   3.889509818642031e-07   1.319348149260823e-06
-2.9214509297999575e-06   3.889509818642031e-07   1.319348149260823e-06
-2.9214509297999575e-06   3.889509818642031e-07   1.319348149260823e-06
-2.9214509297999575e-06   3.889509818642031e-07   1.319348149260823e-06
-3.2248962218649722e-06   6.014890583332761e-07   1.697567456821069e-06
-3.2248962218649722e-06   6.014890583332761e-07   1.697567456821069e-06
-3.2248962218649722e-06   6.014890583332761e-07   1.697567456821069e-06
-3.2248962218649722e-06   6.014890583332761e-07   1.697567456821069e-06
-9.616013811157022e-07   1.9543469444543147e-07   1.7584289099885863e-06
-9.616013811157022e-07   1.9543469444543147e-07   1.7584289099885863e-06
-9.616013811157022e-07   1.9543469444543147e-07   1.7584289099885863e-06
-9.616013811157022e-07   1.9543469444543147e-07   1.7584289099885863e-06
-1.2555977822567553e-06   4.0626657103320094e-07   1.3949340340394916e-06
-1.2555977822567553e-06   4.0626657103320094e-07   1.3949340340394916e-06
-1.2555977822567553e-06   4.0626657103320094e-07   1.3949340340394916e-06
-1.2555977822567553e-06   4.0626657103320094e-07   1.3949340340394916e-06
-1.2981483738397946e-06   1.1818656115054893e-07   1.8330865101741405e-06
-1.2981483738397946e-06   1.1818656115054893e-07   1.8330865101741405e-06
-1.2981483738397946e-06   1.1818656115054893e-07   1.8330865101741405e-06
-1.2981483738397946e-06   1.1818656115054893e-07   1.8330865101741405e-06
-1.1204883026648123e-06   3.0999834333303813e-07   1.4218993222396762e-06
-1.1204883026648123e-06   3.0999834333303813e-07   1.4218993222396762e-06
-1.1204883026648123e-06   3.0999834333303813e-07   1.4218993222396762e-06
-1.1204883026648123e-06   3.0999834333303813e-07   1.4218993222396762e-06
-1.1362856191151703e-06   2.3683291027879513e-07   1.4921274428228204e-06
-1.1362856191151703e-06   2.3683291027879513e-07   1.4921274428228204e-06
-1.1362856191151703e-06   2.3683291027879513e-07   1.4921274428228204e-06
-1.1362856191151703e-06   2.3683291027879513e-07   1.4921274428228204e-06
-1.120488302664814e-06   1.1818656115054893e-07   1.7179994408646199e-06
-1.120488302664814e-06   1.1818656115054893e-07   1.7179994408646199e-06
-1.120488302664814e-06   1.1818656115054893e-07   1.7179994408646199e-06
-1.120488302664814e-06   1.1818656115054893e-07   1.7179994408646199e-06
-1.2981483738397946e-06   3.0999834333303813e-07   1.536986391549163e-06
-1.2981483738397946e-06   3.0999834333303813e-07   1.536986391549163e-06
-1.2981483738397946e-06   3.0999834333303813e-07   1.536986391549163e-06
-1.2981483738397946e-06   3.0999834333303813e-07   1.536986391549163e-06
-1.3529805668568471e-06   7.859157257028939e-08   1.8587430741727175e-06
-1.3529805668568471e-06   7.859157257028939e-08   1.8587430741727175e-06
-1.3529805668568471e-06   7.859157257028939e-08   1.8587430741727175e-06
-1.3529805668568471e-06   7.859157257028939e-08   1.8587430741727175e-06
-1.277389563004503e-06   2.46372151586468e-07   1.6320897203424097e-06
-1.277389563004503e-06   2.46372151586468e-07   1.6320897203424097e-06
-1.277389563004503e-06   2.46372151586468e-07   1.6320897203424097e-06
-1.277389563004503e-06   2.46372151586468e-07   1.6320897203424097e-06
-1.2297173307460063e-06   1.961834723536118e-07   1.5827492074512318e-06
-1.2297173307460063e-06   1.961834723536118e-07   1.5827492074512318e-06
-1.2297173307460063e-06   1.961834723536118e-07   1.5827492074512318e-06
-1.2297173307460063e-06   1.961834723536118e-07   1.5827492074512318e-06
-1.2773895630045064e-06   7.859157257026229e-08   1.7580747267629642e-06
-1.2773895630045064e-06   7.859157257026229e-08   1.7580747267629642e-06
-1.2773895630045064e-06   7.859157257026229e-08   1.7580747267629642e-06
-1.2773895630045064e-06   7.859157257026229e-08   1.7580747267629642e-06
-1.3529805668568471e-06   2.46372151586468e-07   1.732758067752129e-06
-1.3529805668568471e-06   2.46372151586468e-07   1.732758067752129e-06
-1.3529805668568471e-06   2.46372151586468e-07   1.732758067752129e-06
-1.3529805668568471e-06   2.46372151586468e-07   1.732758067752129e-06
-1.391601287368132e-06   -2.5537152910707055e-09   1.9862700649741046e-06
-1.391601287368132e-06   -2.5537152910707055e-09   1.9862700649741046e-06
-1.391601287368132e-06   -2.5537152910707055e-09   1.9862700649741046e-06
-1.391601287368132e-06   -2.5537152910707055e-09   1.9862700649741046e-06
-1.4459437733371152e-06   9.149520375272891e-08   2.0204115234961078e-06
-1.4459437733371152e-06   9.149520375272891e-08   2.0204115234961078e-06
-1.4459437733371152e-06   9.149520375272891e-08   2.0204115234961078e-06
-1.4459437733371152e-06   9.149520375272891e-08   2.0204115234961078e-06
-1.306341255432234e-06   1.499756833874238e-07   1.7526523725404483e-06
-1.306341255432234e-06   1.499756833874238e-07   1.7526523725404483e-06
-1.306341255432234e-06   1.499756833874238e-07   1.7526523725404483e-06
-1.306341255432234e-06   1.499756833874238e-07   1.7526523725404483e-06
-1.2555977822567536e-06   2.6582075988022444e-07   3.280708425820958e-06
-1.2555977822567536e-06   2.6582075988022444e-07   3.280708425820958e-06
-1.2555977822567536e-06   2.6582075988022444e-07   3.280708425820958e-06
-1.2555977822567536e-06   2.6582075988022444e-07   3.280708425820958e-06
-1.397530694103717e-06   1.0704853644151241e-07   2.9488902386794587e-06
-1.397530694103717e-06   1.0704853644151241e-07   2.9488902386794587e-06
-1.397530694103717e-06   1.0704853644151241e-07   2.9488902386794587e-06
-1.397530694103717e-06   1.0704853644151241e-07   2.9488902386794587e-06
-1.4161964383922873e-06   1.8113398490886496e-07   3.1536300357130556e-06
-1.4161964383922873e-06   1.8113398490886496e-07   3.1536300357130556e-06
-1.4161964383922873e-06   1.8113398490886496e-07   3.1536300357130556e-06
-1.4161964383922873e-06   1.8113398490886496e-07   3.1536300357130556e-06
-1.2981483738397946e-06   4.5677819708296943e-08   3.0381569605792305e-06
-1.2981483738397946e-06   4.5677819708296943e-08   3.0381569605792305e-06
-1.2981483738397946e-06   4.5677819708296943e-08   3.0381569605792305e-06
-1.2981483738397946e-06   4.5677819708296943e-08   3.0381569605792305e-06
-1.3404968015280872e-06   1.303556339811809e-07   3.0579309848293297e-06
-1.3404968015280872e-06   1.303556339811809e-07   3.0579309848293297e-06
-1.3404968015280872e-06   1.303556339811809e-07   3.0579309848293297e-06
-1.3404968015280872e-06   1.303556339811809e-07   3.0579309848293297e-06
-1.2981483738397929e-06   1.8113398490883785e-07   3.2349037348333368e-06
-1.2981483738397929e-06   1.8113398490883785e-07   3.2349037348333368e-06
-1.2981483738397929e-06   1.8113398490883785e-07   3.2349037348333368e-06
-1.2981483738397929e-06   1.8113398490883785e-07   3.2349037348333368e-06
-1.416196438392284e-06   4.5677819708296943e-08   2.9568832614589103e-06
-1.416196438392284e-06   4.5677819708296943e-08   2.9568832614589103e-06
-1.416196438392284e-06   4.5677819708296943e-08   2.9568832614589103e-06
-1.416196438392284e-06   4.5677819708296943e-08   2.9568832614589103e-06
-1.4382492809852603e-06   1.055948333083959e-07   3.181593208053841e-06
-1.4382492809852603e-06   1.055948333083959e-07   3.181593208053841e-06
-1.4382492809852603e-06   1.055948333083959e-07   3.181593208053841e-06
-1.4382492809852603e-06   1.055948333083959e-07   3.181593208053841e-06
-1.3529805668568471e-06   -2.035862112659964e-08   3.115050757167456e-06
-1.3529805668568471e-06   -2.035862112659964e-08   3.115050757167456e-06
-1.3529805668568471e-06   -2.035862112659964e-08   3.115050757167456e-06
-1.3529805668568471e-06   -2.035862112659964e-08   3.115050757167456e-06
-1.3622002288328306e-06   8.227619629309424e-08   3.0688359700089167e-06
-1.3622002288328306e-06   8.227619629309424e-08   3.0688359700089167e-06
-1.3622002288328306e-06   8.227619629309424e-08   3.0688359700089167e-06
-1.3622002288328306e-06   8.227619629309424e-08   3.0688359700089167e-06
-1.3529805668568471e-06   1.055948333083959e-07   3.2571652807147867e-06
-1.3529805668568471e-06   1.055948333083959e-07   3.2571652807147867e-06
-1.3529805668568471e-06   1.055948333083959e-07   3.2571652807147867e-06
-1.3529805668568471e-06   1.055948333083959e-07   3.2571652807147867e-06
-1.438249280985257e-06   -2.035862112659964e-08   3.0394786845064576e-06
-1.438249280985257e-06   -2.035862112659964e-08   3.0394786845064576e-06
-1.438249280985257e-06   -2.035862112659964e-08   3.0394786845064576e-06
-1.438249280985257e-06   -2.035862112659964e-08   3.0394786845064576e-06
-1.4574212315906677e-06   2.6554945930330406e-08   3.258147212268839e-06
-1.4574212315906677e-06   2.6554945930330406e-08   3.258147212268839e-06
-1.4574212315906677e-06   2.6554945930330406e-08   3.258147212268839e-06
-1.4574212315906677e-06   2.6554945930330406e-08   3.258147212268839e-06
-1.3916012873681303e-06   -1.0398135524291338e-07   3.2267690859352054e-06
-1.3916012873681303e-06   -1.0398135524291338e-07   3.2267690859352054e-06
-1.3916012873681303e-06   -1.0398135524291338e-07   3.2267690859352054e-06
-1.3916012873681303e-06   -1.0398135524291338e-07   3.2267690859352054e-06
-1.3915137130327046e-06   2.8873204272473183e-08   3.1469103930001933e-06
-1.3915137130327046e-06   2.8873204272473183e-08   3.1469103930001933e-06
-1.3915137130327046e-06   2.8873204272473183e-08   3.1469103930001933e-06
-1.3915137130327046e-06   2.8873204272473183e-08   3.1469103930001933e-06
-1.3975306941037271e-06   3.3618723145934534e-07   3.612303340146735e-06
-1.3975306941037271e-06   3.3618723145934534e-07   3.612303340146735e-06
-1.3975306941037271e-06   3.3618723145934534e-07   3.612303340146735e-06
-1.3975306941037271e-06   3.3618723145934534e-07   3.612303340146735e-06
-1.6057230383093691e-06   3.247732152838795e-08   3.0830901538454256e-06
-1.6057230383093691e-06   3.247732152838795e-08   3.0830901538454256e-06
-1.6057230383093691e-06   3.247732152838795e-08   3.0830901538454256e-06
-1.6057230383093691e-06   3.247732152838795e-08   3.0830901538454256e-06
-1.6174573529021609e-06   2.5979648341338817e-07   3.4285188035325864e-06
-1.6174573529021609e-06   2.5979648341338817e-07   3.4285188035325864e-06
-1.6174573529021609e-06   2.5979648341338817e-07   3.4285188035325864e-06
-1.6174573529021609e-06   2.5979648341338817e-07   3.4285188035325864e-06
-1.416196438392284e-06   -1.618825421337343e-08   3.2586747885921788e-06
-1.416196438392284e-06   -1.618825421337343e-08   3.2586747885921788e-06
-1.416196438392284e-06   -1.618825421337343e-08   3.2586747885921788e-06
-1.416196438392284e-06   -1.618825421337343e-08   3.2586747885921788e-06
-1.5080073061045262e-06   1.4626386192899171e-07   3.3142216317605134e-06
-1.5080073061045262e-06   1.4626386192899171e-07   3.3142216317605134e-06
-1.5080073061045262e-06   1.4626386192899171e-07   3.3142216317605134e-06
-1.5080073061045262e-06   1.4626386192899171e-07   3.3142216317605134e-06
-1.416196438392284e-06   2.5979648341338817e-07   3.594109646108619e-06
-1.416196438392284e-06   2.5979648341338817e-07   3.594109646108619e-06
-1.416196438392284e-06   2.5979648341338817e-07   3.594109646108619e-06
-1.416196438392284e-06   2.5979648341338817e-07   3.594109646108619e-06
-1.6174573529021609e-06   -1.618825421337343e-08   3.0930839460161293e-06
-1.6174573529021609e-06   -1.618825421337343e-08   3.0930839460161293e-06
-1.6174573529021609e-06   -1.618825421337343e-08   3.0930839460161293e-06
-1.6174573529021609e-06   -1.618825421337343e-08   3.0930839460161293e-06
-1.6324883906961853e-06   1.8237480759855152e-07   3.474173028328103e-06
-1.6324883906961853e-06   1.8237480759855152e-07   3.474173028328103e-06
-1.6324883906961853e-06   1.8237480759855152e-07   3.474173028328103e-06
-1.6324883906961853e-06   1.8237480759855152e-07   3.474173028328103e-06
-1.438249280985257e-06   -7.422398807481868e-08   3.3044004562138784e-06
-1.438249280985257e-06   -7.422398807481868e-08   3.3044004562138784e-06
-1.438249280985257e-06   -7.422398807481868e-08   3.3044004562138784e-06
-1.438249280985257e-06   -7.422398807481868e-08   3.3044004562138784e-06
-1.5165259697797356e-06   9.942611745402579e-08   3.3306715408872736e-06
-1.5165259697797356e-06   9.942611745402579e-08   3.3306715408872736e-06
-1.5165259697797356e-06   9.942611745402579e-08   3.3306715408872736e-06
-1.5165259697797356e-06   9.942611745402579e-08   3.3306715408872736e-06
-1.4382492809852603e-06   1.8237480759855152e-07   3.6281323057320845e-06
-1.4382492809852603e-06   1.8237480759855152e-07   3.6281323057320845e-06
-1.4382492809852603e-06   1.8237480759855152e-07   3.6281323057320845e-06
-1.4382492809852603e-06   1.8237480759855152e-07   3.6281323057320845e-06
-1.6324883906961786e-06   -7.422398807483224e-08   3.150441178809863e-06
-1.6324883906961786e-06   -7.422398807483224e-08   3.150441178809863e-06
-1.6324883906961786e-06   -7.422398807483224e-08   3.150441178809863e-06
-1.6324883906961786e-06   -7.422398807483224e-08   3.150441178809863e-06
-1.6452554892578105e-06   1.1002080814651711e-07   3.560623363871887e-06
-1.6452554892578105e-06   1.1002080814651711e-07   3.560623363871887e-06
-1.6452554892578105e-06   1.1002080814651711e-07   3.560623363871887e-06
-1.6452554892578105e-06   1.1002080814651711e-07   3.560623363871887e-06
-1.4574212315906643e-06   -1.3050949503025865e-07   3.391884449666014e-06
-1.4574212315906643e-06   -1.3050949503025865e-07   3.391884449666014e-06
-1.4574212315906643e-06   -1.3050949503025865e-07   3.391884449666014e-06
-1.4574212315906643e-06   -1.3050949503025865e-07   3.391884449666014e-06
-1.5279886281812264e-06   5.1707698154733906e-08   3.4001664614058587e-06
-1.5279886281812264e-06   5.1707698154733906e-08   3.4001664614058587e-06
-1.5279886281812264e-06   5.1707698154733906e-08   3.4001664614058587e-06
-1.5279886281812264e-06   5.1707698154733906e-08   3.4001664614058587e-06
-1.6057230383093691e-06   4.657850024080779e-07   2.973965659841085e-06
-1.6057230383093691e-06   4.657850024080779e-07   2.973965659841085e-06
-1.6057230383093691e-06   4.657850024080779e-07   2.973965659841085e-06
-1.6057230383093691e-06   4.657850024080779e-07   2.973965659841085e-06
-1.8623747157810855e-06   1.5839913728987731e-07   2.361781344983978e-06
-1.8623747157810855e-06   1.5839913728987731e-07   2.361781344983978e-06
-1.8623747157810855e-06   1.5839913728987731e-07   2.361781344983978e-06
-1.8623747157810855e-06   1.5839913728987731e-07   2.361781344983978e-06
-1.8736279018138094e-06   3.8566961496559857e-07   2.8126001451481088e-06
-1.8736279018138094e-06   3.8566961496559857e-07   2.8126001451481088e-06
-1.8736279018138094e-06   3.8566961496559857e-07   2.8126001451481088e-06
-1.8736279018138094e-06   3.8566961496559857e-07   2.8126001451481088e-06
-1.6174573529021609e-06   9.319937414833566e-08   2.5611313747856887e-06
-1.6174573529021609e-06   9.319937414833566e-08   2.5611313747856887e-06
-1.6174573529021609e-06   9.319937414833566e-08   2.5611313747856887e-06
-1.6174573529021609e-06   9.319937414833566e-08   2.5611313747856887e-06
-1.7354861865272926e-06   2.7961914773631043e-07   2.6459942333414884e-06
-1.7354861865272926e-06   2.7961914773631043e-07   2.6459942333414884e-06
-1.7354861865272926e-06   2.7961914773631043e-07   2.6459942333414884e-06
-1.7354861865272926e-06   2.7961914773631043e-07   2.6459942333414884e-06
-1.6174573529021609e-06   3.856696149656257e-07   2.988082289638434e-06
-1.6174573529021609e-06   3.856696149656257e-07   2.988082289638434e-06
-1.6174573529021609e-06   3.856696149656257e-07   2.988082289638434e-06
-1.6174573529021609e-06   3.856696149656257e-07   2.988082289638434e-06
-1.8736279018138094e-06   9.319937414833566e-08   2.3856492302953423e-06
-1.8736279018138094e-06   9.319937414833566e-08   2.3856492302953423e-06
-1.8736279018138094e-06   9.319937414833566e-08   2.3856492302953423e-06
-1.8736279018138094e-06   9.319937414833566e-08   2.3856492302953423e-06
-1.9005922507444713e-06   3.1334698080931435e-07   2.9121596149730554e-06
-1.9005922507444713e-06   3.1334698080931435e-07   2.9121596149730554e-06
-1.9005922507444713e-06   3.1334698080931435e-07   2.9121596149730554e-06
-1.9005922507444713e-06   3.1334698080931435e-07   2.9121596149730554e-06
-1.6324883906961786e-06   3.6763126291092696e-08   2.6312701609367963e-06
-1.6324883906961786e-06   3.6763126291092696e-08   2.6312701609367963e-06
-1.6324883906961786e-06   3.6763126291092696e-08   2.6312701609367963e-06
-1.6324883906961786e-06   3.6763126291092696e-08   2.6312701609367963e-06
-1.737896333083819e-06   2.2754921138979593e-07   2.6924784138568505e-06
-1.737896333083819e-06   2.2754921138979593e-07   2.6924784138568505e-06
-1.737896333083819e-06   2.2754921138979593e-07   2.6924784138568505e-06
-1.737896333083819e-06   2.2754921138979593e-07   2.6924784138568505e-06
-1.6324883906961786e-06   3.1334698080931435e-07   3.078109927683899e-06
-1.6324883906961786e-06   3.1334698080931435e-07   3.078109927683899e-06
-1.6324883906961786e-06   3.1334698080931435e-07   3.078109927683899e-06
-1.6324883906961786e-06   3.1334698080931435e-07   3.078109927683899e-06
-1.9005922507444713e-06   3.676312629110625e-08   2.465319848225863e-06
-1.9005922507444713e-06   3.676312629110625e-08   2.465319848225863e-06
-1.9005922507444713e-06   3.676312629110625e-08   2.465319848225863e-06
-1.9005922507444713e-06   3.676312629110625e-08   2.465319848225863e-06
-1.918908381041649e-06   2.385504681516181e-07   3.03413514532089e-06
-1.918908381041649e-06   2.385504681516181e-07   3.03413514532089e-06
-1.918908381041649e-06   2.385504681516181e-07   3.03413514532089e-06
-1.918908381041649e-06   2.385504681516181e-07   3.03413514532089e-06
-1.6452554892578105e-06   -2.0525934501722503e-08   2.7334928339398253e-06
-1.6452554892578105e-06   -2.0525934501722503e-08   2.7334928339398253e-06
-1.6452554892578105e-06   -2.0525934501722503e-08   2.7334928339398253e-06
-1.6452554892578105e-06   -2.0525934501722503e-08   2.7334928339398253e-06
-1.7544284118230428e-06   1.802198112726874e-07   2.795000257417178e-06
-1.7544284118230428e-06   1.802198112726874e-07   2.795000257417178e-06
-1.7544284118230428e-06   1.802198112726874e-07   2.795000257417178e-06
-1.7544284118230428e-06   1.802198112726874e-07   2.795000257417178e-06
-1.8623747157810855e-06   5.69911474679872e-07   1.202749801809745e-06
-1.8623747157810855e-06   5.69911474679872e-07   1.202749801809745e-06
-1.8623747157810855e-06   5.69911474679872e-07   1.202749801809745e-06
-1.8623747157810855e-06   5.69911474679872e-07   1.202749801809745e-06
-1.9551210777902947e-06   2.7479325116317886e-07   8.711015976843761e-07
-1.9551210777902947e-06   2.7479325116317886e-07   8.711015976843761e-07
-1.9551210777902947e-06   2.7479325116317886e-07   8.711015976843761e-07
-1.9551210777902947e-06   2.7479325116317886e-07   8.711015976843761e-07
-2.0562304520258657e-06   5.168957127764579e-07   1.3261552660694315e-06
-2.0562304520258657e-06   5.168957127764579e-07   1.3261552660694315e-06
-2.0562304520258657e-06   5.168957127764579e-07   1.3261552660694315e-06
-2.0562304520258657e-06   5.168957127764579e-07   1.3261552660694315e-06
-1.8736279018138094e-06   2.269136980526641e-07   1.19580689121696e-06
-1.8736279018138094e-06   2.269136980526641e-07   1.19580689121696e-06
-1.8736279018138094e-06   2.269136980526641e-07   1.19580689121696e-06
-1.8736279018138094e-06   2.269136980526641e-07   1.19580689121696e-06
-1.8728146997543635e-06   4.059973579748202e-07   1.0870013584979207e-06
-1.8728146997543635e-06   4.059973579748202e-07   1.0870013584979207e-06
-1.8728146997543635e-06   4.059973579748202e-07   1.0870013584979207e-06
-1.8728146997543635e-06   4.059973579748202e-07   1.0870013584979207e-06
-1.8736279018138094e-06   5.168957127764579e-07   1.5001444749037024e-06
-1.8736279018138094e-06   5.168957127764579e-07   1.5001444749037024e-06
-1.8736279018138094e-06   5.168957127764579e-07   1.5001444749037024e-06
-1.8736279018138094e-06   5.168957127764579e-07   1.5001444749037024e-06
-2.0562304520258792e-06   2.2691369805267765e-07   1.0218176823826824e-06
-2.0562304520258792e-06   2.2691369805267765e-07   1.0218176823826824e-06
-2.0562304520258792e-06   2.2691369805267765e-07   1.0218176823826824e-06
-2.0562304520258792e-06   2.2691369805267765e-07   1.0218176823826824e-06
-2.144132223330441e-06   4.795222515280816e-07   1.5625880880985193e-06
-2.144132223330441e-06   4.795222515280816e-07   1.5625880880985193e-06
-2.144132223330441e-06   4.795222515280816e-07   1.5625880880985193e-06
-2.144132223330441e-06   4.795222515280816e-07   1.5625880880985193e-06
-1.9005922507444713e-06   1.9604375801821462e-07   1.326775229894446e-06
-1.9005922507444713e-06   1.9604375801821462e-07   1.326775229894446e-06
-1.9005922507444713e-06   1.9604375801821462e-07   1.326775229894446e-06
-1.9005922507444713e-06   1.9604375801821462e-07   1.326775229894446e-06
-1.947860221989879e-06   3.807457693083072e-07   1.294733975195988e-06
-1.947860221989879e-06   3.807457693083072e-07   1.294733975195988e-06
-1.947860221989879e-06   3.807457693083072e-07   1.294733975195988e-06
-1.947860221989879e-06   3.807457693083072e-07   1.294733975195988e-06
-1.9005922507444713e-06   4.795222515280816e-07   1.7326751842043934e-06
-1.9005922507444713e-06   4.795222515280816e-07   1.7326751842043934e-06
-1.9005922507444713e-06   4.795222515280816e-07   1.7326751842043934e-06
-1.9005922507444713e-06   4.795222515280816e-07   1.7326751842043934e-06
-2.1441322233304547e-06   1.9604375801820107e-07   1.1566881337885279e-06
-2.1441322233304547e-06   1.9604375801820107e-07   1.1566881337885279e-06
-2.1441322233304547e-06   1.9604375801820107e-07   1.1566881337885279e-06
-2.1441322233304547e-06   1.9604375801820107e-07   1.1566881337885279e-06
-2.267883801131208e-06   3.889509818642031e-07   1.995453943118877e-06
-2.267883801131208e-06   3.889509818642031e-07   1.995453943118877e-06
-2.267883801131208e-06   3.889509818642031e-07   1.995453943118877e-06
-2.267883801131208e-06   3.889509818642031e-07   1.995453943118877e-06
-1.918908381041642e-06   1.2888554054025223e-07   1.5698675077639322e-06
-1.918908381041642e-06   1.2888554054025223e-07   1.5698675077639322e-06
-1.918908381041642e-06   1.2888554054025223e-07   1.5698675077639322e-06
-1.918908381041642e-06   1.2888554054025223e-07   1.5698675077639322e-06
-1.973915303883711e-06   3.467669100854989e-07   1.53081689077343e-06
-1.973915303883711e-06   3.467669100854989e-07   1.53081689077343e-06
-1.973915303883711e-06   3.467669100854989e-07   1.53081689077343e-06
-1.973915303883711e-06   3.467669100854989e-07   1.53081689077343e-06
-3.049469190147364e-06   4.062665710332145e-07   1.5454684272575334e-06
-3.049469190147364e-06   4.062665710332145e-07   1.5454684272575334e-06
-3.049469190147364e-06   4.062665710332145e-07   1.5454684272575334e-06
-3.049469190147364e-06   4.062665710332145e-07   1.5454684272575334e-06
-2.153302131326922e-06   5.509457759124813e-07   3.125887714885834e-06
-2.153302131326922e-06   5.509457759124813e-07   3.125887714885834e-06
-2.153302131326922e-06   5.509457759124813e-07   3.125887714885834e-06
-2.153302131326922e-06   5.509457759124813e-07   3.125887714885834e-06
-2.1588456592161163e-06   3.0999834333303813e-07   1.6669203011647368e-06
-2.1588456592161163e-06   3.0999834333303813e-07   1.6669203011647368e-06
-2.1588456592161163e-06   3.0999834333303813e-07   1.6669203011647368e-06
-2.1588456592161163e-06   3.0999834333303813e-07   1.6669203011647368e-06
-3.4118363124533732e-06   1.7619999223297226e-07   3.8355170672202355e-06
-3.4118363124533732e-06   1.7619999223297226e-07   3.8355170672202355e-06
-3.4118363124533732e-06   1.7619999223297226e-07   3.8355170672202355e-06
-3.4118363124533732e-06   1.7619999223297226e-07   3.8355170672202355e-06
-2.552400001336131e-06   3.1557173170135603e-07   2.3195001716771294e-06
-2.552400001336131e-06   3.1557173170135603e-07   2.3195001716771294e-06
-2.552400001336131e-06   3.1557173170135603e-07   2.3195001716771294e-06
-2.552400001336131e-06   3.1557173170135603e-07   2.3195001716771294e-06
-3.411836312453379e-06   3.0999834333303813e-07   1.7471993118247777e-06
-3.411836312453379e-06   3.0999834333303813e-07   1.7471993118247777e-06
-3.411836312453379e-06   3.0999834333303813e-07   1.7471993118247777e-06
-3.411836312453379e-06   3.0999834333303813e-07   1.7471993118247777e-06
-2.1588456592161163e-06   1.7619999223297226e-07   3.7552380565601895e-06
-2.1588456592161163e-06   1.7619999223297226e-07   3.7552380565601895e-06
-2.1588456592161163e-06   1.7619999223297226e-07   3.7552380565601895e-06
-2.1588456592161163e-06   1.7619999223297226e-07   3.7552380565601895e-06
-2.2049785936994415e-06   2.46372151586468e-07   1.822714903317999e-06
-2.2049785936994415e-06   2.46372151586468e-07   1.822714903317999e-06
-2.2049785936994415e-06   2.46372151586468e-07   1.822714903317999e-06
-2.2049785936994415e-06   2.46372151586468e-07   1.822714903317999e-06
-3.438972012035912e-06   1.0975603067026664e-07   3.961340273095167e-06
-3.438972012035912e-06   1.0975603067026664e-07   3.961340273095167e-06
-3.438972012035912e-06   1.0975603067026664e-07   3.961340273095167e-06
-3.438972012035912e-06   1.0975603067026664e-07   3.961340273095167e-06
-2.750355815400265e-06   1.7986035793696566e-07   2.7715840156757053e-06
-2.750355815400265e-06   1.7986035793696566e-07   2.7715840156757053e-06
-2.750355815400265e-06   1.7986035793696566e-07   2.7715840156757053e-06
-2.750355815400265e-06   1.7986035793696566e-07   2.7715840156757053e-06
-3.4389720120359177e-06   2.46372151586468e-07   1.9046845758677279e-06
-3.4389720120359177e-06   2.46372151586468e-07   1.9046845758677279e-06
-3.4389720120359177e-06   2.46372151586468e-07   1.9046845758677279e-06
-3.4389720120359177e-06   2.46372151586468e-07   1.9046845758677279e-06
-2.2049785936994364e-06   1.0975603067026664e-07   3.879370600545445e-06
-2.2049785936994364e-06   1.0975603067026664e-07   3.879370600545445e-06
-2.2049785936994364e-06   1.0975603067026664e-07   3.879370600545445e-06
-2.2049785936994364e-06   1.0975603067026664e-07   3.879370600545445e-06
-2.1978776861611848e-06   9.149520375272891e-08   2.0919767232938484e-06
-2.1978776861611848e-06   9.149520375272891e-08   2.0919767232938484e-06
-2.1978776861611848e-06   9.149520375272891e-08   2.0919767232938484e-06
-2.1978776861611848e-06   9.149520375272891e-08   2.0919767232938484e-06
-3.502283933358182e-06   -1.8266313616865026e-07   4.430482139241656e-06
-3.502283933358182e-06   -1.8266313616865026e-07   4.430482139241656e-06
-3.502283933358182e-06   -1.8266313616865026e-07   4.430482139241656e-06
-3.502283933358182e-06   -1.8266313616865026e-07   4.430482139241656e-06
-2.725303934433804e-06   6.63412597892894e-08   2.9861128367929334e-06
-2.725303934433804e-06   6.63412597892894e-08   2.9861128367929334e-06
-2.725303934433804e-06   6.63412597892894e-08   2.9861128367929334e-06
-2.725303934433804e-06   6.63412597892894e-08   2.9861128367929334e-06
-2.1533021313269255e-06   1.0704853644151241e-07   3.281495488888293e-06
-2.1533021313269255e-06   1.0704853644151241e-07   3.281495488888293e-06
-2.1533021313269255e-06   1.0704853644151241e-07   3.281495488888293e-06
-2.1533021313269255e-06   1.0704853644151241e-07   3.281495488888293e-06
-1.3666941174353738e-06   -7.732582474600182e-07   4.064324775033304e-06
-1.3666941174353738e-06   -7.732582474600182e-07   4.064324775033304e-06
-1.3666941174353738e-06   -7.732582474600182e-07   4.064324775033304e-06
-1.3666941174353738e-06   -7.732582474600182e-07   4.064324775033304e-06
-1.3801405406368983e-06   4.5677819708296943e-08   2.7518158545813634e-06
-1.3801405406368983e-06   4.5677819708296943e-08   2.7518158545813634e-06
-1.3801405406368983e-06   4.5677819708296943e-08   2.7518158545813634e-06
-1.3801405406368983e-06   4.5677819708296943e-08   2.7518158545813634e-06
-2.1588456592161163e-06   -6.481138729807652e-07   4.465932734493529e-06
-2.1588456592161163e-06   -6.481138729807652e-07   4.465932734493529e-06
-2.1588456592161163e-06   -6.481138729807652e-07   4.465932734493529e-06
-2.1588456592161163e-06   -6.481138729807652e-07   4.465932734493529e-06
-1.7593786035382374e-06   -3.854329961910436e-07   3.6425457822899103e-06
-1.7593786035382374e-06   -3.854329961910436e-07   3.6425457822899103e-06
-1.7593786035382374e-06   -3.854329961910436e-07   3.6425457822899103e-06
-1.7593786035382374e-06   -3.854329961910436e-07   3.6425457822899103e-06
-2.158845659216118e-06   4.5677819708296943e-08   3.1680908701947857e-06
-2.158845659216118e-06   4.5677819708296943e-08   3.1680908701947857e-06
-2.158845659216118e-06   4.5677819708296943e-08   3.1680908701947857e-06
-2.158845659216118e-06   4.5677819708296943e-08   3.1680908701947857e-06
-1.380140540636895e-06   -6.481138729807652e-07   4.04965771888009e-06
-1.380140540636895e-06   -6.481138729807652e-07   4.04965771888009e-06
-1.380140540636895e-06   -6.481138729807652e-07   4.04965771888009e-06
-1.380140540636895e-06   -6.481138729807652e-07   4.04965771888009e-06
-1.4007746259544282e-06   -2.035862112659964e-08   2.8225440310165195e-06
-1.4007746259544282e-06   -2.035862112659964e-08   2.8225440310165195e-06
-1.4007746259544282e-06   -2.035862112659964e-08   2.8225440310165195e-06
-1.4007746259544282e-06   -2.035862112659964e-08   2.8225440310165195e-06
-2.2049785936994364e-06   -6.577978906546129e-07   4.545347538975005e-06
-2.2049785936994364e-06   -6.577978906546129e-07   4.545347538975005e-06
-2.2049785936994364e-06   -6.577978906546129e-07   4.545347538975005e-06
-2.2049785936994364e-06   -6.577978906546129e-07   4.545347538975005e-06
-1.7574218687935373e-06   -3.3748574944592264e-07   3.6072323794066052e-06
-1.7574218687935373e-06   -3.3748574944592264e-07   3.6072323794066052e-06
-1.7574218687935373e-06   -3.3748574944592264e-07   3.6072323794066052e-06
-1.7574218687935373e-06   -3.3748574944592264e-07   3.6072323794066052e-06
-2.2049785936994415e-06   -2.035862112659964e-08   3.2050075927333343e-06
-2.2049785936994415e-06   -2.035862112659964e-08   3.2050075927333343e-06
-2.2049785936994415e-06   -2.035862112659964e-08   3.2050075927333343e-06
-2.2049785936994415e-06   -2.035862112659964e-08   3.2050075927333343e-06
-1.4007746259544214e-06   -6.577978906546129e-07   4.162883977258195e-06
-1.4007746259544214e-06   -6.577978906546129e-07   4.162883977258195e-06
-1.4007746259544214e-06   -6.577978906546129e-07   4.162883977258195e-06
-1.4007746259544214e-06   -6.577978906546129e-07   4.162883977258195e-06
-1.405352261261377e-06   -1.0398135524291338e-07   2.9144441746046553e-06
-1.405352261261377e-06   -1.0398135524291338e-07   2.9144441746046553e-06
-1.405352261261377e-06   -1.0398135524291338e-07   2.9144441746046553e-06
-1.405352261261377e-06   -1.0398135524291338e-07   2.9144441746046553e-06
-2.197877686161179e-06   -6.497492880795669e-07   4.562780642472973e-06
-2.197877686161179e-06   -6.497492880795669e-07   4.562780642472973e-06
-2.197877686161179e-06   -6.497492880795669e-07   4.562780642472973e-06
-2.197877686161179e-06   -6.497492880795669e-07   4.562780642472973e-06
-1.7817538563364164e-06   -3.69338312025295e-07   3.7009943404658156e-06
-1.7817538563364164e-06   -3.69338312025295e-07   3.7009943404658156e-06
-1.7817538563364164e-06   -3.69338312025295e-07   3.7009943404658156e-06
-1.7817538563364164e-06   -3.69338312025295e-07   3.7009943404658156e-06
-1.3666941174353738e-06   3.247732152838795e-08   3.0697372796719053e-06
-1.3666941174353738e-06   3.247732152838795e-08   3.0697372796719053e-06
-1.3666941174353738e-06   3.247732152838795e-08   3.0697372796719053e-06
-1.3666941174353738e-06   3.247732152838795e-08   3.0697372796719053e-06
-1.0596825444735545e-06   -6.057075654229856e-07   3.198512302437448e-06
-1.0596825444735545e-06   -6.057075654229856e-07   3.198512302437448e-06
-1.0596825444735545e-06   -6.057075654229856e-07   3.198512302437448e-06
-1.0596825444735545e-06   -6.057075654229856e-07   3.198512302437448e-06
-1.0623963441184318e-06   -1.618825421337343e-08   2.7063533982805803e-06
-1.0623963441184318e-06   -1.618825421337343e-08   2.7063533982805803e-06
-1.0623963441184318e-06   -1.618825421337343e-08   2.7063533982805803e-06
-1.0623963441184318e-06   -1.618825421337343e-08   2.7063533982805803e-06
-1.380140540636895e-06   -5.949448932701215e-07   3.583181042578772e-06
-1.380140540636895e-06   -5.949448932701215e-07   3.583181042578772e-06
-1.380140540636895e-06   -5.949448932701215e-07   3.583181042578772e-06
-1.380140540636895e-06   -5.949448932701215e-07   3.583181042578772e-06
-1.2115927985306025e-06   -3.028765681860362e-07   3.1270271440178606e-06
-1.2115927985306025e-06   -3.028765681860362e-07   3.1270271440178606e-06
-1.2115927985306025e-06   -3.028765681860362e-07   3.1270271440178606e-06
-1.2115927985306025e-06   -3.028765681860362e-07   3.1270271440178606e-06
-1.380140540636895e-06   -1.618825421337343e-08   3.0536073817146386e-06
-1.380140540636895e-06   -1.618825421337343e-08   3.0536073817146386e-06
-1.380140540636895e-06   -1.618825421337343e-08   3.0536073817146386e-06
-1.380140540636895e-06   -1.618825421337343e-08   3.0536073817146386e-06
-1.0623963441184318e-06   -5.949448932701215e-07   3.235927059144718e-06
-1.0623963441184318e-06   -5.949448932701215e-07   3.235927059144718e-06
-1.0623963441184318e-06   -5.949448932701215e-07   3.235927059144718e-06
-1.0623963441184318e-06   -5.949448932701215e-07   3.235927059144718e-06
-1.0688295287192718e-06   -7.422398807481868e-08   2.765870268362953e-06
-1.0688295287192718e-06   -7.422398807481868e-08   2.765870268362953e-06
-1.0688295287192718e-06   -7.422398807481868e-08   2.765870268362953e-06
-1.0688295287192718e-06   -7.422398807481868e-08   2.765870268362953e-06
-1.4007746259544214e-06   -6.102165453431626e-07   3.640707631449191e-06
-1.4007746259544214e-06   -6.102165453431626e-07   3.640707631449191e-06
-1.4007746259544214e-06   -6.102165453431626e-07   3.640707631449191e-06
-1.4007746259544214e-06   -6.102165453431626e-07   3.640707631449191e-06
-1.2131576875141117e-06   -3.164519021705116e-07   3.1517539481450157e-06
-1.2131576875141117e-06   -3.164519021705116e-07   3.1517539481450157e-06
-1.2131576875141117e-06   -3.164519021705116e-07   3.1517539481450157e-06
-1.2131576875141117e-06   -3.164519021705116e-07   3.1517539481450157e-06
-1.4007746259544214e-06   -7.422398807483224e-08   3.087465802723954e-06
-1.4007746259544214e-06   -7.422398807483224e-08   3.087465802723954e-06
-1.4007746259544214e-06   -7.422398807483224e-08   3.087465802723954e-06
-1.4007746259544214e-06   -7.422398807483224e-08   3.087465802723954e-06
-1.068829528719265e-06   -6.102165453431626e-07   3.3191120970882044e-06
-1.068829528719265e-06   -6.102165453431626e-07   3.3191120970882044e-06
-1.068829528719265e-06   -6.102165453431626e-07   3.3191120970882044e-06
-1.068829528719265e-06   -6.102165453431626e-07   3.3191120970882044e-06
-1.064974799452904e-06   -1.3050949503025865e-07   2.859915524843038e-06
-1.064974799452904e-06   -1.3050949503025865e-07   2.859915524843038e-06
-1.064974799452904e-06   -1.3050949503025865e-07   2.859915524843038e-06
-1.064974799452904e-06   -1.3050949503025865e-07   2.859915524843038e-06
-1.405352261261377e-06   -6.271191520242653e-07   3.7251770887202027e-06
-1.405352261261377e-06   -6.271191520242653e-07   3.7251770887202027e-06
-1.405352261261377e-06   -6.271191520242653e-07   3.7251770887202027e-06
-1.405352261261377e-06   -6.271191520242653e-07   3.7251770887202027e-06
-1.215908529741471e-06   -3.3912025912607383e-07   3.2366382004481238e-06
-1.215908529741471e-06   -3.3912025912607383e-07   3.2366382004481238e-06
-1.215908529741471e-06   -3.3912025912607383e-07   3.2366382004481238e-06
-1.215908529741471e-06   -3.3912025912607383e-07   3.2366382004481238e-06
-1.0596825444735545e-06   1.5839913728987731e-07   2.149949057710542e-06
-1.0596825444735545e-06   1.5839913728987731e-07   2.149949057710542e-06
-1.0596825444735545e-06   1.5839913728987731e-07   2.149949057710542e-06
-1.0596825444735545e-06   1.5839913728987731e-07   2.149949057710542e-06
-9.472559243106299e-07   -2.5401284952512225e-07   2.089879565893101e-06
-9.472559243106299e-07   -2.5401284952512225e-07   2.089879565893101e-06
-9.472559243106299e-07   -2.5401284952512225e-07   2.089879565893101e-06
-9.472559243106299e-07   -2.5401284952512225e-07   2.089879565893101e-06
-9.409332626151521e-07   9.319937414833566e-08   1.9431458849857508e-06
-9.409332626151521e-07   9.319937414833566e-08   1.9431458849857508e-06
-9.409332626151521e-07   9.319937414833566e-08   1.9431458849857508e-06
-9.409332626151521e-07   9.319937414833566e-08   1.9431458849857508e-06
-1.0623963441184318e-06   -2.9222552929232727e-07   2.3768392962223234e-06
-1.0623963441184318e-06   -2.9222552929232727e-07   2.3768392962223234e-06
-1.0623963441184318e-06   -2.9222552929232727e-07   2.3768392962223234e-06
-1.0623963441184318e-06   -2.9222552929232727e-07   2.3768392962223234e-06
-9.958780557300227e-07   -5.8841854369098595e-08   2.125945277287744e-06
-9.958780557300227e-07   -5.8841854369098595e-08   2.125945277287744e-06
-9.958780557300227e-07   -5.8841854369098595e-08   2.125945277287744e-06
-9.958780557300227e-07   -5.8841854369098595e-08   2.125945277287744e-06
-1.0623963441184318e-06   9.319937414833566e-08   2.1744008270501567e-06
-1.0623963441184318e-06   9.319937414833566e-08   2.1744008270501567e-06
-1.0623963441184318e-06   9.319937414833566e-08   2.1744008270501567e-06
-1.0623963441184318e-06   9.319937414833566e-08   2.1744008270501567e-06
-9.409332626151521e-07   -2.9222552929232727e-07   2.145584354157921e-06
-9.409332626151521e-07   -2.9222552929232727e-07   2.145584354157921e-06
-9.409332626151521e-07   -2.9222552929232727e-07   2.145584354157921e-06
-9.409332626151521e-07   -2.9222552929232727e-07   2.145584354157921e-06
-9.462223443878768e-07   3.6763126291092696e-08   2.0311317155420866e-06
-9.462223443878768e-07   3.6763126291092696e-08   2.0311317155420866e-06
-9.462223443878768e-07   3.6763126291092696e-08   2.0311317155420866e-06
-9.462223443878768e-07   3.6763126291092696e-08   2.0311317155420866e-06
-1.068829528719265e-06   -3.2251609862188866e-07   2.4510445577088485e-06
-1.068829528719265e-06   -3.2251609862188866e-07   2.4510445577088485e-06
-1.068829528719265e-06   -3.2251609862188866e-07   2.4510445577088485e-06
-1.068829528719265e-06   -3.2251609862188866e-07   2.4510445577088485e-06
-9.891475310819794e-07   -9.652582373480788e-08   2.182647063381026e-06
-9.891475310819794e-07   -9.652582373480788e-08   2.182647063381026e-06
-9.891475310819794e-07   -9.652582373480788e-08   2.182647063381026e-06
-9.891475310819794e-07   -9.652582373480788e-08   2.182647063381026e-06
-1.0688295287192582e-06   3.6763126291092696e-08   2.2466992504898523e-06
-1.0688295287192582e-06   3.6763126291092696e-08   2.2466992504898523e-06
-1.0688295287192582e-06   3.6763126291092696e-08   2.2466992504898523e-06
-1.0688295287192582e-06   3.6763126291092696e-08   2.2466992504898523e-06
-9.462223443878768e-07   -3.2251609862188866e-07   2.2354770227610522e-06
-9.462223443878768e-07   -3.2251609862188866e-07   2.2354770227610522e-06
-9.462223443878768e-07   -3.2251609862188866e-07   2.2354770227610522e-06
-9.462223443878768e-07   -3.2251609862188866e-07   2.2354770227610522e-06
-9.460574559224126e-07   -2.0525934501736055e-08   2.141583044898811e-06
-9.460574559224126e-07   -2.0525934501736055e-08   2.141583044898811e-06
-9.460574559224126e-07   -2.0525934501736055e-08   2.141583044898811e-06
-9.460574559224126e-07   -2.0525934501736055e-08   2.141583044898811e-06
-1.064974799452904e-06   -3.6095767804187944e-07   2.5440376635736976e-06
-1.064974799452904e-06   -3.6095767804187944e-07   2.5440376635736976e-06
-1.064974799452904e-06   -3.6095767804187944e-07   2.5440376635736976e-06
-1.064974799452904e-06   -3.6095767804187944e-07   2.5440376635736976e-06
-9.88948034142744e-07   -1.308545148147566e-07   2.279264490120543e-06
-9.88948034142744e-07   -1.308545148147566e-07   2.279264490120543e-06
-9.88948034142744e-07   -1.308545148147566e-07   2.279264490120543e-06
-9.88948034142744e-07   -1.308545148147566e-07   2.279264490120543e-06
-9.472559243106299e-07   2.7479325116317886e-07   5.888930524319743e-07
-9.472559243106299e-07   2.7479325116317886e-07   5.888930524319743e-07
-9.472559243106299e-07   2.7479325116317886e-07   5.888930524319743e-07
-9.472559243106299e-07   2.7479325116317886e-07   5.888930524319743e-07
-6.464971455906926e-07   -1.9559864899491267e-08   9.135458139942649e-07
-6.464971455906926e-07   -1.9559864899491267e-08   9.135458139942649e-07
-6.464971455906926e-07   -1.9559864899491267e-08   9.135458139942649e-07
-6.464971455906926e-07   -1.9559864899491267e-08   9.135458139942649e-07
-6.942281648150076e-07   2.2691369805267765e-07   5.985655747200427e-07
-6.942281648150076e-07   2.2691369805267765e-07   5.985655747200427e-07
-6.942281648150076e-07   2.2691369805267765e-07   5.985655747200427e-07
-6.942281648150076e-07   2.2691369805267765e-07   5.985655747200427e-07
-9.409332626151521e-07   -3.098292059291807e-08   1.1644787089076287e-06
-9.409332626151521e-07   -3.098292059291807e-08   1.1644787089076287e-06
-9.409332626151521e-07   -3.098292059291807e-08   1.1644787089076287e-06
-9.409332626151521e-07   -3.098292059291807e-08   1.1644787089076287e-06
-7.791822545151302e-07   1.4347004860443865e-07   7.902219138892396e-07
-7.791822545151302e-07   1.4347004860443865e-07   7.902219138892396e-07
-7.791822545151302e-07   1.4347004860443865e-07   7.902219138892396e-07
-7.791822545151302e-07   1.4347004860443865e-07   7.902219138892396e-07
-9.409332626151453e-07   2.269136980526641e-07   7.533035459073676e-07
-9.409332626151453e-07   2.269136980526641e-07   7.533035459073676e-07
-9.409332626151453e-07   2.269136980526641e-07   7.533035459073676e-07
-9.409332626151453e-07   2.269136980526641e-07   7.533035459073676e-07
-6.942281648150212e-07   -3.098292059291807e-08   1.009740737720297e-06
-6.942281648150212e-07   -3.098292059291807e-08   1.009740737720297e-06
-6.942281648150212e-07   -3.098292059291807e-08   1.009740737720297e-06
-6.942281648150212e-07   -3.098292059291807e-08   1.009740737720297e-06
-7.352168267528539e-07   1.9604375801821462e-07   7.478325440983839e-07
-7.352168267528539e-07   1.9604375801821462e-07   7.478325440983839e-07
-7.352168267528539e-07   1.9604375801821462e-07   7.478325440983839e-07
-7.352168267528539e-07   1.9604375801821462e-07   7.478325440983839e-07
-9.462223443878768e-07   -4.521383050227909e-08   1.2442629599356903e-06
-9.462223443878768e-07   -4.521383050227909e-08   1.2442629599356903e-06
-9.462223443878768e-07   -4.521383050227909e-08   1.2442629599356903e-06
-9.462223443878768e-07   -4.521383050227909e-08   1.2442629599356903e-06
-8.075239152887069e-07   1.220553115410019e-07   9.127374262110719e-07
-8.075239152887069e-07   1.220553115410019e-07   9.127374262110719e-07
-8.075239152887069e-07   1.220553115410019e-07   9.127374262110719e-07
-8.075239152887069e-07   1.220553115410019e-07   9.127374262110719e-07
-9.462223443878768e-07   1.9604375801821462e-07   8.925870972106883e-07
-9.462223443878768e-07   1.9604375801821462e-07   8.925870972106883e-07
-9.462223443878768e-07   1.9604375801821462e-07   8.925870972106883e-07
-9.462223443878768e-07   1.9604375801821462e-07   8.925870972106883e-07
-7.352168267528675e-07   -4.521383050227909e-08   1.0995084068233995e-06
-7.352168267528675e-07   -4.521383050227909e-08   1.0995084068233995e-06
-7.352168267528675e-07   -4.521383050227909e-08   1.0995084068233995e-06
-7.352168267528675e-07   -4.521383050227909e-08   1.0995084068233995e-06
-8.12041759672426e-07   1.2888554054025223e-07   1.016072802260536e-06
-8.12041759672426e-07   1.2888554054025223e-07   1.016072802260536e-06
-8.12041759672426e-07   1.2888554054025223e-07   1.016072802260536e-06
-8.12041759672426e-07   1.2888554054025223e-07   1.016072802260536e-06
-9.460574559224126e-07   -6.66657228837227e-08   1.3567630540648991e-06
-9.460574559224126e-07   -6.66657228837227e-08   1.3567630540648991e-06
-9.460574559224126e-07   -6.66657228837227e-08   1.3567630540648991e-06
-9.460574559224126e-07   -6.66657228837227e-08   1.3567630540648991e-06
-8.215270537278142e-07   1.0535551931429156e-07   1.0459996384217635e-06
-8.215270537278142e-07   1.0535551931429156e-07   1.0459996384217635e-06
-8.215270537278142e-07   1.0535551931429156e-07   1.0459996384217635e-06
-8.215270537278142e-07   1.0535551931429156e-07   1.0459996384217635e-06
-7.670263122317667e-06   5.509457759124881e-07   3.904831378358754e-06
-7.670263122317667e-06   5.509457759124881e-07   3.904831378358754e-06
-7.670263122317667e-06   5.509457759124881e-07   3.904831378358754e-06
-7.670263122317667e-06   5.509457759124881e-07   3.904831378358754e-06
-1.7320174687931997e-06   -4.505637545754906e-06   1.0767957474565777e-05
-1.7320174687931997e-06   -4.505637545754906e-06   1.0767957474565777e-05
-1.7320174687931997e-06   -4.505637545754906e-06   1.0767957474565777e-05
-1.7320174687931997e-06   -4.505637545754906e-06   1.0767957474565777e-05
-2.081644410832727e-06   1.7619999223297226e-07   2.0813495860418764e-06
-2.081644410832727e-06   1.7619999223297226e-07   2.0813495860418764e-06
-2.081644410832727e-06   1.7619999223297226e-07   2.0813495860418764e-06
-2.081644410832727e-06   1.7619999223297226e-07   2.0813495860418764e-06
-6.996000795832846e-06   -3.6164232013907304e-06   1.254751747721628e-05
-6.996000795832846e-06   -3.6164232013907304e-06   1.254751747721628e-05
-6.996000795832846e-06   -3.6164232013907304e-06   1.254751747721628e-05
-6.996000795832846e-06   -3.6164232013907304e-06   1.254751747721628e-05
-4.64578454602117e-06   -1.7953542221747437e-06   7.537849006667223e-06
-4.64578454602117e-06   -1.7953542221747437e-06   7.537849006667223e-06
-4.64578454602117e-06   -1.7953542221747437e-06   7.537849006667223e-06
-4.64578454602117e-06   -1.7953542221747437e-06   7.537849006667223e-06
-6.996000795832834e-06   1.7619999223297226e-07   4.356923502216092e-06
-6.996000795832834e-06   1.7619999223297226e-07   4.356923502216092e-06
-6.996000795832834e-06   1.7619999223297226e-07   4.356923502216092e-06
-6.996000795832834e-06   1.7619999223297226e-07   4.356923502216092e-06
-2.0816444108327304e-06   -3.6164232013907304e-06   1.0271943561042061e-05
-2.0816444108327304e-06   -3.6164232013907304e-06   1.0271943561042061e-05
-2.0816444108327304e-06   -3.6164232013907304e-06   1.0271943561042061e-05
-2.0816444108327304e-06   -3.6164232013907304e-06   1.0271943561042061e-05
-2.1530561791228597e-06   1.0975603067026664e-07   2.2915396112284073e-06
-2.1530561791228597e-06   1.0975603067026664e-07   2.2915396112284073e-06
-2.1530561791228597e-06   1.0975603067026664e-07   2.2915396112284073e-06
-2.1530561791228597e-06   1.0975603067026664e-07   2.2915396112284073e-06
-6.606286520005436e-06   -3.203213786183816e-06   1.170137206947847e-05
-6.606286520005436e-06   -3.203213786183816e-06   1.170137206947847e-05
-6.606286520005436e-06   -3.203213786183816e-06   1.170137206947847e-05
-6.606286520005436e-06   -3.203213786183816e-06   1.170137206947847e-05
-4.5259754672520935e-06   -1.713044731665209e-06   7.3400855488450745e-06
-4.5259754672520935e-06   -1.713044731665209e-06   7.3400855488450745e-06
-4.5259754672520935e-06   -1.713044731665209e-06   7.3400855488450745e-06
-4.5259754672520935e-06   -1.713044731665209e-06   7.3400855488450745e-06
-6.606286520005424e-06   1.0975603067026664e-07   4.2793215013408535e-06
-6.606286520005424e-06   1.0975603067026664e-07   4.2793215013408535e-06
-6.606286520005424e-06   1.0975603067026664e-07   4.2793215013408535e-06
-6.606286520005424e-06   1.0975603067026664e-07   4.2793215013408535e-06
-2.153056179122865e-06   -3.203213786183816e-06   9.71359017936602e-06
-2.153056179122865e-06   -3.203213786183816e-06   9.71359017936602e-06
-2.153056179122865e-06   -3.203213786183816e-06   9.71359017936602e-06
-2.153056179122865e-06   -3.203213786183816e-06   9.71359017936602e-06
-2.408105193065228e-06   -1.8266313616865026e-07   2.8467898550675608e-06
-2.408105193065228e-06   -1.8266313616865026e-07   2.8467898550675608e-06
-2.408105193065228e-06   -1.8266313616865026e-07   2.8467898550675608e-06
-2.408105193065228e-06   -1.8266313616865026e-07   2.8467898550675608e-06
-6.098588996662811e-06   -2.6446857183592893e-06   1.0474809743711233e-05
-6.098588996662811e-06   -2.6446857183592893e-06   1.0474809743711233e-05
-6.098588996662811e-06   -2.6446857183592893e-06   1.0474809743711233e-05
-6.098588996662811e-06   -2.6446857183592893e-06   1.0474809743711233e-05
-4.378868527440315e-06   -1.5866947276853e-06   6.973814367269353e-06
-4.378868527440315e-06   -1.5866947276853e-06   6.973814367269353e-06
-4.378868527440315e-06   -1.5866947276853e-06   6.973814367269353e-06
-4.378868527440315e-06   -1.5866947276853e-06   6.973814367269353e-06
-1.7320174687931963e-06   -7.732582474600182e-07   2.3375025158466983e-06
-1.7320174687931963e-06   -7.732582474600182e-07   2.3375025158466983e-06
-1.7320174687931963e-06   -7.732582474600182e-07   2.3375025158466983e-06
-1.7320174687931963e-06   -7.732582474600182e-07   2.3375025158466983e-06
-5.825103523577954e-07   -1.6060034474675527e-06   3.7537005899011876e-06
-5.825103523577954e-07   -1.6060034474675527e-06   3.7537005899011876e-06
-5.825103523577954e-07   -1.6060034474675527e-06   3.7537005899011876e-06
-5.825103523577954e-07   -1.6060034474675527e-06   3.7537005899011876e-06
-6.793537423215692e-07   -6.481138729807719e-07   1.955812413033125e-06
-6.793537423215692e-07   -6.481138729807719e-07   1.955812413033125e-06
-6.793537423215692e-07   -6.481138729807719e-07   1.955812413033125e-06
-6.793537423215692e-07   -6.481138729807719e-07   1.955812413033125e-06
-2.0816444108327304e-06   -2.041833624550913e-06   5.129195378160463e-06
-2.0816444108327304e-06   -2.041833624550913e-06   5.129195378160463e-06
-2.0816444108327304e-06   -2.041833624550913e-06   5.129195378160463e-06
-2.0816444108327304e-06   -2.041833624550913e-06   5.129195378160463e-06
-1.2022943207698734e-06   -1.0381813814192455e-06   3.0614205488433624e-06
-1.2022943207698734e-06   -1.0381813814192455e-06   3.0614205488433624e-06
-1.2022943207698734e-06   -1.0381813814192455e-06   3.0614205488433624e-06
-1.2022943207698734e-06   -1.0381813814192455e-06   3.0614205488433624e-06
-2.0816444108327253e-06   -6.481138729807719e-07   2.7920442639751855e-06
-2.0816444108327253e-06   -6.481138729807719e-07   2.7920442639751855e-06
-2.0816444108327253e-06   -6.481138729807719e-07   2.7920442639751855e-06
-2.0816444108327253e-06   -6.481138729807719e-07   2.7920442639751855e-06
-6.793537423215692e-07   -2.041833624550913e-06   4.29296352721838e-06
-6.793537423215692e-07   -2.041833624550913e-06   4.29296352721838e-06
-6.793537423215692e-07   -2.041833624550913e-06   4.29296352721838e-06
-6.793537423215692e-07   -2.041833624550913e-06   4.29296352721838e-06
-7.645229189743957e-07   -6.577978906546197e-07   2.2026654706241053e-06
-7.645229189743957e-07   -6.577978906546197e-07   2.2026654706241053e-06
-7.645229189743957e-07   -6.577978906546197e-07   2.2026654706241053e-06
-7.645229189743957e-07   -6.577978906546197e-07   2.2026654706241053e-06
-2.153056179122865e-06   -1.9158830223777383e-06   5.271738649905405e-06
-2.153056179122865e-06   -1.9158830223777383e-06   5.271738649905405e-06
-2.153056179122865e-06   -1.9158830223777383e-06   5.271738649905405e-06
-2.153056179122865e-06   -1.9158830223777383e-06   5.271738649905405e-06
-1.3879459665289288e-06   -1.241709593984236e-06   3.5920509052127696e-06
-1.3879459665289288e-06   -1.241709593984236e-06   3.5920509052127696e-06
-1.3879459665289288e-06   -1.241709593984236e-06   3.5920509052127696e-06
-1.3879459665289288e-06   -1.241709593984236e-06   3.5920509052127696e-06
-2.1530561791228597e-06   -6.577978906546197e-07   2.9575165496579793e-06
-2.1530561791228597e-06   -6.577978906546197e-07   2.9575165496579793e-06
-2.1530561791228597e-06   -6.577978906546197e-07   2.9575165496579793e-06
-2.1530561791228597e-06   -6.577978906546197e-07   2.9575165496579793e-06
-7.645229189743991e-07   -1.9158830223777383e-06   4.516887570871536e-06
-7.645229189743991e-07   -1.9158830223777383e-06   4.516887570871536e-06
-7.645229189743991e-07   -1.9158830223777383e-06   4.516887570871536e-06
-7.645229189743991e-07   -1.9158830223777383e-06   4.516887570871536e-06
-9.078544617467833e-07   -6.497492880795669e-07   2.434654917281306e-06
-9.078544617467833e-07   -6.497492880795669e-07   2.434654917281306e-06
-9.078544617467833e-07   -6.497492880795669e-07   2.434654917281306e-06
-9.078544617467833e-07   -6.497492880795669e-07   2.434654917281306e-06
-2.4081051930652312e-06   -1.8312966963636016e-06   5.644001247782448e-06
-2.4081051930652312e-06   -1.8312966963636016e-06   5.644001247782448e-06
-2.4081051930652312e-06   -1.8312966963636016e-06   5.644001247782448e-06
-2.4081051930652312e-06   -1.8312966963636016e-06   5.644001247782448e-06
-1.5128830207134332e-06   -1.1383035600181815e-06   3.736168412055541e-06
-1.5128830207134332e-06   -1.1383035600181815e-06   3.736168412055541e-06
-1.5128830207134332e-06   -1.1383035600181815e-06   3.736168412055541e-06
-1.5128830207134332e-06   -1.1383035600181815e-06   3.736168412055541e-06
-5.825103523577988e-07   -6.057075654229856e-07   1.3549538554171448e-06
-5.825103523577988e-07   -6.057075654229856e-07   1.3549538554171448e-06
-5.825103523577988e-07   -6.057075654229856e-07   1.3549538554171448e-06
-5.825103523577988e-07   -6.057075654229856e-07   1.3549538554171448e-06
-3.3788025438672255e-07   -5.670278578503105e-07   1.785878509912539e-06
-3.3788025438672255e-07   -5.670278578503105e-07   1.785878509912539e-06
-3.3788025438672255e-07   -5.670278578503105e-07   1.785878509912539e-06
-3.3788025438672255e-07   -5.670278578503105e-07   1.785878509912539e-06
-3.39639909231904e-07   -5.949448932701215e-07   1.4242913254491077e-06
-3.39639909231904e-07   -5.949448932701215e-07   1.4242913254491077e-06
-3.39639909231904e-07   -5.949448932701215e-07   1.4242913254491077e-06
-3.39639909231904e-07   -5.949448932701215e-07   1.4242913254491077e-06
-6.793537423215692e-07   -7.033522454079652e-07   2.055525458547909e-06
-6.793537423215692e-07   -7.033522454079652e-07   2.055525458547909e-06
-6.793537423215692e-07   -7.033522454079652e-07   2.055525458547909e-06
-6.793537423215692e-07   -7.033522454079652e-07   2.055525458547909e-06
-4.527563867702275e-07   -5.656526266105585e-07   1.5952434280171922e-06
-4.527563867702275e-07   -5.656526266105585e-07   1.5952434280171922e-06
-4.527563867702275e-07   -5.656526266105585e-07   1.5952434280171922e-06
-4.527563867702275e-07   -5.656526266105585e-07   1.5952434280171922e-06
-6.793537423215658e-07   -5.949448932701215e-07   1.4893357367318004e-06
-6.793537423215658e-07   -5.949448932701215e-07   1.4893357367318004e-06
-6.793537423215658e-07   -5.949448932701215e-07   1.4893357367318004e-06
-6.793537423215658e-07   -5.949448932701215e-07   1.4893357367318004e-06
-3.39639909231904e-07   -7.033522454079652e-07   1.9904810472652062e-06
-3.39639909231904e-07   -7.033522454079652e-07   1.9904810472652062e-06
-3.39639909231904e-07   -7.033522454079652e-07   1.9904810472652062e-06
-3.39639909231904e-07   -7.033522454079652e-07   1.9904810472652062e-06
-3.5548349252489877e-07   -6.102165453431626e-07   1.5328090655685676e-06
-3.5548349252489877e-07   -6.102165453431626e-07   1.5328090655685676e-06
-3.5548349252489877e-07   -6.102165453431626e-07   1.5328090655685676e-06
-3.5548349252489877e-07   -6.102165453431626e-07   1.5328090655685676e-06
-7.645229189743991e-07   -8.563499774207332e-07   2.36222150223092e-06
-7.645229189743991e-07   -8.563499774207332e-07   2.36222150223092e-06
-7.645229189743991e-07   -8.563499774207332e-07   2.36222150223092e-06
-7.645229189743991e-07   -8.563499774207332e-07   2.36222150223092e-06
-4.989908199009123e-07   -6.175412717268965e-07   1.7763827803588263e-06
-4.989908199009123e-07   -6.175412717268965e-07   1.7763827803588263e-06
-4.989908199009123e-07   -6.175412717268965e-07   1.7763827803588263e-06
-4.989908199009123e-07   -6.175412717268965e-07   1.7763827803588263e-06
-7.645229189743957e-07   -6.102165453431626e-07   1.6804891248151076e-06
-7.645229189743957e-07   -6.102165453431626e-07   1.6804891248151076e-06
-7.645229189743957e-07   -6.102165453431626e-07   1.6804891248151076e-06
-7.645229189743957e-07   -6.102165453431626e-07   1.6804891248151076e-06
-3.5548349252489877e-07   -8.563499774207332e-07   2.2145414429843903e-06
-3.5548349252489877e-07   -8.563499774207332e-07   2.2145414429843903e-06
-3.5548349252489877e-07   -8.563499774207332e-07   2.2145414429843903e-06
-3.5548349252489877e-07   -8.563499774207332e-07   2.2145414429843903e-06
-3.884566747483476e-07   -6.271191520242653e-07   1.7011123710190004e-06
-3.884566747483476e-07   -6.271191520242653e-07   1.7011123710190004e-06
-3.884566747483476e-07   -6.271191520242653e-07   1.7011123710190004e-06
-3.884566747483476e-07   -6.271191520242653e-07   1.7011123710190004e-06
-9.078544617467833e-07   -9.994520723768205e-07   2.790175101561233e-06
-9.078544617467833e-07   -9.994520723768205e-07   2.790175101561233e-06
-9.078544617467833e-07   -9.994520723768205e-07   2.790175101561233e-06
-9.078544617467833e-07   -9.994520723768205e-07   2.790175101561233e-06
-5.5530743161252e-07   -6.603217136495156e-07   1.999118502767751e-06
-5.5530743161252e-07   -6.603217136495156e-07   1.999118502767751e-06
-5.5530743161252e-07   -6.603217136495156e-07   1.999118502767751e-06
-5.5530743161252e-07   -6.603217136495156e-07   1.999118502767751e-06
-3.3788025438672255e-07   -2.5401284952512225e-07   5.169761355053964e-07
-3.3788025438672255e-07   -2.5401284952512225e-07   5.169761355053964e-07
-3.3788025438672255e-07   -2.5401284952512225e-07   5.169761355053964e-07
-3.3788025438672255e-07   -2.5401284952512225e-07   5.169761355053964e-07
-2.7993152970818305e-07   -3.755543252820252e-08   7.434317935011174e-07
-2.7993152970818305e-07   -3.755543252820252e-08   7.434317935011174e-07
-2.7993152970818305e-07   -3.755543252820252e-08   7.434317935011174e-07
-2.7993152970818305e-07   -3.755543252820252e-08   7.434317935011174e-07
-2.392112480711418e-07   -2.9222552929232727e-07   6.823714673449664e-07
-2.392112480711418e-07   -2.9222552929232727e-07   6.823714673449664e-07
-2.392112480711418e-07   -2.9222552929232727e-07   6.823714673449664e-07
-2.392112480711418e-07   -2.9222552929232727e-07   6.823714673449664e-07
-3.39639909231904e-07   -9.694568792858115e-08   7.325846644612872e-07
-3.39639909231904e-07   -9.694568792858115e-08   7.325846644612872e-07
-3.39639909231904e-07   -9.694568792858115e-08   7.325846644612872e-07
-3.39639909231904e-07   -9.694568792858115e-08   7.325846644612872e-07
-2.795976727444173e-07   -1.6014551977719594e-07   6.704341694246339e-07
-2.795976727444173e-07   -1.6014551977719594e-07   6.704341694246339e-07
-2.795976727444173e-07   -1.6014551977719594e-07   6.704341694246339e-07
-2.795976727444173e-07   -1.6014551977719594e-07   6.704341694246339e-07
-3.39639909231904e-07   -2.9222552929232727e-07   5.652035625267208e-07
-3.39639909231904e-07   -2.9222552929232727e-07   5.652035625267208e-07
-3.39639909231904e-07   -2.9222552929232727e-07   5.652035625267208e-07
-3.39639909231904e-07   -2.9222552929232727e-07   5.652035625267208e-07
-2.392112480711418e-07   -9.694568792858115e-08   8.497525692795362e-07
-2.392112480711418e-07   -9.694568792858115e-08   8.497525692795362e-07
-2.392112480711418e-07   -9.694568792858115e-08   8.497525692795362e-07
-2.392112480711418e-07   -9.694568792858115e-08   8.497525692795362e-07
-2.223214136835768e-07   -3.2251609862188866e-07   7.509722834752935e-07
-2.223214136835768e-07   -3.2251609862188866e-07   7.509722834752935e-07
-2.223214136835768e-07   -3.2251609862188866e-07   7.509722834752935e-07
-2.223214136835768e-07   -3.2251609862188866e-07   7.509722834752935e-07
-3.5548349252489877e-07   -1.787981698117425e-07   8.86678324258069e-07
-3.5548349252489877e-07   -1.787981698117425e-07   8.86678324258069e-07
-3.5548349252489877e-07   -1.787981698117425e-07   8.86678324258069e-07
-3.5548349252489877e-07   -1.787981698117425e-07   8.86678324258069e-07
-2.6524679687250783e-07   -1.962687259033692e-07   7.467661651590628e-07
-2.6524679687250783e-07   -1.962687259033692e-07   7.467661651590628e-07
-2.6524679687250783e-07   -1.962687259033692e-07   7.467661651590628e-07
-2.6524679687250783e-07   -1.962687259033692e-07   7.467661651590628e-07
-3.5548349252489877e-07   -3.2251609862188866e-07   6.647415261891855e-07
-3.5548349252489877e-07   -3.2251609862188866e-07   6.647415261891855e-07
-3.5548349252489877e-07   -3.2251609862188866e-07   6.647415261891855e-07
-3.5548349252489877e-07   -3.2251609862188866e-07   6.647415261891855e-07
-2.223214136835768e-07   -1.787981698117425e-07   9.7290908154415e-07
-2.223214136835768e-07   -1.787981698117425e-07   9.7290908154415e-07
-2.223214136835768e-07   -1.787981698117425e-07   9.7290908154415e-07
-2.223214136835768e-07   -1.787981698117425e-07   9.7290908154415e-07
-1.9720127591220203e-07   -3.609576780418862e-07   8.356034911026326e-07
-1.9720127591220203e-07   -3.609576780418862e-07   8.356034911026326e-07
-1.9720127591220203e-07   -3.609576780418862e-07   8.356034911026326e-07
-1.9720127591220203e-07   -3.609576780418862e-07   8.356034911026326e-07
-3.884566747483476e-07   -3.315164263189564e-07   1.136697738129112e-06
-3.884566747483476e-07   -3.315164263189564e-07   1.136697738129112e-06
-3.884566747483476e-07   -3.315164263189564e-07   1.136697738129112e-06
-3.884566747483476e-07   -3.315164263189564e-07   1.136697738129112e-06
-2.5969184644090065e-07   -2.456034113974427e-07   8.705418819971561e-07
-2.5969184644090065e-07   -2.456034113974427e-07   8.705418819971561e-07
-2.5969184644090065e-07   -2.456034113974427e-07   8.705418819971561e-07
-2.5969184644090065e-07   -2.456034113974427e-07   8.705418819971561e-07
-2.7993152970818305e-07   -1.9559864899491267e-08   -3.5287129655767855e-07
-2.7993152970818305e-07   -1.9559864899491267e-08   -3.5287129655767855e-07
-2.7993152970818305e-07   -1.9559864899491267e-08   -3.5287129655767855e-07
-2.7993152970818305e-07   -1.9559864899491267e-08   -3.5287129655767855e-07
-8.27466913139673e-08   2.7747016145735455e-08   4.154229393154348e-09
-8.27466913139673e-08   2.7747016145735455e-08   4.154229393154348e-09
-8.27466913139673e-08   2.7747016145735455e-08   4.154229393154348e-09
-8.27466913139673e-08   2.7747016145735455e-08   4.154229393154348e-09
-4.389022455531292e-08   -3.098292059291807e-08   -2.542671344324686e-07
-4.389022455531292e-08   -3.098292059291807e-08   -2.542671344324686e-07
-4.389022455531292e-08   -3.098292059291807e-08   -2.542671344324686e-07
-4.389022455531292e-08   -3.098292059291807e-08   -2.542671344324686e-07
-2.392112480711418e-07   4.312881852851615e-08   2.680086128770316e-08
-2.392112480711418e-07   4.312881852851615e-08   2.680086128770316e-08
-2.392112480711418e-07   4.312881852851615e-08   2.680086128770316e-08
-2.392112480711418e-07   4.312881852851615e-08   2.680086128770316e-08
-1.4737792754396258e-07   1.6529437947582242e-08   -1.1029504457576371e-07
-1.4737792754396258e-07   1.6529437947582242e-08   -1.1029504457576371e-07
-1.4737792754396258e-07   1.6529437947582242e-08   -1.1029504457576371e-07
-1.4737792754396258e-07   1.6529437947582242e-08   -1.1029504457576371e-07
-2.39211248071135e-07   -3.098292059291807e-08   -2.9873417790535623e-07
-2.39211248071135e-07   -3.098292059291807e-08   -2.9873417790535623e-07
-2.39211248071135e-07   -3.098292059291807e-08   -2.9873417790535623e-07
-2.39211248071135e-07   -3.098292059291807e-08   -2.9873417790535623e-07
-4.389022455532647e-08   4.312881852851615e-08   7.126790476054336e-08
-4.389022455532647e-08   4.312881852851615e-08   7.126790476054336e-08
-4.389022455532647e-08   4.312881852851615e-08   7.126790476054336e-08
-4.389022455532647e-08   4.312881852851615e-08   7.126790476054336e-08
-2.9247455537718915e-08   -4.521383050227909e-08   -1.9904253464151527e-07
-2.9247455537718915e-08   -4.521383050227909e-08   -1.9904253464151527e-07
-2.9247455537718915e-08   -4.521383050227909e-08   -1.9904253464151527e-07
-2.9247455537718915e-08   -4.521383050227909e-08   -1.9904253464151527e-07
-2.223214136835768e-07   2.3451577345277593e-08   8.154815089300434e-08
-2.223214136835768e-07   2.3451577345277593e-08   8.154815089300434e-08
-2.223214136835768e-07   2.3451577345277593e-08   8.154815089300434e-08
-2.223214136835768e-07   2.3451577345277593e-08   8.154815089300434e-08
-1.21528012491695e-07   9.696495748045056e-09   -7.818780213507122e-08
-1.21528012491695e-07   9.696495748045056e-09   -7.818780213507122e-08
-1.21528012491695e-07   9.696495748045056e-09   -7.818780213507122e-08
-1.21528012491695e-07   9.696495748045056e-09   -7.818780213507122e-08
-2.223214136835768e-07   -4.5213830502272316e-08   -2.4024177935006504e-07
-2.223214136835768e-07   -4.5213830502272316e-08   -2.4024177935006504e-07
-2.223214136835768e-07   -4.5213830502272316e-08   -2.4024177935006504e-07
-2.223214136835768e-07   -4.5213830502272316e-08   -2.4024177935006504e-07
-2.9247455537718915e-08   2.3451577345277593e-08   1.2274739560154055e-07
-2.9247455537718915e-08   2.3451577345277593e-08   1.2274739560154055e-07
-2.9247455537718915e-08   2.3451577345277593e-08   1.2274739560154055e-07
-2.9247455537718915e-08   2.3451577345277593e-08   1.2274739560154055e-07
-1.479139750833441e-08   -6.66657228837227e-08   -1.1081492708413102e-07
-1.479139750833441e-08   -6.66657228837227e-08   -1.1081492708413102e-07
-1.479139750833441e-08   -6.66657228837227e-08   -1.1081492708413102e-07
-1.479139750833441e-08   -6.66657228837227e-08   -1.1081492708413102e-07
-1.9720127591220203e-07   -5.670480887146169e-09   1.566043917243748e-07
-1.9720127591220203e-07   -5.670480887146169e-09   1.566043917243748e-07
-1.9720127591220203e-07   -5.670480887146169e-09   1.566043917243748e-07
-1.9720127591220203e-07   -5.670480887146169e-09   1.566043917243748e-07
-9.944631798613655e-08   -1.167643165339696e-09   -9.022240785513404e-09
-9.944631798613655e-08   -1.167643165339696e-09   -9.022240785513404e-09
-9.944631798613655e-08   -1.167643165339696e-09   -9.022240785513404e-09
-9.944631798613655e-08   -1.167643165339696e-09   -9.022240785513404e-09
              </DataArray>   
             <DataArray type="Float64" NumberOfComponents="3" Name="Stress" format="ascii">   
-0.4091415526352212   -0.1022853881588053   -0.1022853881588053
-0.4091415526352212   -0.1022853881588053   -0.1022853881588053
-0.4091415526352212   -0.1022853881588053   -0.1022853881588053
-0.4091415526352212   -0.1022853881588053   -0.1022853881588053
-0.2363612243402127   -0.008342731897106125   -0.005073982425247439
-0.2363612243402127   -0.008342731897106125   -0.005073982425247439
-0.2363612243402127   -0.008342731897106125   -0.005073982425247439
-0.2363612243402127   -0.008342731897106125   -0.005073982425247439
-0.2540218708356534   -0.06350546770891335   -0.06350546770891335
-0.2540218708356534   -0.06350546770891335   -0.06350546770891335
-0.2540218708356534   -0.06350546770891335   -0.06350546770891335
-0.2540218708356534   -0.06350546770891335   -0.06350546770891335
-0.39400154623966976   -0.03302892073662623   -0.012842596875894492
-0.39400154623966976   -0.03302892073662623   -0.012842596875894492
-0.39400154623966976   -0.03302892073662623   -0.012842596875894492
-0.39400154623966976   -0.03302892073662623   -0.012842596875894492
-0.30880865992255163   -0.051026248138108146   -0.0008993486651847002
-0.30880865992255163   -0.051026248138108146   -0.0008993486651847002
-0.30880865992255163   -0.051026248138108146   -0.0008993486651847002
-0.30880865992255163   -0.051026248138108146   -0.0008993486651847002
-0.4275858252412959   -0.10689645631032398   -0.10689645631032398
-0.4275858252412959   -0.10689645631032398   -0.10689645631032398
-0.4275858252412959   -0.10689645631032398   -0.10689645631032398
-0.4275858252412959   -0.10689645631032398   -0.10689645631032398
-0.22847132187311375   0.0023283378256986065   -0.0015865284308270652
-0.22847132187311375   0.0023283378256986065   -0.0015865284308270652
-0.22847132187311375   0.0023283378256986065   -0.0015865284308270652
-0.22847132187311375   0.0023283378256986065   -0.0015865284308270652
-0.2542134463134403   -0.06355336157836007   -0.06355336157836007
-0.2542134463134403   -0.06355336157836007   -0.06355336157836007
-0.2542134463134403   -0.06355336157836007   -0.06355336157836007
-0.2542134463134403   -0.06355336157836007   -0.06355336157836007
-0.4066537800974135   -0.03318088717371165   -0.018746442713411155
-0.4066537800974135   -0.03318088717371165   -0.018746442713411155
-0.4066537800974135   -0.03318088717371165   -0.018746442713411155
-0.4066537800974135   -0.03318088717371165   -0.018746442713411155
-0.31976344916706106   -0.047852594900276504   -0.01691628993687468
-0.31976344916706106   -0.047852594900276504   -0.01691628993687468
-0.31976344916706106   -0.047852594900276504   -0.01691628993687468
-0.31976344916706106   -0.047852594900276504   -0.01691628993687468
-0.44029812679998853   -0.11007453169999713   -0.11007453169999713
-0.44029812679998853   -0.11007453169999713   -0.11007453169999713
-0.44029812679998853   -0.11007453169999713   -0.11007453169999713
-0.44029812679998853   -0.11007453169999713   -0.11007453169999713
-0.22731783857047794   0.006591543988313429   0.0007797715697782041
-0.22731783857047794   0.006591543988313429   0.0007797715697782041
-0.22731783857047794   0.006591543988313429   0.0007797715697782041
-0.22731783857047794   0.006591543988313429   0.0007797715697782041
-0.25348821736877164   -0.06337205434219291   -0.06337205434219291
-0.25348821736877164   -0.06337205434219291   -0.06337205434219291
-0.25348821736877164   -0.06337205434219291   -0.06337205434219291
-0.25348821736877164   -0.06337205434219291   -0.06337205434219291
-0.42943415567553206   -0.0287239323643632   -0.011525496967875363
-0.42943415567553206   -0.0287239323643632   -0.011525496967875363
-0.42943415567553206   -0.0287239323643632   -0.011525496967875363
-0.42943415567553206   -0.0287239323643632   -0.011525496967875363
-0.3276869415333393   -0.04694769477467724   -0.03046773851231192
-0.3276869415333393   -0.04694769477467724   -0.03046773851231192
-0.3276869415333393   -0.04694769477467724   -0.03046773851231192
-0.3276869415333393   -0.04694769477467724   -0.03046773851231192
-0.2596420905286027   -0.06491052263215068   -0.06491052263215068
-0.2596420905286027   -0.06491052263215068   -0.06491052263215068
-0.2596420905286027   -0.06491052263215068   -0.06491052263215068
-0.2596420905286027   -0.06491052263215068   -0.06491052263215068
-0.10902540777447225   -0.007816466976685886   -0.002488641360709278
-0.10902540777447225   -0.007816466976685886   -0.002488641360709278
-0.10902540777447225   -0.007816466976685886   -0.002488641360709278
-0.10902540777447225   -0.007816466976685886   -0.002488641360709278
-0.11379609149419408   -0.02844902287354852   -0.02844902287354852
-0.11379609149419408   -0.02844902287354852   -0.02844902287354852
-0.11379609149419408   -0.02844902287354852   -0.02844902287354852
-0.11379609149419408   -0.02844902287354852   -0.02844902287354852
-0.23603012044188443   -0.0280941401523511   -0.008958043296630686
-0.23603012044188443   -0.0280941401523511   -0.008958043296630686
-0.23603012044188443   -0.0280941401523511   -0.008958043296630686
-0.23603012044188443   -0.0280941401523511   -0.008958043296630686
-0.17443975554134664   -0.03323798299186297   0.0012751148364210923
-0.17443975554134664   -0.03323798299186297   0.0012751148364210923
-0.17443975554134664   -0.03323798299186297   0.0012751148364210923
-0.17443975554134664   -0.03323798299186297   0.0012751148364210923
-0.25402187083565314   -0.06350546770891329   -0.06350546770891329
-0.25402187083565314   -0.06350546770891329   -0.06350546770891329
-0.25402187083565314   -0.06350546770891329   -0.06350546770891329
-0.25402187083565314   -0.06350546770891329   -0.06350546770891329
-0.10238530812761394   0.0003813376558248864   -0.0002254665700212547
-0.10238530812761394   0.0003813376558248864   -0.0002254665700212547
-0.10238530812761394   0.0003813376558248864   -0.0002254665700212547
-0.10238530812761394   0.0003813376558248864   -0.0002254665700212547
-0.11074351436110907   -0.02768587859027727   -0.02768587859027727
-0.11074351436110907   -0.02768587859027727   -0.02768587859027727
-0.11074351436110907   -0.02768587859027727   -0.02768587859027727
-0.11074351436110907   -0.02768587859027727   -0.02768587859027727
-0.23492781606039942   -0.02277923088174327   -0.007899341009772572
-0.23492781606039942   -0.02277923088174327   -0.007899341009772572
-0.23492781606039942   -0.02277923088174327   -0.007899341009772572
-0.23492781606039942   -0.02277923088174327   -0.007899341009772572
-0.17150174228239864   -0.027875973464102276   -0.00891062125517708
-0.17150174228239864   -0.027875973464102276   -0.00891062125517708
-0.17150174228239864   -0.027875973464102276   -0.00891062125517708
-0.17150174228239864   -0.027875973464102276   -0.00891062125517708
-0.2542134463134403   -0.06355336157836007   -0.06355336157836007
-0.2542134463134403   -0.06355336157836007   -0.06355336157836007
-0.2542134463134403   -0.06355336157836007   -0.06355336157836007
-0.2542134463134403   -0.06355336157836007   -0.06355336157836007
-0.09783300225979027   0.0067131339546174645   0.0024676693714219657
-0.09783300225979027   0.0067131339546174645   0.0024676693714219657
-0.09783300225979027   0.0067131339546174645   0.0024676693714219657
-0.09783300225979027   0.0067131339546174645   0.0024676693714219657
-0.10787720792812984   -0.02696930198203246   -0.02696930198203246
-0.10787720792812984   -0.02696930198203246   -0.02696930198203246
-0.10787720792812984   -0.02696930198203246   -0.02696930198203246
-0.10787720792812984   -0.02696930198203246   -0.02696930198203246
-0.23264312835922882   -0.017429223709200165   -0.005089439927474812
-0.23264312835922882   -0.017429223709200165   -0.005089439927474812
-0.23264312835922882   -0.017429223709200165   -0.005089439927474812
-0.23264312835922882   -0.017429223709200165   -0.005089439927474812
-0.171800322472085   -0.024522737536248982   -0.01977490278064331
-0.171800322472085   -0.024522737536248982   -0.01977490278064331
-0.171800322472085   -0.024522737536248982   -0.01977490278064331
-0.171800322472085   -0.024522737536248982   -0.01977490278064331
-0.11884931789665934   -0.029712329474164835   -0.029712329474164835
-0.11884931789665934   -0.029712329474164835   -0.029712329474164835
-0.11884931789665934   -0.029712329474164835   -0.029712329474164835
-0.11884931789665934   -0.029712329474164835   -0.029712329474164835
0.012486146842946872   0.0005432421070420928   0.00012552096069160532
0.012486146842946872   0.0005432421070420928   0.00012552096069160532
0.012486146842946872   0.0005432421070420928   0.00012552096069160532
0.012486146842946872   0.0005432421070420928   0.00012552096069160532
0.017193627874362787   0.004298406968590697   0.004298406968590697
0.017193627874362787   0.004298406968590697   0.004298406968590697
0.017193627874362787   0.004298406968590697   0.004298406968590697
0.017193627874362787   0.004298406968590697   0.004298406968590697
-0.1069517323266775   -0.018471364194751625   -0.0042048857147634275
-0.1069517323266775   -0.018471364194751625   -0.0042048857147634275
-0.1069517323266775   -0.018471364194751625   -0.0042048857147634275
-0.1069517323266775   -0.018471364194751625   -0.0042048857147634275
-0.046601829035758095   -0.011787817418467688   0.0075039747898435465
-0.046601829035758095   -0.011787817418467688   0.0075039747898435465
-0.046601829035758095   -0.011787817418467688   0.0075039747898435465
-0.046601829035758095   -0.011787817418467688   0.0075039747898435465
-0.11379609149419408   -0.02844902287354852   -0.02844902287354852
-0.11379609149419408   -0.02844902287354852   -0.02844902287354852
-0.11379609149419408   -0.02844902287354852   -0.02844902287354852
-0.11379609149419408   -0.02844902287354852   -0.02844902287354852
0.01757758358516507   0.007815662190673424   0.0027009303005192447
0.01757758358516507   0.007815662190673424   0.0027009303005192447
0.01757758358516507   0.007815662190673424   0.0027009303005192447
0.01757758358516507   0.007815662190673424   0.0027009303005192447
0.02000074819462038   0.005000187048655095   0.005000187048655095
0.02000074819462038   0.005000187048655095   0.005000187048655095
0.02000074819462038   0.005000187048655095   0.005000187048655095
0.02000074819462038   0.005000187048655095   0.005000187048655095
-0.10268484828980584   -0.012263987242012898   -0.002814439582027242
-0.10268484828980584   -0.012263987242012898   -0.002814439582027242
-0.10268484828980584   -0.012263987242012898   -0.002814439582027242
-0.10268484828980584   -0.012263987242012898   -0.002814439582027242
-0.044196042213532   -0.007212215049597137   -0.002728473594022505
-0.044196042213532   -0.007212215049597137   -0.002728473594022505
-0.044196042213532   -0.007212215049597137   -0.002728473594022505
-0.044196042213532   -0.007212215049597137   -0.002728473594022505
-0.11074351436110907   -0.02768587859027727   -0.02768587859027727
-0.11074351436110907   -0.02768587859027727   -0.02768587859027727
-0.11074351436110907   -0.02768587859027727   -0.02768587859027727
-0.11074351436110907   -0.02768587859027727   -0.02768587859027727
0.02173024540102334   0.0140929095320195   0.004554950597305321
0.02173024540102334   0.0140929095320195   0.004554950597305321
0.02173024540102334   0.0140929095320195   0.004554950597305321
0.02173024540102334   0.0140929095320195   0.004554950597305321
0.023603527732207658   0.0059008819330519146   0.0059008819330519146
0.023603527732207658   0.0059008819330519146   0.0059008819330519146
0.023603527732207658   0.0059008819330519146   0.0059008819330519146
0.023603527732207658   0.0059008819330519146   0.0059008819330519146
-0.09804981103823315   -0.004902750282827155   0.00010113076824444338
-0.09804981103823315   -0.004902750282827155   0.00010113076824444338
-0.09804981103823315   -0.004902750282827155   0.00010113076824444338
-0.09804981103823315   -0.004902750282827155   0.00010113076824444338
-0.04234683386013954   -0.0028004220961879364   -0.012868777289482037
-0.04234683386013954   -0.0028004220961879364   -0.012868777289482037
-0.04234683386013954   -0.0028004220961879364   -0.012868777289482037
-0.04234683386013954   -0.0028004220961879364   -0.012868777289482037
0.013724882477111284   0.003431220619277821   0.003431220619277821
0.013724882477111284   0.003431220619277821   0.003431220619277821
0.013724882477111284   0.003431220619277821   0.003431220619277821
0.013724882477111284   0.003431220619277821   0.003431220619277821
0.14592236126601413   0.013455527037758225   0.004802276180451375
0.14592236126601413   0.013455527037758225   0.004802276180451375
0.14592236126601413   0.013455527037758225   0.004802276180451375
0.14592236126601413   0.013455527037758225   0.004802276180451375
0.15901660495326841   0.039754151238317104   0.039754151238317104
0.15901660495326841   0.039754151238317104   0.039754151238317104
0.15901660495326841   0.039754151238317104   0.039754151238317104
0.15901660495326841   0.039754151238317104   0.039754151238317104
0.013046733404077996   -0.010222206888126861   -0.0019154515261159606
0.013046733404077996   -0.010222206888126861   -0.0019154515261159606
0.013046733404077996   -0.010222206888126861   -0.0019154515261159606
0.013046733404077996   -0.010222206888126861   -0.0019154515261159606
0.08278484037935398   0.010337672197710247   0.014918182980705425
0.08278484037935398   0.010337672197710247   0.014918182980705425
0.08278484037935398   0.010337672197710247   0.014918182980705425
0.08278484037935398   0.010337672197710247   0.014918182980705425
0.017193627874362846   0.004298406968590711   0.004298406968590711
0.017193627874362846   0.004298406968590711   0.004298406968590711
0.017193627874362846   0.004298406968590711   0.004298406968590711
0.017193627874362846   0.004298406968590711   0.004298406968590711
0.1482893931108956   0.018653220009511577   0.0072190232552586196
0.1482893931108956   0.018653220009511577   0.0072190232552586196
0.1482893931108956   0.018653220009511577   0.0072190232552586196
0.1482893931108956   0.018653220009511577   0.0072190232552586196
0.15890161827275587   0.03972540456818897   0.03972540456818897
0.15890161827275587   0.03972540456818897   0.03972540456818897
0.15890161827275587   0.03972540456818897   0.03972540456818897
0.15890161827275587   0.03972540456818897   0.03972540456818897
0.017222657810356992   -0.004130742109524851   0.00024066428551795024
0.017222657810356992   -0.004130742109524851   0.00024066428551795024
0.017222657810356992   -0.004130742109524851   0.00024066428551795024
0.017222657810356992   -0.004130742109524851   0.00024066428551795024
0.08275043261142877   0.013782219590255534   0.003755639635871096
0.08275043261142877   0.013782219590255534   0.003755639635871096
0.08275043261142877   0.013782219590255534   0.003755639635871096
0.08275043261142877   0.013782219590255534   0.003755639635871096
0.0200007481946204   0.0050001870486551   0.0050001870486551
0.0200007481946204   0.0050001870486551   0.0050001870486551
0.0200007481946204   0.0050001870486551   0.0050001870486551
0.0200007481946204   0.0050001870486551   0.0050001870486551
0.14960966097336362   0.024080608494880182   0.008910414144536501
0.14960966097336362   0.024080608494880182   0.008910414144536501
0.14960966097336362   0.024080608494880182   0.008910414144536501
0.14960966097336362   0.024080608494880182   0.008910414144536501
0.1625229714125094   0.04063074285312735   0.04063074285312735
0.1625229714125094   0.04063074285312735   0.04063074285312735
0.1625229714125094   0.04063074285312735   0.04063074285312735
0.1625229714125094   0.04063074285312735   0.04063074285312735
0.022553435164636305   0.0038752453205190326   0.0026760557077278443
0.022553435164636305   0.0038752453205190326   0.0026760557077278443
0.022553435164636305   0.0038752453205190326   0.0026760557077278443
0.022553435164636305   0.0038752453205190326   0.0026760557077278443
0.08458507849492175   0.01883821575940029   -0.006591192400833279
0.08458507849492175   0.01883821575940029   -0.006591192400833279
0.08458507849492175   0.01883821575940029   -0.006591192400833279
0.08458507849492175   0.01883821575940029   -0.006591192400833279
0.15807866735819134   0.039519666839547836   0.039519666839547836
0.15807866735819134   0.039519666839547836   0.039519666839547836
0.15807866735819134   0.039519666839547836   0.039519666839547836
0.15807866735819134   0.039519666839547836   0.039519666839547836
0.33129029116426606   0.025433954264902726   0.009405733864450273
0.33129029116426606   0.025433954264902726   0.009405733864450273
0.33129029116426606   0.025433954264902726   0.009405733864450273
0.33129029116426606   0.025433954264902726   0.009405733864450273
0.33928767298265694   0.08482191824566424   0.08482191824566424
0.33928767298265694   0.08482191824566424   0.08482191824566424
0.33928767298265694   0.08482191824566424   0.08482191824566424
0.33928767298265694   0.08482191824566424   0.08482191824566424
0.14148981670059227   -0.0077919172054681865   -0.00033372158127830363
0.14148981670059227   -0.0077919172054681865   -0.00033372158127830363
0.14148981670059227   -0.0077919172054681865   -0.00033372158127830363
0.14148981670059227   -0.0077919172054681865   -0.00033372158127830363
0.2358085362410942   0.0335713249772764   0.026397090461286184
0.2358085362410942   0.0335713249772764   0.026397090461286184
0.2358085362410942   0.0335713249772764   0.026397090461286184
0.2358085362410942   0.0335713249772764   0.026397090461286184
0.15901660495326828   0.03975415123831707   0.03975415123831707
0.15901660495326828   0.03975415123831707   0.03975415123831707
0.15901660495326828   0.03975415123831707   0.03975415123831707
0.15901660495326828   0.03975415123831707   0.03975415123831707
0.314688519320397   0.030203484392296115   0.01644458378773778
0.314688519320397   0.030203484392296115   0.01644458378773778
0.314688519320397   0.030203484392296115   0.01644458378773778
0.314688519320397   0.030203484392296115   0.01644458378773778
0.32982690688553   0.0824567267213825   0.0824567267213825
0.32982690688553   0.0824567267213825   0.0824567267213825
0.32982690688553   0.0824567267213825   0.0824567267213825
0.32982690688553   0.0824567267213825   0.0824567267213825
0.14251945980367048   -0.003995313167466839   0.0015353299584178904
0.14251945980367048   -0.003995313167466839   0.0015353299584178904
0.14251945980367048   -0.003995313167466839   0.0015353299584178904
0.14251945980367048   -0.003995313167466839   0.0015353299584178904
0.2294475786119202   0.03471634601629833   0.012623645406006797
0.2294475786119202   0.03471634601629833   0.012623645406006797
0.2294475786119202   0.03471634601629833   0.012623645406006797
0.2294475786119202   0.03471634601629833   0.012623645406006797
0.15890161827275587   0.03972540456818897   0.03972540456818897
0.15890161827275587   0.03972540456818897   0.03972540456818897
0.15890161827275587   0.03972540456818897   0.03972540456818897
0.15890161827275587   0.03972540456818897   0.03972540456818897
0.3051758252521674   0.030467085821450385   0.011190959454506624
0.3051758252521674   0.030467085821450385   0.011190959454506624
0.3051758252521674   0.030467085821450385   0.011190959454506624
0.3051758252521674   0.030467085821450385   0.011190959454506624
0.31534684445391603   0.07883671111347901   0.07883671111347901
0.31534684445391603   0.07883671111347901   0.07883671111347901
0.31534684445391603   0.07883671111347901   0.07883671111347901
0.31534684445391603   0.07883671111347901   0.07883671111347901
0.14836784319065707   0.005533263089978289   0.004952581507014764
0.14836784319065707   0.005533263089978289   0.004952581507014764
0.14836784319065707   0.005533263089978289   0.004952581507014764
0.14836784319065707   0.005533263089978289   0.004952581507014764
0.22028882293689744   0.03785042514785735   -0.0034653515983830664
0.22028882293689744   0.03785042514785735   -0.0034653515983830664
0.22028882293689744   0.03785042514785735   -0.0034653515983830664
0.22028882293689744   0.03785042514785735   -0.0034653515983830664
-0.31847801310221924   -0.022893452484035286   0.0042892034021137174
-0.31847801310221924   -0.022893452484035286   0.0042892034021137174
-0.31847801310221924   -0.022893452484035286   0.0042892034021137174
-0.31847801310221924   -0.022893452484035286   0.0042892034021137174
-0.2034092948784161   -0.005359595832505962   -0.0015622313651318023
-0.2034092948784161   -0.005359595832505962   -0.0015622313651318023
-0.2034092948784161   -0.005359595832505962   -0.0015622313651318023
-0.2034092948784161   -0.005359595832505962   -0.0015622313651318023
-0.20422421399498444   0.008436935720972483   0.004709353167413933
-0.20422421399498444   0.008436935720972483   0.004709353167413933
-0.20422421399498444   0.008436935720972483   0.004709353167413933
-0.20422421399498444   0.008436935720972483   0.004709353167413933
-0.3229351964131884   -0.022383583752576028   -0.004135070708088356
-0.3229351964131884   -0.022383583752576028   -0.004135070708088356
-0.3229351964131884   -0.022383583752576028   -0.004135070708088356
-0.3229351964131884   -0.022383583752576028   -0.004135070708088356
-0.2520120025133662   -0.008818013513302546   -0.0013605190800883172
-0.2520120025133662   -0.008818013513302546   -0.0013605190800883172
-0.2520120025133662   -0.008818013513302546   -0.0013605190800883172
-0.2520120025133662   -0.008818013513302546   -0.0013605190800883172
-0.3202681842935894   -0.015292039787304298   0.0021084459246349836
-0.3202681842935894   -0.015292039787304298   0.0021084459246349836
-0.3202681842935894   -0.015292039787304298   0.0021084459246349836
-0.3202681842935894   -0.015292039787304298   0.0021084459246349836
-0.20719622977389293   0.0010403880963920503   -0.0027541781025443683
-0.20719622977389293   0.0010403880963920503   -0.0027541781025443683
-0.20719622977389293   0.0010403880963920503   -0.0027541781025443683
-0.20719622977389293   0.0010403880963920503   -0.0027541781025443683
-0.2041231286144245   0.01212293770491929   0.005242030196754805
-0.2041231286144245   0.01212293770491929   0.005242030196754805
-0.2041231286144245   0.01212293770491929   0.005242030196754805
-0.2041231286144245   0.01212293770491929   0.005242030196754805
-0.32440922594302796   -0.019588199423644925   -0.005424096046890085
-0.32440922594302796   -0.019588199423644925   -0.005424096046890085
-0.32440922594302796   -0.019588199423644925   -0.005424096046890085
-0.32440922594302796   -0.019588199423644925   -0.005424096046890085
-0.25865770966609053   -0.005763456940185575   -0.0026277557827655024
-0.25865770966609053   -0.005763456940185575   -0.0026277557827655024
-0.25865770966609053   -0.005763456940185575   -0.0026277557827655024
-0.25865770966609053   -0.005763456940185575   -0.0026277557827655024
-0.3182282748242014   -0.00880667129305665   0.014699131416651978
-0.3182282748242014   -0.00880667129305665   0.014699131416651978
-0.3182282748242014   -0.00880667129305665   0.014699131416651978
-0.3182282748242014   -0.00880667129305665   0.014699131416651978
-0.20781541609486284   0.0038300732127190262   -0.004926542713235407
-0.20781541609486284   0.0038300732127190262   -0.004926542713235407
-0.20781541609486284   0.0038300732127190262   -0.004926542713235407
-0.20781541609486284   0.0038300732127190262   -0.004926542713235407
-0.200022868156666   0.02129949573329227   0.009180356001536213
-0.200022868156666   0.02129949573329227   0.009180356001536213
-0.200022868156666   0.02129949573329227   0.009180356001536213
-0.200022868156666   0.02129949573329227   0.009180356001536213
-0.3147205160775315   -0.015505067727684979   -0.00870786613677119
-0.3147205160775315   -0.015505067727684979   -0.00870786613677119
-0.3147205160775315   -0.015505067727684979   -0.00870786613677119
-0.3147205160775315   -0.015505067727684979   -0.00870786613677119
-0.24822745658957887   0.0026370794296440084   0.005617996655601093
-0.24822745658957887   0.0026370794296440084   0.005617996655601093
-0.24822745658957887   0.0026370794296440084   0.005617996655601093
-0.24822745658957887   0.0026370794296440084   0.005617996655601093
-0.2082629350230521   -0.027836874782019592   -0.003353153138798009
-0.2082629350230521   -0.027836874782019592   -0.003353153138798009
-0.2082629350230521   -0.027836874782019592   -0.003353153138798009
-0.2082629350230521   -0.027836874782019592   -0.003353153138798009
-0.09682354435745621   -0.002589679709645104   0.0009232917227308748
-0.09682354435745621   -0.002589679709645104   0.0009232917227308748
-0.09682354435745621   -0.002589679709645104   0.0009232917227308748
-0.09682354435745621   -0.002589679709645104   0.0009232917227308748
-0.09786523345981228   0.0016581075863556262   0.0016383084148310209
-0.09786523345981228   0.0016581075863556262   0.0016383084148310209
-0.09786523345981228   0.0016581075863556262   0.0016383084148310209
-0.09786523345981228   0.0016581075863556262   0.0016383084148310209
-0.21217700578574708   -0.020311513071108334   -0.0063061569943184724
-0.21217700578574708   -0.020311513071108334   -0.0063061569943184724
-0.21217700578574708   -0.020311513071108334   -0.0063061569943184724
-0.21217700578574708   -0.020311513071108334   -0.0063061569943184724
-0.15381049904385122   -0.012698179583969765   -0.003704965484350436
-0.15381049904385122   -0.012698179583969765   -0.003704965484350436
-0.15381049904385122   -0.012698179583969765   -0.003704965484350436
-0.15381049904385122   -0.012698179583969765   -0.003704965484350436
-0.2119078683657329   -0.022110398059055045   -0.003161584906301738
-0.2119078683657329   -0.022110398059055045   -0.003161584906301738
-0.2119078683657329   -0.022110398059055045   -0.003161584906301738
-0.2119078683657329   -0.022110398059055045   -0.003161584906301738
-0.09776367935614247   0.0038276840979861726   -2.349757844959978e-05
-0.09776367935614247   0.0038276840979861726   -2.349757844959978e-05
-0.09776367935614247   0.0038276840979861726   -2.349757844959978e-05
-0.09776367935614247   0.0038276840979861726   -2.349757844959978e-05
-0.09718725216355317   0.0067670057478183   0.0020912782411895304
-0.09718725216355317   0.0067670057478183   0.0020912782411895304
-0.09718725216355317   0.0067670057478183   0.0020912782411895304
-0.09718725216355317   0.0067670057478183   0.0020912782411895304
-0.21190730386433915   -0.014709531506655826   -0.006846376841243285
-0.21190730386433915   -0.014709531506655826   -0.006846376841243285
-0.21190730386433915   -0.014709531506655826   -0.006846376841243285
-0.21190730386433915   -0.014709531506655826   -0.006846376841243285
-0.15320002793060936   -0.006993783825158067   -0.0017747473673085023
-0.15320002793060936   -0.006993783825158067   -0.0017747473673085023
-0.15320002793060936   -0.006993783825158067   -0.0017747473673085023
-0.15320002793060936   -0.006993783825158067   -0.0017747473673085023
-0.21102034937792646   -0.016535080438717847   -0.0005860554771179045
-0.21102034937792646   -0.016535080438717847   -0.0005860554771179045
-0.21102034937792646   -0.016535080438717847   -0.0005860554771179045
-0.21102034937792646   -0.016535080438717847   -0.0005860554771179045
-0.09738158922453663   0.009285172105310002   -0.0013985734212176252
-0.09738158922453663   0.009285172105310002   -0.0013985734212176252
-0.09738158922453663   0.009285172105310002   -0.0013985734212176252
-0.09738158922453663   0.009285172105310002   -0.0013985734212176252
-0.09526507848171403   0.011866666373979633   0.004011960610909625
-0.09526507848171403   0.011866666373979633   0.004011960610909625
-0.09526507848171403   0.011866666373979633   0.004011960610909625
-0.09526507848171403   0.011866666373979633   0.004011960610909625
-0.20929194635484222   -0.008231396540231944   -0.007634142715821572
-0.20929194635484222   -0.008231396540231944   -0.007634142715821572
-0.20929194635484222   -0.008231396540231944   -0.007634142715821572
-0.20929194635484222   -0.008231396540231944   -0.007634142715821572
-0.1522231765466997   -0.0015892357823721198   0.0007482438838038053
-0.1522231765466997   -0.0015892357823721198   0.0007482438838038053
-0.1522231765466997   -0.0015892357823721198   0.0007482438838038053
-0.1522231765466997   -0.0015892357823721198   0.0007482438838038053
-0.10196122914012669   -0.02320191638480369   -0.004152895515463749
-0.10196122914012669   -0.02320191638480369   -0.004152895515463749
-0.10196122914012669   -0.02320191638480369   -0.004152895515463749
-0.10196122914012669   -0.02320191638480369   -0.004152895515463749
0.00885987795231204   0.001996135024990678   0.003969718067140863
0.00885987795231204   0.001996135024990678   0.003969718067140863
0.00885987795231204   0.001996135024990678   0.003969718067140863
0.00885987795231204   0.001996135024990678   0.003969718067140863
0.008691643390366504   0.005572794230586755   0.0003725306948844638
0.008691643390366504   0.005572794230586755   0.0003725306948844638
0.008691643390366504   0.005572794230586755   0.0003725306948844638
0.008691643390366504   0.005572794230586755   0.0003725306948844638
-0.10210748712768022   -0.015249409540640156   -0.00266544279751294
-0.10210748712768022   -0.015249409540640156   -0.00266544279751294
-0.10210748712768022   -0.015249409540640156   -0.00266544279751294
-0.10210748712768022   -0.015249409540640156   -0.00266544279751294
-0.047085851401329044   -0.007812614117622472   -0.0015823397402895674
-0.047085851401329044   -0.007812614117622472   -0.0015823397402895674
-0.047085851401329044   -0.007812614117622472   -0.0015823397402895674
-0.047085851401329044   -0.007812614117622472   -0.0015823397402895674
-0.10282299436175706   -0.017585930967101912   -0.003906457541435308
-0.10282299436175706   -0.017585930967101912   -0.003906457541435308
-0.10282299436175706   -0.017585930967101912   -0.003906457541435308
-0.10282299436175706   -0.017585930967101912   -0.003906457541435308
0.009779101510802251   0.008281266543407433   0.003101348984242527
0.009779101510802251   0.008281266543407433   0.003101348984242527
0.009779101510802251   0.008281266543407433   0.003101348984242527
0.009779101510802251   0.008281266543407433   0.003101348984242527
0.009801815798271947   0.0111591274510514   0.0018144697952162153
0.009801815798271947   0.0111591274510514   0.0018144697952162153
0.009801815798271947   0.0111591274510514   0.0018144697952162153
0.009801815798271947   0.0111591274510514   0.0018144697952162153
-0.10145172356246727   -0.009114524805209087   -0.0033495482003535666
-0.10145172356246727   -0.009114524805209087   -0.0033495482003535666
-0.10145172356246727   -0.009114524805209087   -0.0033495482003535666
-0.10145172356246727   -0.009114524805209087   -0.0033495482003535666
-0.0460531783944254   -0.0018969105381242048   0.0004768471724369027
-0.0460531783944254   -0.0018969105381242048   0.0004768471724369027
-0.0460531783944254   -0.0018969105381242048   0.0004768471724369027
-0.0460531783944254   -0.0018969105381242048   0.0004768471724369027
-0.10175225624461354   -0.011923273499856443   -0.0020434629164375172
-0.10175225624461354   -0.011923273499856443   -0.0020434629164375172
-0.10175225624461354   -0.011923273499856443   -0.0020434629164375172
-0.10175225624461354   -0.011923273499856443   -0.0020434629164375172
0.010505695352728633   0.014371223018009173   0.0021217720005418314
0.010505695352728633   0.014371223018009173   0.0021217720005418314
0.010505695352728633   0.014371223018009173   0.0021217720005418314
0.010505695352728633   0.014371223018009173   0.0021217720005418314
0.010356508899410574   0.017344387322050493   0.002930498854988967
0.010356508899410574   0.017344387322050493   0.002930498854988967
0.010356508899410574   0.017344387322050493   0.002930498854988967
0.010356508899410574   0.017344387322050493   0.002930498854988967
-0.09980835923967632   -0.0025806791330118366   -0.004257097671909979
-0.09980835923967632   -0.0025806791330118366   -0.004257097671909979
-0.09980835923967632   -0.0025806791330118366   -0.004257097671909979
-0.09980835923967632   -0.0025806791330118366   -0.004257097671909979
-0.04459321359099104   0.004288386826790964   0.002731923976265614
-0.04459321359099104   0.004288386826790964   0.002731923976265614
-0.04459321359099104   0.004288386826790964   0.002731923976265614
-0.04459321359099104   0.004288386826790964   0.002731923976265614
0.0031936311263060877   -0.017103125361544378   -0.005262255676353847
0.0031936311263060877   -0.017103125361544378   -0.005262255676353847
0.0031936311263060877   -0.017103125361544378   -0.005262255676353847
0.0031936311263060877   -0.017103125361544378   -0.005262255676353847
0.11805881147841363   0.007955218396275752   0.007393353996296013
0.11805881147841363   0.007955218396275752   0.007393353996296013
0.11805881147841363   0.007955218396275752   0.007393353996296013
0.11805881147841363   0.007955218396275752   0.007393353996296013
0.11818969056500052   0.010940002266479468   -0.001247362914007075
0.11818969056500052   0.010940002266479468   -0.001247362914007075
0.11818969056500052   0.010940002266479468   -0.001247362914007075
0.11818969056500052   0.010940002266479468   -0.001247362914007075
0.005674352740168316   -0.010062095287694788   0.0009209669621750714
0.005674352740168316   -0.010062095287694788   0.0009209669621750714
0.005674352740168316   -0.010062095287694788   0.0009209669621750714
0.005674352740168316   -0.010062095287694788   0.0009209669621750714
0.06050393825044438   -0.0016039074576254392   2.324119376013404e-05
0.06050393825044438   -0.0016039074576254392   2.324119376013404e-05
0.06050393825044438   -0.0016039074576254392   2.324119376013404e-05
0.06050393825044438   -0.0016039074576254392   2.324119376013404e-05
0.004217814306311464   -0.012408053751181466   -0.004015766743622454
0.004217814306311464   -0.012408053751181466   -0.004015766743622454
0.004217814306311464   -0.012408053751181466   -0.004015766743622454
0.004217814306311464   -0.012408053751181466   -0.004015766743622454
0.12033425332900664   0.01397398506011507   0.006441468112386995
0.12033425332900664   0.01397398506011507   0.006441468112386995
0.12033425332900664   0.01397398506011507   0.006441468112386995
0.12033425332900664   0.01397398506011507   0.006441468112386995
0.11951526089767105   0.016485787721850775   0.0010307103550815694
0.11951526089767105   0.016485787721850775   0.0010307103550815694
0.11951526089767105   0.016485787721850775   0.0010307103550815694
0.11951526089767105   0.016485787721850775   0.0010307103550815694
0.006261104781342109   -0.004559545140042151   -0.0001704126983394184
0.006261104781342109   -0.004559545140042151   -0.0001704126983394184
0.006261104781342109   -0.004559545140042151   -0.0001704126983394184
0.006261104781342109   -0.004559545140042151   -0.0001704126983394184
0.061690479030808085   0.0036841767093784544   0.002556609977502115
0.061690479030808085   0.0036841767093784544   0.002556609977502115
0.061690479030808085   0.0036841767093784544   0.002556609977502115
0.061690479030808085   0.0036841767093784544   0.002556609977502115
0.005165360688352949   -0.007193391709745556   -0.003015286593581768
0.005165360688352949   -0.007193391709745556   -0.003015286593581768
0.005165360688352949   -0.007193391709745556   -0.003015286593581768
0.005165360688352949   -0.007193391709745556   -0.003015286593581768
0.121112098033508   0.019620727334401594   0.005879956421713434
0.121112098033508   0.019620727334401594   0.005879956421713434
0.121112098033508   0.019620727334401594   0.005879956421713434
0.121112098033508   0.019620727334401594   0.005879956421713434
0.11790801510607932   0.022876815439252907   0.0023293263599541867
0.11790801510607932   0.022876815439252907   0.0023293263599541867
0.11790801510607932   0.022876815439252907   0.0023293263599541867
0.11790801510607932   0.022876815439252907   0.0023293263599541867
0.00651793112987778   0.0021933523141713816   -0.0011113549847958978
0.00651793112987778   0.0021933523141713816   -0.0011113549847958978
0.00651793112987778   0.0021933523141713816   -0.0011113549847958978
0.00651793112987778   0.0021933523141713816   -0.0011113549847958978
0.06297317981936196   0.009717598736110087   0.004921802017684487
0.06297317981936196   0.009717598736110087   0.004921802017684487
0.06297317981936196   0.009717598736110087   0.004921802017684487
0.06297317981936196   0.009717598736110087   0.004921802017684487
0.10838273216068155   -0.02302922428993498   -0.010002599906153738
0.10838273216068155   -0.02302922428993498   -0.010002599906153738
0.10838273216068155   -0.02302922428993498   -0.010002599906153738
0.10838273216068155   -0.02302922428993498   -0.010002599906153738
0.22480817087396954   0.014868417622548445   0.007522750310233363
0.22480817087396954   0.014868417622548445   0.007522750310233363
0.22480817087396954   0.014868417622548445   0.007522750310233363
0.22480817087396954   0.014868417622548445   0.007522750310233363
0.22776233293721793   0.006512500657629795   -0.015084148502414041
0.22776233293721793   0.006512500657629795   -0.015084148502414041
0.22776233293721793   0.006512500657629795   -0.015084148502414041
0.22776233293721793   0.006512500657629795   -0.015084148502414041
0.11632753060580935   -0.0042285121550045095   0.004610351711519052
0.11632753060580935   -0.0042285121550045095   0.004610351711519052
0.11632753060580935   -0.0042285121550045095   0.004610351711519052
0.11632753060580935   -0.0042285121550045095   0.004610351711519052
0.16083627164851932   -0.00316977664579636   -0.004294284652856053
0.16083627164851932   -0.00316977664579636   -0.004294284652856053
0.16083627164851932   -0.00316977664579636   -0.004294284652856053
0.16083627164851932   -0.00316977664579636   -0.004294284652856053
0.11189222643885299   -0.015003022664344494   -0.006791658613921045
0.11189222643885299   -0.015003022664344494   -0.006791658613921045
0.11189222643885299   -0.015003022664344494   -0.006791658613921045
0.11189222643885299   -0.015003022664344494   -0.006791658613921045
0.23433758935581642   0.01942696341861229   0.004877670829595971
0.23433758935581642   0.01942696341861229   0.004877670829595971
0.23433758935581642   0.01942696341861229   0.004877670829595971
0.23433758935581642   0.01942696341861229   0.004877670829595971
0.23086158863747852   0.01259765287723972   -0.003841968651857335
0.23086158863747852   0.01259765287723972   -0.003841968651857335
0.23086158863747852   0.01259765287723972   -0.003841968651857335
0.23086158863747852   0.01259765287723972   -0.003841968651857335
0.11623038786549768   -0.0014448042429989795   0.0025369371590623904
0.11623038786549768   -0.0014448042429989795   0.0025369371590623904
0.11623038786549768   -0.0014448042429989795   0.0025369371590623904
0.11623038786549768   -0.0014448042429989795   0.0025369371590623904
0.1699031931863869   0.0042791369710116   0.002860796431035517
0.1699031931863869   0.0042791369710116   0.002860796431035517
0.1699031931863869   0.0042791369710116   0.002860796431035517
0.1699031931863869   0.0042791369710116   0.002860796431035517
0.11261498173892841   -0.011400211929545934   -0.0055846857872357426
0.11261498173892841   -0.011400211929545934   -0.0055846857872357426
0.11261498173892841   -0.011400211929545934   -0.0055846857872357426
0.11261498173892841   -0.011400211929545934   -0.0055846857872357426
0.23423290025001614   0.022308966049755272   0.0033032762383151905
0.23423290025001614   0.022308966049755272   0.0033032762383151905
0.23423290025001614   0.022308966049755272   0.0033032762383151905
0.23423290025001614   0.022308966049755272   0.0033032762383151905
0.2311443835547108   0.019954485053678302   -0.005717849038539163
0.2311443835547108   0.019954485053678302   -0.005717849038539163
0.2311443835547108   0.019954485053678302   -0.005717849038539163
0.2311443835547108   0.019954485053678302   -0.005717849038539163
0.11414005363196245   0.004837443628413929   0.0015288908002067912
0.11414005363196245   0.004837443628413929   0.0015288908002067912
0.11414005363196245   0.004837443628413929   0.0015288908002067912
0.11414005363196245   0.004837443628413929   0.0015288908002067912
0.16602275274967268   0.007733244895654339   0.0023361598033647723
0.16602275274967268   0.007733244895654339   0.0023361598033647723
0.16602275274967268   0.007733244895654339   0.0023361598033647723
0.16602275274967268   0.007733244895654339   0.0023361598033647723
-0.24633215140499026   -0.010936739433313684   0.013474907157403739
-0.24633215140499026   -0.010936739433313684   0.013474907157403739
-0.24633215140499026   -0.010936739433313684   0.013474907157403739
-0.24633215140499026   -0.010936739433313684   0.013474907157403739
-0.16482226929401206   -0.006774785129074378   -0.003505789470692684
-0.16482226929401206   -0.006774785129074378   -0.003505789470692684
-0.16482226929401206   -0.006774785129074378   -0.003505789470692684
-0.16482226929401206   -0.006774785129074378   -0.003505789470692684
-0.15843913308127433   0.013586861549566669   0.011221092470711076
-0.15843913308127433   0.013586861549566669   0.011221092470711076
-0.15843913308127433   0.013586861549566669   0.011221092470711076
-0.15843913308127433   0.013586861549566669   0.011221092470711076
-0.24731014430106898   -0.017837802396096787   -0.00544426684469569
-0.24731014430106898   -0.017837802396096787   -0.00544426684469569
-0.24731014430106898   -0.017837802396096787   -0.00544426684469569
-0.24731014430106898   -0.017837802396096787   -0.00544426684469569
-0.19601621446635406   -0.003020326709683503   -0.000718980960661508
-0.19601621446635406   -0.003020326709683503   -0.000718980960661508
-0.19601621446635406   -0.003020326709683503   -0.000718980960661508
-0.19601621446635406   -0.003020326709683503   -0.000718980960661508
-0.24005807308708843   -0.0019879063165968783   0.014966193145707393
-0.24005807308708843   -0.0019879063165968783   0.014966193145707393
-0.24005807308708843   -0.0019879063165968783   0.014966193145707393
-0.24005807308708843   -0.0019879063165968783   0.014966193145707393
-0.1645569380566243   -0.0011287682913025884   -0.004652302565169393
-0.1645569380566243   -0.0011287682913025884   -0.004652302565169393
-0.1645569380566243   -0.0011287682913025884   -0.004652302565169393
-0.1645569380566243   -0.0011287682913025884   -0.004652302565169393
-0.15762140114743803   0.01692159035994238   0.010337028075456528
-0.15762140114743803   0.01692159035994238   0.010337028075456528
-0.15762140114743803   0.01692159035994238   0.010337028075456528
-0.15762140114743803   0.01692159035994238   0.010337028075456528
-0.24309757781217578   -0.014796009201908482   -0.007397451105251217
-0.24309757781217578   -0.014796009201908482   -0.007397451105251217
-0.24309757781217578   -0.014796009201908482   -0.007397451105251217
-0.24309757781217578   -0.014796009201908482   -0.007397451105251217
-0.19611722149086797   0.0008926730098895094   0.0020850968078853956
-0.19611722149086797   0.0008926730098895094   0.0020850968078853956
-0.19611722149086797   0.0008926730098895094   0.0020850968078853956
-0.19611722149086797   0.0008926730098895094   0.0020850968078853956
-0.23636661872343462   0.0011645068808008169   0.0102968282557453
-0.23636661872343462   0.0011645068808008169   0.0102968282557453
-0.23636661872343462   0.0011645068808008169   0.0102968282557453
-0.23636661872343462   0.0011645068808008169   0.0102968282557453
-0.16398072372785127   0.001332710785561568   -0.005870705252227397
-0.16398072372785127   0.001332710785561568   -0.005870705252227397
-0.16398072372785127   0.001332710785561568   -0.005870705252227397
-0.16398072372785127   0.001332710785561568   -0.005870705252227397
-0.1576188272208733   0.019298120161254817   0.00820638445126962
-0.1576188272208733   0.019298120161254817   0.00820638445126962
-0.1576188272208733   0.019298120161254817   0.00820638445126962
-0.1576188272208733   0.019298120161254817   0.00820638445126962
-0.23773324917899816   -0.01146636837743003   -0.009383497698915194
-0.23773324917899816   -0.01146636837743003   -0.009383497698915194
-0.23773324917899816   -0.01146636837743003   -0.009383497698915194
-0.23773324917899816   -0.01146636837743003   -0.009383497698915194
-0.1902130812732025   0.004443352241251225   0.004645006412681457
-0.1902130812732025   0.004443352241251225   0.004645006412681457
-0.1902130812732025   0.004443352241251225   0.004645006412681457
-0.1902130812732025   0.004443352241251225   0.004645006412681457
-0.16507852775052284   -0.015614756757724151   0.004052889875403215
-0.16507852775052284   -0.015614756757724151   0.004052889875403215
-0.16507852775052284   -0.015614756757724151   0.004052889875403215
-0.16507852775052284   -0.015614756757724151   0.004052889875403215
-0.08451156273590231   -0.0033447388439013567   0.00010658695798119013
-0.08451156273590231   -0.0033447388439013567   0.00010658695798119013
-0.08451156273590231   -0.0033447388439013567   0.00010658695798119013
-0.08451156273590231   -0.0033447388439013567   0.00010658695798119013
-0.08189917226987754   0.008219276507671253   0.006069957383709925
-0.08189917226987754   0.008219276507671253   0.006069957383709925
-0.08189917226987754   0.008219276507671253   0.006069957383709925
-0.08189917226987754   0.008219276507671253   0.006069957383709925
-0.1676387994537492   -0.015396866137727394   -0.005793511704370719
-0.1676387994537492   -0.015396866137727394   -0.005793511704370719
-0.1676387994537492   -0.015396866137727394   -0.005793511704370719
-0.1676387994537492   -0.015396866137727394   -0.005793511704370719
-0.1243792737069797   -0.006107911074921098   -0.0026905200853490994
-0.1243792737069797   -0.006107911074921098   -0.0026905200853490994
-0.1243792737069797   -0.006107911074921098   -0.0026905200853490994
-0.1243792737069797   -0.006107911074921098   -0.0026905200853490994
-0.1643724405065162   -0.008717571031320818   0.003858987925388256
-0.1643724405065162   -0.008717571031320818   0.003858987925388256
-0.1643724405065162   -0.008717571031320818   0.003858987925388256
-0.1643724405065162   -0.008717571031320818   0.003858987925388256
-0.08451704446909077   0.002188468149284712   -0.0009885952539686535
-0.08451704446909077   0.002188468149284712   -0.0009885952539686535
-0.08451704446909077   0.002188468149284712   -0.0009885952539686535
-0.08451704446909077   0.002188468149284712   -0.0009885952539686535
-0.08149073137656429   0.013787676457001626   0.005223090489269128
-0.08149073137656429   0.013787676457001626   0.005223090489269128
-0.08149073137656429   0.013787676457001626   0.005223090489269128
-0.08149073137656429   0.013787676457001626   0.005223090489269128
-0.1664906481694546   -0.010228604787674133   -0.006859011887009765
-0.1664906481694546   -0.010228604787674133   -0.006859011887009765
-0.1664906481694546   -0.010228604787674133   -0.006859011887009765
-0.1664906481694546   -0.010228604787674133   -0.006859011887009765
-0.12285846790184023   -0.0005256716623937008   -0.00010263489537958026
-0.12285846790184023   -0.0005256716623937008   -0.00010263489537958026
-0.12285846790184023   -0.0005256716623937008   -0.00010263489537958026
-0.12285846790184023   -0.0005256716623937008   -0.00010263489537958026
-0.1631613246778937   -0.0030660501204116328   0.002625050903532246
-0.1631613246778937   -0.0030660501204116328   0.002625050903532246
-0.1631613246778937   -0.0030660501204116328   0.002625050903532246
-0.1631613246778937   -0.0030660501204116328   0.002625050903532246
-0.084293081353065   0.007152095304799565   -0.0021530782410308655
-0.084293081353065   0.007152095304799565   -0.0021530782410308655
-0.084293081353065   0.007152095304799565   -0.0021530782410308655
-0.084293081353065   0.007152095304799565   -0.0021530782410308655
-0.08132135172920345   0.01966754047856012   0.003889947752499033
-0.08132135172920345   0.01966754047856012   0.003889947752499033
-0.08132135172920345   0.01966754047856012   0.003889947752499033
-0.08132135172920345   0.01966754047856012   0.003889947752499033
-0.16551550379281627   -0.004612229020715432   -0.007366649226475841
-0.16551550379281627   -0.004612229020715432   -0.007366649226475841
-0.16551550379281627   -0.004612229020715432   -0.007366649226475841
-0.16551550379281627   -0.004612229020715432   -0.007366649226475841
-0.12275993142763299   0.004645867916733982   0.0018999326423963306
-0.12275993142763299   0.004645867916733982   0.0018999326423963306
-0.12275993142763299   0.004645867916733982   0.0018999326423963306
-0.12275993142763299   0.004645867916733982   0.0018999326423963306
-0.08756099363267254   -0.018149203482824047   -0.00033610288694818126
-0.08756099363267254   -0.018149203482824047   -0.00033610288694818126
-0.08756099363267254   -0.018149203482824047   -0.00033610288694818126
-0.08756099363267254   -0.018149203482824047   -0.00033610288694818126
-0.004860738545770988   0.0005189022870036214   0.003726689669529145
-0.004860738545770988   0.0005189022870036214   0.003726689669529145
-0.004860738545770988   0.0005189022870036214   0.003726689669529145
-0.004860738545770988   0.0005189022870036214   0.003726689669529145
-0.005038507207648965   0.00505795605093644   0.0018024052403378134
-0.005038507207648965   0.00505795605093644   0.0018024052403378134
-0.005038507207648965   0.00505795605093644   0.0018024052403378134
-0.005038507207648965   0.00505795605093644   0.0018024052403378134
-0.0874733867637832   -0.011470840416110305   -0.0021109981620367783
-0.0874733867637832   -0.011470840416110305   -0.0021109981620367783
-0.0874733867637832   -0.011470840416110305   -0.0021109981620367783
-0.0874733867637832   -0.011470840416110305   -0.0021109981620367783
-0.04638399281325901   -0.005801744597172992   -0.0015421600742436651
-0.04638399281325901   -0.005801744597172992   -0.0015421600742436651
-0.04638399281325901   -0.005801744597172992   -0.0015421600742436651
-0.04638399281325901   -0.005801744597172992   -0.0015421600742436651
-0.0873775550763986   -0.011992392165938393   -0.0011102879752857408
-0.0873775550763986   -0.011992392165938393   -0.0011102879752857408
-0.0873775550763986   -0.011992392165938393   -0.0011102879752857408
-0.0873775550763986   -0.011992392165938393   -0.0011102879752857408
-0.00465378612686005   0.006060060568937562   0.0027239061262813286
-0.00465378612686005   0.006060060568937562   0.0027239061262813286
-0.00465378612686005   0.006060060568937562   0.0027239061262813286
-0.00465378612686005   0.006060060568937562   0.0027239061262813286
-0.004488320848087351   0.011110820435931494   0.0008137752909694184
-0.004488320848087351   0.011110820435931494   0.0008137752909694184
-0.004488320848087351   0.011110820435931494   0.0008137752909694184
-0.004488320848087351   0.011110820435931494   0.0008137752909694184
-0.08710034811939907   -0.0059119726283458195   -0.0031253441395564193
-0.08710034811939907   -0.0059119726283458195   -0.0031253441395564193
-0.08710034811939907   -0.0059119726283458195   -0.0031253441395564193
-0.08710034811939907   -0.0059119726283458195   -0.0031253441395564193
-0.04579006049968903   -0.00022635247397988743   0.0005566997958215488
-0.04579006049968903   -0.00022635247397988743   0.0005566997958215488
-0.04579006049968903   -0.00022635247397988743   0.0005566997958215488
-0.04579006049968903   -0.00022635247397988743   0.0005566997958215488
-0.08697363875369214   -0.006024793492714056   -0.0023789764466535406
-0.08697363875369214   -0.006024793492714056   -0.0023789764466535406
-0.08697363875369214   -0.006024793492714056   -0.0023789764466535406
-0.08697363875369214   -0.006024793492714056   -0.0023789764466535406
-0.004219468650744332   0.011619202863349685   0.0016496538502663687
-0.004219468650744332   0.011619202863349685   0.0016496538502663687
-0.004219468650744332   0.011619202863349685   0.0016496538502663687
-0.004219468650744332   0.011619202863349685   0.0016496538502663687
-0.00425222221015953   0.017334538108485405   -0.00023714849394055465
-0.00425222221015953   0.017334538108485405   -0.00023714849394055465
-0.00425222221015953   0.017334538108485405   -0.00023714849394055465
-0.00425222221015953   0.017334538108485405   -0.00023714849394055465
-0.08691885344586617   -0.00026780719308645146   -0.004162213159168301
-0.08691885344586617   -0.00026780719308645146   -0.004162213159168301
-0.08691885344586617   -0.00026780719308645146   -0.004162213159168301
-0.08691885344586617   -0.00026780719308645146   -0.004162213159168301
-0.04529486202170348   0.005355201060686493   0.0024840610118418605
-0.04529486202170348   0.005355201060686493   0.0024840610118418605
-0.04529486202170348   0.005355201060686493   0.0024840610118418605
-0.04529486202170348   0.005355201060686493   0.0024840610118418605
-0.010604479715360007   -0.020125611183350527   -0.004347502708061741
-0.010604479715360007   -0.020125611183350527   -0.004347502708061741
-0.010604479715360007   -0.020125611183350527   -0.004347502708061741
-0.010604479715360007   -0.020125611183350527   -0.004347502708061741
0.07422596200781985   0.004995504365965154   0.007106747369523341
0.07422596200781985   0.004995504365965154   0.007106747369523341
0.07422596200781985   0.004995504365965154   0.007106747369523341
0.07422596200781985   0.004995504365965154   0.007106747369523341
0.07175286212295191   0.002372538839183992   -0.002984371786214636
0.07175286212295191   0.002372538839183992   -0.002984371786214636
0.07175286212295191   0.002372538839183992   -0.002984371786214636
0.07175286212295191   0.002372538839183992   -0.002984371786214636
-0.00751130691114473   -0.007163693971048482   0.001660056744843976
-0.00751130691114473   -0.007163693971048482   0.001660056744843976
-0.00751130691114473   -0.007163693971048482   0.001660056744843976
-0.00751130691114473   -0.007163693971048482   0.001660056744843976
0.03149745227241997   -0.004888553793827223   -0.000908783285432303
0.03149745227241997   -0.004888553793827223   -0.000908783285432303
0.03149745227241997   -0.004888553793827223   -0.000908783285432303
0.03149745227241997   -0.004888553793827223   -0.000908783285432303
-0.010426167143993994   -0.014568316945877185   -0.005509621444573646
-0.010426167143993994   -0.014568316945877185   -0.005509621444573646
-0.010426167143993994   -0.014568316945877185   -0.005509621444573646
-0.010426167143993994   -0.014568316945877185   -0.005509621444573646
0.07521545484204617   0.010324894300257513   0.006376236348183064
0.07521545484204617   0.010324894300257513   0.006376236348183064
0.07521545484204617   0.010324894300257513   0.006376236348183064
0.07521545484204617   0.010324894300257513   0.006376236348183064
0.07316861975006064   0.008019530489879564   -0.004182549517449358
0.07316861975006064   0.008019530489879564   -0.004182549517449358
0.07316861975006064   0.008019530489879564   -0.004182549517449358
0.07316861975006064   0.008019530489879564   -0.004182549517449358
-0.007195204152967012   -0.002177859337308118   0.0005680385398108479
-0.007195204152967012   -0.002177859337308118   0.0005680385398108479
-0.007195204152967012   -0.002177859337308118   0.0005680385398108479
-0.007195204152967012   -0.002177859337308118   0.0005680385398108479
0.03198529340202194   0.00019290146090860782   0.0011909944666763398
0.03198529340202194   0.00019290146090860782   0.0011909944666763398
0.03198529340202194   0.00019290146090860782   0.0011909944666763398
0.03198529340202194   0.00019290146090860782   0.0011909944666763398
-0.010034515334477382   -0.009121551637123342   -0.006684825067925875
-0.010034515334477382   -0.009121551637123342   -0.006684825067925875
-0.010034515334477382   -0.009121551637123342   -0.006684825067925875
-0.010034515334477382   -0.009121551637123342   -0.006684825067925875
0.07660606094236792   0.015561352800491372   0.005462834133475281
0.07660606094236792   0.015561352800491372   0.005462834133475281
0.07660606094236792   0.015561352800491372   0.005462834133475281
0.07660606094236792   0.015561352800491372   0.005462834133475281
0.07411057528577741   0.015047138982674893   -0.004435065798177975
0.07411057528577741   0.015047138982674893   -0.004435065798177975
0.07411057528577741   0.015047138982674893   -0.004435065798177975
0.07411057528577741   0.015047138982674893   -0.004435065798177975
-0.007057096272041153   0.0035956096264997905   -0.0005225903213629749
-0.007057096272041153   0.0035956096264997905   -0.0005225903213629749
-0.007057096272041153   0.0035956096264997905   -0.0005225903213629749
-0.007057096272041153   0.0035956096264997905   -0.0005225903213629749
0.03333820764631525   0.005801116310805258   0.003659854304948893
0.03333820764631525   0.005801116310805258   0.003659854304948893
0.03333820764631525   0.005801116310805258   0.003659854304948893
0.03333820764631525   0.005801116310805258   0.003659854304948893
0.06605967445832063   -0.02010972410419119   -0.00861946190781593
0.06605967445832063   -0.02010972410419119   -0.00861946190781593
0.06605967445832063   -0.02010972410419119   -0.00861946190781593
0.06605967445832063   -0.02010972410419119   -0.00861946190781593
0.147226866896319   0.010968001889013423   0.008148473931869087
0.147226866896319   0.010968001889013423   0.008148473931869087
0.147226866896319   0.010968001889013423   0.008148473931869087
0.147226866896319   0.010968001889013423   0.008148473931869087
0.14613398554245619   -0.0014858807980153294   -0.01148294644018187
0.14613398554245619   -0.0014858807980153294   -0.01148294644018187
0.14613398554245619   -0.0014858807980153294   -0.01148294644018187
0.14613398554245619   -0.0014858807980153294   -0.01148294644018187
0.07271674308728335   -0.0013318590313297976   0.0055394309059570495
0.07271674308728335   -0.0013318590313297976   0.0055394309059570495
0.07271674308728335   -0.0013318590313297976   0.0055394309059570495
0.07271674308728335   -0.0013318590313297976   0.0055394309059570495
0.10277726806697556   -0.004119219172378424   -0.003520266706237698
0.10277726806697556   -0.004119219172378424   -0.003520266706237698
0.10277726806697556   -0.004119219172378424   -0.003520266706237698
0.10277726806697556   -0.004119219172378424   -0.003520266706237698
0.06629573518486774   -0.017280362590822294   -0.01061710504662826
0.06629573518486774   -0.017280362590822294   -0.01061710504662826
0.06629573518486774   -0.017280362590822294   -0.01061710504662826
0.06629573518486774   -0.017280362590822294   -0.01061710504662826
0.1530107968784566   0.014918426195062003   0.006496803246742815
0.1530107968784566   0.014918426195062003   0.006496803246742815
0.1530107968784566   0.014918426195062003   0.006496803246742815
0.1530107968784566   0.014918426195062003   0.006496803246742815
0.15016209224890117   0.0017349843195493299   -0.015495824411599576
0.15016209224890117   0.0017349843195493299   -0.015495824411599576
0.15016209224890117   0.0017349843195493299   -0.015495824411599576
0.15016209224890117   0.0017349843195493299   -0.015495824411599576
0.07346505872663432   0.0011316646585421489   0.00418751119675762
0.07346505872663432   0.0011316646585421489   0.00418751119675762
0.07346505872663432   0.0011316646585421489   0.00418751119675762
0.07346505872663432   0.0011316646585421489   0.00418751119675762
0.10780746243436273   -0.0006007879318878015   -0.0009900954042094097
0.10780746243436273   -0.0006007879318878015   -0.0009900954042094097
0.10780746243436273   -0.0006007879318878015   -0.0009900954042094097
0.10780746243436273   -0.0006007879318878015   -0.0009900954042094097
0.067261115645144   -0.014071795024427208   -0.011628744527725079
0.067261115645144   -0.014071795024427208   -0.011628744527725079
0.067261115645144   -0.014071795024427208   -0.011628744527725079
0.067261115645144   -0.014071795024427208   -0.011628744527725079
0.15737936062680669   0.01795176929893394   0.004373732498544213
0.15737936062680669   0.01795176929893394   0.004373732498544213
0.15737936062680669   0.01795176929893394   0.004373732498544213
0.15737936062680669   0.01795176929893394   0.004373732498544213
0.15653389341534862   0.010073718497224965   -0.014683574639124227
0.15653389341534862   0.010073718497224965   -0.014683574639124227
0.15653389341534862   0.010073718497224965   -0.014683574639124227
0.15653389341534862   0.010073718497224965   -0.014683574639124227
0.07389632762847265   0.006443514989480169   0.0030973199084940815
0.07389632762847265   0.006443514989480169   0.0030973199084940815
0.07389632762847265   0.006443514989480169   0.0030973199084940815
0.07389632762847265   0.006443514989480169   0.0030973199084940815
0.1089951939977904   0.0033669939662916426   0.0018649928216594863
0.1089951939977904   0.0033669939662916426   0.0018649928216594863
0.1089951939977904   0.0033669939662916426   0.0018649928216594863
0.1089951939977904   0.0033669939662916426   0.0018649928216594863
-0.17271663562150802   -0.0052542723191123485   0.01199114090661339
-0.17271663562150802   -0.0052542723191123485   0.01199114090661339
-0.17271663562150802   -0.0052542723191123485   0.01199114090661339
-0.17271663562150802   -0.0052542723191123485   0.01199114090661339
-0.12241371201495868   -0.00858044873181733   -0.004433175378632228
-0.12241371201495868   -0.00858044873181733   -0.004433175378632228
-0.12241371201495868   -0.00858044873181733   -0.004433175378632228
-0.12241371201495868   -0.00858044873181733   -0.004433175378632228
-0.11496418982758765   0.011754581830437542   0.010171699814494584
-0.11496418982758765   0.011754581830437542   0.010171699814494584
-0.11496418982758765   0.011754581830437542   0.010171699814494584
-0.11496418982758765   0.011754581830437542   0.010171699814494584
-0.17271196382022405   -0.01430713878007249   -0.0065049951133079355
-0.17271196382022405   -0.01430713878007249   -0.0065049951133079355
-0.17271196382022405   -0.01430713878007249   -0.0065049951133079355
-0.17271196382022405   -0.01430713878007249   -0.0065049951133079355
-0.13981891571882848   -0.002137059989925666   -0.0006318272712609952
-0.13981891571882848   -0.002137059989925666   -0.0006318272712609952
-0.13981891571882848   -0.002137059989925666   -0.0006318272712609952
-0.13981891571882848   -0.002137059989925666   -0.0006318272712609952
-0.16591772278765834   0.001801124607845081   0.011357946661602983
-0.16591772278765834   0.001801124607845081   0.011357946661602983
-0.16591772278765834   0.001801124607845081   0.011357946661602983
-0.16591772278765834   0.001801124607845081   0.011357946661602983
-0.12119814173418401   -0.003793392431510542   -0.005450085456538228
-0.12119814173418401   -0.003793392431510542   -0.005450085456538228
-0.12119814173418401   -0.003793392431510542   -0.005450085456538228
-0.12119814173418401   -0.003793392431510542   -0.005450085456538228
-0.11386688502429804   0.014241574913154777   0.008559776682187333
-0.11386688502429804   0.014241574913154777   0.008559776682187333
-0.11386688502429804   0.014241574913154777   0.008559776682187333
-0.11386688502429804   0.014241574913154777   0.008559776682187333
-0.16842162897677523   -0.011526400584799378   -0.008173571839283938
-0.16842162897677523   -0.011526400584799378   -0.008173571839283938
-0.16842162897677523   -0.011526400584799378   -0.008173571839283938
-0.16842162897677523   -0.011526400584799378   -0.008173571839283938
-0.13869615683323358   0.0011226192062184157   0.0012531807718319781
-0.13869615683323358   0.0011226192062184157   0.0012531807718319781
-0.13869615683323358   0.0011226192062184157   0.0012531807718319781
-0.13869615683323358   0.0011226192062184157   0.0012531807718319781
-0.16171308765941306   0.004774104901866513   0.009068629260861043
-0.16171308765941306   0.004774104901866513   0.009068629260861043
-0.16171308765941306   0.004774104901866513   0.009068629260861043
-0.16171308765941306   0.004774104901866513   0.009068629260861043
-0.12007583790255245   -0.0015593421344032056   -0.006684070661525813
-0.12007583790255245   -0.0015593421344032056   -0.006684070661525813
-0.12007583790255245   -0.0015593421344032056   -0.006684070661525813
-0.12007583790255245   -0.0015593421344032056   -0.006684070661525813
-0.11326606499615122   0.016775942569085885   0.007360872850817428
-0.11326606499615122   0.016775942569085885   0.007360872850817428
-0.11326606499615122   0.016775942569085885   0.007360872850817428
-0.11326606499615122   0.016775942569085885   0.007360872850817428
-0.16273328990633187   -0.007799435420132707   -0.00975574191796579
-0.16273328990633187   -0.007799435420132707   -0.00975574191796579
-0.16273328990633187   -0.007799435420132707   -0.00975574191796579
-0.16273328990633187   -0.007799435420132707   -0.00975574191796579
-0.13338802858733925   0.004225612289747903   0.0038346642281110437
-0.13338802858733925   0.004225612289747903   0.0038346642281110437
-0.13338802858733925   0.004225612289747903   0.0038346642281110437
-0.13338802858733925   0.004225612289747903   0.0038346642281110437
-0.12080390862385193   -0.009681205703392372   0.004716598548475743
-0.12080390862385193   -0.009681205703392372   0.004716598548475743
-0.12080390862385193   -0.009681205703392372   0.004716598548475743
-0.12080390862385193   -0.009681205703392372   0.004716598548475743
-0.07148827254132754   -0.005550111877299918   -0.0007215404387794781
-0.07148827254132754   -0.005550111877299918   -0.0007215404387794781
-0.07148827254132754   -0.005550111877299918   -0.0007215404387794781
-0.07148827254132754   -0.005550111877299918   -0.0007215404387794781
-0.0678207359133283   0.006821030134881051   0.005477906118252476
-0.0678207359133283   0.006821030134881051   0.005477906118252476
-0.0678207359133283   0.006821030134881051   0.005477906118252476
-0.0678207359133283   0.006821030134881051   0.005477906118252476
-0.1226938449403334   -0.011624068084544097   -0.0050979258342526215
-0.1226938449403334   -0.011624068084544097   -0.0050979258342526215
-0.1226938449403334   -0.011624068084544097   -0.0050979258342526215
-0.1226938449403334   -0.011624068084544097   -0.0050979258342526215
-0.09536051879420304   -0.004551877093823497   -0.0020856442206239854
-0.09536051879420304   -0.004551877093823497   -0.0020856442206239854
-0.09536051879420304   -0.004551877093823497   -0.0020856442206239854
-0.09536051879420304   -0.004551877093823497   -0.0020856442206239854
-0.11933981939666224   -0.0038072841879370073   0.003855417987496134
-0.11933981939666224   -0.0038072841879370073   0.003855417987496134
-0.11933981939666224   -0.0038072841879370073   0.003855417987496134
-0.11933981939666224   -0.0038072841879370073   0.003855417987496134
-0.0707421860291483   -0.000563178333874868   -0.0017451359920915952
-0.0707421860291483   -0.000563178333874868   -0.0017451359920915952
-0.0707421860291483   -0.000563178333874868   -0.0017451359920915952
-0.0707421860291483   -0.000563178333874868   -0.0017451359920915952
-0.06696375219720235   0.011943177810717777   0.004473005132695644
-0.06696375219720235   0.011943177810717777   0.004473005132695644
-0.06696375219720235   0.011943177810717777   0.004473005132695644
-0.06696375219720235   0.011943177810717777   0.004473005132695644
-0.12099816123980382   -0.006836348842355684   -0.0060186806398312195
-0.12099816123980382   -0.006836348842355684   -0.0060186806398312195
-0.12099816123980382   -0.006836348842355684   -0.0060186806398312195
-0.12099816123980382   -0.006836348842355684   -0.0060186806398312195
-0.09351901119874348   0.00042753009984534615   5.717450733375845e-05
-0.09351901119874348   0.00042753009984534615   5.717450733375845e-05
-0.09351901119874348   0.00042753009984534615   5.717450733375845e-05
-0.09351901119874348   0.00042753009984534615   5.717450733375845e-05
-0.11739122133711562   0.0016658474687057008   0.0035138225625485136
-0.11739122133711562   0.0016658474687057008   0.0035138225625485136
-0.11739122133711562   0.0016658474687057008   0.0035138225625485136
-0.11739122133711562   0.0016658474687057008   0.0035138225625485136
-0.07003367982196458   0.003977993777582827   -0.0029114489579798253
-0.07003367982196458   0.003977993777582827   -0.0029114489579798253
-0.07003367982196458   0.003977993777582827   -0.0029114489579798253
-0.07003367982196458   0.003977993777582827   -0.0029114489579798253
-0.06613405226499071   0.017444846701322958   0.003537277855888671
-0.06613405226499071   0.017444846701322958   0.003537277855888671
-0.06613405226499071   0.017444846701322958   0.003537277855888671
-0.06613405226499071   0.017444846701322958   0.003537277855888671
-0.11974616598252828   -0.0016311847177838644   -0.006632504794197109
-0.11974616598252828   -0.0016311847177838644   -0.006632504794197109
-0.11974616598252828   -0.0016311847177838644   -0.006632504794197109
-0.11974616598252828   -0.0016311847177838644   -0.006632504794197109
-0.09278330537437757   0.0051717067495074785   0.002119773102406253
-0.09278330537437757   0.0051717067495074785   0.002119773102406253
-0.09278330537437757   0.0051717067495074785   0.002119773102406253
-0.09278330537437757   0.0051717067495074785   0.002119773102406253
-0.072920058048959   -0.013770346265322692   0.00033976641108558574
-0.072920058048959   -0.013770346265322692   0.00033976641108558574
-0.072920058048959   -0.013770346265322692   0.00033976641108558574
-0.072920058048959   -0.013770346265322692   0.00033976641108558574
-0.020950503344487222   -0.0019390128467841805   0.002940778693284905
-0.020950503344487222   -0.0019390128467841805   0.002940778693284905
-0.020950503344487222   -0.0019390128467841805   0.002940778693284905
-0.020950503344487222   -0.0019390128467841805   0.002940778693284905
-0.020501976028932854   0.0025464309441316025   0.0010039479043224156
-0.020501976028932854   0.0025464309441316025   0.0010039479043224156
-0.020501976028932854   0.0025464309441316025   0.0010039479043224156
-0.020501976028932854   0.0025464309441316025   0.0010039479043224156
-0.07212687429549484   -0.00791043103628897   -0.0013213246214107506
-0.07212687429549484   -0.00791043103628897   -0.0013213246214107506
-0.07212687429549484   -0.00791043103628897   -0.0013213246214107506
-0.07212687429549484   -0.00791043103628897   -0.0013213246214107506
-0.04671139371727294   -0.005033174273745816   -0.0014999401889808275
-0.04671139371727294   -0.005033174273745816   -0.0014999401889808275
-0.04671139371727294   -0.005033174273745816   -0.0014999401889808275
-0.04671139371727294   -0.005033174273745816   -0.0014999401889808275
-0.07199970446577038   -0.008060904688263221   -0.0005350018208141623
-0.07199970446577038   -0.008060904688263221   -0.0005350018208141623
-0.07199970446577038   -0.008060904688263221   -0.0005350018208141623
-0.07199970446577038   -0.008060904688263221   -0.0005350018208141623
-0.020195192244495074   0.0031308582102680983   0.0019534395603748207
-0.020195192244495074   0.0031308582102680983   0.0019534395603748207
-0.020195192244495074   0.0031308582102680983   0.0019534395603748207
-0.020195192244495074   0.0031308582102680983   0.0019534395603748207
-0.01946328101575963   0.00828177982003724   0.0002063509987213488
-0.01946328101575963   0.00828177982003724   0.0002063509987213488
-0.01946328101575963   0.00828177982003724   0.0002063509987213488
-0.01946328101575963   0.00828177982003724   0.0002063509987213488
-0.07126651250369469   -0.0028002108073519466   -0.0022974077816962897
-0.07126651250369469   -0.0028002108073519466   -0.0022974077816962897
-0.07126651250369469   -0.0028002108073519466   -0.0022974077816962897
-0.07126651250369469   -0.0028002108073519466   -0.0022974077816962897
-0.045599712906800295   9.737769357507156e-05   0.000529622872069928
-0.045599712906800295   9.737769357507156e-05   0.000529622872069928
-0.045599712906800295   9.737769357507156e-05   0.000529622872069928
-0.045599712906800295   9.737769357507156e-05   0.000529622872069928
-0.07099435287540917   -0.0023442240343008944   -0.0013925964133197901
-0.07099435287540917   -0.0023442240343008944   -0.0013925964133197901
-0.07099435287540917   -0.0023442240343008944   -0.0013925964133197901
-0.07099435287540917   -0.0023442240343008944   -0.0013925964133197901
-0.019334498533076762   0.0082267351579546   0.0009053080742185194
-0.019334498533076762   0.0082267351579546   0.0009053080742185194
-0.019334498533076762   0.0082267351579546   0.0009053080742185194
-0.019334498533076762   0.0082267351579546   0.0009053080742185194
-0.0185242786123564   0.014100542356774565   -0.0007150402433710691
-0.0185242786123564   0.014100542356774565   -0.0007150402433710691
-0.0185242786123564   0.014100542356774565   -0.0007150402433710691
-0.0185242786123564   0.014100542356774565   -0.0007150402433710691
-0.07052404371307766   0.0023644065070797006   -0.0033322391903030674
-0.07052404371307766   0.0023644065070797006   -0.0033322391903030674
-0.07052404371307766   0.0023644065070797006   -0.0033322391903030674
-0.07052404371307766   0.0023644065070797006   -0.0033322391903030674
-0.044586225509253556   0.005253000126890773   0.002485140637985525
-0.044586225509253556   0.005253000126890773   0.002485140637985525
-0.044586225509253556   0.005253000126890773   0.002485140637985525
-0.044586225509253556   0.005253000126890773   0.002485140637985525
-0.025355390734269505   -0.017122208230699626   -0.0039004628717112075
-0.025355390734269505   -0.017122208230699626   -0.0039004628717112075
-0.025355390734269505   -0.017122208230699626   -0.0039004628717112075
-0.025355390734269505   -0.017122208230699626   -0.0039004628717112075
0.028604563216052876   0.00208148786033759   0.006358805392859152
0.028604563216052876   0.00208148786033759   0.006358805392859152
0.028604563216052876   0.00208148786033759   0.006358805392859152
0.028604563216052876   0.00208148786033759   0.006358805392859152
0.0262393369889817   -0.0015036585848744212   -0.003790410224412156
0.0262393369889817   -0.0015036585848744212   -0.003790410224412156
0.0262393369889817   -0.0015036585848744212   -0.003790410224412156
0.0262393369889817   -0.0015036585848744212   -0.003790410224412156
-0.021492975461159015   -0.0038539209599868195   0.002449302647310019
-0.021492975461159015   -0.0038539209599868195   0.002449302647310019
-0.021492975461159015   -0.0038539209599868195   0.002449302647310019
-0.021492975461159015   -0.0038539209599868195   0.002449302647310019
0.0018261201244788815   -0.004954383610103397   -0.0010805193144453203
0.0018261201244788815   -0.004954383610103397   -0.0010805193144453203
0.0018261201244788815   -0.004954383610103397   -0.0010805193144453203
0.0018261201244788815   -0.004954383610103397   -0.0010805193144453203
-0.024555277748449202   -0.01187310453108643   -0.004843025218041301
-0.024555277748449202   -0.01187310453108643   -0.004843025218041301
-0.024555277748449202   -0.01187310453108643   -0.004843025218041301
-0.024555277748449202   -0.01187310453108643   -0.004843025218041301
0.02981659401504635   0.007030479724999574   0.005561736596036624
0.02981659401504635   0.007030479724999574   0.005561736596036624
0.02981659401504635   0.007030479724999574   0.005561736596036624
0.02981659401504635   0.007030479724999574   0.005561736596036624
0.028197070028503995   0.003925524891779729   -0.004307314496220926
0.028197070028503995   0.003925524891779729   -0.004307314496220926
0.028197070028503995   0.003925524891779729   -0.004307314496220926
0.028197070028503995   0.003925524891779729   -0.004307314496220926
-0.020745755695282992   0.0007155018274819592   0.0013602555936600088
-0.020745755695282992   0.0007155018274819592   0.0013602555936600088
-0.020745755695282992   0.0007155018274819592   0.0013602555936600088
-0.020745755695282992   0.0007155018274819592   0.0013602555936600088
0.0028832419479200063   -0.00026960852056496967   0.000994778597944555
0.0028832419479200063   -0.00026960852056496967   0.000994778597944555
0.0028832419479200063   -0.00026960852056496967   0.000994778597944555
0.0028832419479200063   -0.00026960852056496967   0.000994778597944555
-0.023701763312493625   -0.006778029175131558   -0.005926251489779739
-0.023701763312493625   -0.006778029175131558   -0.005926251489779739
-0.023701763312493625   -0.006778029175131558   -0.005926251489779739
-0.023701763312493625   -0.006778029175131558   -0.005926251489779739
0.031600698514298683   0.011866676762977518   0.004769676061554206
0.031600698514298683   0.011866676762977518   0.004769676061554206
0.031600698514298683   0.011866676762977518   0.004769676061554206
0.031600698514298683   0.011866676762977518   0.004769676061554206
0.02978361619406695   0.01006821365493478   -0.005000282645296137
0.02978361619406695   0.01006821365493478   -0.005000282645296137
0.02978361619406695   0.01006821365493478   -0.005000282645296137
0.02978361619406695   0.01006821365493478   -0.005000282645296137
-0.019949761649794343   0.005934315422441268   0.00032377150377233726
-0.019949761649794343   0.005934315422441268   0.00032377150377233726
-0.019949761649794343   0.005934315422441268   0.00032377150377233726
-0.019949761649794343   0.005934315422441268   0.00032377150377233726
0.004463137049897539   0.004763518560380946   0.0031231005979800567
0.004463137049897539   0.004763518560380946   0.0031231005979800567
0.004463137049897539   0.004763518560380946   0.0031231005979800567
0.004463137049897539   0.004763518560380946   0.0031231005979800567
0.021894835022165583   -0.017291474012865814   -0.007816873703373658
0.021894835022165583   -0.017291474012865814   -0.007816873703373658
0.021894835022165583   -0.017291474012865814   -0.007816873703373658
0.021894835022165583   -0.017291474012865814   -0.007816873703373658
0.07161614465866029   0.007255115034068824   0.008438697821276719
0.07161614465866029   0.007255115034068824   0.008438697821276719
0.07161614465866029   0.007255115034068824   0.008438697821276719
0.07161614465866029   0.007255115034068824   0.008438697821276719
0.0707754869860546   -0.004890705123296106   -0.010313543452645749
0.0707754869860546   -0.004890705123296106   -0.010313543452645749
0.0707754869860546   -0.004890705123296106   -0.010313543452645749
0.0707754869860546   -0.004890705123296106   -0.010313543452645749
0.028893043572341414   0.0016452168462187536   0.0063292472612929964
0.028893043572341414   0.0016452168462187536   0.0063292472612929964
0.028893043572341414   0.0016452168462187536   0.0063292472612929964
0.028893043572341414   0.0016452168462187536   0.0063292472612929964
0.045755430222126275   -0.003775010048570643   -0.0026087671096819416
0.045755430222126275   -0.003775010048570643   -0.0026087671096819416
0.045755430222126275   -0.003775010048570643   -0.0026087671096819416
0.045755430222126275   -0.003775010048570643   -0.0026087671096819416
0.022632687692527936   -0.014268349458152809   -0.009058965833402599
0.022632687692527936   -0.014268349458152809   -0.009058965833402599
0.022632687692527936   -0.014268349458152809   -0.009058965833402599
0.022632687692527936   -0.014268349458152809   -0.009058965833402599
0.0775607185787404   0.011547736893948368   0.0071741724935401804
0.0775607185787404   0.011547736893948368   0.0071741724935401804
0.0775607185787404   0.011547736893948368   0.0071741724935401804
0.0775607185787404   0.011547736893948368   0.0071741724935401804
0.07511420470317956   -0.0018638004905884957   -0.012438960525442778
0.07511420470317956   -0.0018638004905884957   -0.012438960525442778
0.07511420470317956   -0.0018638004905884957   -0.012438960525442778
0.07511420470317956   -0.0018638004905884957   -0.012438960525442778
0.030041648578726682   0.0038670429857491227   0.0049740601609226
0.030041648578726682   0.0038670429857491227   0.0049740601609226
0.030041648578726682   0.0038670429857491227   0.0049740601609226
0.030041648578726682   0.0038670429857491227   0.0049740601609226
0.05002065143009557   -0.0006906888009295519   -0.0001940823353892905
0.05002065143009557   -0.0006906888009295519   -0.0001940823353892905
0.05002065143009557   -0.0006906888009295519   -0.0001940823353892905
0.05002065143009557   -0.0006906888009295519   -0.0001940823353892905
0.023812281626760197   -0.01174794943617992   -0.010557782176980522
0.023812281626760197   -0.01174794943617992   -0.010557782176980522
0.023812281626760197   -0.01174794943617992   -0.010557782176980522
0.023812281626760197   -0.01174794943617992   -0.010557782176980522
0.08189663299197289   0.014304253268167666   0.005305127159769104
0.08189663299197289   0.014304253268167666   0.005305127159769104
0.08189663299197289   0.014304253268167666   0.005305127159769104
0.08189663299197289   0.014304253268167666   0.005305127159769104
0.08184276911711605   0.004738074346744036   -0.013376324793831895
0.08184276911711605   0.004738074346744036   -0.013376324793831895
0.08184276911711605   0.004738074346744036   -0.013376324793831895
0.08184276911711605   0.004738074346744036   -0.013376324793831895
0.031212945328263006   0.008246488840722599   0.003968087839896087
0.031212945328263006   0.008246488840722599   0.003968087839896087
0.031212945328263006   0.008246488840722599   0.003968087839896087
0.031212945328263006   0.008246488840722599   0.003968087839896087
0.05233705212781396   0.0026540548900813882   0.001933656948645513
0.05233705212781396   0.0026540548900813882   0.001933656948645513
0.05233705212781396   0.0026540548900813882   0.001933656948645513
0.05233705212781396   0.0026540548900813882   0.001933656948645513
-0.10056717606778957   -0.001216071279186201   0.010542175937356218
-0.10056717606778957   -0.001216071279186201   0.010542175937356218
-0.10056717606778957   -0.001216071279186201   0.010542175937356218
-0.10056717606778957   -0.001216071279186201   0.010542175937356218
-0.08047788401685387   -0.01055451032937305   -0.00505840394279343
-0.08047788401685387   -0.01055451032937305   -0.00505840394279343
-0.08047788401685387   -0.01055451032937305   -0.00505840394279343
-0.08047788401685387   -0.01055451032937305   -0.00505840394279343
-0.0727639975097713   0.008777109331701546   0.008968279135109506
-0.0727639975097713   0.008777109331701546   0.008968279135109506
-0.0727639975097713   0.008777109331701546   0.008968279135109506
-0.0727639975097713   0.008777109331701546   0.008968279135109506
-0.10024316693003535   -0.010996847523070804   -0.0069482364125331535
-0.10024316693003535   -0.010996847523070804   -0.0069482364125331535
-0.10024316693003535   -0.010996847523070804   -0.0069482364125331535
-0.10024316693003535   -0.010996847523070804   -0.0069482364125331535
-0.0852207168535672   -0.002241466080328023   -0.0015740569342002795
-0.0852207168535672   -0.002241466080328023   -0.0015740569342002795
-0.0852207168535672   -0.002241466080328023   -0.0015740569342002795
-0.0852207168535672   -0.002241466080328023   -0.0015740569342002795
-0.09368453152555371   0.004807471099070013   0.010040621987734245
-0.09368453152555371   0.004807471099070013   0.010040621987734245
-0.09368453152555371   0.004807471099070013   0.010040621987734245
-0.09368453152555371   0.004807471099070013   0.010040621987734245
-0.07884848804960455   -0.006553064425790808   -0.006123999806563947
-0.07884848804960455   -0.006553064425790808   -0.006123999806563947
-0.07884848804960455   -0.006553064425790808   -0.006123999806563947
-0.07884848804960455   -0.006553064425790808   -0.006123999806563947
-0.07106779534499058   0.011089596844723899   0.007552581676547828
-0.07106779534499058   0.011089596844723899   0.007552581676547828
-0.07106779534499058   0.011089596844723899   0.007552581676547828
-0.07106779534499058   0.011089596844723899   0.007552581676547828
-0.0955303991496998   -0.008371559173108388   -0.008627061280021506
-0.0955303991496998   -0.008371559173108388   -0.008627061280021506
-0.0955303991496998   -0.008371559173108388   -0.008627061280021506
-0.0955303991496998   -0.008371559173108388   -0.008627061280021506
-0.08275396900975848   0.000761619872914631   0.00037337058157747936
-0.08275396900975848   0.000761619872914631   0.00037337058157747936
-0.08275396900975848   0.000761619872914631   0.00037337058157747936
-0.08275396900975848   0.000761619872914631   0.00037337058157747936
-0.08899423819737635   0.007608524000528694   0.008073660307957586
-0.08899423819737635   0.007608524000528694   0.008073660307957586
-0.08899423819737635   0.007608524000528694   0.008073660307957586
-0.08899423819737635   0.007608524000528694   0.008073660307957586
-0.07716211851639086   -0.0044486485479900365   -0.007380788787738686
-0.07716211851639086   -0.0044486485479900365   -0.007380788787738686
-0.07716211851639086   -0.0044486485479900365   -0.007380788787738686
-0.07716211851639086   -0.0044486485479900365   -0.007380788787738686
-0.06972713652717537   0.0140546367160182   0.006508465383634174
-0.06972713652717537   0.0140546367160182   0.006508465383634174
-0.06972713652717537   0.0140546367160182   0.006508465383634174
-0.06972713652717537   0.0140546367160182   0.006508465383634174
-0.0892144351022298   -0.004151658338781599   -0.009962648705319113
-0.0892144351022298   -0.004151658338781599   -0.009962648705319113
-0.0892144351022298   -0.004151658338781599   -0.009962648705319113
-0.0892144351022298   -0.004151658338781599   -0.009962648705319113
-0.07785634375024646   0.003771147165847401   0.00275010909772834
-0.07785634375024646   0.003771147165847401   0.00275010909772834
-0.07785634375024646   0.003771147165847401   0.00275010909772834
-0.07785634375024646   0.003771147165847401   0.00275010909772834
-0.07743436032228829   -0.005561733754669902   0.005166437955331341
-0.07743436032228829   -0.005561733754669902   0.005166437955331341
-0.07743436032228829   -0.005561733754669902   0.005166437955331341
-0.07743436032228829   -0.005561733754669902   0.005166437955331341
-0.05866156077900524   -0.00797754726552289   -0.0014861670533581166
-0.05866156077900524   -0.00797754726552289   -0.0014861670533581166
-0.05866156077900524   -0.00797754726552289   -0.0014861670533581166
-0.05866156077900524   -0.00797754726552289   -0.0014861670533581166
-0.054441219321346566   0.003964188252332435   0.004590730231143189
-0.054441219321346566   0.003964188252332435   0.004590730231143189
-0.054441219321346566   0.003964188252332435   0.004590730231143189
-0.054441219321346566   0.003964188252332435   0.004590730231143189
-0.07876774507378309   -0.00805656272078552   -0.004216786632461866
-0.07876774507378309   -0.00805656272078552   -0.004216786632461866
-0.07876774507378309   -0.00805656272078552   -0.004216786632461866
-0.07876774507378309   -0.00805656272078552   -0.004216786632461866
-0.0671849298564709   -0.004031464676117898   -0.0019178220852277832
-0.0671849298564709   -0.004031464676117898   -0.0019178220852277832
-0.0671849298564709   -0.004031464676117898   -0.0019178220852277832
-0.0671849298564709   -0.004031464676117898   -0.0019178220852277832
-0.0754916092682111   -0.000285474873622309   0.004392804548234007
-0.0754916092682111   -0.000285474873622309   0.004392804548234007
-0.0754916092682111   -0.000285474873622309   0.004392804548234007
-0.0754916092682111   -0.000285474873622309   0.004392804548234007
-0.05733554515991848   -0.0034250896278314926   -0.0024916210815524977
-0.05733554515991848   -0.0034250896278314926   -0.0024916210815524977
-0.05733554515991848   -0.0034250896278314926   -0.0024916210815524977
-0.05733554515991848   -0.0034250896278314926   -0.0024916210815524977
-0.052990526343869256   0.0087005006116101   0.0036579317340612047
-0.052990526343869256   0.0087005006116101   0.0036579317340612047
-0.052990526343869256   0.0087005006116101   0.0036579317340612047
-0.052990526343869256   0.0087005006116101   0.0036579317340612047
-0.0765193554469583   -0.0035567179897406584   -0.005058903998824761
-0.0765193554469583   -0.0035567179897406584   -0.005058903998824761
-0.0765193554469583   -0.0035567179897406584   -0.005058903998824761
-0.0765193554469583   -0.0035567179897406584   -0.005058903998824761
-0.06503305543192793   0.00048116961482646235   0.00010233759846988745
-0.06503305543192793   0.00048116961482646235   0.00010233759846988745
-0.06503305543192793   0.00048116961482646235   0.00010233759846988745
-0.06503305543192793   0.00048116961482646235   0.00010233759846988745
-0.07304859425487313   0.004754114564140415   0.003984069407718583
-0.07304859425487313   0.004754114564140415   0.003984069407718583
-0.07304859425487313   0.004754114564140415   0.003984069407718583
-0.07304859425487313   0.004754114564140415   0.003984069407718583
-0.05602080004186621   0.0008301555518166037   -0.0036230916961305475
-0.05602080004186621   0.0008301555518166037   -0.0036230916961305475
-0.05602080004186621   0.0008301555518166037   -0.0036230916961305475
-0.05602080004186621   0.0008301555518166037   -0.0036230916961305475
-0.051542410654254724   0.013889904719499361   0.0027691870639454533
-0.051542410654254724   0.013889904719499361   0.0027691870639454533
-0.051542410654254724   0.013889904719499361   0.0027691870639454533
-0.051542410654254724   0.013889904719499361   0.0027691870639454533
-0.07470193650755051   0.0014067707284584376   -0.005717668530680828
-0.07470193650755051   0.0014067707284584376   -0.005717668530680828
-0.07470193650755051   0.0014067707284584376   -0.005717668530680828
-0.07470193650755051   0.0014067707284584376   -0.005717668530680828
-0.06349411158714666   0.004963155699732229   0.0020994010737655127
-0.06349411158714666   0.004963155699732229   0.0020994010737655127
-0.06349411158714666   0.004963155699732229   0.0020994010737655127
-0.06349411158714666   0.004963155699732229   0.0020994010737655127
-0.05853505642569812   -0.009841931426793814   0.0010107388744476278
-0.05853505642569812   -0.009841931426793814   0.0010107388744476278
-0.05853505642569812   -0.009841931426793814   0.0010107388744476278
-0.05853505642569812   -0.009841931426793814   0.0010107388744476278
-0.037003253740844455   -0.004467153201311283   0.002094843779763478
-0.037003253740844455   -0.004467153201311283   0.002094843779763478
-0.037003253740844455   -0.004467153201311283   0.002094843779763478
-0.037003253740844455   -0.004467153201311283   0.002094843779763478
-0.03596569421634785   -0.00036335570679572795   0.0002528719469103767
-0.03596569421634785   -0.00036335570679572795   0.0002528719469103767
-0.03596569421634785   -0.00036335570679572795   0.0002528719469103767
-0.03596569421634785   -0.00036335570679572795   0.0002528719469103767
-0.05711958514066348   -0.00437887345043649   -0.0004580371626724867
-0.05711958514066348   -0.00437887345043649   -0.0004580371626724867
-0.05711958514066348   -0.00437887345043649   -0.0004580371626724867
-0.05711958514066348   -0.00437887345043649   -0.0004580371626724867
-0.04723471938039414   -0.004533866256177242   -0.0014132872675115004
-0.04723471938039414   -0.004533866256177242   -0.0014132872675115004
-0.04723471938039414   -0.004533866256177242   -0.0014132872675115004
-0.04723471938039414   -0.004533866256177242   -0.0014132872675115004
-0.0570315740123781   -0.004588730874766656   0.00019187590308408341
-0.0570315740123781   -0.004588730874766656   0.00019187590308408341
-0.0570315740123781   -0.004588730874766656   0.00019187590308408341
-0.0570315740123781   -0.004588730874766656   0.00019187590308408341
-0.03567259398509223   0.00022761307707566333   0.0011274043193170396
-0.03567259398509223   0.00022761307707566333   0.0011274043193170396
-0.03567259398509223   0.00022761307707566333   0.0011274043193170396
-0.03567259398509223   0.00022761307707566333   0.0011274043193170396
-0.03437436201065484   0.0049333204589716104   -0.00052190194311643
-0.03437436201065484   0.0049333204589716104   -0.00052190194311643
-0.03437436201065484   0.0049333204589716104   -0.00052190194311643
-0.03437436201065484   0.0049333204589716104   -0.00052190194311643
-0.05566427748557258   0.00038502188189264326   -0.0013953452447384909
-0.05566427748557258   0.00038502188189264326   -0.0013953452447384909
-0.05566427748557258   0.00038502188189264326   -0.0013953452447384909
-0.05566427748557258   0.00038502188189264326   -0.0013953452447384909
-0.045547758020954114   0.00020368055040647336   0.0005576148128665472
-0.045547758020954114   0.00020368055040647336   0.0005576148128665472
-0.045547758020954114   0.00020368055040647336   0.0005576148128665472
-0.045547758020954114   0.00020368055040647336   0.0005576148128665472
-0.05545460826427528   0.0006910467879990469   -0.0006530240443588168
-0.05545460826427528   0.0006910467879990469   -0.0006530240443588168
-0.05545460826427528   0.0006910467879990469   -0.0006530240443588168
-0.05545460826427528   0.0006910467879990469   -0.0006530240443588168
-0.03423847101919504   0.004972855765622293   0.00011801770753221402
-0.03423847101919504   0.004972855765622293   0.00011801770753221402
-0.03423847101919504   0.004972855765622293   0.00011801770753221402
-0.03423847101919504   0.004972855765622293   0.00011801770753221402
-0.03286897125506874   0.010283835558737816   -0.0013901663900233278
-0.03286897125506874   0.010283835558737816   -0.0013901663900233278
-0.03286897125506874   0.010283835558737816   -0.0013901663900233278
-0.03286897125506874   0.010283835558737816   -0.0013901663900233278
-0.054319893454891174   0.005183849391134825   -0.002412171610871993
-0.054319893454891174   0.005183849391134825   -0.002412171610871993
-0.054319893454891174   0.005183849391134825   -0.002412171610871993
-0.054319893454891174   0.005183849391134825   -0.002412171610871993
-0.043961741413830906   0.0049590039162444866   0.002447891190421627
-0.043961741413830906   0.0049590039162444866   0.002447891190421627
-0.043961741413830906   0.0049590039162444866   0.002447891190421627
-0.043961741413830906   0.0049590039162444866   0.002447891190421627
-0.039863242043345744   -0.013515237047437456   -0.0031570138866174537
-0.039863242043345744   -0.013515237047437456   -0.0031570138866174537
-0.039863242043345744   -0.013515237047437456   -0.0031570138866174537
-0.039863242043345744   -0.013515237047437456   -0.0031570138866174537
-0.01630658095239425   -0.0007479718259334491   0.00546436382910372
-0.01630658095239425   -0.0007479718259334491   0.00546436382910372
-0.01630658095239425   -0.0007479718259334491   0.00546436382910372
-0.01630658095239425   -0.0007479718259334491   0.00546436382910372
-0.018069886283438134   -0.004518375072631229   -0.004296057093632909
-0.018069886283438134   -0.004518375072631229   -0.004296057093632909
-0.018069886283438134   -0.004518375072631229   -0.004296057093632909
-0.018069886283438134   -0.004518375072631229   -0.004296057093632909
-0.03540237215283059   -0.0005019368166065607   0.003208063374307197
-0.03540237215283059   -0.0005019368166065607   0.003208063374307197
-0.03540237215283059   -0.0005019368166065607   0.003208063374307197
-0.03540237215283059   -0.0005019368166065607   0.003208063374307197
-0.027365205759772634   -0.004616241284273677   -0.0010246798777577006
-0.027365205759772634   -0.004616241284273677   -0.0010246798777577006
-0.027365205759772634   -0.004616241284273677   -0.0010246798777577006
-0.027365205759772634   -0.004616241284273677   -0.0010246798777577006
-0.03845924163541105   -0.008543899079450013   -0.004034321775751997
-0.03845924163541105   -0.008543899079450013   -0.004034321775751997
-0.03845924163541105   -0.008543899079450013   -0.004034321775751997
-0.03845924163541105   -0.008543899079450013   -0.004034321775751997
-0.014588345694262886   0.003948258296806674   0.004645012482805669
-0.014588345694262886   0.003948258296806674   0.004645012482805669
-0.014588345694262886   0.003948258296806674   0.004645012482805669
-0.014588345694262886   0.003948258296806674   0.004645012482805669
-0.01566629919282307   0.0004907858449321977   -0.0048427808215506405
-0.01566629919282307   0.0004907858449321977   -0.0048427808215506405
-0.01566629919282307   0.0004907858449321977   -0.0048427808215506405
-0.01566629919282307   0.0004907858449321977   -0.0048427808215506405
-0.0340711101744679   0.003771249358969341   0.002156428337820545
-0.0340711101744679   0.003771249358969341   0.002156428337820545
-0.0340711101744679   0.003771249358969341   0.002156428337820545
-0.0340711101744679   0.003771249358969341   0.002156428337820545
-0.025536954579752812   -0.0001771550708014897   0.0009931955928114224
-0.025536954579752812   -0.0001771550708014897   0.0009931955928114224
-0.025536954579752812   -0.0001771550708014897   0.0009931955928114224
-0.025536954579752812   -0.0001771550708014897   0.0009931955928114224
-0.0370297556272926   -0.0038220493259319916   -0.005043500241402062
-0.0370297556272926   -0.0038220493259319916   -0.005043500241402062
-0.0370297556272926   -0.0038220493259319916   -0.005043500241402062
-0.0370297556272926   -0.0038220493259319916   -0.005043500241402062
-0.012311518078898324   0.008480220190934185   0.0039416904020713635
-0.012311518078898324   0.008480220190934185   0.0039416904020713635
-0.012311518078898324   0.008480220190934185   0.0039416904020713635
-0.012311518078898324   0.008480220190934185   0.0039416904020713635
-0.013639780788360596   0.006042923191311373   -0.005443170513310878
-0.013639780788360596   0.006042923191311373   -0.005443170513310878
-0.013639780788360596   0.006042923191311373   -0.005443170513310878
-0.013639780788360596   0.006042923191311373   -0.005443170513310878
-0.032707320387423654   0.008560205688481478   0.0011417178184584247
-0.032707320387423654   0.008560205688481478   0.0011417178184584247
-0.032707320387423654   0.008560205688481478   0.0011417178184584247
-0.032707320387423654   0.008560205688481478   0.0011417178184584247
-0.023682251136213566   0.0043901096854173415   0.0029906334227426177
-0.023682251136213566   0.0043901096854173415   0.0029906334227426177
-0.023682251136213566   0.0043901096854173415   0.0029906334227426177
-0.023682251136213566   0.0043901096854173415   0.0029906334227426177
-0.021537137693458514   -0.014458799450867112   -0.006977592251284162
-0.021537137693458514   -0.014458799450867112   -0.006977592251284162
-0.021537137693458514   -0.014458799450867112   -0.006977592251284162
-0.021537137693458514   -0.014458799450867112   -0.006977592251284162
-0.0019734644285329065   0.0036677345337927272   0.008532406366225546
-0.0019734644285329065   0.0036677345337927272   0.008532406366225546
-0.0019734644285329065   0.0036677345337927272   0.008532406366225546
-0.0019734644285329065   0.0036677345337927272   0.008532406366225546
-0.0021120601540070187   -0.007680465188462118   -0.009294059185762931
-0.0021120601540070187   -0.007680465188462118   -0.009294059185762931
-0.0021120601540070187   -0.007680465188462118   -0.009294059185762931
-0.0021120601540070187   -0.007680465188462118   -0.009294059185762931
-0.013993940428504914   0.004574009007777989   0.006991288100623969
-0.013993940428504914   0.004574009007777989   0.006991288100623969
-0.013993940428504914   0.004574009007777989   0.006991288100623969
-0.013993940428504914   0.004574009007777989   0.006991288100623969
-0.009787845735732393   -0.0032690754609571637   -0.0014747128100372022
-0.009787845735732393   -0.0032690754609571637   -0.0014747128100372022
-0.009787845735732393   -0.0032690754609571637   -0.0014747128100372022
-0.009787845735732393   -0.0032690754609571637   -0.0014747128100372022
-0.020120810798117013   -0.011031012023385751   -0.008038042716273019
-0.020120810798117013   -0.011031012023385751   -0.008038042716273019
-0.020120810798117013   -0.011031012023385751   -0.008038042716273019
-0.020120810798117013   -0.011031012023385751   -0.008038042716273019
0.004465831657203443   0.008375577284299624   0.007539357397527632
0.004465831657203443   0.008375577284299624   0.007539357397527632
0.004465831657203443   0.008375577284299624   0.007539357397527632
0.004465831657203443   0.008375577284299624   0.007539357397527632
0.0026127089525830884   -0.004831825347667006   -0.011091341880014451
0.0026127089525830884   -0.004831825347667006   -0.011091341880014451
0.0026127089525830884   -0.004831825347667006   -0.011091341880014451
0.0026127089525830884   -0.004831825347667006   -0.011091341880014451
-0.012340620837706553   0.006642909170173871   0.005633487628790279
-0.012340620837706553   0.006642909170173871   0.005633487628790279
-0.012340620837706553   0.006642909170173871   0.005633487628790279
-0.012340620837706553   0.006642909170173871   0.005633487628790279
-0.006027925270257936   -0.0003100202928832897   0.0006809209115496151
-0.006027925270257936   -0.0003100202928832897   0.0006809209115496151
-0.006027925270257936   -0.0003100202928832897   0.0006809209115496151
-0.006027925270257936   -0.0003100202928832897   0.0006809209115496151
-0.01840097181835536   -0.008684470622256486   -0.009340887482023403
-0.01840097181835536   -0.008684470622256486   -0.009340887482023403
-0.01840097181835536   -0.008684470622256486   -0.009340887482023403
-0.01840097181835536   -0.008684470622256486   -0.009340887482023403
0.009129484832791076   0.010951979344322611   0.005708732829036347
0.009129484832791076   0.010951979344322611   0.005708732829036347
0.009129484832791076   0.010951979344322611   0.005708732829036347
0.009129484832791076   0.010951979344322611   0.005708732829036347
0.009349426438825843   0.0006949318062049975   -0.01192617844325284
0.009349426438825843   0.0006949318062049975   -0.01192617844325284
0.009349426438825843   0.0006949318062049975   -0.01192617844325284
0.009349426438825843   0.0006949318062049975   -0.01192617844325284
-0.010805725022406808   0.010186022110488847   0.004584009397280599
-0.010805725022406808   0.010186022110488847   0.004584009397280599
-0.010805725022406808   0.010186022110488847   0.004584009397280599
-0.010805725022406808   0.010186022110488847   0.004584009397280599
-0.002436997750031626   0.002747762900494698   0.0028322278734771882
-0.002436997750031626   0.002747762900494698   0.0028322278734771882
-0.002436997750031626   0.002747762900494698   0.0028322278734771882
-0.002436997750031626   0.002747762900494698   0.0028322278734771882
-0.030109640166254996   0.0024858197065341942   0.009775002386143917
-0.030109640166254996   0.0024858197065341942   0.009775002386143917
-0.030109640166254996   0.0024858197065341942   0.009775002386143917
-0.030109640166254996   0.0024858197065341942   0.009775002386143917
-0.039634227189131656   -0.012548608297078852   -0.005581020316236387
-0.039634227189131656   -0.012548608297078852   -0.005581020316236387
-0.039634227189131656   -0.012548608297078852   -0.005581020316236387
-0.039634227189131656   -0.012548608297078852   -0.005581020316236387
-0.03164719095609454   0.0057038773971560715   0.007959412214664258
-0.03164719095609454   0.0057038773971560715   0.007959412214664258
-0.03164719095609454   0.0057038773971560715   0.007959412214664258
-0.03164719095609454   0.0057038773971560715   0.007959412214664258
-0.029347319633617124   -0.007743325964426799   -0.007274692381145685
-0.029347319633617124   -0.007743325964426799   -0.007274692381145685
-0.029347319633617124   -0.007743325964426799   -0.007274692381145685
-0.029347319633617124   -0.007743325964426799   -0.007274692381145685
-0.03198129670489581   -0.002438539624293203   -0.0028493772520932657
-0.03198129670489581   -0.002438539624293203   -0.0028493772520932657
-0.03198129670489581   -0.002438539624293203   -0.0028493772520932657
-0.03198129670489581   -0.002438539624293203   -0.0028493772520932657
-0.022994472313341178   0.007659818611612782   0.009086399644194451
-0.022994472313341178   0.007659818611612782   0.009086399644194451
-0.022994472313341178   0.007659818611612782   0.009086399644194451
-0.022994472313341178   0.007659818611612782   0.009086399644194451
-0.037575323949394196   -0.009274552851906506   -0.006702822502770977
-0.037575323949394196   -0.009274552851906506   -0.006702822502770977
-0.037575323949394196   -0.009274552851906506   -0.006702822502770977
-0.037575323949394196   -0.009274552851906506   -0.006702822502770977
-0.029372491815624853   0.007918538557071787   0.00666552003680442
-0.029372491815624853   0.007918538557071787   0.00666552003680442
-0.029372491815624853   0.007918538557071787   0.00666552003680442
-0.029372491815624853   0.007918538557071787   0.00666552003680442
-0.02415098195616458   -0.005240467560520002   -0.008996823084901238
-0.02415098195616458   -0.005240467560520002   -0.008996823084901238
-0.02415098195616458   -0.005240467560520002   -0.008996823084901238
-0.02415098195616458   -0.005240467560520002   -0.008996823084901238
-0.028154646697717122   0.00036385720306570096   -0.0007590820966285785
-0.028154646697717122   0.00036385720306570096   -0.0007590820966285785
-0.028154646697717122   0.00036385720306570096   -0.0007590820966285785
-0.028154646697717122   0.00036385720306570096   -0.0007590820966285785
-0.017789886781278443   0.010346327168651732   0.00722185806035773
-0.017789886781278443   0.010346327168651732   0.00722185806035773
-0.017789886781278443   0.010346327168651732   0.00722185806035773
-0.017789886781278443   0.010346327168651732   0.00722185806035773
-0.03534141130085506   -0.007276080482444013   -0.00798445834983082
-0.03534141130085506   -0.007276080482444013   -0.00798445834983082
-0.03534141130085506   -0.007276080482444013   -0.00798445834983082
-0.03534141130085506   -0.007276080482444013   -0.00798445834983082
-0.027318724294510436   0.01137035158028456   0.005751690082292318
-0.027318724294510436   0.01137035158028456   0.005751690082292318
-0.027318724294510436   0.01137035158028456   0.005751690082292318
-0.027318724294510436   0.01137035158028456   0.005751690082292318
-0.01720129217264501   -0.0004896671800934012   -0.01011495231410665
-0.01720129217264501   -0.0004896671800934012   -0.01011495231410665
-0.01720129217264501   -0.0004896671800934012   -0.01011495231410665
-0.01720129217264501   -0.0004896671800934012   -0.01011495231410665
-0.023632985843018074   0.00333898350272298   0.0014461915756233154
-0.023632985843018074   0.00333898350272298   0.0014461915756233154
-0.023632985843018074   0.00333898350272298   0.0014461915756233154
-0.023632985843018074   0.00333898350272298   0.0014461915756233154
-0.03523142573290919   -0.0018478425933945867   0.005732221261191196
-0.03523142573290919   -0.0018478425933945867   0.005732221261191196
-0.03523142573290919   -0.0018478425933945867   0.005732221261191196
-0.03523142573290919   -0.0018478425933945867   0.005732221261191196
-0.04630496960017631   -0.010253070525853733   -0.0021749488831751926
-0.04630496960017631   -0.010253070525853733   -0.0021749488831751926
-0.04630496960017631   -0.010253070525853733   -0.0021749488831751926
-0.04630496960017631   -0.010253070525853733   -0.0021749488831751926
-0.04163916892257014   0.0009534104064126431   0.0037045028523160083
-0.04163916892257014   0.0009534104064126431   0.0037045028523160083
-0.04163916892257014   0.0009534104064126431   0.0037045028523160083
-0.04163916892257014   0.0009534104064126431   0.0037045028523160083
-0.03591279329498903   -0.0044480918372159055   -0.0032166302454352726
-0.03591279329498903   -0.0044480918372159055   -0.0032166302454352726
-0.03591279329498903   -0.0044480918372159055   -0.0032166302454352726
-0.03591279329498903   -0.0044480918372159055   -0.0032166302454352726
-0.039842153515757074   -0.00357698181266777   -0.0019155234390537054
-0.039842153515757074   -0.00357698181266777   -0.0019155234390537054
-0.039842153515757074   -0.00357698181266777   -0.0019155234390537054
-0.039842153515757074   -0.00357698181266777   -0.0019155234390537054
-0.032784094779126534   0.002982732303308447   0.004996038193351414
-0.032784094779126534   0.002982732303308447   0.004996038193351414
-0.032784094779126534   0.002982732303308447   0.004996038193351414
-0.032784094779126534   0.002982732303308447   0.004996038193351414
-0.044432159071375904   -0.006141705367055257   -0.0031653321182451523
-0.044432159071375904   -0.006141705367055257   -0.0031653321182451523
-0.044432159071375904   -0.006141705367055257   -0.0031653321182451523
-0.044432159071375904   -0.006141705367055257   -0.0031653321182451523
-0.03962372401715292   0.005397230531769534   0.002815207178920821
-0.03962372401715292   0.005397230531769534   0.002815207178920821
-0.03962372401715292   0.005397230531769534   0.002815207178920821
-0.03962372401715292   0.005397230531769534   0.002815207178920821
-0.03313416725316604   -0.0002205316672377021   -0.004003786926591587
-0.03313416725316604   -0.0002205316672377021   -0.004003786926591587
-0.03313416725316604   -0.0002205316672377021   -0.004003786926591587
-0.03313416725316604   -0.0002205316672377021   -0.004003786926591587
-0.03739497274197202   0.0005203353752453767   -2.3487860125260066e-06
-0.03739497274197202   0.0005203353752453767   -2.3487860125260066e-06
-0.03739497274197202   0.0005203353752453767   -2.3487860125260066e-06
-0.03739497274197202   0.0005203353752453767   -2.3487860125260066e-06
-0.029849143225846364   0.007691054635667004   0.0045097469071016215
-0.029849143225846364   0.007691054635667004   0.0045097469071016215
-0.029849143225846364   0.007691054635667004   0.0045097469071016215
-0.029849143225846364   0.007691054635667004   0.0045097469071016215
-0.0425498619765744   -0.002155469703236497   -0.00426278238318103
-0.0425498619765744   -0.002155469703236497   -0.00426278238318103
-0.0425498619765744   -0.002155469703236497   -0.00426278238318103
-0.0425498619765744   -0.002155469703236497   -0.00426278238318103
-0.03759400050132082   0.0103657698501704   0.001969391071649288
-0.03759400050132082   0.0103657698501704   0.001969391071649288
-0.03759400050132082   0.0103657698501704   0.001969391071649288
-0.03759400050132082   0.0103657698501704   0.001969391071649288
-0.030781064667713676   0.004522927269395365   -0.004712587472834668
-0.030781064667713676   0.004522927269395365   -0.004712587472834668
-0.030781064667713676   0.004522927269395365   -0.004712587472834668
-0.030781064667713676   0.004522927269395365   -0.004712587472834668
-0.0350762330162044   0.004807948976533808   0.0019649168016146763
-0.0350762330162044   0.004807948976533808   0.0019649168016146763
-0.0350762330162044   0.004807948976533808   0.0019649168016146763
-0.0350762330162044   0.004807948976533808   0.0019649168016146763
-0.044700355424174436   -0.006088776666444459   0.0016838281374237296
-0.044700355424174436   -0.006088776666444459   0.0016838281374237296
-0.044700355424174436   -0.006088776666444459   0.0016838281374237296
-0.044700355424174436   -0.006088776666444459   0.0016838281374237296
-0.052823159902659865   -0.006763971904550491   0.0012826664492595558
-0.052823159902659865   -0.006763971904550491   0.0012826664492595558
-0.052823159902659865   -0.006763971904550491   0.0012826664492595558
-0.052823159902659865   -0.006763971904550491   0.0012826664492595558
-0.05126030298235573   -0.0032167048665580726   -0.0005064764015881352
-0.05126030298235573   -0.0032167048665580726   -0.0005064764015881352
-0.05126030298235573   -0.0032167048665580726   -0.0005064764015881352
-0.05126030298235573   -0.0032167048665580726   -0.0005064764015881352
-0.042634020412571715   -0.0007718327089965421   0.00045548851771706885
-0.042634020412571715   -0.0007718327089965421   0.00045548851771706885
-0.042634020412571715   -0.0007718327089965421   0.00045548851771706885
-0.042634020412571715   -0.0007718327089965421   0.00045548851771706885
-0.04792697549598133   -0.003973280600139242   -0.0013000595701849642
-0.04792697549598133   -0.003973280600139242   -0.0013000595701849642
-0.04792697549598133   -0.003973280600139242   -0.0013000595701849642
-0.04792697549598133   -0.003973280600139242   -0.0013000595701849642
-0.04263495816973173   -0.0012121226826090244   0.0008910897055292503
-0.04263495816973173   -0.0012121226826090244   0.0008910897055292503
-0.04263495816973173   -0.0012121226826090244   0.0008910897055292503
-0.04263495816973173   -0.0012121226826090244   0.0008910897055292503
-0.05093921422733   -0.0024562638950791863   0.0003385264020621284
-0.05093921422733   -0.0024562638950791863   0.0003385264020621284
-0.05093921422733   -0.0024562638950791863   0.0003385264020621284
-0.05093921422733   -0.0024562638950791863   0.0003385264020621284
-0.04912716327927104   0.0017184451469936246   -0.0012653431255351295
-0.04912716327927104   0.0017184451469936246   -0.0012653431255351295
-0.04912716327927104   0.0017184451469936246   -0.0012653431255351295
-0.04912716327927104   0.0017184451469936246   -0.0012653431255351295
-0.04062488316893548   0.00365181484676963   -0.0004451728949920902
-0.04062488316893548   0.00365181484676963   -0.0004451728949920902
-0.04062488316893548   0.00365181484676963   -0.0004451728949920902
-0.04062488316893548   0.00365181484676963   -0.0004451728949920902
-0.045687938905459385   0.0004154397732520458   0.0006017636187558369
-0.045687938905459385   0.0004154397732520458   0.0006017636187558369
-0.045687938905459385   0.0004154397732520458   0.0006017636187558369
-0.045687938905459385   0.0004154397732520458   0.0006017636187558369
-0.04051468405759148   0.00370461426511331   5.3023243383737775e-05
-0.04051468405759148   0.00370461426511331   5.3023243383737775e-05
-0.04051468405759148   0.00370461426511331   5.3023243383737775e-05
-0.04051468405759148   0.00370461426511331   5.3023243383737775e-05
-0.048955709547976595   0.0019472985712883067   -0.0006369278933575869
-0.048955709547976595   0.0019472985712883067   -0.0006369278933575869
-0.048955709547976595   0.0019472985712883067   -0.0006369278933575869
-0.048955709547976595   0.0019472985712883067   -0.0006369278933575869
-0.04708289072633047   0.006692288314184915   -0.0021069797241822508
-0.04708289072633047   0.006692288314184915   -0.0021069797241822508
-0.04708289072633047   0.006692288314184915   -0.0021069797241822508
-0.04708289072633047   0.006692288314184915   -0.0021069797241822508
-0.03873218342921367   0.00809366584618153   -0.0014494195638253748
-0.03873218342921367   0.00809366584618153   -0.0014494195638253748
-0.03873218342921367   0.00809366584618153   -0.0014494195638253748
-0.03873218342921367   0.00809366584618153   -0.0014494195638253748
-0.04356528292583351   0.0048143573058373   0.002413053437947067
-0.04356528292583351   0.0048143573058373   0.002413053437947067
-0.04356528292583351   0.0048143573058373   0.002413053437947067
-0.04356528292583351   0.0048143573058373   0.002413053437947067
-0.05419394402207985   -0.00990446868014203   -0.00243075737224975
-0.05419394402207985   -0.00990446868014203   -0.00243075737224975
-0.05419394402207985   -0.00990446868014203   -0.00243075737224975
-0.05419394402207985   -0.00990446868014203   -0.00243075737224975
-0.06005685331465349   -0.003335714752242659   0.004555570829389302
-0.06005685331465349   -0.003335714752242659   0.004555570829389302
-0.06005685331465349   -0.003335714752242659   0.004555570829389302
-0.06005685331465349   -0.003335714752242659   0.004555570829389302
-0.061205910295552425   -0.007268165265500636   -0.004819540727441351
-0.061205910295552425   -0.007268165265500636   -0.004819540727441351
-0.061205910295552425   -0.007268165265500636   -0.004819540727441351
-0.061205910295552425   -0.007268165265500636   -0.004819540727441351
-0.04914902573094093   0.0028857644370120887   0.003947440551915763
-0.04914902573094093   0.0028857644370120887   0.003947440551915763
-0.04914902573094093   0.0028857644370120887   0.003947440551915763
-0.04914902573094093   0.0028857644370120887   0.003947440551915763
-0.05589149566969581   -0.004139044733333413   -0.0008287982503970199
-0.05589149566969581   -0.004139044733333413   -0.0008287982503970199
-0.05589149566969581   -0.004139044733333413   -0.0008287982503970199
-0.05589149566969581   -0.004139044733333413   -0.0008287982503970199
-0.05219703929857978   -0.005153212908725997   -0.0032536499405408006
-0.05219703929857978   -0.005153212908725997   -0.0032536499405408006
-0.05219703929857978   -0.005153212908725997   -0.0032536499405408006
-0.05219703929857978   -0.005153212908725997   -0.0032536499405408006
-0.057822896745898765   0.0011058120622515419   0.0037215496930747115
-0.057822896745898765   0.0011058120622515419   0.0037215496930747115
-0.057822896745898765   0.0011058120622515419   0.0037215496930747115
-0.057822896745898765   0.0011058120622515419   0.0037215496930747115
-0.05832703448211499   -0.0025934339134881853   -0.00541106371682382
-0.05832703448211499   -0.0025934339134881853   -0.00541106371682382
-0.05832703448211499   -0.0025934339134881853   -0.00541106371682382
-0.05832703448211499   -0.0025934339134881853   -0.00541106371682382
-0.04725614862674165   0.006868152485757846   0.002940022798347204
-0.04725614862674165   0.006868152485757846   0.002940022798347204
-0.04725614862674165   0.006868152485757846   0.002940022798347204
-0.04725614862674165   0.006868152485757846   0.002940022798347204
-0.05328895475095076   0.000107425933578785   0.0011440040343611464
-0.05328895475095076   0.000107425933578785   0.0011440040343611464
-0.05328895475095076   0.000107425933578785   0.0011440040343611464
-0.05328895475095076   0.000107425933578785   0.0011440040343611464
-0.05020716895825126   -0.0007305277833668106   -0.00421639859007685
-0.05020716895825126   -0.0007305277833668106   -0.00421639859007685
-0.05020716895825126   -0.0007305277833668106   -0.00421639859007685
-0.05020716895825126   -0.0007305277833668106   -0.00421639859007685
-0.05503765564551591   0.005343604860725271   0.003098791691958587
-0.05503765564551591   0.005343604860725271   0.003098791691958587
-0.05503765564551591   0.005343604860725271   0.003098791691958587
-0.05503765564551591   0.005343604860725271   0.003098791691958587
-0.05582003080427895   0.0025188633387288016   -0.00595228351344584
-0.05582003080427895   0.0025188633387288016   -0.00595228351344584
-0.05582003080427895   0.0025188633387288016   -0.00595228351344584
-0.05582003080427895   0.0025188633387288016   -0.00595228351344584
-0.04535895791592745   0.01126000826935266   0.0019449643726651136
-0.04535895791592745   0.01126000826935266   0.0019449643726651136
-0.04535895791592745   0.01126000826935266   0.0019449643726651136
-0.04535895791592745   0.01126000826935266   0.0019449643726651136
-0.051156677481643056   0.004266170572343275   0.0030112537251369845
-0.051156677481643056   0.004266170572343275   0.0030112537251369845
-0.051156677481643056   0.004266170572343275   0.0030112537251369845
-0.051156677481643056   0.004266170572343275   0.0030112537251369845
-0.06388113266369636   -0.011667157100082367   -0.006234383567986483
-0.06388113266369636   -0.011667157100082367   -0.006234383567986483
-0.06388113266369636   -0.011667157100082367   -0.006234383567986483
-0.06388113266369636   -0.011667157100082367   -0.006234383567986483
-0.0732926990618908   0.00028629513845128754   0.008443356559612428
-0.0732926990618908   0.00028629513845128754   0.008443356559612428
-0.0732926990618908   0.00028629513845128754   0.008443356559612428
-0.0732926990618908   0.00028629513845128754   0.008443356559612428
-0.07270326658897013   -0.010245347957254099   -0.00839617056407126
-0.07270326658897013   -0.010245347957254099   -0.00839617056407126
-0.07270326658897013   -0.010245347957254099   -0.00839617056407126
-0.07270326658897013   -0.010245347957254099   -0.00839617056407126
-0.05578989673483326   0.007430213929042903   0.007562147881610459
-0.05578989673483326   0.007430213929042903   0.007562147881610459
-0.05578989673483326   0.007430213929042903   0.007562147881610459
-0.05578989673483326   0.007430213929042903   0.007562147881610459
-0.06369913607708527   -0.0027100767510276746   -0.000201925836566121
-0.06369913607708527   -0.0027100767510276746   -0.000201925836566121
-0.06369913607708527   -0.0027100767510276746   -0.000201925836566121
-0.06369913607708527   -0.0027100767510276746   -0.000201925836566121
-0.061779418597834646   -0.007810328122570356   -0.007144919381784183
-0.061779418597834646   -0.007810328122570356   -0.007144919381784183
-0.061779418597834646   -0.007810328122570356   -0.007144919381784183
-0.061779418597834646   -0.007810328122570356   -0.007144919381784183
-0.06636093551366377   0.005348003306663164   0.007722133548542272
-0.06636093551366377   0.005348003306663164   0.007722133548542272
-0.06636093551366377   0.005348003306663164   0.007722133548542272
-0.06636093551366377   0.005348003306663164   0.007722133548542272
-0.06756026767112976   -0.007537409695071471   -0.010048459864013228
-0.06756026767112976   -0.007537409695071471   -0.010048459864013228
-0.06756026767112976   -0.007537409695071471   -0.010048459864013228
-0.06756026767112976   -0.007537409695071471   -0.010048459864013228
-0.05361644187088583   0.009338989308505668   0.006209476117328124
-0.05361644187088583   0.009338989308505668   0.006209476117328124
-0.05361644187088583   0.009338989308505668   0.006209476117328124
-0.05361644187088583   0.009338989308505668   0.006209476117328124
-0.06039903321676859   0.00014684388941687762   0.0016645354457346276
-0.06039903321676859   0.00014684388941687762   0.0016645354457346276
-0.06039903321676859   0.00014684388941687762   0.0016645354457346276
-0.06039903321676859   0.00014684388941687762   0.0016645354457346276
-0.05950340389794129   -0.005578011591266611   -0.008308333118177389
-0.05950340389794129   -0.005578011591266611   -0.008308333118177389
-0.05950340389794129   -0.005578011591266611   -0.008308333118177389
-0.05950340389794129   -0.005578011591266611   -0.008308333118177389
-0.061301201093497494   0.007751695755277533   0.005957767573799104
-0.061301201093497494   0.007751695755277533   0.005957767573799104
-0.061301201093497494   0.007751695755277533   0.005957767573799104
-0.061301201093497494   0.007751695755277533   0.005957767573799104
-0.06068197956899018   -0.00291127277325089   -0.011026210474834701
-0.06068197956899018   -0.00291127277325089   -0.011026210474834701
-0.06068197956899018   -0.00291127277325089   -0.011026210474834701
-0.06068197956899018   -0.00291127277325089   -0.011026210474834701
-0.05169496584660257   0.012077746611723356   0.005114158001940776
-0.05169496584660257   0.012077746611723356   0.005114158001940776
-0.05169496584660257   0.012077746611723356   0.005114158001940776
-0.05169496584660257   0.012077746611723356   0.005114158001940776
-0.055517126284203674   0.0029529868597247787   0.0038719336173473375
-0.055517126284203674   0.0029529868597247787   0.0038719336173473375
-0.055517126284203674   0.0029529868597247787   0.0038719336173473375
-0.055517126284203674   0.0029529868597247787   0.0038719336173473375
0.039143583941651246   0.006164154893420494   0.009204984505477446
0.039143583941651246   0.006164154893420494   0.009204984505477446
0.039143583941651246   0.006164154893420494   0.009204984505477446
0.039143583941651246   0.006164154893420494   0.009204984505477446
0.000144002708971695   -0.0146234016668993   -0.005934583517717732
0.000144002708971695   -0.0146234016668993   -0.005934583517717732
0.000144002708971695   -0.0146234016668993   -0.005934583517717732
0.000144002708971695   -0.0146234016668993   -0.005934583517717732
0.008395119523797862   0.002673973417124124   0.007069365369190112
0.008395119523797862   0.002673973417124124   0.007069365369190112
0.008395119523797862   0.002673973417124124   0.007069365369190112
0.008395119523797862   0.002673973417124124   0.007069365369190112
0.04034778235131199   -0.004571050520128371   -0.00750444671537615
0.04034778235131199   -0.004571050520128371   -0.00750444671537615
0.04034778235131199   -0.004571050520128371   -0.00750444671537615
0.04034778235131199   -0.004571050520128371   -0.00750444671537615
0.020085908010899312   -0.0026303836969903296   -0.004492072748865306
0.020085908010899312   -0.0026303836969903296   -0.004492072748865306
0.020085908010899312   -0.0026303836969903296   -0.004492072748865306
0.020085908010899312   -0.0026303836969903296   -0.004492072748865306
0.04653168623628161   0.010546848436376302   0.008297173752967261
0.04653168623628161   0.010546848436376302   0.008297173752967261
0.04653168623628161   0.010546848436376302   0.008297173752967261
0.04653168623628161   0.010546848436376302   0.008297173752967261
0.002619148772975098   -0.012035992405232416   -0.007100522562567164
0.002619148772975098   -0.012035992405232416   -0.007100522562567164
0.002619148772975098   -0.012035992405232416   -0.007100522562567164
0.002619148772975098   -0.012035992405232416   -0.007100522562567164
0.01119481723931302   0.004801333496485541   0.005866383004648875
0.01119481723931302   0.004801333496485541   0.005866383004648875
0.01119481723931302   0.004801333496485541   0.005866383004648875
0.01119481723931302   0.004801333496485541   0.005866383004648875
0.04601677992313357   -0.002175235622123175   -0.009306126125531545
0.04601677992313357   -0.002175235622123175   -0.009306126125531545
0.04601677992313357   -0.002175235622123175   -0.009306126125531545
0.04601677992313357   -0.002175235622123175   -0.009306126125531545
0.0252349793240001   -1.1678155990396157e-05   -0.0022042377365815453
0.0252349793240001   -1.1678155990396157e-05   -0.0022042377365815453
0.0252349793240001   -1.1678155990396157e-05   -0.0022042377365815453
0.0252349793240001   -1.1678155990396157e-05   -0.0022042377365815453
0.05224015058188674   0.013136851561077276   0.006498639985033835
0.05224015058188674   0.013136851561077276   0.006498639985033835
0.05224015058188674   0.013136851561077276   0.006498639985033835
0.05224015058188674   0.013136851561077276   0.006498639985033835
0.005358138107436938   -0.010124062159837827   -0.008391616998408173
0.005358138107436938   -0.010124062159837827   -0.008391616998408173
0.005358138107436938   -0.010124062159837827   -0.008391616998408173
0.005358138107436938   -0.010124062159837827   -0.008391616998408173
0.0138992147351231   0.008767917974012784   0.005072466548656172
0.0138992147351231   0.008767917974012784   0.005072466548656172
0.0138992147351231   0.008767917974012784   0.005072466548656172
0.0138992147351231   0.008767917974012784   0.005072466548656172
0.05357587552179442   0.00316826190667907   -0.01023625840824384
0.05357587552179442   0.00316826190667907   -0.01023625840824384
0.05357587552179442   0.00316826190667907   -0.01023625840824384
0.05357587552179442   0.00316826190667907   -0.01023625840824384
0.029394804695861754   0.0029694710639423093   -7.999806984392227e-05
0.029394804695861754   0.0029694710639423093   -7.999806984392227e-05
0.029394804695861754   0.0029694710639423093   -7.999806984392227e-05
0.029394804695861754   0.0029694710639423093   -7.999806984392227e-05
0.005922460815389635   0.0019118886694908558   0.006422416677981812
0.005922460815389635   0.0019118886694908558   0.006422416677981812
0.005922460815389635   0.0019118886694908558   0.006422416677981812
0.005922460815389635   0.0019118886694908558   0.006422416677981812
-0.03458547487062827   -0.012495030952165068   -0.0027378109092695965
-0.03458547487062827   -0.012495030952165068   -0.0027378109092695965
-0.03458547487062827   -0.012495030952165068   -0.0027378109092695965
-0.03458547487062827   -0.012495030952165068   -0.0027378109092695965
-0.02950068716023282   -0.0019531668949799583   0.0028458883309882598
-0.02950068716023282   -0.0019531668949799583   0.0028458883309882598
-0.02950068716023282   -0.0019531668949799583   0.0028458883309882598
-0.02950068716023282   -0.0019531668949799583   0.0028458883309882598
0.0058287866154538796   -0.001012816126970122   -0.002075509628435554
0.0058287866154538796   -0.001012816126970122   -0.002075509628435554
0.0058287866154538796   -0.001012816126970122   -0.002075509628435554
0.0058287866154538796   -0.001012816126970122   -0.002075509628435554
-0.013392455622915756   -0.0030686759354958447   -0.002114297090243672
-0.013392455622915756   -0.0030686759354958447   -0.002114297090243672
-0.013392455622915756   -0.0030686759354958447   -0.002114297090243672
-0.013392455622915756   -0.0030686759354958447   -0.002114297090243672
0.008841875776249494   0.006284660029861109   0.005692460018711283
0.008841875776249494   0.006284660029861109   0.005692460018711283
0.008841875776249494   0.006284660029861109   0.005692460018711283
0.008841875776249494   0.006284660029861109   0.005692460018711283
-0.03220832560614819   -0.008945192336930943   -0.003700278456637592
-0.03220832560614819   -0.008945192336930943   -0.003700278456637592
-0.03220832560614819   -0.008945192336930943   -0.003700278456637592
-0.03220832560614819   -0.008945192336930943   -0.003700278456637592
-0.02696357195536406   0.002214260472203574   0.001999578472808982
-0.02696357195536406   0.002214260472203574   0.001999578472808982
-0.02696357195536406   0.002214260472203574   0.001999578472808982
-0.02696357195536406   0.002214260472203574   0.001999578472808982
0.009074388988125048   0.002889876069737709   -0.002824300824543148
0.009074388988125048   0.002889876069737709   -0.002824300824543148
0.009074388988125048   0.002889876069737709   -0.002824300824543148
0.009074388988125048   0.002889876069737709   -0.002824300824543148
-0.010694415052500064   0.0005679164263817107   -0.0002975592170005795
-0.010694415052500064   0.0005679164263817107   -0.0002975592170005795
-0.010694415052500064   0.0005679164263817107   -0.0002975592170005795
-0.010694415052500064   0.0005679164263817107   -0.0002975592170005795
0.012219776369968714   0.010674597394658451   0.005117914759754427
0.012219776369968714   0.010674597394658451   0.005117914759754427
0.012219776369968714   0.010674597394658451   0.005117914759754427
0.012219776369968714   0.010674597394658451   0.005117914759754427
-0.029811553966530582   -0.005273055482039385   -0.0047530156287806605
-0.029811553966530582   -0.005273055482039385   -0.0047530156287806605
-0.029811553966530582   -0.005273055482039385   -0.0047530156287806605
-0.029811553966530582   -0.005273055482039385   -0.0047530156287806605
-0.024404091446574263   0.00697951306342025   0.0011933682761503463
-0.024404091446574263   0.00697951306342025   0.0011933682761503463
-0.024404091446574263   0.00697951306342025   0.0011933682761503463
-0.024404091446574263   0.00697951306342025   0.0011933682761503463
0.011887569981293337   0.007369232454325048   -0.0035870717008044135
0.011887569981293337   0.007369232454325048   -0.0035870717008044135
0.011887569981293337   0.007369232454325048   -0.0035870717008044135
0.011887569981293337   0.007369232454325048   -0.0035870717008044135
-0.0076554876765726676   0.004637286507411066   0.0016594299416091973
-0.0076554876765726676   0.004637286507411066   0.0016594299416091973
-0.0076554876765726676   0.004637286507411066   0.0016594299416091973
-0.0076554876765726676   0.004637286507411066   0.0016594299416091973
-0.03152078890700117   -0.002284927836608102   0.0023755157933089623
-0.03152078890700117   -0.002284927836608102   0.0023755157933089623
-0.03152078890700117   -0.002284927836608102   0.0023755157933089623
-0.03152078890700117   -0.002284927836608102   0.0023755157933089623
-0.06864473683260741   -0.009180034655268517   0.000497095397277823
-0.06864473683260741   -0.009180034655268517   0.000497095397277823
-0.06864473683260741   -0.009180034655268517   0.000497095397277823
-0.06864473683260741   -0.009180034655268517   0.000497095397277823
-0.06648133831722682   -0.005887113504187231   -0.0012735975535812798
-0.06648133831722682   -0.005887113504187231   -0.0012735975535812798
-0.06648133831722682   -0.005887113504187231   -0.0012735975535812798
-0.06648133831722682   -0.005887113504187231   -0.0012735975535812798
-0.028911704821626895   0.0024514031983955886   0.0013862299306428099
-0.028911704821626895   0.0024514031983955886   0.0013862299306428099
-0.028911704821626895   0.0024514031983955886   0.0013862299306428099
-0.028911704821626895   0.0024514031983955886   0.0013862299306428099
-0.04895887549787701   -0.0034365328961100013   -0.0012701767384494982
-0.04895887549787701   -0.0034365328961100013   -0.0012701767384494982
-0.04895887549787701   -0.0034365328961100013   -0.0012701767384494982
-0.04895887549787701   -0.0034365328961100013   -0.0012701767384494982
-0.02891766981953412   0.0022015844449733493   0.0016062236945289256
-0.02891766981953412   0.0022015844449733493   0.0016062236945289256
-0.02891766981953412   0.0022015844449733493   0.0016062236945289256
-0.02891766981953412   0.0022015844449733493   0.0016062236945289256
-0.06620572396837317   -0.005367645399818563   -0.0004149939136816809
-0.06620572396837317   -0.005367645399818563   -0.0004149939136816809
-0.06620572396837317   -0.005367645399818563   -0.0004149939136816809
-0.06620572396837317   -0.005367645399818563   -0.0004149939136816809
-0.06379967141726142   -0.0012943444534154018   -0.0020011811475913054
-0.06379967141726142   -0.0012943444534154018   -0.0020011811475913054
-0.06379967141726142   -0.0012943444534154018   -0.0020011811475913054
-0.06379967141726142   -0.0012943444534154018   -0.0020011811475913054
-0.026402368011346065   0.006474922612827932   0.0005449360522746076
-0.026402368011346065   0.006474922612827932   0.0005449360522746076
-0.026402368011346065   0.006474922612827932   0.0005449360522746076
-0.026402368011346065   0.006474922612827932   0.0005449360522746076
-0.04617984018914643   0.0005784915671192947   0.0005740040476460971
-0.04617984018914643   0.0005784915671192947   0.0005740040476460971
-0.04617984018914643   0.0005784915671192947   0.0005740040476460971
-0.04617984018914643   0.0005784915671192947   0.0005740040476460971
-0.02630034693475836   0.006759791235176404   0.0007701728128646627
-0.02630034693475836   0.006759791235176404   0.0007701728128646627
-0.02630034693475836   0.006759791235176404   0.0007701728128646627
-0.02630034693475836   0.006759791235176404   0.0007701728128646627
-0.0636804307068865   -0.0013579512888026238   -0.0013413707603300634
-0.0636804307068865   -0.0013579512888026238   -0.0013413707603300634
-0.0636804307068865   -0.0013579512888026238   -0.0013413707603300634
-0.0636804307068865   -0.0013579512888026238   -0.0013413707603300634
-0.061222959367760996   0.003322319850961158   -0.0028153736013798985
-0.061222959367760996   0.003322319850961158   -0.0028153736013798985
-0.061222959367760996   0.003322319850961158   -0.0028153736013798985
-0.061222959367760996   0.003322319850961158   -0.0028153736013798985
-0.024024467502514885   0.01050999024953056   -0.0004389891896635304
-0.024024467502514885   0.01050999024953056   -0.0004389891896635304
-0.024024467502514885   0.01050999024953056   -0.0004389891896635304
-0.024024467502514885   0.01050999024953056   -0.0004389891896635304
-0.04355951819012985   0.004587727544778595   0.002298186859514533
-0.04355951819012985   0.004587727544778595   0.002298186859514533
-0.04355951819012985   0.004587727544778595   0.002298186859514533
-0.04355951819012985   0.004587727544778595   0.002298186859514533
-0.06851887815792403   -0.0062916358864083845   -0.0017620099981649519
-0.06851887815792403   -0.0062916358864083845   -0.0017620099981649519
-0.06851887815792403   -0.0062916358864083845   -0.0017620099981649519
-0.06851887815792403   -0.0062916358864083845   -0.0017620099981649519
-0.1027815450930827   -0.006049601968715996   0.0036390182231933314
-0.1027815450930827   -0.006049601968715996   0.0036390182231933314
-0.1027815450930827   -0.006049601968715996   0.0036390182231933314
-0.1027815450930827   -0.006049601968715996   0.0036390182231933314
-0.10316726753661595   -0.009778381091059376   -0.005355045282766535
-0.10316726753661595   -0.009778381091059376   -0.005355045282766535
-0.10316726753661595   -0.009778381091059376   -0.005355045282766535
-0.10316726753661595   -0.009778381091059376   -0.005355045282766535
-0.06294677989803889   0.005866156102438257   0.004645924935732882
-0.06294677989803889   0.005866156102438257   0.004645924935732882
-0.06294677989803889   0.005866156102438257   0.004645924935732882
-0.06294677989803889   0.005866156102438257   0.004645924935732882
-0.083864816043356   -0.0036880865557729556   -0.0005657583361318086
-0.083864816043356   -0.0036880865557729556   -0.0005657583361318086
-0.083864816043356   -0.0036880865557729556   -0.0005657583361318086
-0.083864816043356   -0.0036880865557729556   -0.0005657583361318086
-0.06590363358981459   -0.0017575689410732637   -0.0025146184796335097
-0.06590363358981459   -0.0017575689410732637   -0.0025146184796335097
-0.06590363358981459   -0.0017575689410732637   -0.0025146184796335097
-0.06590363358981459   -0.0017575689410732637   -0.0025146184796335097
-0.09997747768596044   -0.0019217198886684363   0.002737242768120959
-0.09997747768596044   -0.0019217198886684363   0.002737242768120959
-0.09997747768596044   -0.0019217198886684363   0.002737242768120959
-0.09997747768596044   -0.0019217198886684363   0.002737242768120959
-0.09973243089968466   -0.005407721290132034   -0.00596306380815918
-0.09973243089968466   -0.005407721290132034   -0.00596306380815918
-0.09973243089968466   -0.005407721290132034   -0.00596306380815918
-0.09973243089968466   -0.005407721290132034   -0.00596306380815918
-0.060496650192031196   0.009516025502995   0.0037035550221494254
-0.060496650192031196   0.009516025502995   0.0037035550221494254
-0.060496650192031196   0.009516025502995   0.0037035550221494254
-0.060496650192031196   0.009516025502995   0.0037035550221494254
-0.08044628623238406   0.00036934629208684386   0.0013487192816191654
-0.08044628623238406   0.00036934629208684386   0.0013487192816191654
-0.08044628623238406   0.00036934629208684386   0.0013487192816191654
-0.08044628623238406   0.00036934629208684386   0.0013487192816191654
-0.06335170367633979   0.002374916280740833   -0.0034306031771397195
-0.06335170367633979   0.002374916280740833   -0.0034306031771397195
-0.06335170367633979   0.002374916280740833   -0.0034306031771397195
-0.06335170367633979   0.002374916280740833   -0.0034306031771397195
-0.0966177197888573   0.0019930455586395675   0.0022097248972060184
-0.0966177197888573   0.0019930455586395675   0.0022097248972060184
-0.0966177197888573   0.0019930455586395675   0.0022097248972060184
-0.0966177197888573   0.0019930455586395675   0.0022097248972060184
-0.096670627175368   -0.0006777324732290119   -0.00643207008080269
-0.096670627175368   -0.0006777324732290119   -0.00643207008080269
-0.096670627175368   -0.0006777324732290119   -0.00643207008080269
-0.096670627175368   -0.0006777324732290119   -0.00643207008080269
-0.0580748440288279   0.013496821759337176   0.0027507011849096184
-0.0580748440288279   0.013496821759337176   0.0027507011849096184
-0.0580748440288279   0.013496821759337176   0.0027507011849096184
-0.0580748440288279   0.013496821759337176   0.0027507011849096184
-0.0780125387260155   0.004105832272086218   0.00305014970662716
-0.0780125387260155   0.004105832272086218   0.00305014970662716
-0.0780125387260155   0.004105832272086218   0.00305014970662716
-0.0780125387260155   0.004105832272086218   0.00305014970662716
-0.10519651813728811   -0.008900191484883831   -0.005585257481665856
-0.10519651813728811   -0.008900191484883831   -0.005585257481665856
-0.10519651813728811   -0.008900191484883831   -0.005585257481665856
-0.10519651813728811   -0.008900191484883831   -0.005585257481665856
-0.14207109686127217   -0.0029948055363706212   0.008228224473811982
-0.14207109686127217   -0.0029948055363706212   0.008228224473811982
-0.14207109686127217   -0.0029948055363706212   0.008228224473811982
-0.14207109686127217   -0.0029948055363706212   0.008228224473811982
-0.14060663585110705   -0.012563438995539754   -0.007589377625029031
-0.14060663585110705   -0.012563438995539754   -0.007589377625029031
-0.14060663585110705   -0.012563438995539754   -0.007589377625029031
-0.14060663585110705   -0.012563438995539754   -0.007589377625029031
-0.0965123306949178   0.01003206361507946   0.008109194219585402
-0.0965123306949178   0.01003206361507946   0.008109194219585402
-0.0965123306949178   0.01003206361507946   0.008109194219585402
-0.0965123306949178   0.01003206361507946   0.008109194219585402
-0.11583773260074662   -0.0021119410162216724   0.001128211741580479
-0.11583773260074662   -0.0021119410162216724   0.001128211741580479
-0.11583773260074662   -0.0021119410162216724   0.001128211741580479
-0.11583773260074662   -0.0021119410162216724   0.001128211741580479
-0.10233933297719772   -0.00465904467591579   -0.0063347089008185435
-0.10233933297719772   -0.00465904467591579   -0.0063347089008185435
-0.10233933297719772   -0.00465904467591579   -0.0063347089008185435
-0.10233933297719772   -0.00465904467591579   -0.0063347089008185435
-0.1345612165975378   0.002346086266745144   0.007728193380529969
-0.1345612165975378   0.002346086266745144   0.007728193380529969
-0.1345612165975378   0.002346086266745144   0.007728193380529969
-0.1345612165975378   0.002346086266745144   0.007728193380529969
-0.13498560945810234   -0.00999085397160299   -0.00907057269599867
-0.13498560945810234   -0.00999085397160299   -0.00907057269599867
-0.13498560945810234   -0.00999085397160299   -0.00907057269599867
-0.13498560945810234   -0.00999085397160299   -0.00907057269599867
-0.09377113450159923   0.011727367924506897   0.006708328967628269
-0.09377113450159923   0.011727367924506897   0.006708328967628269
-0.09377113450159923   0.011727367924506897   0.006708328967628269
-0.09377113450159923   0.011727367924506897   0.006708328967628269
-0.11291436187185731   0.0006152773208110522   0.0026514801030844666
-0.11291436187185731   0.0006152773208110522   0.0026514801030844666
-0.11291436187185731   0.0006152773208110522   0.0026514801030844666
-0.11291436187185731   0.0006152773208110522   0.0026514801030844666
-0.09943753089221437   -0.0025386506095113476   -0.0073576344514284285
-0.09943753089221437   -0.0025386506095113476   -0.0073576344514284285
-0.09943753089221437   -0.0025386506095113476   -0.0073576344514284285
-0.09943753089221437   -0.0025386506095113476   -0.0073576344514284285
-0.12905895469302267   0.004535422936880373   0.006036424220915262
-0.12905895469302267   0.004535422936880373   0.006036424220915262
-0.12905895469302267   0.004535422936880373   0.006036424220915262
-0.12905895469302267   0.004535422936880373   0.006036424220915262
-0.12793563453625414   -0.006226156645579836   -0.010164689594923604
-0.12793563453625414   -0.006226156645579836   -0.010164689594923604
-0.12793563453625414   -0.006226156645579836   -0.010164689594923604
-0.12793563453625414   -0.006226156645579836   -0.010164689594923604
-0.09140292793354061   0.01364551624880321   0.005583177406302084
-0.09140292793354061   0.01364551624880321   0.005583177406302084
-0.09140292793354061   0.01364551624880321   0.005583177406302084
-0.09140292793354061   0.01364551624880321   0.005583177406302084
-0.10675632444027622   0.0031238992468858792   0.004853277048651306
-0.10675632444027622   0.0031238992468858792   0.004853277048651306
-0.10675632444027622   0.0031238992468858792   0.004853277048651306
-0.10675632444027622   0.0031238992468858792   0.004853277048651306
0.10793341429903407   0.009902890948226068   0.008907467967839058
0.10793341429903407   0.009902890948226068   0.008907467967839058
0.10793341429903407   0.009902890948226068   0.008907467967839058
0.10793341429903407   0.009902890948226068   0.008907467967839058
0.03898362692631446   -0.017021226113692098   -0.005839664751350674
0.03898362692631446   -0.017021226113692098   -0.005839664751350674
0.03898362692631446   -0.017021226113692098   -0.005839664751350674
0.03898362692631446   -0.017021226113692098   -0.005839664751350674
0.04739173929156147   -0.00038900100267419586   0.006361843931645244
0.04739173929156147   -0.00038900100267419586   0.006361843931645244
0.04739173929156147   -0.00038900100267419586   0.006361843931645244
0.04739173929156147   -0.00038900100267419586   0.006361843931645244
0.10945699117318547   -0.0016742760907453337   -0.007487898602966273
0.10945699117318547   -0.0016742760907453337   -0.007487898602966273
0.10945699117318547   -0.0016742760907453337   -0.007487898602966273
0.10945699117318547   -0.0016742760907453337   -0.007487898602966273
0.07127884457730121   -0.002867375781959716   -0.006665477025086527
0.07127884457730121   -0.002867375781959716   -0.006665477025086527
0.07127884457730121   -0.002867375781959716   -0.006665477025086527
0.07127884457730121   -0.002867375781959716   -0.006665477025086527
0.11553987550407295   0.013515589038036695   0.00773665792268821
0.11553987550407295   0.013515589038036695   0.00773665792268821
0.11553987550407295   0.013515589038036695   0.00773665792268821
0.11553987550407295   0.013515589038036695   0.00773665792268821
0.04176107235008824   -0.015126648742042045   -0.007053843036352594
0.04176107235008824   -0.015126648742042045   -0.007053843036352594
0.04176107235008824   -0.015126648742042045   -0.007053843036352594
0.04176107235008824   -0.015126648742042045   -0.007053843036352594
0.05051514633904988   0.001627956221359637   0.0052114666759662046
0.05051514633904988   0.001627956221359637   0.0052114666759662046
0.05051514633904988   0.001627956221359637   0.0052114666759662046
0.05051514633904988   0.001627956221359637   0.0052114666759662046
0.11542598561029423   0.0006021860556816791   -0.009331636950622274
0.11542598561029423   0.0006021860556816791   -0.009331636950622274
0.11542598561029423   0.0006021860556816791   -0.009331636950622274
0.11542598561029423   0.0006021860556816791   -0.009331636950622274
0.07760979578265056   -0.0004358107111855532   -0.0040989824689162515
0.07760979578265056   -0.0004358107111855532   -0.0040989824689162515
0.07760979578265056   -0.0004358107111855532   -0.0040989824689162515
0.07760979578265056   -0.0004358107111855532   -0.0040989824689162515
0.12155140302265247   0.015977034546880542   0.0059206016199681594
0.12155140302265247   0.015977034546880542   0.0059206016199681594
0.12155140302265247   0.015977034546880542   0.0059206016199681594
0.12155140302265247   0.015977034546880542   0.0059206016199681594
0.04485127312147272   -0.013285348075058387   -0.008194595115501102
0.04485127312147272   -0.013285348075058387   -0.008194595115501102
0.04485127312147272   -0.013285348075058387   -0.008194595115501102
0.04485127312147272   -0.013285348075058387   -0.008194595115501102
0.053638824589128165   0.006131218695598015   0.004515576469017146
0.053638824589128165   0.006131218695598015   0.004515576469017146
0.053638824589128165   0.006131218695598015   0.004515576469017146
0.053638824589128165   0.006131218695598015   0.004515576469017146
0.12331444031796063   0.006526225511027928   -0.01003335935258163
0.12331444031796063   0.006526225511027928   -0.01003335935258163
0.12331444031796063   0.006526225511027928   -0.01003335935258163
0.12331444031796063   0.006526225511027928   -0.01003335935258163
0.08125926774749775   0.0025720443122064385   -0.0019367375206631372
0.08125926774749775   0.0025720443122064385   -0.0019367375206631372
0.08125926774749775   0.0025720443122064385   -0.0019367375206631372
0.08125926774749775   0.0025720443122064385   -0.0019367375206631372
0.04615392857638177   0.005665446163458008   0.007325171221835746
0.04615392857638177   0.005665446163458008   0.007325171221835746
0.04615392857638177   0.005665446163458008   0.007325171221835746
0.04615392857638177   0.005665446163458008   0.007325171221835746
-0.02351324791106512   -0.015919670287866276   -0.003095378804145335
-0.02351324791106512   -0.015919670287866276   -0.003095378804145335
-0.02351324791106512   -0.015919670287866276   -0.003095378804145335
-0.02351324791106512   -0.015919670287866276   -0.003095378804145335
-0.01786487112845978   -0.004911856816817484   0.0021229446662336185
-0.01786487112845978   -0.004911856816817484   0.0021229446662336185
-0.01786487112845978   -0.004911856816817484   0.0021229446662336185
-0.01786487112845978   -0.004911856816817484   0.0021229446662336185
0.04619536629983247   0.0008200413535293279   -0.0008290633832027873
0.04619536629983247   0.0008200413535293279   -0.0008290633832027873
0.04619536629983247   0.0008200413535293279   -0.0008290633832027873
0.04619536629983247   0.0008200413535293279   -0.0008290633832027873
0.012128913781924563   -0.0031641714314244547   -0.0027648824020793028
0.012128913781924563   -0.0031641714314244547   -0.0027648824020793028
0.012128913781924563   -0.0031641714314244547   -0.0027648824020793028
0.012128913781924563   -0.0031641714314244547   -0.0027648824020793028
0.049391127072939085   0.009423925214489572   0.006545856621370032
0.049391127072939085   0.009423925214489572   0.006545856621370032
0.049391127072939085   0.009423925214489572   0.006545856621370032
0.049391127072939085   0.009423925214489572   0.006545856621370032
-0.02077067458493974   -0.013225783361151074   -0.004092146071832585
-0.02077067458493974   -0.013225783361151074   -0.004092146071832585
-0.02077067458493974   -0.013225783361151074   -0.004092146071832585
-0.02077067458493974   -0.013225783361151074   -0.004092146071832585
-0.014968865905788605   -0.0010901920353878017   0.0013186135437429532
-0.014968865905788605   -0.0010901920353878017   0.0013186135437429532
-0.014968865905788605   -0.0010901920353878017   0.0013186135437429532
-0.014968865905788605   -0.0010901920353878017   0.0013186135437429532
0.04966873883858853   0.0042119711543864196   -0.0016045857593668434
0.04966873883858853   0.0042119711543864196   -0.0016045857593668434
0.04966873883858853   0.0042119711543864196   -0.0016045857593668434
0.04966873883858853   0.0042119711543864196   -0.0016045857593668434
0.014901081655533981   -0.00016492741328623384   -0.0010886768538018456
0.014901081655533981   -0.00016492741328623384   -0.0010886768538018456
0.014901081655533981   -0.00016492741328623384   -0.0010886768538018456
0.014901081655533981   -0.00016492741328623384   -0.0010886768538018456
0.05299735369095336   0.013407850922150539   0.005842608734692689
0.05299735369095336   0.013407850922150539   0.005842608734692689
0.05299735369095336   0.013407850922150539   0.005842608734692689
0.05299735369095336   0.013407850922150539   0.005842608734692689
-0.0180098096468176   -0.009998400691814891   -0.004977896504974942
-0.0180098096468176   -0.009998400691814891   -0.004977896504974942
-0.0180098096468176   -0.009998400691814891   -0.004977896504974942
-0.0180098096468176   -0.009998400691814891   -0.004977896504974942
-0.012097379395063699   0.00339431562041685   0.0005232935060039638
-0.012097379395063699   0.00339431562041685   0.0005232935060039638
-0.012097379395063699   0.00339431562041685   0.0005232935060039638
-0.012097379395063699   0.00339431562041685   0.0005232935060039638
0.05270828741520264   0.008300193280609148   -0.00230608398562161
0.05270828741520264   0.008300193280609148   -0.00230608398562161
0.05270828741520264   0.008300193280609148   -0.00230608398562161
0.05270828741520264   0.008300193280609148   -0.00230608398562161
0.018444782699309072   0.003561087798233247   0.0008830743976606974
0.018444782699309072   0.003561087798233247   0.0008830743976606974
0.018444782699309072   0.003561087798233247   0.0008830743976606974
0.018444782699309072   0.003561087798233247   0.0008830743976606974
-0.018809213467657293   0.0013238963027249282   0.003181226822302598
-0.018809213467657293   0.0013238963027249282   0.003181226822302598
-0.018809213467657293   0.0013238963027249282   0.003181226822302598
-0.018809213467657293   0.0013238963027249282   0.003181226822302598
-0.08479327592303633   -0.014184558919580809   -0.0004905847037446493
-0.08479327592303633   -0.014184558919580809   -0.0004905847037446493
-0.08479327592303633   -0.014184558919580809   -0.0004905847037446493
-0.08479327592303633   -0.014184558919580809   -0.0004905847037446493
-0.08141563811978039   -0.008719630242900298   -0.0019650039776831284
-0.08141563811978039   -0.008719630242900298   -0.0019650039776831284
-0.08141563811978039   -0.008719630242900298   -0.0019650039776831284
-0.08141563811978039   -0.008719630242900298   -0.0019650039776831284
-0.016359929637374027   0.0026804803305656207   0.002055314974279263
-0.016359929637374027   0.0026804803305656207   0.002055314974279263
-0.016359929637374027   0.0026804803305656207   0.002055314974279263
-0.016359929637374027   0.0026804803305656207   0.002055314974279263
-0.050425910219373024   -0.004294662706371929   -0.001743298185961277
-0.050425910219373024   -0.004294662706371929   -0.001743298185961277
-0.050425910219373024   -0.004294662706371929   -0.001743298185961277
-0.050425910219373024   -0.004294662706371929   -0.001743298185961277
-0.015761508745778162   0.005291480316668014   0.002436419446156205
-0.015761508745778162   0.005291480316668014   0.002436419446156205
-0.015761508745778162   0.005291480316668014   0.002436419446156205
-0.015761508745778162   0.005291480316668014   0.002436419446156205
-0.08180380297032744   -0.01112037418795387   -0.0015050842853647913
-0.08180380297032744   -0.01112037418795387   -0.0015050842853647913
-0.08180380297032744   -0.01112037418795387   -0.0015050842853647913
-0.08180380297032744   -0.01112037418795387   -0.0015050842853647913
-0.07821298070054956   -0.004525802470310789   -0.0026480766742155003
-0.07821298070054956   -0.004525802470310789   -0.0026480766742155003
-0.07821298070054956   -0.004525802470310789   -0.0026480766742155003
-0.07821298070054956   -0.004525802470310789   -0.0026480766742155003
-0.013547461167902277   0.006114826594985126   0.0012206186028021469
-0.013547461167902277   0.006114826594985126   0.0012206186028021469
-0.013547461167902277   0.006114826594985126   0.0012206186028021469
-0.013547461167902277   0.006114826594985126   0.0012206186028021469
-0.047187215763933865   -0.0007931850663267792   -1.6802892976489417e-05
-0.047187215763933865   -0.0007931850663267792   -1.6802892976489417e-05
-0.047187215763933865   -0.0007931850663267792   -1.6802892976489417e-05
-0.047187215763933865   -0.0007931850663267792   -1.6802892976489417e-05
-0.012818857101184269   0.009398608908900694   0.0015798566224766186
-0.012818857101184269   0.009398608908900694   0.0015798566224766186
-0.012818857101184269   0.009398608908900694   0.0015798566224766186
-0.012818857101184269   0.009398608908900694   0.0015798566224766186
-0.07874975792794961   -0.0076177579449084026   -0.0022400073366181605
-0.07874975792794961   -0.0076177579449084026   -0.0022400073366181605
-0.07874975792794961   -0.0076177579449084026   -0.0022400073366181605
-0.07874975792794961   -0.0076177579449084026   -0.0022400073366181605
-0.07522499858629542   -0.0003313093176907332   -0.003444955941989467
-0.07522499858629542   -0.0003313093176907332   -0.003444955941989467
-0.07522499858629542   -0.0003313093176907332   -0.003444955941989467
-0.07522499858629542   -0.0003313093176907332   -0.003444955941989467
-0.010885848548657602   0.009607239587859796   0.00036802377059199547
-0.010885848548657602   0.009607239587859796   0.00036802377059199547
-0.010885848548657602   0.009607239587859796   0.00036802377059199547
-0.010885848548657602   0.009607239587859796   0.00036802377059199547
-0.044225659910037095   0.002698688773827512   0.001619171356606038
-0.044225659910037095   0.002698688773827512   0.001619171356606038
-0.044225659910037095   0.002698688773827512   0.001619171356606038
-0.044225659910037095   0.002698688773827512   0.001619171356606038
-0.08266445435926958   -0.0029668288562418963   -0.0010642069482492875
-0.08266445435926958   -0.0029668288562418963   -0.0010642069482492875
-0.08266445435926958   -0.0029668288562418963   -0.0010642069482492875
-0.08266445435926958   -0.0029668288562418963   -0.0010642069482492875
-0.14525889439933368   -0.011723897971910039   0.002423160124225155
-0.14525889439933368   -0.011723897971910039   0.002423160124225155
-0.14525889439933368   -0.011723897971910039   0.002423160124225155
-0.14525889439933368   -0.011723897971910039   0.002423160124225155
-0.1439137277761045   -0.012429081296098963   -0.005863314178887622
-0.1439137277761045   -0.012429081296098963   -0.005863314178887622
-0.1439137277761045   -0.012429081296098963   -0.005863314178887622
-0.1439137277761045   -0.012429081296098963   -0.005863314178887622
-0.0771228969893212   0.005748890470665471   0.005030180961047631
-0.0771228969893212   0.005748890470665471   0.005030180961047631
-0.0771228969893212   0.005748890470665471   0.005030180961047631
-0.0771228969893212   0.005748890470665471   0.005030180961047631
-0.11146562027178879   -0.0047202247682969906   -0.000625462691202663
-0.11146562027178879   -0.0047202247682969906   -0.000625462691202663
-0.11146562027178879   -0.0047202247682969906   -0.000625462691202663
-0.11146562027178879   -0.0047202247682969906   -0.000625462691202663
-0.07935801056883356   0.0013128547399678982   -0.0017093512058165622
-0.07935801056883356   0.0013128547399678982   -0.0017093512058165622
-0.07935801056883356   0.0013128547399678982   -0.0017093512058165622
-0.07935801056883356   0.0013128547399678982   -0.0017093512058165622
-0.14161958969803679   -0.007934021066847121   0.001112315982200249
-0.14161958969803679   -0.007934021066847121   0.001112315982200249
-0.14161958969803679   -0.007934021066847121   0.001112315982200249
-0.14161958969803679   -0.007934021066847121   0.001112315982200249
-0.1396701366025993   -0.008357053949003261   -0.0064883558272737785
-0.1396701366025993   -0.008357053949003261   -0.0064883558272737785
-0.1396701366025993   -0.008357053949003261   -0.0064883558272737785
-0.1396701366025993   -0.008357053949003261   -0.0064883558272737785
-0.07417021517160342   0.008995200323528456   0.004044748176676573
-0.07417021517160342   0.008995200323528456   0.004044748176676573
-0.07417021517160342   0.008995200323528456   0.004044748176676573
-0.07417021517160342   0.008995200323528456   0.004044748176676573
-0.10708662743406382   -0.0008647682932113841   0.0011276712687603744
-0.10708662743406382   -0.0008647682932113841   0.0011276712687603744
-0.10708662743406382   -0.0008647682932113841   0.0011276712687603744
-0.10708662743406382   -0.0008647682932113841   0.0011276712687603744
-0.076269963697444   0.005107410809735778   -0.0025662049387338813
-0.076269963697444   0.005107410809735778   -0.0025662049387338813
-0.076269963697444   0.005107410809735778   -0.0025662049387338813
-0.076269963697444   0.005107410809735778   -0.0025662049387338813
-0.13740979878902435   -0.004308675147476248   0.0007649544390739933
-0.13740979878902435   -0.004308675147476248   0.0007649544390739933
-0.13740979878902435   -0.004308675147476248   0.0007649544390739933
-0.13740979878902435   -0.004308675147476248   0.0007649544390739933
-0.13588178832142825   -0.003982340542054201   -0.0068381660294469255
-0.13588178832142825   -0.003982340542054201   -0.0068381660294469255
-0.13588178832142825   -0.003982340542054201   -0.0068381660294469255
-0.13588178832142825   -0.003982340542054201   -0.0068381660294469255
-0.07131133634312777   0.012517347822359151   0.003274698133799623
-0.07131133634312777   0.012517347822359151   0.003274698133799623
-0.07131133634312777   0.012517347822359151   0.003274698133799623
-0.07131133634312777   0.012517347822359151   0.003274698133799623
-0.10429618332775228   0.0023942982967619444   0.0026266341259391854
-0.10429618332775228   0.0023942982967619444   0.0026266341259391854
-0.10429618332775228   0.0023942982967619444   0.0026266341259391854
-0.10429618332775228   0.0023942982967619444   0.0026266341259391854
-0.14567110298403105   -0.006360673174932628   -0.005001107596239184
-0.14567110298403105   -0.006360673174932628   -0.005001107596239184
-0.14567110298403105   -0.006360673174932628   -0.005001107596239184
-0.14567110298403105   -0.006360673174932628   -0.005001107596239184
-0.2087844394343391   -0.007695729536889316   0.00859675336005993
-0.2087844394343391   -0.007695729536889316   0.00859675336005993
-0.2087844394343391   -0.007695729536889316   0.00859675336005993
-0.2087844394343391   -0.007695729536889316   0.00859675336005993
-0.20552951377501105   -0.014756366047071461   -0.006815771011075964
-0.20552951377501105   -0.014756366047071461   -0.006815771011075964
-0.20552951377501105   -0.014756366047071461   -0.006815771011075964
-0.20552951377501105   -0.014756366047071461   -0.006815771011075964
-0.13623137609729966   0.011288266283353155   0.008831096635684496
-0.13623137609729966   0.011288266283353155   0.008831096635684496
-0.13623137609729966   0.011288266283353155   0.008831096635684496
-0.13623137609729966   0.011288266283353155   0.008831096635684496
-0.16629106979809252   -0.0020385937307624974   0.0021768541758073016
-0.16629106979809252   -0.0020385937307624974   0.0021768541758073016
-0.16629106979809252   -0.0020385937307624974   0.0021768541758073016
-0.16629106979809252   -0.0020385937307624974   0.0021768541758073016
-0.14171978375867653   -0.0017465007659648278   -0.005576174621881151
-0.14171978375867653   -0.0017465007659648278   -0.005576174621881151
-0.14171978375867653   -0.0017465007659648278   -0.005576174621881151
-0.14171978375867653   -0.0017465007659648278   -0.005576174621881151
-0.19991026890485092   -0.0015907617889684492   0.008114849081620069
-0.19991026890485092   -0.0015907617889684492   0.008114849081620069
-0.19991026890485092   -0.0015907617889684492   0.008114849081620069
-0.19991026890485092   -0.0015907617889684492   0.008114849081620069
-0.19891209236250534   -0.012254926298295048   -0.008062184285471485
-0.19891209236250534   -0.012254926298295048   -0.008062184285471485
-0.19891209236250534   -0.012254926298295048   -0.008062184285471485
-0.19891209236250534   -0.012254926298295048   -0.008062184285471485
-0.13272746823284956   0.012825322986553835   0.007042609085917886
-0.13272746823284956   0.012825322986553835   0.007042609085917886
-0.13272746823284956   0.012825322986553835   0.007042609085917886
-0.13272746823284956   0.012825322986553835   0.007042609085917886
-0.16324672997571993   0.0007082502849498767   0.0035705979192325477
-0.16324672997571993   0.0007082502849498767   0.0035705979192325477
-0.16324672997571993   0.0007082502849498767   0.0035705979192325477
-0.16324672997571993   0.0007082502849498767   0.0035705979192325477
-0.13792489717078482   0.0002759225614187011   -0.006395135178623277
-0.13792489717078482   0.0002759225614187011   -0.006395135178623277
-0.13792489717078482   0.0002759225614187011   -0.006395135178623277
-0.13792489717078482   0.0002759225614187011   -0.006395135178623277
-0.19357576034107551   0.000433377210335352   0.005931172313043754
-0.19357576034107551   0.000433377210335352   0.005931172313043754
-0.19357576034107551   0.000433377210335352   0.005931172313043754
-0.19357576034107551   0.000433377210335352   0.005931172313043754
-0.19156544294807307   -0.009352097748810267   -0.009242377567232847
-0.19156544294807307   -0.009352097748810267   -0.009242377567232847
-0.19156544294807307   -0.009352097748810267   -0.009242377567232847
-0.19156544294807307   -0.009352097748810267   -0.009242377567232847
-0.1297028670160289   0.014088353443606032   0.005985746511889538
-0.1297028670160289   0.014088353443606032   0.005985746511889538
-0.1297028670160289   0.014088353443606032   0.005985746511889538
-0.1297028670160289   0.014088353443606032   0.005985746511889538
-0.15566857041008728   0.002946142065405666   0.005783833738738149
-0.15566857041008728   0.002946142065405666   0.005783833738738149
-0.15566857041008728   0.002946142065405666   0.005783833738738149
-0.15566857041008728   0.002946142065405666   0.005783833738738149
0.17602880884468894   0.01332084088557092   0.008825488326597578
0.17602880884468894   0.01332084088557092   0.008825488326597578
0.17602880884468894   0.01332084088557092   0.008825488326597578
0.17602880884468894   0.01332084088557092   0.008825488326597578
0.07681675765540055   -0.019787528466335087   -0.004269935551790099
0.07681675765540055   -0.019787528466335087   -0.004269935551790099
0.07681675765540055   -0.019787528466335087   -0.004269935551790099
0.07681675765540055   -0.019787528466335087   -0.004269935551790099
0.08494548769531016   -0.0038829234798835738   0.005980367929210168
0.08494548769531016   -0.0038829234798835738   0.005980367929210168
0.08494548769531016   -0.0038829234798835738   0.005980367929210168
0.08494548769531016   -0.0038829234798835738   0.005980367929210168
0.17756580207726516   0.0006233391692723675   -0.006544085678443157
0.17756580207726516   0.0006233391692723675   -0.006544085678443157
0.17756580207726516   0.0006233391692723675   -0.006544085678443157
0.17756580207726516   0.0006233391692723675   -0.006544085678443157
0.12133596692094965   -0.0032966465582801967   -0.009151371021646062
0.12133596692094965   -0.0032966465582801967   -0.009151371021646062
0.12133596692094965   -0.0032966465582801967   -0.009151371021646062
0.12133596692094965   -0.0032966465582801967   -0.009151371021646062
0.18344289989660936   0.016094528243369908   0.007370214344178395
0.18344289989660936   0.016094528243369908   0.007370214344178395
0.18344289989660936   0.016094528243369908   0.007370214344178395
0.18344289989660936   0.016094528243369908   0.007370214344178395
0.07964146746501952   -0.018781034964927702   -0.005641621737197879
0.07964146746501952   -0.018781034964927702   -0.005641621737197879
0.07964146746501952   -0.018781034964927702   -0.005641621737197879
0.07964146746501952   -0.018781034964927702   -0.005641621737197879
0.08796753268694268   -0.0020631472739346852   0.0048001493246397665
0.08796753268694268   -0.0020631472739346852   0.0048001493246397665
0.08796753268694268   -0.0020631472739346852   0.0048001493246397665
0.08796753268694268   -0.0020631472739346852   0.0048001493246397665
0.18308120728003915   0.002614431671668513   -0.008076415787257296
0.18308120728003915   0.002614431671668513   -0.008076415787257296
0.18308120728003915   0.002614431671668513   -0.008076415787257296
0.18308120728003915   0.002614431671668513   -0.008076415787257296
0.12841980371759515   -0.001203009764286285   -0.0062843366432222166
0.12841980371759515   -0.001203009764286285   -0.0062843366432222166
0.12841980371759515   -0.001203009764286285   -0.0062843366432222166
0.12841980371759515   -0.001203009764286285   -0.0062843366432222166
0.1889100667272214   0.018251493577714682   0.00543081954260788
0.1889100667272214   0.018251493577714682   0.00543081954260788
0.1889100667272214   0.018251493577714682   0.00543081954260788
0.1889100667272214   0.018251493577714682   0.00543081954260788
0.08263132035583634   -0.017207562063906213   -0.006736497540920443
0.08263132035583634   -0.017207562063906213   -0.006736497540920443
0.08263132035583634   -0.017207562063906213   -0.006736497540920443
0.08263132035583634   -0.017207562063906213   -0.006736497540920443
0.0907262374459865   0.002857031541700101   0.004208873672753352
0.0907262374459865   0.002857031541700101   0.004208873672753352
0.0907262374459865   0.002857031541700101   0.004208873672753352
0.0907262374459865   0.002857031541700101   0.004208873672753352
0.18994274997488508   0.008472634369687131   -0.008422518648263662
0.18994274997488508   0.008472634369687131   -0.008422518648263662
0.18994274997488508   0.008472634369687131   -0.008422518648263662
0.18994274997488508   0.008472634369687131   -0.008422518648263662
0.13075813746089185   0.0016751077835746933   -0.0043542815760532535
0.13075813746089185   0.0016751077835746933   -0.0043542815760532535
0.13075813746089185   0.0016751077835746933   -0.0043542815760532535
0.13075813746089185   0.0016751077835746933   -0.0043542815760532535
0.08491191999372359   0.008056757157183316   0.008361590516306234
0.08491191999372359   0.008056757157183316   0.008361590516306234
0.08491191999372359   0.008056757157183316   0.008361590516306234
0.08491191999372359   0.008056757157183316   0.008361590516306234
-0.01215808742316232   -0.023999250665364846   -0.002488280073753301
-0.01215808742316232   -0.023999250665364846   -0.002488280073753301
-0.01215808742316232   -0.023999250665364846   -0.002488280073753301
-0.01215808742316232   -0.023999250665364846   -0.002488280073753301
-0.0053260689664096274   -0.008930452931882011   0.0019399004559826163
-0.0053260689664096274   -0.008930452931882011   0.0019399004559826163
-0.0053260689664096274   -0.008930452931882011   0.0019399004559826163
-0.0053260689664096274   -0.008930452931882011   0.0019399004559826163
0.08403553478126782   -0.002986371406279463   0.0005340512853943841
0.08403553478126782   -0.002986371406279463   0.0005340512853943841
0.08403553478126782   -0.002986371406279463   0.0005340512853943841
0.08403553478126782   -0.002986371406279463   0.0005340512853943841
0.03683099958567827   -0.006270327922994765   -0.00418169532846936
0.03683099958567827   -0.006270327922994765   -0.00418169532846936
0.03683099958567827   -0.006270327922994765   -0.00418169532846936
0.03683099958567827   -0.006270327922994765   -0.00418169532846936
0.08818612450945014   0.01087010948008235   0.007430519039944666
0.08818612450945014   0.01087010948008235   0.007430519039944666
0.08818612450945014   0.01087010948008235   0.007430519039944666
0.08818612450945014   0.01087010948008235   0.007430519039944666
-0.00915732595604683   -0.022467601079698623   -0.003679236344386781
-0.00915732595604683   -0.022467601079698623   -0.003679236344386781
-0.00915732595604683   -0.022467601079698623   -0.003679236344386781
-0.00915732595604683   -0.022467601079698623   -0.003679236344386781
-0.0022535400579377224   -0.005625291637379502   0.0011313791783221323
-0.0022535400579377224   -0.005625291637379502   0.0011313791783221323
-0.0022535400579377224   -0.005625291637379502   0.0011313791783221323
-0.0022535400579377224   -0.005625291637379502   0.0011313791783221323
0.08722946925956454   -0.0004879172507352286   -0.0004653978354503792
0.08722946925956454   -0.0004879172507352286   -0.0004653978354503792
0.08722946925956454   -0.0004879172507352286   -0.0004653978354503792
0.08722946925956454   -0.0004879172507352286   -0.0004653978354503792
0.03943668916440783   -0.004226286890973345   -0.0026769502769377063
0.03943668916440783   -0.004226286890973345   -0.0026769502769377063
0.03943668916440783   -0.004226286890973345   -0.0026769502769377063
0.03943668916440783   -0.004226286890973345   -0.0026769502769377063
0.09160330264471243   0.014252476196162784   0.0066633756433910766
0.09160330264471243   0.014252476196162784   0.0066633756433910766
0.09160330264471243   0.014252476196162784   0.0066633756433910766
0.09160330264471243   0.014252476196162784   0.0066633756433910766
-0.006422145852108184   -0.020160457493300084   -0.005176483936609594
-0.006422145852108184   -0.020160457493300084   -0.005176483936609594
-0.006422145852108184   -0.020160457493300084   -0.005176483936609594
-0.006422145852108184   -0.020160457493300084   -0.005176483936609594
0.00016838580233967968   -0.0016823809377033393   0.00032094653567892094
0.00016838580233967968   -0.0016823809377033393   0.00032094653567892094
0.00016838580233967968   -0.0016823809377033393   0.00032094653567892094
0.00016838580233967968   -0.0016823809377033393   0.00032094653567892094
0.08959158598309967   0.002746316585587369   -0.0013536686855690596
0.08959158598309967   0.002746316585587369   -0.0013536686855690596
0.08959158598309967   0.002746316585587369   -0.0013536686855690596
0.08959158598309967   0.002746316585587369   -0.0013536686855690596
0.04280763646879023   -0.0011401660079959613   -0.0010161269757063703
0.04280763646879023   -0.0011401660079959613   -0.0010161269757063703
0.04280763646879023   -0.0011401660079959613   -0.0010161269757063703
0.04280763646879023   -0.0011401660079959613   -0.0010161269757063703
-0.005494140849982896   0.0026165212176121654   0.0042156809091667986
-0.005494140849982896   0.0026165212176121654   0.0042156809091667986
-0.005494140849982896   0.0026165212176121654   0.0042156809091667986
-0.005494140849982896   0.0026165212176121654   0.0042156809091667986
-0.10037102469087403   -0.029722582955687776   -0.0018934038945726994
-0.10037102469087403   -0.029722582955687776   -0.0018934038945726994
-0.10037102469087403   -0.029722582955687776   -0.0018934038945726994
-0.10037102469087403   -0.029722582955687776   -0.0018934038945726994
-0.09366894177938061   -0.01362306907386564   -0.0021534199058704726
-0.09366894177938061   -0.01362306907386564   -0.0021534199058704726
-0.09366894177938061   -0.01362306907386564   -0.0021534199058704726
-0.09366894177938061   -0.01362306907386564   -0.0021534199058704726
-0.005224923333125098   -0.008485855989003296   0.0020010316795265486
-0.005224923333125098   -0.008485855989003296   0.0020010316795265486
-0.005224923333125098   -0.008485855989003296   0.0020010316795265486
-0.005224923333125098   -0.008485855989003296   0.0020010316795265486
-0.05138755300735946   -0.011637769741414051   -0.003686181685707212
-0.05138755300735946   -0.011637769741414051   -0.003686181685707212
-0.05138755300735946   -0.011637769741414051   -0.003686181685707212
-0.05138755300735946   -0.011637769741414051   -0.003686181685707212
-0.0020731347512084656   0.005818000027468859   0.00345611857263756
-0.0020731347512084656   0.005818000027468859   0.00345611857263756
-0.0020731347512084656   0.005818000027468859   0.00345611857263756
-0.0020731347512084656   0.005818000027468859   0.00345611857263756
-0.09658348250455134   -0.02768967723359189   -0.0026595153719978643
-0.09658348250455134   -0.02768967723359189   -0.0026595153719978643
-0.09658348250455134   -0.02768967723359189   -0.0026595153719978643
-0.09658348250455134   -0.02768967723359189   -0.0026595153719978643
-0.08984234825264695   -0.009964602336845626   -0.002881638971606948
-0.08984234825264695   -0.009964602336845626   -0.002881638971606948
-0.08984234825264695   -0.009964602336845626   -0.002881638971606948
-0.08984234825264695   -0.009964602336845626   -0.002881638971606948
-0.0023779035711301716   -0.006071581977963242   0.000955851952943627
-0.0023779035711301716   -0.006071581977963242   0.000955851952943627
-0.0023779035711301716   -0.006071581977963242   0.000955851952943627
-0.0023779035711301716   -0.006071581977963242   0.000955851952943627
-0.04767252290659233   -0.008982046374841719   -0.001984984850096739
-0.04767252290659233   -0.008982046374841719   -0.001984984850096739
-0.04767252290659233   -0.008982046374841719   -0.001984984850096739
-0.04767252290659233   -0.008982046374841719   -0.001984984850096739
0.001051364001736614   0.009330491230179448   0.002700116609134865
0.001051364001736614   0.009330491230179448   0.002700116609134865
0.001051364001736614   0.009330491230179448   0.002700116609134865
0.001051364001736614   0.009330491230179448   0.002700116609134865
-0.09323472573486918   -0.02532978545434232   -0.004478343265220435
-0.09323472573486918   -0.02532978545434232   -0.004478343265220435
-0.09323472573486918   -0.02532978545434232   -0.004478343265220435
-0.09323472573486918   -0.02532978545434232   -0.004478343265220435
-0.08712941409114743   -0.006451620490428956   -0.0036827110783619306
-0.08712941409114743   -0.006451620490428956   -0.0036827110783619306
-0.08712941409114743   -0.006451620490428956   -0.0036827110783619306
-0.08712941409114743   -0.006451620490428956   -0.0036827110783619306
-0.0005313122376462855   -0.004078082405747539   -0.0007818421962067048
-0.0005313122376462855   -0.004078082405747539   -0.0007818421962067048
-0.0005313122376462855   -0.004078082405747539   -0.0007818421962067048
-0.0005313122376462855   -0.004078082405747539   -0.0007818421962067048
-0.04495738936662703   -0.006471785266443551   -0.0008735037572642228
-0.04495738936662703   -0.006471785266443551   -0.0008735037572642228
-0.04495738936662703   -0.006471785266443551   -0.0008735037572642228
-0.04495738936662703   -0.006471785266443551   -0.0008735037572642228
-0.09445641059316527   -0.00204718042321949   4.264061501824817e-06
-0.09445641059316527   -0.00204718042321949   4.264061501824817e-06
-0.09445641059316527   -0.00204718042321949   4.264061501824817e-06
-0.09445641059316527   -0.00204718042321949   4.264061501824817e-06
-0.1893628177824019   -0.03195515002130115   -0.0014183749959577753
-0.1893628177824019   -0.03195515002130115   -0.0014183749959577753
-0.1893628177824019   -0.03195515002130115   -0.0014183749959577753
-0.1893628177824019   -0.03195515002130115   -0.0014183749959577753
-0.18237884897285267   -0.01754119412236426   -0.006164290020569589
-0.18237884897285267   -0.01754119412236426   -0.006164290020569589
-0.18237884897285267   -0.01754119412236426   -0.006164290020569589
-0.18237884897285267   -0.01754119412236426   -0.006164290020569589
-0.09147925954459629   -0.008881286276363257   0.004053208470547751
-0.09147925954459629   -0.008881286276363257   0.004053208470547751
-0.09147925954459629   -0.008881286276363257   0.004053208470547751
-0.09147925954459629   -0.008881286276363257   0.004053208470547751
-0.13825475216769084   -0.014200373788200445   -0.0025706697517415755
-0.13825475216769084   -0.014200373788200445   -0.0025706697517415755
-0.13825475216769084   -0.014200373788200445   -0.0025706697517415755
-0.13825475216769084   -0.014200373788200445   -0.0025706697517415755
-0.09022427530864474   0.0020099560744830623   -0.0005631127005408677
-0.09022427530864474   0.0020099560744830623   -0.0005631127005408677
-0.09022427530864474   0.0020099560744830623   -0.0005631127005408677
-0.09022427530864474   0.0020099560744830623   -0.0005631127005408677
-0.1836447835776232   -0.028443386842030637   -0.001591770324754574
-0.1836447835776232   -0.028443386842030637   -0.001591770324754574
-0.1836447835776232   -0.028443386842030637   -0.001591770324754574
-0.1836447835776232   -0.028443386842030637   -0.001591770324754574
-0.17684942520993452   -0.013769750730036518   -0.0071007970528171776
-0.17684942520993452   -0.013769750730036518   -0.0071007970528171776
-0.17684942520993452   -0.013769750730036518   -0.0071007970528171776
-0.17684942520993452   -0.013769750730036518   -0.0071007970528171776
-0.08780731509521936   -0.006087274231583778   0.0034161987102701553
-0.08780731509521936   -0.006087274231583778   0.0034161987102701553
-0.08780731509521936   -0.006087274231583778   0.0034161987102701553
-0.08780731509521936   -0.006087274231583778   0.0034161987102701553
-0.13247447547131136   -0.010577768068231241   -0.0007098039323446903
-0.13247447547131136   -0.010577768068231241   -0.0007098039323446903
-0.13247447547131136   -0.010577768068231241   -0.0007098039323446903
-0.13247447547131136   -0.010577768068231241   -0.0007098039323446903
-0.08639961400093284   0.005511547426958991   -0.0011441174768413278
-0.08639961400093284   0.005511547426958991   -0.0011441174768413278
-0.08639961400093284   0.005511547426958991   -0.0011441174768413278
-0.08639961400093284   0.005511547426958991   -0.0011441174768413278
-0.1784702244990858   -0.025581670583444044   -0.0033928736451647027
-0.1784702244990858   -0.025581670583444044   -0.0033928736451647027
-0.1784702244990858   -0.025581670583444044   -0.0033928736451647027
-0.1784702244990858   -0.025581670583444044   -0.0033928736451647027
-0.17246593080508982   -0.009838977170542103   -0.007352332368752272
-0.17246593080508982   -0.009838977170542103   -0.007352332368752272
-0.17246593080508982   -0.009838977170542103   -0.007352332368752272
-0.17246593080508982   -0.009838977170542103   -0.007352332368752272
-0.08571892217133943   -0.0043105387567533935   0.0012286667870033022
-0.08571892217133943   -0.0043105387567533935   0.0012286667870033022
-0.08571892217133943   -0.0043105387567533935   0.0012286667870033022
-0.08571892217133943   -0.0043105387567533935   0.0012286667870033022
-0.12955774130618206   -0.008389546222340834   -7.238948089729504e-05
-0.12955774130618206   -0.008389546222340834   -7.238948089729504e-05
-0.12955774130618206   -0.008389546222340834   -7.238948089729504e-05
-0.12955774130618206   -0.008389546222340834   -7.238948089729504e-05
-0.18460859023315532   -0.005416989852391446   -0.004185397418634504
-0.18460859023315532   -0.005416989852391446   -0.004185397418634504
-0.18460859023315532   -0.005416989852391446   -0.004185397418634504
-0.18460859023315532   -0.005416989852391446   -0.004185397418634504
-0.2785972886013909   -0.02253887845555301   0.009503448356330425
-0.2785972886013909   -0.02253887845555301   0.009503448356330425
-0.2785972886013909   -0.02253887845555301   0.009503448356330425
-0.2785972886013909   -0.02253887845555301   0.009503448356330425
-0.2702450914645221   -0.018449939942654182   -0.005846219127129742
-0.2702450914645221   -0.018449939942654182   -0.005846219127129742
-0.2702450914645221   -0.018449939942654182   -0.005846219127129742
-0.2702450914645221   -0.018449939942654182   -0.005846219127129742
-0.17475789568518807   0.005421369056368433   0.008977913239018809
-0.17475789568518807   0.005421369056368433   0.008977913239018809
-0.17475789568518807   0.005421369056368433   0.008977913239018809
-0.17475789568518807   0.005421369056368433   0.008977913239018809
-0.2167836742957512   -0.006795509492463388   0.0016059463228018083
-0.2167836742957512   -0.006795509492463388   0.0016059463228018083
-0.2167836742957512   -0.006795509492463388   0.0016059463228018083
-0.2167836742957512   -0.006795509492463388   0.0016059463228018083
-0.17854434674061384   0.00012738185933797858   -0.004660354841077184
-0.17854434674061384   0.00012738185933797858   -0.004660354841077184
-0.17854434674061384   0.00012738185933797858   -0.004660354841077184
-0.17854434674061384   0.00012738185933797858   -0.004660354841077184
-0.26585211788938246   -0.012549430225909486   0.010218139031823621
-0.26585211788938246   -0.012549430225909486   0.010218139031823621
-0.26585211788938246   -0.012549430225909486   0.010218139031823621
-0.26585211788938246   -0.012549430225909486   0.010218139031823621
-0.2612147231413416   -0.015673153847817693   -0.0069625201774477265
-0.2612147231413416   -0.015673153847817693   -0.0069625201774477265
-0.2612147231413416   -0.015673153847817693   -0.0069625201774477265
-0.2612147231413416   -0.015673153847817693   -0.0069625201774477265
-0.1693365934312538   0.008112555031353913   0.008581056079196129
-0.1693365934312538   0.008112555031353913   0.008581056079196129
-0.1693365934312538   0.008112555031353913   0.008581056079196129
-0.1693365934312538   0.008112555031353913   0.008581056079196129
-0.21195886179700324   -0.0027338029034938913   0.004474990675830541
-0.21195886179700324   -0.0027338029034938913   0.004474990675830541
-0.21195886179700324   -0.0027338029034938913   0.004474990675830541
-0.21195886179700324   -0.0027338029034938913   0.004474990675830541
-0.1732306440475388   0.0023006980102160263   -0.005077339981089573
-0.1732306440475388   0.0023006980102160263   -0.005077339981089573
-0.1732306440475388   0.0023006980102160263   -0.005077339981089573
-0.1732306440475388   0.0023006980102160263   -0.005077339981089573
-0.25716389462342637   -0.009704518925048491   0.0073229874893567005
-0.25716389462342637   -0.009704518925048491   0.0073229874893567005
-0.25716389462342637   -0.009704518925048491   0.0073229874893567005
-0.25716389462342637   -0.009704518925048491   0.0073229874893567005
-0.2518219331505455   -0.01322245481651943   -0.008449228654221201
-0.2518219331505455   -0.01322245481651943   -0.008449228654221201
-0.2518219331505455   -0.01322245481651943   -0.008449228654221201
-0.2518219331505455   -0.01322245481651943   -0.008449228654221201
-0.1655108839371387   0.011057163513789589   0.006526761286671547
-0.1655108839371387   0.011057163513789589   0.006526761286671547
-0.1655108839371387   0.011057163513789589   0.006526761286671547
-0.1655108839371387   0.011057163513789589   0.006526761286671547
-0.201574677513443   0.0006750325778290822   0.007515794851740039
-0.201574677513443   0.0006750325778290822   0.007515794851740039
-0.201574677513443   0.0006750325778290822   0.007515794851740039
-0.201574677513443   0.0006750325778290822   0.007515794851740039
0.2363839593024442   0.014582160999978437   0.008011310132733866
0.2363839593024442   0.014582160999978437   0.008011310132733866
0.2363839593024442   0.014582160999978437   0.008011310132733866
0.2363839593024442   0.014582160999978437   0.008011310132733866
0.11159946531956184   -0.020245181594049335   0.0012240531288288305
0.11159946531956184   -0.020245181594049335   0.0012240531288288305
0.11159946531956184   -0.020245181594049335   0.0012240531288288305
0.11159946531956184   -0.020245181594049335   0.0012240531288288305
0.1172535352043158   -0.008932616603517601   0.005988402330556353
0.1172535352043158   -0.008932616603517601   0.005988402330556353
0.1172535352043158   -0.008932616603517601   0.005988402330556353
0.1172535352043158   -0.008932616603517601   0.005988402330556353
0.23732220808966914   0.003127365834739354   -0.002261811104399542
0.23732220808966914   0.003127365834739354   -0.002261811104399542
0.23732220808966914   0.003127365834739354   -0.002261811104399542
0.23732220808966914   0.003127365834739354   -0.002261811104399542
0.16556004193882695   -0.004026802403313261   -0.010624443328938358
0.16556004193882695   -0.004026802403313261   -0.010624443328938358
0.16556004193882695   -0.004026802403313261   -0.010624443328938358
0.16556004193882695   -0.004026802403313261   -0.010624443328938358
0.24161106691286496   0.01600264920112064   0.006307199645198391
0.24161106691286496   0.01600264920112064   0.006307199645198391
0.24161106691286496   0.01600264920112064   0.006307199645198391
0.24161106691286496   0.01600264920112064   0.006307199645198391
0.1139559033916186   -0.02081667295940026   0.0013842996229529465
0.1139559033916186   -0.02081667295940026   0.0013842996229529465
0.1139559033916186   -0.02081667295940026   0.0013842996229529465
0.1139559033916186   -0.02081667295940026   0.0013842996229529465
0.11927185218831259   -0.007629191405351683   0.004514823919375939
0.11927185218831259   -0.007629191405351683   0.004514823919375939
0.11927185218831259   -0.007629191405351683   0.004514823919375939
0.11927185218831259   -0.007629191405351683   0.004514823919375939
0.24108911472978345   0.004575731567867995   -0.0011464395146663624
0.24108911472978345   0.004575731567867995   -0.0011464395146663624
0.24108911472978345   0.004575731567867995   -0.0011464395146663624
0.24108911472978345   0.004575731567867995   -0.0011464395146663624
0.17199504403473018   -0.0031031840107531364   -0.007368510612348148
0.17199504403473018   -0.0031031840107531364   -0.007368510612348148
0.17199504403473018   -0.0031031840107531364   -0.007368510612348148
0.17199504403473018   -0.0031031840107531364   -0.007368510612348148
0.24475580642569583   0.017430987304002075   0.004331763228761483
0.24475580642569583   0.017430987304002075   0.004331763228761483
0.24475580642569583   0.017430987304002075   0.004331763228761483
0.24475580642569583   0.017430987304002075   0.004331763228761483
0.1162935714920478   -0.01979603614183816   0.0017902651745385443
0.1162935714920478   -0.01979603614183816   0.0017902651745385443
0.1162935714920478   -0.01979603614183816   0.0017902651745385443
0.1162935714920478   -0.01979603614183816   0.0017902651745385443
0.1222997694156778   -0.0025455386205596973   0.004129596959717151
0.1222997694156778   -0.0025455386205596973   0.004129596959717151
0.1222997694156778   -0.0025455386205596973   0.004129596959717151
0.1222997694156778   -0.0025455386205596973   0.004129596959717151
0.2450952140286577   0.008100449921034834   -0.0006846316311147245
0.2450952140286577   0.008100449921034834   -0.0006846316311147245
0.2450952140286577   0.008100449921034834   -0.0006846316311147245
0.2450952140286577   0.008100449921034834   -0.0006846316311147245
0.17243906265416611   -0.0011983374484416179   -0.005659597776632955
0.17243906265416611   -0.0011983374484416179   -0.005659597776632955
0.17243906265416611   -0.0011983374484416179   -0.005659597776632955
0.17243906265416611   -0.0011983374484416179   -0.005659597776632955
0.1180191681930112   0.004291111377522749   0.008786274524503502
0.1180191681930112   0.004291111377522749   0.008786274524503502
0.1180191681930112   0.004291111377522749   0.008786274524503502
0.1180191681930112   0.004291111377522749   0.008786274524503502
0.003558831846983154   -0.03877062912525431   0.0034487547899497567
0.003558831846983154   -0.03877062912525431   0.0034487547899497567
0.003558831846983154   -0.03877062912525431   0.0034487547899497567
0.003558831846983154   -0.03877062912525431   0.0034487547899497567
0.010710918217233292   -0.017063573686130713   0.0034726564501726485
0.010710918217233292   -0.017063573686130713   0.0034726564501726485
0.010710918217233292   -0.017063573686130713   0.0034726564501726485
0.010710918217233292   -0.017063573686130713   0.0034726564501726485
0.11514001171489982   -0.01624419203895742   0.002732360318914811
0.11514001171489982   -0.01624419203895742   0.002732360318914811
0.11514001171489982   -0.01624419203895742   0.002732360318914811
0.11514001171489982   -0.01624419203895742   0.002732360318914811
0.05991222429129879   -0.016561018244921955   -0.006403319345751088
0.05991222429129879   -0.016561018244921955   -0.006403319345751088
0.05991222429129879   -0.016561018244921955   -0.006403319345751088
0.05991222429129879   -0.016561018244921955   -0.006403319345751088
0.12045986538300059   0.0056743098175661005   0.007413126802897097
0.12045986538300059   0.0056743098175661005   0.007413126802897097
0.12045986538300059   0.0056743098175661005   0.007413126802897097
0.12045986538300059   0.0056743098175661005   0.007413126802897097
0.0068011906220283025   -0.03757194946975933   0.004432394257776792
0.0068011906220283025   -0.03757194946975933   0.004432394257776792
0.0068011906220283025   -0.03757194946975933   0.004432394257776792
0.0068011906220283025   -0.03757194946975933   0.004432394257776792
0.01350951472847348   -0.014655518946012464   0.0024165482192545122
0.01350951472847348   -0.014655518946012464   0.0024165482192545122
0.01350951472847348   -0.014655518946012464   0.0024165482192545122
0.01350951472847348   -0.014655518946012464   0.0024165482192545122
0.11756937960541874   -0.014914216548364983   0.003287486147920033
0.11756937960541874   -0.014914216548364983   0.003287486147920033
0.11756937960541874   -0.014914216548364983   0.003287486147920033
0.11756937960541874   -0.014914216548364983   0.003287486147920033
0.062212008128478075   -0.015585410972789189   -0.0032100141926745757
0.062212008128478075   -0.015585410972789189   -0.0032100141926745757
0.062212008128478075   -0.015585410972789189   -0.0032100141926745757
0.062212008128478075   -0.015585410972789189   -0.0032100141926745757
0.12275470055754668   0.007975152873326459   0.006324721486868258
0.12275470055754668   0.007975152873326459   0.006324721486868258
0.12275470055754668   0.007975152873326459   0.006324721486868258
0.12275470055754668   0.007975152873326459   0.006324721486868258
0.009673994443100613   -0.03619508770094756   0.004778515547325283
0.009673994443100613   -0.03619508770094756   0.004778515547325283
0.009673994443100613   -0.03619508770094756   0.004778515547325283
0.009673994443100613   -0.03619508770094756   0.004778515547325283
0.01785669210195004   -0.011028805648911247   0.001505614023079819
0.01785669210195004   -0.011028805648911247   0.001505614023079819
0.01785669210195004   -0.011028805648911247   0.001505614023079819
0.01785669210195004   -0.011028805648911247   0.001505614023079819
0.12018690235447428   -0.012923679618542412   0.0039434026516828955
0.12018690235447428   -0.012923679618542412   0.0039434026516828955
0.12018690235447428   -0.012923679618542412   0.0039434026516828955
0.12018690235447428   -0.012923679618542412   0.0039434026516828955
0.06653278988154424   -0.013313153884768857   0.0005382347757010323
0.06653278988154424   -0.013313153884768857   0.0005382347757010323
0.06653278988154424   -0.013313153884768857   0.0005382347757010323
0.06653278988154424   -0.013313153884768857   0.0005382347757010323
0.010546199211536126   -0.0060312207489992865   0.005646183236459596
0.010546199211536126   -0.0060312207489992865   0.005646183236459596
0.010546199211536126   -0.0060312207489992865   0.005646183236459596
0.010546199211536126   -0.0060312207489992865   0.005646183236459596
-0.10495488969562365   -0.06543348501875149   0.0053883873307067846
-0.10495488969562365   -0.06543348501875149   0.0053883873307067846
-0.10495488969562365   -0.06543348501875149   0.0053883873307067846
-0.10495488969562365   -0.06543348501875149   0.0053883873307067846
-0.09385632957079675   -0.026605763779505562   3.289896467919759e-05
-0.09385632957079675   -0.026605763779505562   3.289896467919759e-05
-0.09385632957079675   -0.026605763779505562   3.289896467919759e-05
-0.09385632957079675   -0.026605763779505562   3.289896467919759e-05
0.004974050679502819   -0.04480098275509542   0.002525727830485467
0.004974050679502819   -0.04480098275509542   0.002525727830485467
0.004974050679502819   -0.04480098275509542   0.002525727830485467
0.004974050679502819   -0.04480098275509542   0.002525727830485467
-0.047015892463123765   -0.035947354773912865   -0.007661383677690117
-0.047015892463123765   -0.035947354773912865   -0.007661383677690117
-0.047015892463123765   -0.035947354773912865   -0.007661383677690117
-0.047015892463123765   -0.035947354773912865   -0.007661383677690117
0.013478077239494304   -0.0042470721960947465   0.004491950071442222
0.013478077239494304   -0.0042470721960947465   0.004491950071442222
0.013478077239494304   -0.0042470721960947465   0.004491950071442222
0.013478077239494304   -0.0042470721960947465   0.004491950071442222
-0.10025558830745027   -0.06505490651516814   0.006485748017074924
-0.10025558830745027   -0.06505490651516814   0.006485748017074924
-0.10025558830745027   -0.06505490651516814   0.006485748017074924
-0.10025558830745027   -0.06505490651516814   0.006485748017074924
-0.08956260234078771   -0.02379497177186336   -0.00047639824689943086
-0.08956260234078771   -0.02379497177186336   -0.00047639824689943086
-0.08956260234078771   -0.02379497177186336   -0.00047639824689943086
-0.08956260234078771   -0.02379497177186336   -0.00047639824689943086
0.007945562074289198   -0.04352866036655016   0.0034699263688708053
0.007945562074289198   -0.04352866036655016   0.0034699263688708053
0.007945562074289198   -0.04352866036655016   0.0034699263688708053
0.007945562074289198   -0.04352866036655016   0.0034699263688708053
-0.04261133268523306   -0.034442998854328236   -0.002691018456186511
-0.04261133268523306   -0.034442998854328236   -0.002691018456186511
-0.04261133268523306   -0.034442998854328236   -0.002691018456186511
-0.04261133268523306   -0.034442998854328236   -0.002691018456186511
0.016161694603735087   -0.00195870583639075   0.002980634485940831
0.016161694603735087   -0.00195870583639075   0.002980634485940831
0.016161694603735087   -0.00195870583639075   0.002980634485940831
0.016161694603735087   -0.00195870583639075   0.002980634485940831
-0.09593735451828411   -0.06352354595007305   0.007378415043829677
-0.09593735451828411   -0.06352354595007305   0.007378415043829677
-0.09593735451828411   -0.06352354595007305   0.007378415043829677
-0.09593735451828411   -0.06352354595007305   0.007378415043829677
-0.08246166216463009   -0.020582644420797234   -0.0013743023444636965
-0.08246166216463009   -0.020582644420797234   -0.0013743023444636965
-0.08246166216463009   -0.020582644420797234   -0.0013743023444636965
-0.08246166216463009   -0.020582644420797234   -0.0013743023444636965
0.012567214162791962   -0.040472298627562006   0.004501717305940662
0.012567214162791962   -0.040472298627562006   0.004501717305940662
0.012567214162791962   -0.040472298627562006   0.004501717305940662
0.012567214162791962   -0.040472298627562006   0.004501717305940662
-0.03695850717748536   -0.03149347296157086   0.0023439364574241997
-0.03695850717748536   -0.03149347296157086   0.0023439364574241997
-0.03695850717748536   -0.03149347296157086   0.0023439364574241997
-0.03695850717748536   -0.03149347296157086   0.0023439364574241997
-0.09484918735081876   -0.012226721773831026   0.0027101358098097
-0.09484918735081876   -0.012226721773831026   0.0027101358098097
-0.09484918735081876   -0.012226721773831026   0.0027101358098097
-0.09484918735081876   -0.012226721773831026   0.0027101358098097
-0.22805142580600998   -0.10019569356197236   -0.003504529011538717
-0.22805142580600998   -0.10019569356197236   -0.003504529011538717
-0.22805142580600998   -0.10019569356197236   -0.003504529011538717
-0.22805142580600998   -0.10019569356197236   -0.003504529011538717
-0.20995872870447677   -0.034601174205909316   -0.006066762017294382
-0.20995872870447677   -0.034601174205909316   -0.006066762017294382
-0.20995872870447677   -0.034601174205909316   -0.006066762017294382
-0.20995872870447677   -0.034601174205909316   -0.006066762017294382
-0.10445583093421396   -0.0817877230988761   0.0022173514669636997
-0.10445583093421396   -0.0817877230988761   0.0022173514669636997
-0.10445583093421396   -0.0817877230988761   0.0022173514669636997
-0.10445583093421396   -0.0817877230988761   0.0022173514669636997
-0.1591949941285368   -0.059374633205049376   -0.00817448300045457
-0.1591949941285368   -0.059374633205049376   -0.00817448300045457
-0.1591949941285368   -0.059374633205049376   -0.00817448300045457
-0.1591949941285368   -0.059374633205049376   -0.00817448300045457
-0.0898244405325691   -0.008869706744004165   0.002456287120316031
-0.0898244405325691   -0.008869706744004165   0.002456287120316031
-0.0898244405325691   -0.008869706744004165   0.002456287120316031
-0.0898244405325691   -0.008869706744004165   0.002456287120316031
-0.22382791694355678   -0.1067569883982151   -0.003256889020388499
-0.22382791694355678   -0.1067569883982151   -0.003256889020388499
-0.22382791694355678   -0.1067569883982151   -0.003256889020388499
-0.22382791694355678   -0.1067569883982151   -0.003256889020388499
-0.2040968158746198   -0.0312782437631937   -0.006249148168386699
-0.2040968158746198   -0.0312782437631937   -0.006249148168386699
-0.2040968158746198   -0.0312782437631937   -0.006249148168386699
-0.2040968158746198   -0.0312782437631937   -0.006249148168386699
-0.10019218137018647   -0.08077389656109732   0.0033546313953416625
-0.10019218137018647   -0.08077389656109732   0.0033546313953416625
-0.10019218137018647   -0.08077389656109732   0.0033546313953416625
-0.10019218137018647   -0.08077389656109732   0.0033546313953416625
-0.15281684075886323   -0.05732652645263251   -0.005117267083420477
-0.15281684075886323   -0.05732652645263251   -0.005117267083420477
-0.15281684075886323   -0.05732652645263251   -0.005117267083420477
-0.15281684075886323   -0.05732652645263251   -0.005117267083420477
-0.08577994592503098   -0.006197214772995275   0.000839126833016614
-0.08577994592503098   -0.006197214772995275   0.000839126833016614
-0.08577994592503098   -0.006197214772995275   0.000839126833016614
-0.08577994592503098   -0.006197214772995275   0.000839126833016614
-0.2182771803946884   -0.10562305462620868   -0.0028061599057132257
-0.2182771803946884   -0.10562305462620868   -0.0028061599057132257
-0.2182771803946884   -0.10562305462620868   -0.0028061599057132257
-0.2182771803946884   -0.10562305462620868   -0.0028061599057132257
-0.19481815534193198   -0.027797233216336585   -0.007105572340312439
-0.19481815534193198   -0.027797233216336585   -0.007105572340312439
-0.19481815534193198   -0.027797233216336585   -0.007105572340312439
-0.19481815534193198   -0.027797233216336585   -0.007105572340312439
-0.0909461046192637   -0.07121711104339662   0.006837952004968954
-0.0909461046192637   -0.07121711104339662   0.006837952004968954
-0.0909461046192637   -0.07121711104339662   0.006837952004968954
-0.0909461046192637   -0.07121711104339662   0.006837952004968954
-0.14589666129997678   -0.05115485799503436   -0.0020815298349667367
-0.14589666129997678   -0.05115485799503436   -0.0020815298349667367
-0.14589666129997678   -0.05115485799503436   -0.0020815298349667367
-0.14589666129997678   -0.05115485799503436   -0.0020815298349667367
-0.2097556713908303   -0.010929612320191268   -0.0012918381774214734
-0.2097556713908303   -0.010929612320191268   -0.0012918381774214734
-0.2097556713908303   -0.010929612320191268   -0.0012918381774214734
-0.2097556713908303   -0.010929612320191268   -0.0012918381774214734
-0.3642130718061729   -0.0720813984797292   0.0038060794075268772
-0.3642130718061729   -0.0720813984797292   0.0038060794075268772
-0.3642130718061729   -0.0720813984797292   0.0038060794075268772
-0.3642130718061729   -0.0720813984797292   0.0038060794075268772
-0.3507344379874388   -0.03297162835191579   -0.007010531500151622
-0.3507344379874388   -0.03297162835191579   -0.007010531500151622
-0.3507344379874388   -0.03297162835191579   -0.007010531500151622
-0.3507344379874388   -0.03297162835191579   -0.007010531500151622
-0.20698768638257917   -0.03880006849938278   0.012987343885665269
-0.20698768638257917   -0.03880006849938278   0.012987343885665269
-0.20698768638257917   -0.03880006849938278   0.012987343885665269
-0.20698768638257917   -0.03880006849938278   0.012987343885665269
-0.27159813750036094   -0.04131815891655771   0.0031098611801474085
-0.27159813750036094   -0.04131815891655771   0.0031098611801474085
-0.27159813750036094   -0.04131815891655771   0.0031098611801474085
-0.27159813750036094   -0.04131815891655771   0.0031098611801474085
-0.20219370459293473   -0.0018582820884029197   1.5466422908665123e-05
-0.20219370459293473   -0.0018582820884029197   1.5466422908665123e-05
-0.20219370459293473   -0.0018582820884029197   1.5466422908665123e-05
-0.20219370459293473   -0.0018582820884029197   1.5466422908665123e-05
-0.3566396130305714   -0.0710246080163841   0.0015165729486508323
-0.3566396130305714   -0.0710246080163841   0.0015165729486508323
-0.3566396130305714   -0.0710246080163841   0.0015165729486508323
-0.3566396130305714   -0.0710246080163841   0.0015165729486508323
-0.3438323595829161   -0.030287931319956246   -0.008925609525692362
-0.3438323595829161   -0.030287931319956246   -0.008925609525692362
-0.3438323595829161   -0.030287931319956246   -0.008925609525692362
-0.3438323595829161   -0.030287931319956246   -0.008925609525692362
-0.20097368275145838   -0.03714756817787168   0.01523584186209996
-0.20097368275145838   -0.03714756817787168   0.01523584186209996
-0.20097368275145838   -0.03714756817787168   0.01523584186209996
-0.20097368275145838   -0.03714756817787168   0.01523584186209996
-0.2683942063803834   -0.03422135212625736   0.0031698609059235792
-0.2683942063803834   -0.03422135212625736   0.0031698609059235792
-0.2683942063803834   -0.03422135212625736   0.0031698609059235792
-0.2683942063803834   -0.03422135212625736   0.0031698609059235792
-0.19685671724447484   0.0005224494139163885   -0.0018493481947704192
-0.19685671724447484   0.0005224494139163885   -0.0018493481947704192
-0.19685671724447484   0.0005224494139163885   -0.0018493481947704192
-0.19685671724447484   0.0005224494139163885   -0.0018493481947704192
-0.34820405215203476   -0.06821267597387998   0.007140672282634916
-0.34820405215203476   -0.06821267597387998   0.007140672282634916
-0.34820405215203476   -0.06821267597387998   0.007140672282634916
-0.34820405215203476   -0.06821267597387998   0.007140672282634916
-0.32944650368292644   -0.025076915416882735   -0.010208013620910011
-0.32944650368292644   -0.025076915416882735   -0.010208013620910011
-0.32944650368292644   -0.025076915416882735   -0.010208013620910011
-0.32944650368292644   -0.025076915416882735   -0.010208013620910011
-0.19149346939553993   -0.03496214087003785   0.01668276504535069
-0.19149346939553993   -0.03496214087003785   0.01668276504535069
-0.19149346939553993   -0.03496214087003785   0.01668276504535069
-0.19149346939553993   -0.03496214087003785   0.01668276504535069
-0.2536572377101331   -0.026300828818234756   0.0072428505897338315
-0.2536572377101331   -0.026300828818234756   0.0072428505897338315
-0.2536572377101331   -0.026300828818234756   0.0072428505897338315
-0.2536572377101331   -0.026300828818234756   0.0072428505897338315
0.2590388798651524   0.009676146568805055   0.0033912793975102457
0.2590388798651524   0.009676146568805055   0.0033912793975102457
0.2590388798651524   0.009676146568805055   0.0033912793975102457
0.2590388798651524   0.009676146568805055   0.0033912793975102457
0.13046829754142542   -0.007614500970554633   0.0020110722907650345
0.13046829754142542   -0.007614500970554633   0.0020110722907650345
0.13046829754142542   -0.007614500970554633   0.0020110722907650345
0.13046829754142542   -0.007614500970554633   0.0020110722907650345
0.1259356870346514   -0.017780738955471834   0.004584185999562245
0.1259356870346514   -0.017780738955471834   0.004584185999562245
0.1259356870346514   -0.017780738955471834   0.004584185999562245
0.1259356870346514   -0.017780738955471834   0.004584185999562245
0.25723109196326716   0.014408648685010315   0.0012787830601600058
0.25723109196326716   0.014408648685010315   0.0012787830601600058
0.25723109196326716   0.014408648685010315   0.0012787830601600058
0.25723109196326716   0.014408648685010315   0.0012787830601600058
0.1828849363493308   -0.0022866985902221804   -0.006859085443299025
0.1828849363493308   -0.0022866985902221804   -0.006859085443299025
0.1828849363493308   -0.0022866985902221804   -0.006859085443299025
0.1828849363493308   -0.0022866985902221804   -0.006859085443299025
0.2561695278112281   0.007854261830771724   0.0025253491542033112
0.2561695278112281   0.007854261830771724   0.0025253491542033112
0.2561695278112281   0.007854261830771724   0.0025253491542033112
0.2561695278112281   0.007854261830771724   0.0025253491542033112
0.12665820978700487   -0.011565393500918855   0.001981454306776478
0.12665820978700487   -0.011565393500918855   0.001981454306776478
0.12665820978700487   -0.011565393500918855   0.001981454306776478
0.12665820978700487   -0.011565393500918855   0.001981454306776478
0.12295178025548736   -0.018076130735975634   0.0037315834404116257
0.12295178025548736   -0.018076130735975634   0.0037315834404116257
0.12295178025548736   -0.018076130735975634   0.0037315834404116257
0.12295178025548736   -0.018076130735975634   0.0037315834404116257
0.2545796183819081   0.013920206101646938   0.002527704567971205
0.2545796183819081   0.013920206101646938   0.002527704567971205
0.2545796183819081   0.013920206101646938   0.002527704567971205
0.2545796183819081   0.013920206101646938   0.002527704567971205
0.1827648574347481   -0.0031318699769680297   -0.007662410022998847
0.1827648574347481   -0.0031318699769680297   -0.007662410022998847
0.1827648574347481   -0.0031318699769680297   -0.007662410022998847
0.1827648574347481   -0.0031318699769680297   -0.007662410022998847
0.25289543808214765   0.0073097383128639115   0.0007172708579490806
0.25289543808214765   0.0073097383128639115   0.0007172708579490806
0.25289543808214765   0.0073097383128639115   0.0007172708579490806
0.25289543808214765   0.0073097383128639115   0.0007172708579490806
0.12398705226338788   -0.01211457123905305   0.0029463839829915583
0.12398705226338788   -0.01211457123905305   0.0029463839829915583
0.12398705226338788   -0.01211457123905305   0.0029463839829915583
0.12398705226338788   -0.01211457123905305   0.0029463839829915583
0.11985847278417207   -0.016164043197263684   0.003229644021878291
0.11985847278417207   -0.016164043197263684   0.003229644021878291
0.11985847278417207   -0.016164043197263684   0.003229644021878291
0.11985847278417207   -0.016164043197263684   0.003229644021878291
0.2505565859346283   0.014458772701698298   0.003886517869928557
0.2505565859346283   0.014458772701698298   0.003886517869928557
0.2505565859346283   0.014458772701698298   0.003886517869928557
0.2505565859346283   0.014458772701698298   0.003886517869928557
0.17630413477362744   -0.0030065759751840074   -0.01009753068021522
0.17630413477362744   -0.0030065759751840074   -0.01009753068021522
0.17630413477362744   -0.0030065759751840074   -0.01009753068021522
0.17630413477362744   -0.0030065759751840074   -0.01009753068021522
0.13031582862239413   -0.012818446152626055   0.006452672877680039
0.13031582862239413   -0.012818446152626055   0.006452672877680039
0.13031582862239413   -0.012818446152626055   0.006452672877680039
0.13031582862239413   -0.012818446152626055   0.006452672877680039
0.02100257165885052   -0.015434231386439817   0.0008497923832858469
0.02100257165885052   -0.015434231386439817   0.0008497923832858469
0.02100257165885052   -0.015434231386439817   0.0008497923832858469
0.02100257165885052   -0.015434231386439817   0.0008497923832858469
0.013137921610135137   -0.03600764834392408   0.005917168898846199
0.013137921610135137   -0.03600764834392408   0.005917168898846199
0.013137921610135137   -0.03600764834392408   0.005917168898846199
0.013137921610135137   -0.03600764834392408   0.005917168898846199
0.1307845384005361   0.006208736014013255   0.004838967859500755
0.1307845384005361   0.006208736014013255   0.004838967859500755
0.1307845384005361   0.006208736014013255   0.004838967859500755
0.1307845384005361   0.006208736014013255   0.004838967859500755
0.07265536207984573   -0.014580621402082994   -0.0003665672548102024
0.07265536207984573   -0.014580621402082994   -0.0003665672548102024
0.07265536207984573   -0.014580621402082994   -0.0003665672548102024
0.07265536207984573   -0.014580621402082994   -0.0003665672548102024
0.12701049377614518   -0.013317559616816303   0.005495040368375056
0.12701049377614518   -0.013317559616816303   0.005495040368375056
0.12701049377614518   -0.013317559616816303   0.005495040368375056
0.12701049377614518   -0.013317559616816303   0.005495040368375056
0.01594866341284965   -0.01744465553477105   0.0014078851032657252
0.01594866341284965   -0.01744465553477105   0.0014078851032657252
0.01594866341284965   -0.01744465553477105   0.0014078851032657252
0.01594866341284965   -0.01744465553477105   0.0014078851032657252
0.009543468553153831   -0.03612275837584502   0.005270688062784759
0.009543468553153831   -0.03612275837584502   0.005270688062784759
0.009543468553153831   -0.03612275837584502   0.005270688062784759
0.009543468553153831   -0.03612275837584502   0.005270688062784759
0.12804134111284354   0.005443414765907442   0.005659842225309476
0.12804134111284354   0.005443414765907442   0.005659842225309476
0.12804134111284354   0.005443414765907442   0.005659842225309476
0.12804134111284354   0.005443414765907442   0.005659842225309476
0.06770610534017003   -0.015469443279019671   -0.003268128057150467
0.06770610534017003   -0.015469443279019671   -0.003268128057150467
0.06770610534017003   -0.015469443279019671   -0.003268128057150467
0.06770610534017003   -0.015469443279019671   -0.003268128057150467
0.12407997979551807   -0.013341919715842802   0.004638370120431577
0.12407997979551807   -0.013341919715842802   0.004638370120431577
0.12407997979551807   -0.013341919715842802   0.004638370120431577
0.12407997979551807   -0.013341919715842802   0.004638370120431577
0.012449353219806702   -0.018392900544767502   0.0020702535649716053
0.012449353219806702   -0.018392900544767502   0.0020702535649716053
0.012449353219806702   -0.018392900544767502   0.0020702535649716053
0.012449353219806702   -0.018392900544767502   0.0020702535649716053
0.005540823670389479   -0.035836870936563986   0.004023524745659868
0.005540823670389479   -0.035836870936563986   0.004023524745659868
0.005540823670389479   -0.035836870936563986   0.004023524745659868
0.005540823670389479   -0.035836870936563986   0.004023524745659868
0.12492732408129117   0.005710420596523418   0.006699436713687415
0.12492732408129117   0.005710420596523418   0.006699436713687415
0.12492732408129117   0.005710420596523418   0.006699436713687415
0.12492732408129117   0.005710420596523418   0.006699436713687415
0.06481858707628396   -0.015128435094819025   -0.005677288044298643
0.06481858707628396   -0.015128435094819025   -0.005677288044298643
0.06481858707628396   -0.015128435094819025   -0.005677288044298643
0.06481858707628396   -0.015128435094819025   -0.005677288044298643
0.01684687987160053   -0.04101949013277415   0.005656592193369262
0.01684687987160053   -0.04101949013277415   0.005656592193369262
0.01684687987160053   -0.04101949013277415   0.005656592193369262
0.01684687987160053   -0.04101949013277415   0.005656592193369262
-0.0845432233101571   -0.0233241010650719   -0.0003670250643283623
-0.0845432233101571   -0.0233241010650719   -0.0003670250643283623
-0.0845432233101571   -0.0233241010650719   -0.0003670250643283623
-0.0845432233101571   -0.0233241010650719   -0.0003670250643283623
-0.09876644959335212   -0.06469966031748044   0.0067728402914153
-0.09876644959335212   -0.06469966031748044   0.0067728402914153
-0.09876644959335212   -0.06469966031748044   0.0067728402914153
-0.09876644959335212   -0.06469966031748044   0.0067728402914153
0.01936845198605044   -0.0021230352429296925   0.0031852076774278562
0.01936845198605044   -0.0021230352429296925   0.0031852076774278562
0.01936845198605044   -0.0021230352429296925   0.0031852076774278562
0.01936845198605044   -0.0021230352429296925   0.0031852076774278562
-0.03636659373382222   -0.03231417483145283   0.001314074114027443
-0.03636659373382222   -0.03231417483145283   0.001314074114027443
-0.03636659373382222   -0.03231417483145283   0.001314074114027443
-0.03636659373382222   -0.03231417483145283   0.001314074114027443
0.011363799324120218   -0.04318366397274961   0.004222573097597118
0.011363799324120218   -0.04318366397274961   0.004222573097597118
0.011363799324120218   -0.04318366397274961   0.004222573097597118
0.011363799324120218   -0.04318366397274961   0.004222573097597118
-0.09215079793524536   -0.02502803259148404   0.00017947085595191497
-0.09215079793524536   -0.02502803259148404   0.00017947085595191497
-0.09215079793524536   -0.02502803259148404   0.00017947085595191497
-0.09215079793524536   -0.02502803259148404   0.00017947085595191497
-0.10370053397700857   -0.06540658001390051   0.005726424183416791
-0.10370053397700857   -0.06540658001390051   0.005726424183416791
-0.10370053397700857   -0.06540658001390051   0.005726424183416791
-0.10370053397700857   -0.06540658001390051   0.005726424183416791
0.01598360286012304   -0.0029626690649073566   0.004311270286693141
0.01598360286012304   -0.0029626690649073566   0.004311270286693141
0.01598360286012304   -0.0029626690649073566   0.004311270286693141
0.01598360286012304   -0.0029626690649073566   0.004311270286693141
-0.04257047732517266   -0.034087980934159795   -0.0027816656316663503
-0.04257047732517266   -0.034087980934159795   -0.0027816656316663503
-0.04257047732517266   -0.034087980934159795   -0.0027816656316663503
-0.04257047732517266   -0.034087980934159795   -0.0027816656316663503
0.0075351407241045585   -0.04373622650168556   0.002842517043378472
0.0075351407241045585   -0.04373622650168556   0.002842517043378472
0.0075351407241045585   -0.04373622650168556   0.002842517043378472
0.0075351407241045585   -0.04373622650168556   0.002842517043378472
-0.09696550020001575   -0.02634645093614823   0.0003414639906275873
-0.09696550020001575   -0.02634645093614823   0.0003414639906275873
-0.09696550020001575   -0.02634645093614823   0.0003414639906275873
-0.09696550020001575   -0.02634645093614823   0.0003414639906275873
-0.1091331593170738   -0.06481658763531878   0.004480645747022593
-0.1091331593170738   -0.06481658763531878   0.004480645747022593
-0.1091331593170738   -0.06481658763531878   0.004480645747022593
-0.1091331593170738   -0.06481658763531878   0.004480645747022593
0.012237549427927489   -0.003363491932303178   0.005033774529088627
0.012237549427927489   -0.003363491932303178   0.005033774529088627
0.012237549427927489   -0.003363491932303178   0.005033774529088627
0.012237549427927489   -0.003363491932303178   0.005033774529088627
-0.04766858233056707   -0.03468277061922634   -0.007004415616005273
-0.04766858233056707   -0.03468277061922634   -0.007004415616005273
-0.04766858233056707   -0.03468277061922634   -0.007004415616005273
-0.04766858233056707   -0.03468277061922634   -0.007004415616005273
-0.0926773424061082   -0.07107692950126276   0.006715207892107521
-0.0926773424061082   -0.07107692950126276   0.006715207892107521
-0.0926773424061082   -0.07107692950126276   0.006715207892107521
-0.0926773424061082   -0.07107692950126276   0.006715207892107521
-0.20233210847496036   -0.028844469735861245   -0.00436375491112353
-0.20233210847496036   -0.028844469735861245   -0.00436375491112353
-0.20233210847496036   -0.028844469735861245   -0.00436375491112353
-0.20233210847496036   -0.028844469735861245   -0.00436375491112353
-0.2273695953407026   -0.10779140741123241   -0.004887305688329253
-0.2273695953407026   -0.10779140741123241   -0.004887305688329253
-0.2273695953407026   -0.10779140741123241   -0.004887305688329253
-0.2273695953407026   -0.10779140741123241   -0.004887305688329253
-0.08757045612675783   -0.004699334398716967   0.002752481705622477
-0.08757045612675783   -0.004699334398716967   0.002752481705622477
-0.08757045612675783   -0.004699334398716967   0.002752481705622477
-0.08757045612675783   -0.004699334398716967   0.002752481705622477
-0.1509126227983014   -0.05067451421491528   -0.0034984630745902006
-0.1509126227983014   -0.05067451421491528   -0.0034984630745902006
-0.1509126227983014   -0.05067451421491528   -0.0034984630745902006
-0.1509126227983014   -0.05067451421491528   -0.0034984630745902006
-0.10292125627121772   -0.08138704095229018   0.0026861875368970264
-0.10292125627121772   -0.08138704095229018   0.0026861875368970264
-0.10292125627121772   -0.08138704095229018   0.0026861875368970264
-0.10292125627121772   -0.08138704095229018   0.0026861875368970264
-0.21178501324818919   -0.030869918909606827   -0.0038858837273878033
-0.21178501324818919   -0.030869918909606827   -0.0038858837273878033
-0.21178501324818919   -0.030869918909606827   -0.0038858837273878033
-0.21178501324818919   -0.030869918909606827   -0.0038858837273878033
-0.2333197362641012   -0.10919906756241611   -0.005643668717337593
-0.2333197362641012   -0.10919906756241611   -0.005643668717337593
-0.2333197362641012   -0.10919906756241611   -0.005643668717337593
-0.2333197362641012   -0.10919906756241611   -0.005643668717337593
-0.09221139966275027   -0.006172867739950832   0.003938383480757574
-0.09221139966275027   -0.006172867739950832   0.003938383480757574
-0.09221139966275027   -0.006172867739950832   0.003938383480757574
-0.09221139966275027   -0.006172867739950832   0.003938383480757574
-0.15827613932021506   -0.056523181928978844   -0.005720092415288336
-0.15827613932021506   -0.056523181928978844   -0.005720092415288336
-0.15827613932021506   -0.056523181928978844   -0.005720092415288336
-0.15827613932021506   -0.056523181928978844   -0.005720092415288336
-0.10810938963118713   -0.0828109594272011   0.0010865253258233697
-0.10810938963118713   -0.0828109594272011   0.0010865253258233697
-0.10810938963118713   -0.0828109594272011   0.0010865253258233697
-0.10810938963118713   -0.0828109594272011   0.0010865253258233697
-0.21771017097435041   -0.032849400553852284   -0.003945509277149556
-0.21771017097435041   -0.032849400553852284   -0.003945509277149556
-0.21771017097435041   -0.032849400553852284   -0.003945509277149556
-0.21771017097435041   -0.032849400553852284   -0.003945509277149556
-0.2382950043896089   -0.10332448349411517   -0.006350010478278621
-0.2382950043896089   -0.10332448349411517   -0.006350010478278621
-0.2382950043896089   -0.10332448349411517   -0.006350010478278621
-0.2382950043896089   -0.10332448349411517   -0.006350010478278621
-0.0979752078574064   -0.008295831030283219   0.003749646440322362
-0.0979752078574064   -0.008295831030283219   0.003749646440322362
-0.0979752078574064   -0.008295831030283219   0.003749646440322362
-0.0979752078574064   -0.008295831030283219   0.003749646440322362
-0.16525716197609244   -0.05837547580239713   -0.00800592014278331
-0.16525716197609244   -0.05837547580239713   -0.00800592014278331
-0.16525716197609244   -0.05837547580239713   -0.00800592014278331
-0.16525716197609244   -0.05837547580239713   -0.00800592014278331
-0.20017137758894263   -0.03709599130097367   0.0146914210840743
-0.20017137758894263   -0.03709599130097367   0.0146914210840743
-0.20017137758894263   -0.03709599130097367   0.0146914210840743
-0.20017137758894263   -0.03709599130097367   0.0146914210840743
-0.34401401530993464   -0.024756702607124433   -0.005188245476518636
-0.34401401530993464   -0.024756702607124433   -0.005188245476518636
-0.34401401530993464   -0.024756702607124433   -0.005188245476518636
-0.34401401530993464   -0.024756702607124433   -0.005188245476518636
-0.36371188098632096   -0.07195610077476622   0.0039313771124898644
-0.36371188098632096   -0.07195610077476622   0.0039313771124898644
-0.36371188098632096   -0.07195610077476622   0.0039313771124898644
-0.36371188098632096   -0.07195610077476622   0.0039313771124898644
-0.2037001036376968   0.0037810045099699943   0.0018877409054953286
-0.2037001036376968   0.0037810045099699943   0.0018877409054953286
-0.2037001036376968   0.0037810045099699943   0.0018877409054953286
-0.2037001036376968   0.0037810045099699943   0.0018877409054953286
-0.2646823374476349   -0.02521091515854106   0.005117243555412422
-0.2646823374476349   -0.02521091515854106   0.005117243555412422
-0.2646823374476349   -0.02521091515854106   0.005117243555412422
-0.2646823374476349   -0.02521091515854106   0.005117243555412422
-0.2101320330097758   -0.03943715574245106   0.012946254297520506
-0.2101320330097758   -0.03943715574245106   0.012946254297520506
-0.2101320330097758   -0.03943715574245106   0.012946254297520506
-0.2101320330097758   -0.03943715574245106   0.012946254297520506
-0.3565815755969147   -0.028039564505017524   -0.004333632210224413
-0.3565815755969147   -0.028039564505017524   -0.004333632210224413
-0.3565815755969147   -0.028039564505017524   -0.004333632210224413
-0.3565815755969147   -0.028039564505017524   -0.004333632210224413
-0.37151616045937225   -0.07474374487358432   -0.0022025639085493792
-0.37151616045937225   -0.07474374487358432   -0.0022025639085493792
-0.37151616045937225   -0.07474374487358432   -0.0022025639085493792
-0.37151616045937225   -0.07474374487358432   -0.0022025639085493792
-0.20930947980604495   0.0020211160563026395   0.003187429954222937
-0.20930947980604495   0.0020211160563026395   0.003187429954222937
-0.20930947980604495   0.0020211160563026395   0.003187429954222937
-0.20930947980604495   0.0020211160563026395   0.003187429954222937
-0.27921544083402167   -0.032990855361284606   0.0019117116687762219
-0.27921544083402167   -0.032990855361284606   0.0019117116687762219
-0.27921544083402167   -0.032990855361284606   0.0019117116687762219
-0.27921544083402167   -0.032990855361284606   0.0019117116687762219
-0.21650857470392615   -0.041215917197134425   0.010428988718254033
-0.21650857470392615   -0.041215917197134425   0.010428988718254033
-0.21650857470392615   -0.041215917197134425   0.010428988718254033
-0.21650857470392615   -0.041215917197134425   0.010428988718254033
-0.36273760905438585   -0.029927255113041125   -0.0031262966441549574
-0.36273760905438585   -0.029927255113041125   -0.0031262966441549574
-0.36273760905438585   -0.029927255113041125   -0.0031262966441549574
-0.36273760905438585   -0.029927255113041125   -0.0031262966441549574
-0.3777511744485132   -0.07559945654799957   -0.0002461082914846924
-0.3777511744485132   -0.07559945654799957   -0.0002461082914846924
-0.3777511744485132   -0.07559945654799957   -0.0002461082914846924
-0.3777511744485132   -0.07559945654799957   -0.0002461082914846924
-0.217299014567816   -0.006167622481964306   0.0014730776185350198
-0.217299014567816   -0.006167622481964306   0.0014730776185350198
-0.217299014567816   -0.006167622481964306   0.0014730776185350198
-0.217299014567816   -0.006167622481964306   0.0014730776185350198
-0.28171271937180264   -0.03951985264347617   0.0029494782175732703
-0.28171271937180264   -0.03951985264347617   0.0029494782175732703
-0.28171271937180264   -0.03951985264347617   0.0029494782175732703
-0.28171271937180264   -0.03951985264347617   0.0029494782175732703
0.23182502985672487   0.011372707515335555   -0.004409617595083454
0.23182502985672487   0.011372707515335555   -0.004409617595083454
0.23182502985672487   0.011372707515335555   -0.004409617595083454
0.23182502985672487   0.011372707515335555   -0.004409617595083454
0.11526284658782768   -0.003212411278755   0.0019118652267874877
0.11526284658782768   -0.003212411278755   0.0019118652267874877
0.11526284658782768   -0.003212411278755   0.0019118652267874877
0.11526284658782768   -0.003212411278755   0.0019118652267874877
0.10866293883979283   -0.016381415002923592   -0.00410338225603518
0.10866293883979283   -0.016381415002923592   -0.00410338225603518
0.10866293883979283   -0.016381415002923592   -0.00410338225603518
0.10866293883979283   -0.016381415002923592   -0.00410338225603518
0.22934390579742936   0.016360997701087177   0.0022367085265942964
0.22934390579742936   0.016360997701087177   0.0022367085265942964
0.22934390579742936   0.016360997701087177   0.0022367085265942964
0.22934390579742936   0.016360997701087177   0.0022367085265942964
0.16230275833043867   0.0004157312856172615   -0.0062467085952064
0.16230275833043867   0.0004157312856172615   -0.0062467085952064
0.16230275833043867   0.0004157312856172615   -0.0062467085952064
0.16230275833043867   0.0004157312856172615   -0.0062467085952064
0.22611996432198775   0.007021888595681237   -0.004543889745205929
0.22611996432198775   0.007021888595681237   -0.004543889745205929
0.22611996432198775   0.007021888595681237   -0.004543889745205929
0.22611996432198775   0.007021888595681237   -0.004543889745205929
0.11172894077749489   -0.007200245435257047   0.0020454578648076323
0.11172894077749489   -0.007200245435257047   0.0020454578648076323
0.11172894077749489   -0.007200245435257047   0.0020454578648076323
0.11172894077749489   -0.007200245435257047   0.0020454578648076323
0.10507834748842905   -0.017176955084577172   -0.0034568304696702534
0.10507834748842905   -0.017176955084577172   -0.0034568304696702534
0.10507834748842905   -0.017176955084577172   -0.0034568304696702534
0.10507834748842905   -0.017176955084577172   -0.0034568304696702534
0.22442677375487785   0.015184583685397872   0.0034332317967728076
0.22442677375487785   0.015184583685397872   0.0034332317967728076
0.22442677375487785   0.015184583685397872   0.0034332317967728076
0.22442677375487785   0.015184583685397872   0.0034332317967728076
0.1606851879424191   -0.0013883796309417662   -0.0072153360240528736
0.1606851879424191   -0.0013883796309417662   -0.0072153360240528736
0.1606851879424191   -0.0013883796309417662   -0.0072153360240528736
0.1606851879424191   -0.0013883796309417662   -0.0072153360240528736
0.22116528619114142   0.005994895235497559   -0.0036845175720089714
0.22116528619114142   0.005994895235497559   -0.0036845175720089714
0.22116528619114142   0.005994895235497559   -0.0036845175720089714
0.22116528619114142   0.005994895235497559   -0.0036845175720089714
0.10809586290678601   -0.008231238780056317   0.002685030317593694
0.10809586290678601   -0.008231238780056317   0.002685030317593694
0.10809586290678601   -0.008231238780056317   0.002685030317593694
0.10809586290678601   -0.008231238780056317   0.002685030317593694
0.10165485252162385   -0.01658156864416506   -0.0024134554463837426
0.10165485252162385   -0.01658156864416506   -0.0024134554463837426
0.10165485252162385   -0.01658156864416506   -0.0024134554463837426
0.10165485252162385   -0.01658156864416506   -0.0024134554463837426
0.21838337099559701   0.01466971027955949   0.0046221268736599125
0.21838337099559701   0.01466971027955949   0.0046221268736599125
0.21838337099559701   0.01466971027955949   0.0046221268736599125
0.21838337099559701   0.01466971027955949   0.0046221268736599125
0.15331370639338388   -0.0023560570378744553   -0.00932231767692953
0.15331370639338388   -0.0023560570378744553   -0.00932231767692953
0.15331370639338388   -0.0023560570378744553   -0.00932231767692953
0.15331370639338388   -0.0023560570378744553   -0.00932231767692953
0.1165909533262803   0.003817903332039938   0.0015220843082548305
0.1165909533262803   0.003817903332039938   0.0015220843082548305
0.1165909533262803   0.003817903332039938   0.0015220843082548305
0.1165909533262803   0.003817903332039938   0.0015220843082548305
0.008590014891430369   -0.0074739583719969655   -0.0005548297383582554
0.008590014891430369   -0.0074739583719969655   -0.0005548297383582554
0.008590014891430369   -0.0074739583719969655   -0.0005548297383582554
0.008590014891430369   -0.0074739583719969655   -0.0005548297383582554
0.0023633806662712187   -0.021251592721175303   -0.004041518082177111
0.0023633806662712187   -0.021251592721175303   -0.004041518082177111
0.0023633806662712187   -0.021251592721175303   -0.004041518082177111
0.0023633806662712187   -0.021251592721175303   -0.004041518082177111
0.11659464421919502   0.01362751885769942   0.005546210780351839
0.11659464421919502   0.01362751885769942   0.005546210780351839
0.11659464421919502   0.01362751885769942   0.005546210780351839
0.11659464421919502   0.01362751885769942   0.005546210780351839
0.05991990200651656   -0.002578320852183045   -0.0021724220209760944
0.05991990200651656   -0.002578320852183045   -0.0021724220209760944
0.05991990200651656   -0.002578320852183045   -0.0021724220209760944
0.05991990200651656   -0.002578320852183045   -0.0021724220209760944
0.11363514416052888   0.0022385912192131874   0.0021376381255076883
0.11363514416052888   0.0022385912192131874   0.0021376381255076883
0.11363514416052888   0.0022385912192131874   0.0021376381255076883
0.11363514416052888   0.0022385912192131874   0.0021376381255076883
0.005453323607924187   -0.00973222219970219   -0.00011117389538537305
0.005453323607924187   -0.00973222219970219   -0.00011117389538537305
0.005453323607924187   -0.00973222219970219   -0.00011117389538537305
0.005453323607924187   -0.00973222219970219   -0.00011117389538537305
-0.0010944961958452354   -0.022102171128329184   -0.0029322499371848797
-0.0010944961958452354   -0.022102171128329184   -0.0029322499371848797
-0.0010944961958452354   -0.022102171128329184   -0.0029322499371848797
-0.0010944961958452354   -0.022102171128329184   -0.0029322499371848797
0.11280873351750355   0.011930565909386907   0.006087578681738156
0.11280873351750355   0.011930565909386907   0.006087578681738156
0.11280873351750355   0.011930565909386907   0.006087578681738156
0.11280873351750355   0.011930565909386907   0.006087578681738156
0.055850890690142777   -0.00418069116633105   -0.003071901157704125
0.055850890690142777   -0.00418069116633105   -0.003071901157704125
0.055850890690142777   -0.00418069116633105   -0.003071901157704125
0.055850890690142777   -0.00418069116633105   -0.003071901157704125
0.11002652340930967   0.0012749179918084136   0.002832176058348212
0.11002652340930967   0.0012749179918084136   0.002832176058348212
0.11002652340930967   0.0012749179918084136   0.002832176058348212
0.11002652340930967   0.0012749179918084136   0.002832176058348212
0.0016822777891100172   -0.01145195933398916   0.00030140819325135586
0.0016822777891100172   -0.01145195933398916   0.00030140819325135586
0.0016822777891100172   -0.01145195933398916   0.00030140819325135586
0.0016822777891100172   -0.01145195933398916   0.00030140819325135586
-0.004777874896670451   -0.021989405137168763   -0.0020944929768041743
-0.004777874896670451   -0.021989405137168763   -0.0020944929768041743
-0.004777874896670451   -0.021989405137168763   -0.0020944929768041743
-0.004777874896670451   -0.021989405137168763   -0.0020944929768041743
0.10898494530774822   0.010955287738563453   0.006700152101510091
0.10898494530774822   0.010955287738563453   0.006700152101510091
0.10898494530774822   0.010955287738563453   0.006700152101510091
0.10898494530774822   0.010955287738563453   0.006700152101510091
0.052829936125364116   -0.004675978550385505   -0.0037849345692999425
0.052829936125364116   -0.004675978550385505   -0.0037849345692999425
0.052829936125364116   -0.004675978550385505   -0.0037849345692999425
0.052829936125364116   -0.004675978550385505   -0.0037849345692999425
0.009493656386842823   -0.004287863532887282   0.000777282899594814
0.009493656386842823   -0.004287863532887282   0.000777282899594814
0.009493656386842823   -0.004287863532887282   0.000777282899594814
0.009493656386842823   -0.004287863532887282   0.000777282899594814
-0.0948249131956693   -0.010783519486030211   -0.0029332429129325334
-0.0948249131956693   -0.010783519486030211   -0.0029332429129325334
-0.0948249131956693   -0.010783519486030211   -0.0029332429129325334
-0.0948249131956693   -0.010783519486030211   -0.0029332429129325334
-0.10175051848035789   -0.027929795467466434   -0.004729622978847523
-0.10175051848035789   -0.027929795467466434   -0.004729622978847523
-0.10175051848035789   -0.027929795467466434   -0.004729622978847523
-0.10175051848035789   -0.027929795467466434   -0.004729622978847523
0.010129680933997217   0.010242079492269227   0.0032963110430083526
0.010129680933997217   0.010242079492269227   0.0032963110430083526
0.010129680933997217   0.010242079492269227   0.0032963110430083526
0.010129680933997217   0.010242079492269227   0.0032963110430083526
-0.04433375891629608   -0.007807431615521882   -0.00209379078310469
-0.04433375891629608   -0.007807431615521882   -0.00209379078310469
-0.04433375891629608   -0.007807431615521882   -0.00209379078310469
-0.04433375891629608   -0.007807431615521882   -0.00209379078310469
0.006878146572164293   -0.0048349950966415835   0.0021157138227545463
0.006878146572164293   -0.0048349950966415835   0.0021157138227545463
0.006878146572164293   -0.0048349950966415835   0.0021157138227545463
0.006878146572164293   -0.0048349950966415835   0.0021157138227545463
-0.09823360900523757   -0.012587345765266955   -0.002487525305445443
-0.09823360900523757   -0.012587345765266955   -0.002487525305445443
-0.09823360900523757   -0.012587345765266955   -0.002487525305445443
-0.09823360900523757   -0.012587345765266955   -0.002487525305445443
-0.10578388066045567   -0.028840341313042063   -0.003309607433401661
-0.10578388066045567   -0.028840341313042063   -0.003309607433401661
-0.10578388066045567   -0.028840341313042063   -0.003309607433401661
-0.10578388066045567   -0.028840341313042063   -0.003309607433401661
0.006340104786353677   0.008438297554366278   0.0037002862911142183
0.006340104786353677   0.008438297554366278   0.0037002862911142183
0.006340104786353677   0.008438297554366278   0.0037002862911142183
0.006340104786353677   0.008438297554366278   0.0037002862911142183
-0.047692490476051785   -0.0088263533104637   -0.0024916462301278063
-0.047692490476051785   -0.0088263533104637   -0.0024916462301278063
-0.047692490476051785   -0.0088263533104637   -0.0024916462301278063
-0.047692490476051785   -0.0088263533104637   -0.0024916462301278063
0.0033019087235343003   -0.005809784369405841   0.002757387900789456
0.0033019087235343003   -0.005809784369405841   0.002757387900789456
0.0033019087235343003   -0.005809784369405841   0.002757387900789456
0.0033019087235343003   -0.005809784369405841   0.002757387900789456
-0.1026781399169712   -0.014524714708604905   -0.0020965303204168173
-0.1026781399169712   -0.014524714708604905   -0.0020965303204168173
-0.1026781399169712   -0.014524714708604905   -0.0020965303204168173
-0.1026781399169712   -0.014524714708604905   -0.0020965303204168173
-0.11023488531644271   -0.0294514149542506   -0.0029334058362782784
-0.11023488531644271   -0.0294514149542506   -0.0029334058362782784
-0.11023488531644271   -0.0294514149542506   -0.0029334058362782784
-0.11023488531644271   -0.0294514149542506   -0.0029334058362782784
0.002237700298061523   0.006909244414872869   0.004084733444814062
0.002237700298061523   0.006909244414872869   0.004084733444814062
0.002237700298061523   0.006909244414872869   0.004084733444814062
0.002237700298061523   0.006909244414872869   0.004084733444814062
-0.052028203246751586   -0.010043370851943047   -0.0034806118673665156
-0.052028203246751586   -0.010043370851943047   -0.0034806118673665156
-0.052028203246751586   -0.010043370851943047   -0.0034806118673665156
-0.052028203246751586   -0.010043370851943047   -0.0034806118673665156
-0.09295141669761994   -0.005804530316591927   0.001455250407874966
-0.09295141669761994   -0.005804530316591927   0.001455250407874966
-0.09295141669761994   -0.005804530316591927   0.001455250407874966
-0.09295141669761994   -0.005804530316591927   0.001455250407874966
-0.1966240430195583   -0.012668404481340826   -0.004987520346044476
-0.1966240430195583   -0.012668404481340826   -0.004987520346044476
-0.1966240430195583   -0.012668404481340826   -0.004987520346044476
-0.1966240430195583   -0.012668404481340826   -0.004987520346044476
-0.20442010758759147   -0.02960651373885961   -0.004933763534249424
-0.20442010758759147   -0.02960651373885961   -0.004933763534249424
-0.20442010758759147   -0.02960651373885961   -0.004933763534249424
-0.20442010758759147   -0.02960651373885961   -0.004933763534249424
-0.0933855805128705   0.008044953225240202   0.0011203181658813064
-0.0933855805128705   0.008044953225240202   0.0011203181658813064
-0.0933855805128705   0.008044953225240202   0.0011203181658813064
-0.0933855805128705   0.008044953225240202   0.0011203181658813064
-0.1456765391132398   -0.009554606146328193   -0.0016327934300106057
-0.1456765391132398   -0.009554606146328193   -0.0016327934300106057
-0.1456765391132398   -0.009554606146328193   -0.0016327934300106057
-0.1456765391132398   -0.009554606146328193   -0.0016327934300106057
-0.0958319560326589   -0.006262876635487994   0.0031962704276684143
-0.0958319560326589   -0.006262876635487994   0.0031962704276684143
-0.0958319560326589   -0.006262876635487994   0.0031962704276684143
-0.0958319560326589   -0.006262876635487994   0.0031962704276684143
-0.20148244197994383   -0.014807393790270951   -0.005044555444601141
-0.20148244197994383   -0.014807393790270951   -0.005044555444601141
-0.20148244197994383   -0.014807393790270951   -0.005044555444601141
-0.20148244197994383   -0.014807393790270951   -0.005044555444601141
-0.20994166405930853   -0.031224211809325057   -0.0035880724695553185
-0.20994166405930853   -0.031224211809325057   -0.0035880724695553185
-0.20994166405930853   -0.031224211809325057   -0.0035880724695553185
-0.20994166405930853   -0.031224211809325057   -0.0035880724695553185
-0.09787876896341423   0.006062248235658773   0.0013133615031043723
-0.09787876896341423   0.006062248235658773   0.0013133615031043723
-0.09787876896341423   0.006062248235658773   0.0013133615031043723
-0.09787876896341423   0.006062248235658773   0.0013133615031043723
-0.1490134729208789   -0.010355241155120182   -0.0015759850351510507
-0.1490134729208789   -0.010355241155120182   -0.0015759850351510507
-0.1490134729208789   -0.010355241155120182   -0.0015759850351510507
-0.1490134729208789   -0.010355241155120182   -0.0015759850351510507
-0.10025832609176628   -0.007895304085420978   0.003373128182422834
-0.10025832609176628   -0.007895304085420978   0.003373128182422834
-0.10025832609176628   -0.007895304085420978   0.003373128182422834
-0.10025832609176628   -0.007895304085420978   0.003373128182422834
-0.2072271012271798   -0.016931653784468783   -0.0043078163337678535
-0.2072271012271798   -0.016931653784468783   -0.0043078163337678535
-0.2072271012271798   -0.016931653784468783   -0.0043078163337678535
-0.2072271012271798   -0.016931653784468783   -0.0043078163337678535
-0.2161413095966588   -0.03342849171288317   -0.003747555233417311
-0.2161413095966588   -0.03342849171288317   -0.003747555233417311
-0.2161413095966588   -0.03342849171288317   -0.003747555233417311
-0.2161413095966588   -0.03342849171288317   -0.003747555233417311
-0.10274520627475912   0.003557145890117165   0.0015064285277699655
-0.10274520627475912   0.003557145890117165   0.0015064285277699655
-0.10274520627475912   0.003557145890117165   0.0015064285277699655
-0.10274520627475912   0.003557145890117165   0.0015064285277699655
-0.15539248503113906   -0.01272767027794144   -0.002723263014969693
-0.15539248503113906   -0.01272767027794144   -0.002723263014969693
-0.15539248503113906   -0.01272767027794144   -0.002723263014969693
-0.15539248503113906   -0.01272767027794144   -0.002723263014969693
-0.19039336720419947   0.008087139132673407   0.005410315116735386
-0.19039336720419947   0.008087139132673407   0.005410315116735386
-0.19039336720419947   0.008087139132673407   0.005410315116735386
-0.19039336720419947   0.008087139132673407   0.005410315116735386
-0.29444306540119225   -0.014597979571146273   -0.0034304699901020457
-0.29444306540119225   -0.014597979571146273   -0.0034304699901020457
-0.29444306540119225   -0.014597979571146273   -0.0034304699901020457
-0.29444306540119225   -0.014597979571146273   -0.0034304699901020457
-0.3007545254283533   -0.014921280651058182   0.005430736891010894
-0.3007545254283533   -0.014921280651058182   0.005430736891010894
-0.3007545254283533   -0.014921280651058182   0.005430736891010894
-0.3007545254283533   -0.014921280651058182   0.005430736891010894
-0.196407405623678   0.006611453764214167   -0.0010882212177573299
-0.196407405623678   0.006611453764214167   -0.0010882212177573299
-0.196407405623678   0.006611453764214167   -0.0010882212177573299
-0.196407405623678   0.006611453764214167   -0.0010882212177573299
-0.23400660405980286   -4.48193512741224e-05   0.006055805478378768
-0.23400660405980286   -4.48193512741224e-05   0.006055805478378768
-0.23400660405980286   -4.48193512741224e-05   0.006055805478378768
-0.23400660405980286   -4.48193512741224e-05   0.006055805478378768
-0.19479434132535975   0.006585266332456492   0.007003287705590748
-0.19479434132535975   0.006585266332456492   0.007003287705590748
-0.19479434132535975   0.006585266332456492   0.007003287705590748
-0.19479434132535975   0.006585266332456492   0.007003287705590748
-0.30223371333999943   -0.014761216832628599   -0.0021252664856496843
-0.30223371333999943   -0.014761216832628599   -0.0021252664856496843
-0.30223371333999943   -0.014761216832628599   -0.0021252664856496843
-0.30223371333999943   -0.014761216832628599   -0.0021252664856496843
-0.30861684591014255   -0.016983747739308663   0.007470477080271681
-0.30861684591014255   -0.016983747739308663   0.007470477080271681
-0.30861684591014255   -0.016983747739308663   0.007470477080271681
-0.30861684591014255   -0.016983747739308663   0.007470477080271681
-0.20217668580964665   0.005195443684929094   -0.0011828367155016003
-0.20217668580964665   0.005195443684929094   -0.0011828367155016003
-0.20217668580964665   0.005195443684929094   -0.0011828367155016003
-0.20217668580964665   0.005195443684929094   -0.0011828367155016003
-0.24462484043342322   -0.0024066205301782467   0.0037007754638832234
-0.24462484043342322   -0.0024066205301782467   0.0037007754638832234
-0.24462484043342322   -0.0024066205301782467   0.0037007754638832234
-0.24462484043342322   -0.0024066205301782467   0.0037007754638832234
-0.20069580493304737   0.004491472758785302   0.00692553859363867
-0.20069580493304737   0.004491472758785302   0.00692553859363867
-0.20069580493304737   0.004491472758785302   0.00692553859363867
-0.20069580493304737   0.004491472758785302   0.00692553859363867
-0.3103776553125354   -0.016559705338957155   -0.0017576123320440767
-0.3103776553125354   -0.016559705338957155   -0.0017576123320440767
-0.3103776553125354   -0.016559705338957155   -0.0017576123320440767
-0.3103776553125354   -0.016559705338957155   -0.0017576123320440767
-0.31991754218031265   -0.025730531226580304   0.006277061507951655
-0.31991754218031265   -0.025730531226580304   0.006277061507951655
-0.31991754218031265   -0.025730531226580304   0.006277061507951655
-0.31991754218031265   -0.025730531226580304   0.006277061507951655
-0.20883489944196795   0.0004992075391514195   -0.0011432037120015469
-0.20883489944196795   0.0004992075391514195   -0.0011432037120015469
-0.20883489944196795   0.0004992075391514195   -0.0011432037120015469
-0.20883489944196795   0.0004992075391514195   -0.0011432037120015469
-0.24839614805034516   -0.005511547219675679   0.0018216572561701241
-0.24839614805034516   -0.005511547219675679   0.0018216572561701241
-0.24839614805034516   -0.005511547219675679   0.0018216572561701241
-0.24839614805034516   -0.005511547219675679   0.0018216572561701241
0.1931998984412713   0.010770591197505498   -0.006110174245353653
0.1931998984412713   0.010770591197505498   -0.006110174245353653
0.1931998984412713   0.010770591197505498   -0.006110174245353653
0.1931998984412713   0.010770591197505498   -0.006110174245353653
0.09457059138508785   -0.0009378019333350432   0.0019952309376291147
0.09457059138508785   -0.0009378019333350432   0.0019952309376291147
0.09457059138508785   -0.0009378019333350432   0.0019952309376291147
0.09457059138508785   -0.0009378019333350432   0.0019952309376291147
0.08727495321226451   -0.013654979958103615   -0.005774227184194819
0.08727495321226451   -0.013654979958103615   -0.005774227184194819
0.08727495321226451   -0.013654979958103615   -0.005774227184194819
0.08727495321226451   -0.013654979958103615   -0.005774227184194819
0.18997681875328912   0.015226295630463339   0.0025302846241267397
0.18997681875328912   0.015226295630463339   0.0025302846241267397
0.18997681875328912   0.015226295630463339   0.0025302846241267397
0.18997681875328912   0.015226295630463339   0.0025302846241267397
0.13395239023313818   0.0011444728548275843   -0.004430514004545614
0.13395239023313818   0.0011444728548275843   -0.004430514004545614
0.13395239023313818   0.0011444728548275843   -0.004430514004545614
0.13395239023313818   0.0011444728548275843   -0.004430514004545614
0.1864605127651342   0.0061433228767273015   -0.005968272562909941
0.1864605127651342   0.0061433228767273015   -0.005968272562909941
0.1864605127651342   0.0061433228767273015   -0.005968272562909941
0.1864605127651342   0.0061433228767273015   -0.005968272562909941
0.09065684684976023   -0.004706419555026705   0.0021866806002054017
0.09065684684976023   -0.004706419555026705   0.0021866806002054017
0.09065684684976023   -0.004706419555026705   0.0021866806002054017
0.09065684684976023   -0.004706419555026705   0.0021866806002054017
0.08363419913921247   -0.01467423528359297   -0.005068288432516036
0.08363419913921247   -0.01467423528359297   -0.005068288432516036
0.08363419913921247   -0.01467423528359297   -0.005068288432516036
0.08363419913921247   -0.01467423528359297   -0.005068288432516036
0.1845573140737316   0.013784854130349092   0.0035783058800901834
0.1845573140737316   0.013784854130349092   0.0035783058800901834
0.1845573140737316   0.013784854130349092   0.0035783058800901834
0.1845573140737316   0.013784854130349092   0.0035783058800901834
0.1314088026561727   -0.0007819315425656864   -0.005566454630603745
0.1314088026561727   -0.0007819315425656864   -0.005566454630603745
0.1314088026561727   -0.0007819315425656864   -0.005566454630603745
0.1314088026561727   -0.0007819315425656864   -0.005566454630603745
0.18110078374451907   0.004874034164039628   -0.004793525799659646
0.18110078374451907   0.004874034164039628   -0.004793525799659646
0.18110078374451907   0.004874034164039628   -0.004793525799659646
0.18110078374451907   0.004874034164039628   -0.004793525799659646
0.08695565536874471   -0.005898489416963346   0.002763246848514877
0.08695565536874471   -0.005898489416963346   0.002763246848514877
0.08695565536874471   -0.005898489416963346   0.002763246848514877
0.08695565536874471   -0.005898489416963346   0.002763246848514877
0.08034879595342195   -0.014692976215645352   -0.004156730560196924
0.08034879595342195   -0.014692976215645352   -0.004156730560196924
0.08034879595342195   -0.014692976215645352   -0.004156730560196924
0.08034879595342195   -0.014692976215645352   -0.004156730560196924
0.1784487080656462   0.0127371351121267   0.004565314766725113
0.1784487080656462   0.0127371351121267   0.004565314766725113
0.1784487080656462   0.0127371351121267   0.004565314766725113
0.1784487080656462   0.0127371351121267   0.004565314766725113
0.12449480467574325   -0.0020168000378432208   -0.0074393613051686605
0.12449480467574325   -0.0020168000378432208   -0.0074393613051686605
0.12449480467574325   -0.0020168000378432208   -0.0074393613051686605
0.12449480467574325   -0.0020168000378432208   -0.0074393613051686605
0.09662700141646645   0.010426917260767379   0.0009125619004197185
0.09662700141646645   0.010426917260767379   0.0009125619004197185
0.09662700141646645   0.010426917260767379   0.0009125619004197185
0.09662700141646645   0.010426917260767379   0.0009125619004197185
0.001537608368886825   -0.0037709715948070557   -0.0006192100013411627
0.001537608368886825   -0.0037709715948070557   -0.0006192100013411627
0.001537608368886825   -0.0037709715948070557   -0.0006192100013411627
0.001537608368886825   -0.0037709715948070557   -0.0006192100013411627
-0.00397203795038459   -0.012405780686200806   -0.004053604769562015
-0.00397203795038459   -0.012405780686200806   -0.004053604769562015
-0.00397203795038459   -0.012405780686200806   -0.004053604769562015
-0.00397203795038459   -0.012405780686200806   -0.004053604769562015
0.09496235186417608   0.01395553558095343   0.005052250536304454
0.09496235186417608   0.01395553558095343   0.005052250536304454
0.09496235186417608   0.01395553558095343   0.005052250536304454
0.09496235186417608   0.01395553558095343   0.005052250536304454
0.046543661446755195   0.0019997161950270383   -0.00043984666677016667
0.046543661446755195   0.0019997161950270383   -0.00043984666677016667
0.046543661446755195   0.0019997161950270383   -0.00043984666677016667
0.046543661446755195   0.0019997161950270383   -0.00043984666677016667
0.09305062367140177   0.00808275135228849   0.0013663938010981171
0.09305062367140177   0.00808275135228849   0.0013663938010981171
0.09305062367140177   0.00808275135228849   0.0013663938010981171
0.09305062367140177   0.00808275135228849   0.0013663938010981171
-0.00202014381303566   -0.006492830512961203   -0.0002070842560569705
-0.00202014381303566   -0.006492830512961203   -0.0002070842560569705
-0.00202014381303566   -0.006492830512961203   -0.0002070842560569705
-0.00202014381303566   -0.006492830512961203   -0.0002070842560569705
-0.007417741795303075   -0.01404170145493923   -0.003547282827078234
-0.007417741795303075   -0.01404170145493923   -0.003547282827078234
-0.007417741795303075   -0.01404170145493923   -0.003547282827078234
-0.007417741795303075   -0.01404170145493923   -0.003547282827078234
0.0910529672013101   0.011786773344048141   0.005564543250330344
0.0910529672013101   0.011786773344048141   0.005564543250330344
0.0910529672013101   0.011786773344048141   0.005564543250330344
0.0910529672013101   0.011786773344048141   0.005564543250330344
0.042252521477546094   -0.00016922906387219216   -0.0016595650121574807
0.042252521477546094   -0.00016922906387219216   -0.0016595650121574807
0.042252521477546094   -0.00016922906387219216   -0.0016595650121574807
0.042252521477546094   -0.00016922906387219216   -0.0016595650121574807
0.08922061791431203   0.0063611175702322845   0.0018284525891565694
0.08922061791431203   0.0063611175702322845   0.0018284525891565694
0.08922061791431203   0.0063611175702322845   0.0018284525891565694
0.08922061791431203   0.0063611175702322845   0.0018284525891565694
-0.005584303876459292   -0.00861495704927754   0.0001931623614789919
-0.005584303876459292   -0.00861495704927754   0.0001931623614789919
-0.005584303876459292   -0.00861495704927754   0.0001931623614789919
-0.005584303876459292   -0.00861495704927754   0.0001931623614789919
-0.010815868407588263   -0.014923407563191621   -0.002892510691928792
-0.010815868407588263   -0.014923407563191621   -0.002892510691928792
-0.010815868407588263   -0.014923407563191621   -0.002892510691928792
-0.010815868407588263   -0.014923407563191621   -0.002892510691928792
0.08733156090731575   0.01003832679500312   0.006025791198622378
0.08733156090731575   0.01003832679500312   0.006025791198622378
0.08733156090731575   0.01003832679500312   0.006025791198622378
0.08733156090731575   0.01003832679500312   0.006025791198622378
0.03921104982346168   -0.0014439375487643007   -0.00252084150263019
0.03921104982346168   -0.0014439375487643007   -0.00252084150263019
0.03921104982346168   -0.0014439375487643007   -0.00252084150263019
0.03921104982346168   -0.0014439375487643007   -0.00252084150263019
0.004903513734975756   0.010197236274621772   0.0022421089596746657
0.004903513734975756   0.010197236274621772   0.0022421089596746657
0.004903513734975756   0.010197236274621772   0.0022421089596746657
0.004903513734975756   0.010197236274621772   0.0022421089596746657
-0.08885347607173985   -0.00616935745017045   -0.003001652065591006
-0.08885347607173985   -0.00616935745017045   -0.003001652065591006
-0.08885347607173985   -0.00616935745017045   -0.003001652065591006
-0.08885347607173985   -0.00616935745017045   -0.003001652065591006
-0.09314727104747039   -0.01162580753108518   -0.0027661720923037474
-0.09314727104747039   -0.01162580753108518   -0.0027661720923037474
-0.09314727104747039   -0.01162580753108518   -0.0027661720923037474
-0.09314727104747039   -0.01162580753108518   -0.0027661720923037474
0.0021228752196882066   0.011469285589017197   0.002545894805583964
0.0021228752196882066   0.011469285589017197   0.002545894805583964
0.0021228752196882066   0.011469285589017197   0.002545894805583964
0.0021228752196882066   0.011469285589017197   0.002545894805583964
-0.0436827222775414   0.0011162588170952597   0.00022188334240455217
-0.0436827222775414   0.0011162588170952597   0.00022188334240455217
-0.0436827222775414   0.0011162588170952597   0.00022188334240455217
-0.0436827222775414   0.0011162588170952597   0.00022188334240455217
0.001550234300808799   0.008414435930893527   0.0027375398693105964
0.001550234300808799   0.008414435930893527   0.0027375398693105964
0.001550234300808799   0.008414435930893527   0.0027375398693105964
0.001550234300808799   0.008414435930893527   0.0027375398693105964
-0.0924766735010699   -0.008473001245440428   -0.0025659906459460495
-0.0924766735010699   -0.008473001245440428   -0.0025659906459460495
-0.0924766735010699   -0.008473001245440428   -0.0025659906459460495
-0.0924766735010699   -0.008473001245440428   -0.0025659906459460495
-0.09683744268329494   -0.013411910182693186   -0.002373204924542162
-0.09683744268329494   -0.013411910182693186   -0.002373204924542162
-0.09683744268329494   -0.013411910182693186   -0.002373204924542162
-0.09683744268329494   -0.013411910182693186   -0.002373204924542162
-0.0014397638314079387   0.009244456412164901   0.0030564491252937946
-0.0014397638314079387   0.009244456412164901   0.0030564491252937946
-0.0014397638314079387   0.009244456412164901   0.0030564491252937946
-0.0014397638314079387   0.009244456412164901   0.0030564491252937946
-0.04722597533866801   -0.0006799103182204402   -0.0006696791673460093
-0.04722597533866801   -0.0006799103182204402   -0.0006696791673460093
-0.04722597533866801   -0.0006799103182204402   -0.0006696791673460093
-0.04722597533866801   -0.0006799103182204402   -0.0006696791673460093
-0.0019206155318051241   0.006687854699671776   0.0032087923358005152
-0.0019206155318051241   0.006687854699671776   0.0032087923358005152
-0.0019206155318051241   0.006687854699671776   0.0032087923358005152
-0.0019206155318051241   0.006687854699671776   0.0032087923358005152
-0.09627857373965316   -0.010777291226956582   -0.0022134791620684138
-0.09627857373965316   -0.010777291226956582   -0.0022134791620684138
-0.09627857373965316   -0.010777291226956582   -0.0022134791620684138
-0.09627857373965316   -0.010777291226956582   -0.0022134791620684138
-0.10049141476669068   -0.014796222663300355   -0.0017134868812998505
-0.10049141476669068   -0.014796222663300355   -0.0017134868812998505
-0.10049141476669068   -0.014796222663300355   -0.0017134868812998505
-0.10049141476669068   -0.014796222663300355   -0.0017134868812998505
-0.005135803543114149   0.007148793524371793   0.0034356125428778874
-0.005135803543114149   0.007148793524371793   0.0034356125428778874
-0.005135803543114149   0.007148793524371793   0.0034356125428778874
-0.005135803543114149   0.007148793524371793   0.0034356125428778874
-0.05104271790817796   -0.0025032186813416304   -0.0016572583160307866
-0.05104271790817796   -0.0025032186813416304   -0.0016572583160307866
-0.05104271790817796   -0.0025032186813416304   -0.0016572583160307866
-0.05104271790817796   -0.0025032186813416304   -0.0016572583160307866
-0.08395409579421238   0.011606889506094006   0.0037190023657837886
-0.08395409579421238   0.011606889506094006   0.0037190023657837886
-0.08395409579421238   0.011606889506094006   0.0037190023657837886
-0.08395409579421238   0.011606889506094006   0.0037190023657837886
-0.17704024488358205   -0.008350170187343506   -0.004820183534778718
-0.17704024488358205   -0.008350170187343506   -0.004820183534778718
-0.17704024488358205   -0.008350170187343506   -0.004820183534778718
-0.17704024488358205   -0.008350170187343506   -0.004820183534778718
-0.18036297668944173   -0.00980720300000092   -0.0011630667837530884
-0.18036297668944173   -0.00980720300000092   -0.0011630667837530884
-0.18036297668944173   -0.00980720300000092   -0.0011630667837530884
-0.18036297668944173   -0.00980720300000092   -0.0011630667837530884
-0.08849295859586498   0.00881271642918453   6.686620545501461e-05
-0.08849295859586498   0.00881271642918453   6.686620545501461e-05
-0.08849295859586498   0.00881271642918453   6.686620545501461e-05
-0.08849295859586498   0.00881271642918453   6.686620545501461e-05
-0.13149560749247835   0.0009064631263401776   0.0010025555413830448
-0.13149560749247835   0.0009064631263401776   0.0010025555413830448
-0.13149560749247835   0.0009064631263401776   0.0010025555413830448
-0.13149560749247835   0.0009064631263401776   0.0010025555413830448
-0.08747245254107727   0.009833281473448512   0.004148831435129618
-0.08747245254107727   0.009833281473448512   0.004148831435129618
-0.08747245254107727   0.009833281473448512   0.004148831435129618
-0.08747245254107727   0.009833281473448512   0.004148831435129618
-0.1812681021296727   -0.010712387429708398   -0.004783509555201891
-0.1812681021296727   -0.010712387429708398   -0.004783509555201891
-0.1812681021296727   -0.010712387429708398   -0.004783509555201891
-0.1812681021296727   -0.010712387429708398   -0.004783509555201891
-0.18489432263489947   -0.011829818086215357   -0.0011314164347810485
-0.18489432263489947   -0.011829818086215357   -0.0011314164347810485
-0.18489432263489947   -0.011829818086215357   -0.0011314164347810485
-0.18489432263489947   -0.011829818086215357   -0.0011314164347810485
-0.0922395608391488   0.006690218314975405   0.000514075798521336
-0.0922395608391488   0.006690218314975405   0.000514075798521336
-0.0922395608391488   0.006690218314975405   0.000514075798521336
-0.0922395608391488   0.006690218314975405   0.000514075798521336
-0.1345577364441018   -0.0006721220958222675   0.00028209781282760756
-0.1345577364441018   -0.0006721220958222675   0.00028209781282760756
-0.1345577364441018   -0.0006721220958222675   0.00028209781282760756
-0.1345577364441018   -0.0006721220958222675   0.00028209781282760756
-0.09111175230971465   0.008101372181592615   0.0047419645790739975
-0.09111175230971465   0.008101372181592615   0.0047419645790739975
-0.09111175230971465   0.008101372181592615   0.0047419645790739975
-0.09111175230971465   0.008101372181592615   0.0047419645790739975
-0.1857630835183556   -0.012981924306854947   -0.0043231146314236515
-0.1857630835183556   -0.012981924306854947   -0.0043231146314236515
-0.1857630835183556   -0.012981924306854947   -0.0043231146314236515
-0.1857630835183556   -0.012981924306854947   -0.0043231146314236515
-0.18904082127185654   -0.014020946595853907   -8.841890498028325e-05
-0.18904082127185654   -0.014020946595853907   -8.841890498028325e-05
-0.18904082127185654   -0.014020946595853907   -8.841890498028325e-05
-0.18904082127185654   -0.014020946595853907   -8.841890498028325e-05
-0.09621206232334006   0.004109809421307776   0.000777243250847077
-0.09621206232334006   0.004109809421307776   0.000777243250847077
-0.09621206232334006   0.004109809421307776   0.000777243250847077
-0.09621206232334006   0.004109809421307776   0.000777243250847077
-0.13963872989293685   -0.0030359735230948634   -0.0007405853996344603
-0.13963872989293685   -0.0030359735230948634   -0.0007405853996344603
-0.13963872989293685   -0.0030359735230948634   -0.0007405853996344603
-0.13963872989293685   -0.0030359735230948634   -0.0007405853996344603
-0.17104916663760558   0.011769918067620684   0.005015119440138367
-0.17104916663760558   0.011769918067620684   0.005015119440138367
-0.17104916663760558   0.011769918067620684   0.005015119440138367
-0.17104916663760558   0.011769918067620684   0.005015119440138367
-0.2620715949427423   -0.012235360004186215   -0.004117584051969729
-0.2620715949427423   -0.012235360004186215   -0.004117584051969729
-0.2620715949427423   -0.012235360004186215   -0.004117584051969729
-0.2620715949427423   -0.012235360004186215   -0.004117584051969729
-0.2651338420972924   -0.006089578302058141   0.00413305492449555
-0.2651338420972924   -0.006089578302058141   0.00413305492449555
-0.2651338420972924   -0.006089578302058141   0.00413305492449555
-0.2651338420972924   -0.006089578302058141   0.00413305492449555
-0.1774357396427255   0.005745969915805026   -0.0020800544659777993
-0.1774357396427255   0.005745969915805026   -0.0020800544659777993
-0.1774357396427255   0.005745969915805026   -0.0020800544659777993
-0.1774357396427255   0.005745969915805026   -0.0020800544659777993
-0.20915853332032214   0.0022302035947995985   0.005019346077272016
-0.20915853332032214   0.0022302035947995985   0.005019346077272016
-0.20915853332032214   0.0022302035947995985   0.005019346077272016
-0.20915853332032214   0.0022302035947995985   0.005019346077272016
-0.17454213891356066   0.012357445974098998   0.0057764731215494795
-0.17454213891356066   0.012357445974098998   0.0057764731215494795
-0.17454213891356066   0.012357445974098998   0.0057764731215494795
-0.17454213891356066   0.012357445974098998   0.0057764731215494795
-0.26785911865180284   -0.012532730185697373   -0.0030501759644124098
-0.26785911865180284   -0.012532730185697373   -0.0030501759644124098
-0.26785911865180284   -0.012532730185697373   -0.0030501759644124098
-0.26785911865180284   -0.012532730185697373   -0.0030501759644124098
-0.2707817350016108   -0.007151587813179865   0.0056870549859177905
-0.2707817350016108   -0.007151587813179865   0.0056870549859177905
-0.2707817350016108   -0.007151587813179865   0.0056870549859177905
-0.2707817350016108   -0.007151587813179865   0.0056870549859177905
-0.1817626719384039   0.004530804160406368   -0.001833785198925032
-0.1817626719384039   0.004530804160406368   -0.001833785198925032
-0.1817626719384039   0.004530804160406368   -0.001833785198925032
-0.1817626719384039   0.004530804160406368   -0.001833785198925032
-0.21737339834686692   0.001144473101280602   0.003462210487637944
-0.21737339834686692   0.001144473101280602   0.003462210487637944
-0.21737339834686692   0.001144473101280602   0.003462210487637944
-0.21737339834686692   0.001144473101280602   0.003462210487637944
-0.1785602833511889   0.011580903249360175   0.007128058648196061
-0.1785602833511889   0.011580903249360175   0.007128058648196061
-0.1785602833511889   0.011580903249360175   0.007128058648196061
-0.1785602833511889   0.011580903249360175   0.007128058648196061
-0.27381136546415874   -0.014028928777465782   -0.0025837563625309545
-0.27381136546415874   -0.014028928777465782   -0.0025837563625309545
-0.27381136546415874   -0.014028928777465782   -0.0025837563625309545
-0.27381136546415874   -0.014028928777465782   -0.0025837563625309545
-0.27845885824541977   -0.012093047759693873   0.00551947859723155
-0.27845885824541977   -0.012093047759693873   0.00551947859723155
-0.27845885824541977   -0.012093047759693873   0.00551947859723155
-0.27845885824541977   -0.012093047759693873   0.00551947859723155
-0.18645268315938873   0.0005799789664700933   -0.0017486539049651265
-0.18645268315938873   0.0005799789664700933   -0.0017486539049651265
-0.18645268315938873   0.0005799789664700933   -0.0017486539049651265
-0.18645268315938873   0.0005799789664700933   -0.0017486539049651265
-0.21916722165178928   -0.0005549611723282208   0.003074523596334231
-0.21916722165178928   -0.0005549611723282208   0.003074523596334231
-0.21916722165178928   -0.0005549611723282208   0.003074523596334231
-0.21916722165178928   -0.0005549611723282208   0.003074523596334231
0.15153611283825694   0.008766284409144242   -0.006449858803143519
0.15153611283825694   0.008766284409144242   -0.006449858803143519
0.15153611283825694   0.008766284409144242   -0.006449858803143519
0.15153611283825694   0.008766284409144242   -0.006449858803143519
0.0712587664994065   0.0006943257192241307   0.002283815355966493
0.0712587664994065   0.0006943257192241307   0.002283815355966493
0.0712587664994065   0.0006943257192241307   0.002283815355966493
0.0712587664994065   0.0006943257192241307   0.002283815355966493
0.06417966672207251   -0.01168569835652783   -0.0062325332796125095
0.06417966672207251   -0.01168569835652783   -0.0062325332796125095
0.06417966672207251   -0.01168569835652783   -0.0062325332796125095
0.06417966672207251   -0.01168569835652783   -0.0062325332796125095
0.14870316964226155   0.013531934211552611   0.0028499651955034237
0.14870316964226155   0.013531934211552611   0.0028499651955034237
0.14870316964226155   0.013531934211552611   0.0028499651955034237
0.14870316964226155   0.013531934211552611   0.0028499651955034237
0.10329392250090487   0.0013672201527260217   -0.0030744311630053747
0.10329392250090487   0.0013672201527260217   -0.0030744311630053747
0.10329392250090487   0.0013672201527260217   -0.0030744311630053747
0.10329392250090487   0.0013672201527260217   -0.0030744311630053747
0.14509497395490434   0.004510044950012521   -0.006169123979742582
0.14509497395490434   0.004510044950012521   -0.006169123979742582
0.14509497395490434   0.004510044950012521   -0.006169123979742582
0.14509497395490434   0.004510044950012521   -0.006169123979742582
0.06772256047309198   -0.002729111031325615   0.002525348150281886
0.06772256047309198   -0.002729111031325615   0.002525348150281886
0.06772256047309198   -0.002729111031325615   0.002525348150281886
0.06772256047309198   -0.002729111031325615   0.002525348150281886
0.06090744808342034   -0.01273454509598031   -0.005368824261253251
0.06090744808342034   -0.01273454509598031   -0.005368824261253251
0.06090744808342034   -0.01273454509598031   -0.005368824261253251
0.06090744808342034   -0.01273454509598031   -0.005368824261253251
0.1436056746184788   0.012007604346009806   0.0038465274589479714
0.1436056746184788   0.012007604346009806   0.0038465274589479714
0.1436056746184788   0.012007604346009806   0.0038465274589479714
0.1436056746184788   0.012007604346009806   0.0038465274589479714
0.10060863022922482   -0.0005169655691563205   -0.004105870247126007
0.10060863022922482   -0.0005169655691563205   -0.004105870247126007
0.10060863022922482   -0.0005169655691563205   -0.004105870247126007
0.10060863022922482   -0.0005169655691563205   -0.004105870247126007
0.14006257480575135   0.003164976374167419   -0.005026343632845617
0.14006257480575135   0.003164976374167419   -0.005026343632845617
0.14006257480575135   0.003164976374167419   -0.005026343632845617
0.14006257480575135   0.003164976374167419   -0.005026343632845617
0.06435353579201254   -0.003988929228273069   0.003115998413999856
0.06435353579201254   -0.003988929228273069   0.003115998413999856
0.06435353579201254   -0.003988929228273069   0.003115998413999856
0.06435353579201254   -0.003988929228273069   0.003115998413999856
0.057992159505488354   -0.013163737959790252   -0.004482502032701823
0.057992159505488354   -0.013163737959790252   -0.004482502032701823
0.057992159505488354   -0.013163737959790252   -0.004482502032701823
0.057992159505488354   -0.013163737959790252   -0.004482502032701823
0.1378268623344814   0.010514577242216199   0.004652795511747509
0.1378268623344814   0.010514577242216199   0.004652795511747509
0.1378268623344814   0.010514577242216199   0.004652795511747509
0.1378268623344814   0.010514577242216199   0.004652795511747509
0.09455361288131356   -0.0018644603314583764   -0.005760994456611874
0.09455361288131356   -0.0018644603314583764   -0.005760994456611874
0.09455361288131356   -0.0018644603314583764   -0.005760994456611874
0.09455361288131356   -0.0018644603314583764   -0.005760994456611874
0.07276849303234345   0.01058700173844115   -6.0227998564429215e-05
0.07276849303234345   0.01058700173844115   -6.0227998564429215e-05
0.07276849303234345   0.01058700173844115   -6.0227998564429215e-05
0.07276849303234345   0.01058700173844115   -6.0227998564429215e-05
-0.00554792206741798   -0.0015627493597086522   -0.00024699565036181254
-0.00554792206741798   -0.0015627493597086522   -0.00024699565036181254
-0.00554792206741798   -0.0015627493597086522   -0.00024699565036181254
-0.00554792206741798   -0.0015627493597086522   -0.00024699565036181254
-0.010540535172880408   -0.008970438345693122   -0.004074732059871823
-0.010540535172880408   -0.008970438345693122   -0.004074732059871823
-0.010540535172880408   -0.008970438345693122   -0.004074732059871823
-0.010540535172880408   -0.008970438345693122   -0.004074732059871823
0.07116621238428446   0.012406714404851162   0.0046077822700674904
0.07116621238428446   0.012406714404851162   0.0046077822700674904
0.07116621238428446   0.012406714404851162   0.0046077822700674904
0.07116621238428446   0.012406714404851162   0.0046077822700674904
0.031458060850787374   0.002964165320312148   0.0002797065687055397
0.031458060850787374   0.002964165320312148   0.0002797065687055397
0.031458060850787374   0.002964165320312148   0.0002797065687055397
0.031458060850787374   0.002964165320312148   0.0002797065687055397
0.06944512845536618   0.00793621349833016   0.00047286353199800946
0.06944512845536618   0.00793621349833016   0.00047286353199800946
0.06944512845536618   0.00793621349833016   0.00047286353199800946
0.06944512845536618   0.00793621349833016   0.00047286353199800946
-0.008793922077873858   -0.004474408273083698   0.00016230334255150456
-0.008793922077873858   -0.004474408273083698   0.00016230334255150456
-0.008793922077873858   -0.004474408273083698   0.00016230334255150456
-0.008793922077873858   -0.004474408273083698   0.00016230334255150456
-0.01361514999366376   -0.010942981898887814   -0.0034161157693679126
-0.01361514999366376   -0.010942981898887814   -0.0034161157693679126
-0.01361514999366376   -0.010942981898887814   -0.0034161157693679126
-0.01361514999366376   -0.010942981898887814   -0.0034161157693679126
0.06752800463410101   0.009972628506183608   0.005026784889985538
0.06752800463410101   0.009972628506183608   0.005026784889985538
0.06752800463410101   0.009972628506183608   0.005026784889985538
0.06752800463410101   0.009972628506183608   0.005026784889985538
0.027597033536213546   0.0005329556345047342   -0.0009327883324114531
0.027597033536213546   0.0005329556345047342   -0.0009327883324114531
0.027597033536213546   0.0005329556345047342   -0.0009327883324114531
0.027597033536213546   0.0005329556345047342   -0.0009327883324114531
0.0658687702031519   0.005814727952196064   0.0008885132892281497
0.0658687702031519   0.005814727952196064   0.0008885132892281497
0.0658687702031519   0.005814727952196064   0.0008885132892281497
0.0658687702031519   0.005814727952196064   0.0008885132892281497
-0.011988302428482053   -0.006817468210665015   0.0005926083683178243
-0.011988302428482053   -0.006817468210665015   0.0005926083683178243
-0.011988302428482053   -0.006817468210665015   0.0005926083683178243
-0.011988302428482053   -0.006817468210665015   0.0005926083683178243
-0.016639195569894055   -0.01252077880586856   -0.0027989803285262123
-0.016639195569894055   -0.01252077880586856   -0.0027989803285262123
-0.016639195569894055   -0.01252077880586856   -0.0027989803285262123
-0.016639195569894055   -0.01252077880586856   -0.0027989803285262123
0.06416771360791025   0.007795758913986028   0.005435771605631216
0.06416771360791025   0.007795758913986028   0.005435771605631216
0.06416771360791025   0.007795758913986028   0.005435771605631216
0.06416771360791025   0.007795758913986028   0.005435771605631216
0.024746540833989132   -0.0012123035383501176   -0.0019102350658099163
0.024746540833989132   -0.0012123035383501176   -0.0019102350658099163
0.024746540833989132   -0.0012123035383501176   -0.0019102350658099163
0.024746540833989132   -0.0012123035383501176   -0.0019102350658099163
-0.002420767066799151   0.012068933968783857   0.0017570960242398246
-0.002420767066799151   0.012068933968783857   0.0017570960242398246
-0.002420767066799151   0.012068933968783857   0.0017570960242398246
-0.002420767066799151   0.012068933968783857   0.0017570960242398246
-0.08077051220563529   -0.004000236546075718   -0.002672683425301956
-0.08077051220563529   -0.004000236546075718   -0.002672683425301956
-0.08077051220563529   -0.004000236546075718   -0.002672683425301956
-0.08077051220563529   -0.004000236546075718   -0.002672683425301956
-0.08397895226977158   -0.00668628545106688   -0.002130132905376637
-0.08397895226977158   -0.00668628545106688   -0.002130132905376637
-0.08397895226977158   -0.00668628545106688   -0.002130132905376637
-0.08397895226977158   -0.00668628545106688   -0.002130132905376637
-0.005516057205855093   0.0100044101963913   0.002072809233170803
-0.005516057205855093   0.0100044101963913   0.002072809233170803
-0.005516057205855093   0.0100044101963913   0.002072809233170803
-0.005516057205855093   0.0100044101963913   0.002072809233170803
-0.04306587765518624   0.0028432933495205117   0.000834588511922836
-0.04306587765518624   0.0028432933495205117   0.000834588511922836
-0.04306587765518624   0.0028432933495205117   0.000834588511922836
-0.04306587765518624   0.0028432933495205117   0.000834588511922836
-0.005470822826101359   0.009918371070340538   0.002385020257990238
-0.005470822826101359   0.009918371070340538   0.002385020257990238
-0.005470822826101359   0.009918371070340538   0.002385020257990238
-0.005470822826101359   0.009918371070340538   0.002385020257990238
-0.08396906100187285   -0.006545120677363648   -0.0022218413395861864
-0.08396906100187285   -0.006545120677363648   -0.0022218413395861864
-0.08396906100187285   -0.006545120677363648   -0.0022218413395861864
-0.08396906100187285   -0.006545120677363648   -0.0022218413395861864
-0.08713110061129652   -0.008818287429846071   -0.0015659333048724995
-0.08713110061129652   -0.008818287429846071   -0.0015659333048724995
-0.08713110061129652   -0.008818287429846071   -0.0015659333048724995
-0.08713110061129652   -0.008818287429846071   -0.0015659333048724995
-0.008729153072800238   0.0075006234482324335   0.002570263487829455
-0.008729153072800238   0.0075006234482324335   0.002570263487829455
-0.008729153072800238   0.0075006234482324335   0.002570263487829455
-0.008729153072800238   0.0075006234482324335   0.002570263487829455
-0.046250914864377074   0.0006999233800027427   -0.000131866758044438
-0.046250914864377074   0.0006999233800027427   -0.000131866758044438
-0.046250914864377074   0.0006999233800027427   -0.000131866758044438
-0.046250914864377074   0.0006999233800027427   -0.000131866758044438
-0.008616441094454561   0.007770600416712394   0.002863846411077877
-0.008616441094454561   0.007770600416712394   0.002863846411077877
-0.008616441094454561   0.007770600416712394   0.002863846411077877
-0.008616441094454561   0.007770600416712394   0.002863846411077877
-0.08723503232377897   -0.009079484132464084   -0.001824395164666745
-0.08723503232377897   -0.009079484132464084   -0.001824395164666745
-0.08723503232377897   -0.009079484132464084   -0.001824395164666745
-0.08723503232377897   -0.009079484132464084   -0.001824395164666745
-0.09023380155435694   -0.010758064460808242   -0.0010006793717795
-0.09023380155435694   -0.010758064460808242   -0.0010006793717795
-0.09023380155435694   -0.010758064460808242   -0.0010006793717795
-0.09023380155435694   -0.010758064460808242   -0.0010006793717795
-0.01196397916108228   0.005079463538111094   0.0029768593715530003
-0.01196397916108228   0.005079463538111094   0.0029768593715530003
-0.01196397916108228   0.005079463538111094   0.0029768593715530003
-0.01196397916108228   0.005079463538111094   0.0029768593715530003
-0.04959103789755101   -0.001456090257093489   -0.001215289613543853
-0.04959103789755101   -0.001456090257093489   -0.001215289613543853
-0.04959103789755101   -0.001456090257093489   -0.001215289613543853
-0.04959103789755101   -0.001456090257093489   -0.001215289613543853
-0.07603302297508892   0.013515180114649982   0.0034993460667032674
-0.07603302297508892   0.013515180114649982   0.0034993460667032674
-0.07603302297508892   0.013515180114649982   0.0034993460667032674
-0.07603302297508892   0.013515180114649982   0.0034993460667032674
-0.15484319425887105   -0.00653030347637976   -0.004704741149023761
-0.15484319425887105   -0.00653030347637976   -0.004704741149023761
-0.15484319425887105   -0.00653030347637976   -0.004704741149023761
-0.15484319425887105   -0.00653030347637976   -0.004704741149023761
-0.15657193705013128   -0.004820573009253856   -2.060253247063333e-05
-0.15657193705013128   -0.004820573009253856   -2.060253247063333e-05
-0.15657193705013128   -0.004820573009253856   -2.060253247063333e-05
-0.15657193705013128   -0.004820573009253856   -2.060253247063333e-05
-0.08084915737213162   0.007267434400952375   -0.00043487826919560383
-0.08084915737213162   0.007267434400952375   -0.00043487826919560383
-0.08084915737213162   0.007267434400952375   -0.00043487826919560383
-0.08084915737213162   0.007267434400952375   -0.00043487826919560383
-0.11628416840636392   0.0024744684940777757   0.0014031978322069085
-0.11628416840636392   0.0024744684940777757   0.0014031978322069085
-0.11628416840636392   0.0024744684940777757   0.0014031978322069085
-0.11628416840636392   0.0024744684940777757   0.0014031978322069085
-0.07909466532869738   0.011500004259425847   0.004105012089501664
-0.07909466532869738   0.011500004259425847   0.004105012089501664
-0.07909466532869738   0.011500004259425847   0.004105012089501664
-0.07909466532869738   0.011500004259425847   0.004105012089501664
-0.15832457958023513   -0.009051293354398322   -0.004553094837845548
-0.15832457958023513   -0.009051293354398322   -0.004553094837845548
-0.15832457958023513   -0.009051293354398322   -0.004553094837845548
-0.15832457958023513   -0.009051293354398322   -0.004553094837845548
-0.16025126690437558   -0.006981740690223285   0.00016598683775465115
-0.16025126690437558   -0.006981740690223285   0.00016598683775465115
-0.16025126690437558   -0.006981740690223285   0.00016598683775465115
-0.16025126690437558   -0.006981740690223285   0.00016598683775465115
-0.08405346411099435   0.004944716327275365   5.9245439517316076e-05
-0.08405346411099435   0.004944716327275365   5.9245439517316076e-05
-0.08405346411099435   0.004944716327275365   5.9245439517316076e-05
-0.08405346411099435   0.004944716327275365   5.9245439517316076e-05
-0.11888033513062568   0.0006172401803455803   0.0005158479486033546
-0.11888033513062568   0.0006172401803455803   0.0005158479486033546
-0.11888033513062568   0.0006172401803455803   0.0005158479486033546
-0.11888033513062568   0.0006172401803455803   0.0005158479486033546
-0.08221778241751586   0.009523527405362293   0.00465884282882282
-0.08221778241751586   0.009523527405362293   0.00465884282882282
-0.08221778241751586   0.009523527405362293   0.00465884282882282
-0.08221778241751586   0.009523527405362293   0.00465884282882282
-0.1619983450126835   -0.011471948183139659   -0.004079196210868644
-0.1619983450126835   -0.011471948183139659   -0.004079196210868644
-0.1619983450126835   -0.011471948183139659   -0.004079196210868644
-0.1619983450126835   -0.011471948183139659   -0.004079196210868644
-0.16356033932283082   -0.009346386265572198   0.0008445418159379473
-0.16356033932283082   -0.009346386265572198   0.0008445418159379473
-0.16356033932283082   -0.009346386265572198   0.0008445418159379473
-0.16356033932283082   -0.009346386265572198   0.0008445418159379473
-0.08735215632685352   0.0022345045364321574   0.00041497776849769036
-0.08735215632685352   0.0022345045364321574   0.00041497776849769036
-0.08735215632685352   0.0022345045364321574   0.00041497776849769036
-0.08735215632685352   0.0022345045364321574   0.00041497776849769036
-0.12309108032590718   -0.0018261272020028627   -0.0006554881136156664
-0.12309108032590718   -0.0018261272020028627   -0.0006554881136156664
-0.12309108032590718   -0.0018261272020028627   -0.0006554881136156664
-0.12309108032590718   -0.0018261272020028627   -0.0006554881136156664
-0.1492012127947219   0.012131004812400224   0.004843857882942058
-0.1492012127947219   0.012131004812400224   0.004843857882942058
-0.1492012127947219   0.012131004812400224   0.004843857882942058
-0.1492012127947219   0.012131004812400224   0.004843857882942058
-0.22642824757890173   -0.010596575448708373   -0.004867038360310279
-0.22642824757890173   -0.010596575448708373   -0.004867038360310279
-0.22642824757890173   -0.010596575448708373   -0.004867038360310279
-0.22642824757890173   -0.010596575448708373   -0.004867038360310279
-0.2285607802981715   -0.0031840595276377975   0.004394838972254112
-0.2285607802981715   -0.0031840595276377975   0.004394838972254112
-0.2285607802981715   -0.0031840595276377975   0.004394838972254112
-0.2285607802981715   -0.0031840595276377975   0.004394838972254112
-0.15532194307204295   0.00408602047091601   -0.002677226122198938
-0.15532194307204295   0.00408602047091601   -0.002677226122198938
-0.15532194307204295   0.00408602047091601   -0.002677226122198938
-0.15532194307204295   0.00408602047091601   -0.002677226122198938
-0.181401549736968   0.0024978319197123816   0.004609617310839226
-0.181401549736968   0.0024978319197123816   0.004609617310839226
-0.181401549736968   0.0024978319197123816   0.004609617310839226
-0.181401549736968   0.0024978319197123816   0.004609617310839226
-0.15198696963136793   0.012390389268075272   0.00569327228401589
-0.15198696963136793   0.012390389268075272   0.00569327228401589
-0.15198696963136793   0.012390389268075272   0.00569327228401589
-0.15198696963136793   0.012390389268075272   0.00569327228401589
-0.23185384648521584   -0.011446521071166248   -0.0038080304194373655
-0.23185384648521584   -0.011446521071166248   -0.0038080304194373655
-0.23185384648521584   -0.011446521071166248   -0.0038080304194373655
-0.23185384648521584   -0.011446521071166248   -0.0038080304194373655
-0.23341180481709126   -0.004336561257931033   0.005478520588082984
-0.23341180481709126   -0.004336561257931033   0.005478520588082984
-0.23341180481709126   -0.004336561257931033   0.005478520588082984
-0.23341180481709126   -0.004336561257931033   0.005478520588082984
-0.15877907859928567   0.0028157697031307646   -0.002270582030149834
-0.15877907859928567   0.0028157697031307646   -0.002270582030149834
-0.15877907859928567   0.0028157697031307646   -0.002270582030149834
-0.15877907859928567   0.0028157697031307646   -0.002270582030149834
-0.18854553966632237   0.0012395872292911558   0.003004603443419641
-0.18854553966632237   0.0012395872292911558   0.003004603443419641
-0.18854553966632237   0.0012395872292911558   0.003004603443419641
-0.18854553966632237   0.0012395872292911558   0.003004603443419641
-0.1552434672261213   0.011538375875340366   0.00668486866346236
-0.1552434672261213   0.011538375875340366   0.00668486866346236
-0.1552434672261213   0.011538375875340366   0.00668486866346236
-0.1552434672261213   0.011538375875340366   0.00668486866346236
-0.23686269726675535   -0.012974448506638772   -0.00313805441152782
-0.23686269726675535   -0.012974448506638772   -0.00313805441152782
-0.23686269726675535   -0.012974448506638772   -0.00313805441152782
-0.23686269726675535   -0.012974448506638772   -0.00313805441152782
-0.2398241558866091   -0.008688219308633421   0.0052818274467453
-0.2398241558866091   -0.008688219308633421   0.0052818274467453
-0.2398241558866091   -0.008688219308633421   0.0052818274467453
-0.2398241558866091   -0.008688219308633421   0.0052818274467453
-0.16246457014263624   -0.0009541224570251833   -0.0020688760916362965
-0.16246457014263624   -0.0009541224570251833   -0.0020688760916362965
-0.16246457014263624   -0.0009541224570251833   -0.0020688760916362965
-0.16246457014263624   -0.0009541224570251833   -0.0020688760916362965
-0.18990509211325007   -0.00041584737759146895   0.0025541000949580277
-0.18990509211325007   -0.00041584737759146895   0.0025541000949580277
-0.18990509211325007   -0.00041584737759146895   0.0025541000949580277
-0.18990509211325007   -0.00041584737759146895   0.0025541000949580277
0.10892758372953755   0.006467727425192858   -0.006517993344313258
0.10892758372953755   0.006467727425192858   -0.006517993344313258
0.10892758372953755   0.006467727425192858   -0.006517993344313258
0.10892758372953755   0.006467727425192858   -0.006517993344313258
0.0464854493571494   0.002241874646853159   0.0026498411285014855
0.0464854493571494   0.002241874646853159   0.0026498411285014855
0.0464854493571494   0.002241874646853159   0.0026498411285014855
0.0464854493571494   0.002241874646853159   0.0026498411285014855
0.03987980106359853   -0.010030105331550694   -0.006136863941350067
0.03987980106359853   -0.010030105331550694   -0.006136863941350067
0.03987980106359853   -0.010030105331550694   -0.006136863941350067
0.03987980106359853   -0.010030105331550694   -0.006136863941350067
0.10678393173109264   0.011869649391291967   0.003237139650476043
0.10678393173109264   0.011869649391291967   0.003237139650476043
0.10678393173109264   0.011869649391291967   0.003237139650476043
0.10678393173109264   0.011869649391291967   0.003237139650476043
0.07153676480600489   0.0015454097668125052   -0.0019406687173960159
0.07153676480600489   0.0015454097668125052   -0.0019406687173960159
0.07153676480600489   0.0015454097668125052   -0.0019406687173960159
0.07153676480600489   0.0015454097668125052   -0.0019406687173960159
0.10305429850027968   0.002603242934663328   -0.0061446200469611
0.10305429850027968   0.002603242934663328   -0.0061446200469611
0.10305429850027968   0.002603242934663328   -0.0061446200469611
0.10305429850027968   0.002603242934663328   -0.0061446200469611
0.04353813926066784   -0.0008349939086657564   0.0029597156211122353
0.04353813926066784   -0.0008349939086657564   0.0029597156211122353
0.04353813926066784   -0.0008349939086657564   0.0029597156211122353
0.04353813926066784   -0.0008349939086657564   0.0029597156211122353
0.037106954601248014   -0.0111164951174915   -0.005275249841320085
0.037106954601248014   -0.0111164951174915   -0.005275249841320085
0.037106954601248014   -0.0111164951174915   -0.005275249841320085
0.037106954601248014   -0.0111164951174915   -0.005275249841320085
0.10219545241884152   0.010319572370395531   0.004257936917815095
0.10219545241884152   0.010319572370395531   0.004257936917815095
0.10219545241884152   0.010319572370395531   0.004257936917815095
0.10219545241884152   0.010319572370395531   0.004257936917815095
0.06885472680175808   -0.00029346178639545924   -0.002973181689625621
0.06885472680175808   -0.00029346178639545924   -0.002973181689625621
0.06885472680175808   -0.00029346178639545924   -0.002973181689625621
0.06885472680175808   -0.00029346178639545924   -0.002973181689625621
0.09850596493659146   0.0012036427443609075   -0.005073570867401495
0.09850596493659146   0.0012036427443609075   -0.005073570867401495
0.09850596493659146   0.0012036427443609075   -0.005073570867401495
0.09850596493659146   0.0012036427443609075   -0.005073570867401495
0.040682176455713946   -0.002114831119241097   0.003599195432759525
0.040682176455713946   -0.002114831119241097   0.003599195432759525
0.040682176455713946   -0.002114831119241097   0.003599195432759525
0.040682176455713946   -0.002114831119241097   0.003599195432759525
0.034654323578475366   -0.011933022133276152   -0.0044126626097081975
0.034654323578475366   -0.011933022133276152   -0.0044126626097081975
0.034654323578475366   -0.011933022133276152   -0.0044126626097081975
0.034654323578475366   -0.011933022133276152   -0.0044126626097081975
0.0967929439041376   0.008399336486826121   0.0049283870469029
0.0967929439041376   0.008399336486826121   0.0049283870469029
0.0967929439041376   0.008399336486826121   0.0049283870469029
0.0967929439041376   0.008399336486826121   0.0049283870469029
0.06377593127459619   -0.0017355746901309404   -0.004483041505816748
0.06377593127459619   -0.0017355746901309404   -0.004483041505816748
0.06377593127459619   -0.0017355746901309404   -0.004483041505816748
0.06377593127459619   -0.0017355746901309404   -0.004483041505816748
0.047088293306777954   0.008829233291583902   -0.0009232977680873091
0.047088293306777954   0.008829233291583902   -0.0009232977680873091
0.047088293306777954   0.008829233291583902   -0.0009232977680873091
0.047088293306777954   0.008829233291583902   -0.0009232977680873091
-0.013549720349749238   0.0003041981427311354   0.00020590822104454647
-0.013549720349749238   0.0003041981427311354   0.00020590822104454647
-0.013549720349749238   0.0003041981427311354   0.00020590822104454647
-0.013549720349749238   0.0003041981427311354   0.00020590822104454647
-0.018068629588849364   -0.007134924896177461   -0.003865572261941803
-0.018068629588849364   -0.007134924896177461   -0.003865572261941803
-0.018068629588849364   -0.007134924896177461   -0.003865572261941803
-0.018068629588849364   -0.007134924896177461   -0.003865572261941803
0.04606165937405477   0.010521345064057684   0.004220977215323465
0.04606165937405477   0.010521345064057684   0.004220977215323465
0.04606165937405477   0.010521345064057684   0.004220977215323465
0.04606165937405477   0.010521345064057684   0.004220977215323465
0.015053874593345675   0.002969499688163732   0.0006003507612543835
0.015053874593345675   0.002969499688163732   0.0006003507612543835
0.015053874593345675   0.002969499688163732   0.0006003507612543835
0.015053874593345675   0.002969499688163732   0.0006003507612543835
0.04423093150239557   0.0060131986322306576   -0.0004245157111461426
0.04423093150239557   0.0060131986322306576   -0.0004245157111461426
0.04423093150239557   0.0060131986322306576   -0.0004245157111461426
0.04423093150239557   0.0060131986322306576   -0.0004245157111461426
-0.016272700203860943   -0.002661576951021321   0.0006407267178441593
-0.016272700203860943   -0.002661576951021321   0.0006407267178441593
-0.016272700203860943   -0.002661576951021321   0.0006407267178441593
-0.016272700203860943   -0.002661576951021321   0.0006407267178441593
-0.02063826627901614   -0.009300332732341082   -0.003171750389528428
-0.02063826627901614   -0.009300332732341082   -0.003171750389528428
-0.02063826627901614   -0.009300332732341082   -0.003171750389528428
-0.02063826627901614   -0.009300332732341082   -0.003171750389528428
0.04289648339468633   0.007964596482276029   0.004591302526104291
0.04289648339468633   0.007964596482276029   0.004591302526104291
0.04289648339468633   0.007964596482276029   0.004591302526104291
0.04289648339468633   0.007964596482276029   0.004591302526104291
0.011829137440965696   0.0004416747563532192   -0.0006127989315913582
0.011829137440965696   0.0004416747563532192   -0.0006127989315913582
0.011829137440965696   0.0004416747563532192   -0.0006127989315913582
0.011829137440965696   0.0004416747563532192   -0.0006127989315913582
0.04112387835407219   0.0036875175277020986   5.3562776068175055e-06
0.04112387835407219   0.0036875175277020986   5.3562776068175055e-06
0.04112387835407219   0.0036875175277020986   5.3562776068175055e-06
0.04112387835407219   0.0036875175277020986   5.3562776068175055e-06
-0.018944643534914363   -0.005102236074280913   0.001098266672920267
-0.018944643534914363   -0.005102236074280913   0.001098266672920267
-0.018944643534914363   -0.005102236074280913   0.001098266672920267
-0.018944643534914363   -0.005102236074280913   0.001098266672920267
-0.02316616652639127   -0.011264651662319502   -0.0025324011415949156
-0.02316616652639127   -0.011264651662319502   -0.0025324011415949156
-0.02316616652639127   -0.011264651662319502   -0.0025324011415949156
-0.02316616652639127   -0.011264651662319502   -0.0025324011415949156
0.04004086097708681   0.0055775864076595075   0.005009415842414219
0.04004086097708681   0.0055775864076595075   0.005009415842414219
0.04004086097708681   0.0055775864076595075   0.005009415842414219
0.04004086097708681   0.0055775864076595075   0.005009415842414219
0.009325745547784162   -0.0015697592487781218   -0.0016579322449757333
0.009325745547784162   -0.0015697592487781218   -0.0016579322449757333
0.009325745547784162   -0.0015697592487781218   -0.0016579322449757333
0.009325745547784162   -0.0015697592487781218   -0.0016579322449757333
-0.011317618131901037   0.010632502036944439   0.0010381154160722422
-0.011317618131901037   0.010632502036944439   0.0010381154160722422
-0.011317618131901037   0.010632502036944439   0.0010381154160722422
-0.011317618131901037   0.010632502036944439   0.0010381154160722422
-0.07261054626999504   -0.0023013788825691685   -0.0022582850127982486
-0.07261054626999504   -0.0023013788825691685   -0.0022582850127982486
-0.07261054626999504   -0.0023013788825691685   -0.0022582850127982486
-0.07261054626999504   -0.0023013788825691685   -0.0022582850127982486
-0.0751791665169482   -0.00468088219597017   -0.0016905434175434283
-0.0751791665169482   -0.00468088219597017   -0.0016905434175434283
-0.0751791665169482   -0.00468088219597017   -0.0016905434175434283
-0.0751791665169482   -0.00468088219597017   -0.0016905434175434283
-0.013934745199393285   0.008000717638825993   0.0016682071503346602
-0.013934745199393285   0.008000717638825993   0.0016682071503346602
-0.013934745199393285   0.008000717638825993   0.0016682071503346602
-0.013934745199393285   0.008000717638825993   0.0016682071503346602
-0.04314813336958846   0.0028464344593078957   0.000893153114181242
-0.04314813336958846   0.0028464344593078957   0.000893153114181242
-0.04314813336958846   0.0028464344593078957   0.000893153114181242
-0.04314813336958846   0.0028464344593078957   0.000893153114181242
-0.013879192062564131   0.008255466227563927   0.0016912242457429753
-0.013879192062564131   0.008255466227563927   0.0016912242457429753
-0.013879192062564131   0.008255466227563927   0.0016912242457429753
-0.013879192062564131   0.008255466227563927   0.0016912242457429753
-0.07525127983269199   -0.004952190963622646   -0.0017798012286098447
-0.07525127983269199   -0.004952190963622646   -0.0017798012286098447
-0.07525127983269199   -0.004952190963622646   -0.0017798012286098447
-0.07525127983269199   -0.004952190963622646   -0.0017798012286098447
-0.07778120257033606   -0.00704050859625191   -0.0010833472370564362
-0.07778120257033606   -0.00704050859625191   -0.0010833472370564362
-0.07778120257033606   -0.00704050859625191   -0.0010833472370564362
-0.07778120257033606   -0.00704050859625191   -0.0010833472370564362
-0.01663466233351235   0.005371072436275663   0.002174864169373275
-0.01663466233351235   0.005371072436275663   0.002174864169373275
-0.01663466233351235   0.005371072436275663   0.002174864169373275
-0.01663466233351235   0.005371072436275663   0.002174864169373275
-0.04582031565971487   0.0005219478825265831   -0.00013598898124648562
-0.04582031565971487   0.0005219478825265831   -0.00013598898124648562
-0.04582031565971487   0.0005219478825265831   -0.00013598898124648562
-0.04582031565971487   0.0005219478825265831   -0.00013598898124648562
-0.016524787432554196   0.005872088417336489   0.0022232226931036964
-0.016524787432554196   0.005872088417336489   0.0022232226931036964
-0.016524787432554196   0.005872088417336489   0.0022232226931036964
-0.016524787432554196   0.005872088417336489   0.0022232226931036964
-0.07794582022042039   -0.007596267326439461   -0.0013506767572904759
-0.07794582022042039   -0.007596267326439461   -0.0013506767572904759
-0.07794582022042039   -0.007596267326439461   -0.0013506767572904759
-0.07794582022042039   -0.007596267326439461   -0.0013506767572904759
-0.08032794921296933   -0.009285540301853443   -0.00048418977638264057
-0.08032794921296933   -0.009285540301853443   -0.00048418977638264057
-0.08032794921296933   -0.009285540301853443   -0.00048418977638264057
-0.08032794921296933   -0.009285540301853443   -0.00048418977638264057
-0.019321369247689964   0.002819637370309021   0.0026072962192830863
-0.019321369247689964   0.002819637370309021   0.0026072962192830863
-0.019321369247689964   0.002819637370309021   0.0026072962192830863
-0.019321369247689964   0.002819637370309021   0.0026072962192830863
-0.04861265310570908   -0.001800992753799911   -0.0012575815461371236
-0.04861265310570908   -0.001800992753799911   -0.0012575815461371236
-0.04861265310570908   -0.001800992753799911   -0.0012575815461371236
-0.04861265310570908   -0.001800992753799911   -0.0012575815461371236
-0.06864825112040188   0.012249996459698743   0.003001815392899571
-0.06864825112040188   0.012249996459698743   0.003001815392899571
-0.06864825112040188   0.012249996459698743   0.003001815392899571
-0.06864825112040188   0.012249996459698743   0.003001815392899571
-0.13105500886566565   -0.004947323294470986   -0.004456872625020819
-0.13105500886566565   -0.004947323294470986   -0.004456872625020819
-0.13105500886566565   -0.004947323294470986   -0.004456872625020819
-0.13105500886566565   -0.004947323294470986   -0.004456872625020819
-0.13198899487897262   -0.002749089127219089   0.0006223415967881061
-0.13198899487897262   -0.002749089127219089   0.0006223415967881061
-0.13198899487897262   -0.002749089127219089   0.0006223415967881061
-0.13198899487897262   -0.002749089127219089   0.0006223415967881061
-0.07301804571474363   0.0052614062689520895   -0.0008272278714437625
-0.07301804571474363   0.0052614062689520895   -0.0008272278714437625
-0.07301804571474363   0.0052614062689520895   -0.0008272278714437625
-0.07301804571474363   0.0052614062689520895   -0.0008272278714437625
-0.10053828207273495   0.0024654540614431376   0.001267656261822298
-0.10053828207273495   0.0024654540614431376   0.001267656261822298
-0.10053828207273495   0.0024654540614431376   0.001267656261822298
-0.10053828207273495   0.0024654540614431376   0.001267656261822298
-0.07117063584763973   0.010020299921913028   0.0036509278111157726
-0.07117063584763973   0.010020299921913028   0.0036509278111157726
-0.07117063584763973   0.010020299921913028   0.0036509278111157726
-0.07117063584763973   0.010020299921913028   0.0036509278111157726
-0.13393157074519893   -0.00760314877930322   -0.004236478082261157
-0.13393157074519893   -0.00760314877930322   -0.004236478082261157
-0.13393157074519893   -0.00760314877930322   -0.004236478082261157
-0.13393157074519893   -0.00760314877930322   -0.004236478082261157
-0.13507259727848234   -0.00509317430775913   0.0008889254318328512
-0.13507259727848234   -0.00509317430775913   0.0008889254318328512
-0.13507259727848234   -0.00509317430775913   0.0008889254318328512
-0.13507259727848234   -0.00509317430775913   0.0008889254318328512
-0.0756515027326332   0.002828375809232248   -0.0003037324540272031
-0.0756515027326332   0.002828375809232248   -0.0003037324540272031
-0.0756515027326332   0.002828375809232248   -0.0003037324540272031
-0.0756515027326332   0.002828375809232248   -0.0003037324540272031
-0.10271733368086956   0.0003977627306261944   0.00024700887561168467
-0.10271733368086956   0.0003977627306261944   0.00024700887561168467
-0.10271733368086956   0.0003977627306261944   0.00024700887561168467
-0.10271733368086956   0.0003977627306261944   0.00024700887561168467
-0.07373434928515135   0.007848976935886293   0.004261433656728949
-0.07373434928515135   0.007848976935886293   0.004261433656728949
-0.07373434928515135   0.007848976935886293   0.004261433656728949
-0.07373434928515135   0.007848976935886293   0.004261433656728949
-0.13700574170585747   -0.010129766414306466   -0.0037402045984964724
-0.13700574170585747   -0.010129766414306466   -0.0037402045984964724
-0.13700574170585747   -0.010129766414306466   -0.0037402045984964724
-0.13700574170585747   -0.010129766414306466   -0.0037402045984964724
-0.13779011107255681   -0.007629910337136576   0.001530858146357312
-0.13779011107255681   -0.007629910337136576   0.001530858146357312
-0.13779011107255681   -0.007629910337136576   0.001530858146357312
-0.13779011107255681   -0.007629910337136576   0.001530858146357312
-0.07833651928831797   8.081887550151837e-05   0.00010660066951820313
-0.07833651928831797   8.081887550151837e-05   0.00010660066951820313
-0.07833651928831797   8.081887550151837e-05   0.00010660066951820313
-0.07833651928831797   8.081887550151837e-05   0.00010660066951820313
-0.10618659451598955   -0.0020938323948331873   -0.0009739460803121457
-0.10618659451598955   -0.0020938323948331873   -0.0009739460803121457
-0.10618659451598955   -0.0020938323948331873   -0.0009739460803121457
-0.10618659451598955   -0.0020938323948331873   -0.0009739460803121457
-0.12596228849719687   0.011401587686887558   0.004657818235964541
-0.12596228849719687   0.011401587686887558   0.004657818235964541
-0.12596228849719687   0.011401587686887558   0.004657818235964541
-0.12596228849719687   0.011401587686887558   0.004657818235964541
-0.18712195742964588   -0.008798547566556729   -0.005475135592448997
-0.18712195742964588   -0.008798547566556729   -0.005475135592448997
-0.18712195742964588   -0.008798547566556729   -0.005475135592448997
-0.18712195742964588   -0.008798547566556729   -0.005475135592448997
-0.18866019188186453   -0.0011302150967091237   0.004579844849496964
-0.18866019188186453   -0.0011302150967091237   0.004579844849496964
-0.18866019188186453   -0.0011302150967091237   0.004579844849496964
-0.18866019188186453   -0.0011302150967091237   0.004579844849496964
-0.13176565953022873   0.0021662227602708556   -0.0031762935469850633
-0.13176565953022873   0.0021662227602708556   -0.0031762935469850633
-0.13176565953022873   0.0021662227602708556   -0.0031762935469850633
-0.13176565953022873   0.0021662227602708556   -0.0031762935469850633
-0.15133596296626917   0.0024174115965132983   0.003980623375796636
-0.15133596296626917   0.0024174115965132983   0.003980623375796636
-0.15133596296626917   0.0024174115965132983   0.003980623375796636
-0.15133596296626917   0.0024174115965132983   0.003980623375796636
-0.12823517984241672   0.011139403226458962   0.005502924425889592
-0.12823517984241672   0.011139403226458962   0.005502924425889592
-0.12823517984241672   0.011139403226458962   0.005502924425889592
-0.12823517984241672   0.011139403226458962   0.005502924425889592
-0.19227660603884708   -0.010189330032066374   -0.004443111000056666
-0.19227660603884708   -0.010189330032066374   -0.004443111000056666
-0.19227660603884708   -0.010189330032066374   -0.004443111000056666
-0.19227660603884708   -0.010189330032066374   -0.004443111000056666
-0.19306402686793422   -0.0024367250009568048   0.005751892718060848
-0.19306402686793422   -0.0024367250009568048   0.005751892718060848
-0.19306402686793422   -0.0024367250009568048   0.005751892718060848
-0.19306402686793422   -0.0024367250009568048   0.005751892718060848
-0.13460125496339392   0.0008352065579611614   -0.00268274385844728
-0.13460125496339392   0.0008352065579611614   -0.00268274385844728
-0.13460125496339392   0.0008352065579611614   -0.00268274385844728
-0.13460125496339392   0.0008352065579611614   -0.00268274385844728
-0.15754817195580553   0.0009417880578128784   0.0022883748256436413
-0.15754817195580553   0.0009417880578128784   0.0022883748256436413
-0.15754817195580553   0.0009417880578128784   0.0022883748256436413
-0.15754817195580553   0.0009417880578128784   0.0022883748256436413
-0.13091289604329848   0.010134978400297326   0.006459278899695761
-0.13091289604329848   0.010134978400297326   0.006459278899695761
-0.13091289604329848   0.010134978400297326   0.006459278899695761
-0.13091289604329848   0.010134978400297326   0.006459278899695761
-0.19681231795276105   -0.01179642900802401   -0.0036298586990060194
-0.19681231795276105   -0.01179642900802401   -0.0036298586990060194
-0.19681231795276105   -0.01179642900802401   -0.0036298586990060194
-0.19681231795276105   -0.01179642900802401   -0.0036298586990060194
-0.19895378368638306   -0.006698402444032164   0.0056989375170679105
-0.19895378368638306   -0.006698402444032164   0.0056989375170679105
-0.19895378368638306   -0.006698402444032164   0.0056989375170679105
-0.19895378368638306   -0.006698402444032164   0.0056989375170679105
-0.13759163376414454   -0.002729363267855899   -0.00237730238086382
-0.13759163376414454   -0.002729363267855899   -0.00237730238086382
-0.13759163376414454   -0.002729363267855899   -0.00237730238086382
-0.13759163376414454   -0.002729363267855899   -0.00237730238086382
-0.1589270783395877   -0.0008119656120631272   0.0015539649183963344
-0.1589270783395877   -0.0008119656120631272   0.0015539649183963344
-0.1589270783395877   -0.0008119656120631272   0.0015539649183963344
-0.1589270783395877   -0.0008119656120631272   0.0015539649183963344
0.06521480378254718   0.004132973065348048   -0.006624021204421836
0.06521480378254718   0.004132973065348048   -0.006624021204421836
0.06521480378254718   0.004132973065348048   -0.006624021204421836
0.06521480378254718   0.004132973065348048   -0.006624021204421836
0.020560812453477045   0.0037273847532221897   0.0030375152695603634
0.020560812453477045   0.0037273847532221897   0.0030375152695603634
0.020560812453477045   0.0037273847532221897   0.0030375152695603634
0.020560812453477045   0.0037273847532221897   0.0030375152695603634
0.014473500723390093   -0.008416718172779124   -0.005884267162176857
0.014473500723390093   -0.008416718172779124   -0.005884267162176857
0.014473500723390093   -0.008416718172779124   -0.005884267162176857
0.014473500723390093   -0.008416718172779124   -0.005884267162176857
0.06378224643776716   0.010159126224512455   0.0036486214519232656
0.06378224643776716   0.010159126224512455   0.0036486214519232656
0.06378224643776716   0.010159126224512455   0.0036486214519232656
0.06378224643776716   0.010159126224512455   0.0036486214519232656
0.0386811347793724   0.0017283372505987951   -0.0008443240241587076
0.0386811347793724   0.0017283372505987951   -0.0008443240241587076
0.0386811347793724   0.0017283372505987951   -0.0008443240241587076
0.0386811347793724   0.0017283372505987951   -0.0008443240241587076
0.05991754296801843   0.0006214914784335255   -0.0061372611507419465
0.05991754296801843   0.0006214914784335255   -0.0061372611507419465
0.05991754296801843   0.0006214914784335255   -0.0061372611507419465
0.05991754296801843   0.0006214914784335255   -0.0061372611507419465
0.018218514074903852   0.0010012264550647706   0.0034228549675481557
0.018218514074903852   0.0010012264550647706   0.0034228549675481557
0.018218514074903852   0.0010012264550647706   0.0034228549675481557
0.018218514074903852   0.0010012264550647706   0.0034228549675481557
0.012194051523268221   -0.009542412313759437   -0.005050585607386448
0.012194051523268221   -0.009542412313759437   -0.005050585607386448
0.012194051523268221   -0.009542412313759437   -0.005050585607386448
0.012194051523268221   -0.009542412313759437   -0.005050585607386448
0.059680230577121414   0.008613059332857956   0.004761806103806652
0.059680230577121414   0.008613059332857956   0.004761806103806652
0.059680230577121414   0.008613059332857956   0.004761806103806652
0.059680230577121414   0.008613059332857956   0.004761806103806652
0.03597418415529727   -6.0866019088980094e-05   -0.0019589970157343223
0.03597418415529727   -6.0866019088980094e-05   -0.0019589970157343223
0.03597418415529727   -6.0866019088980094e-05   -0.0019589970157343223
0.03597418415529727   -6.0866019088980094e-05   -0.0019589970157343223
0.05581662650859158   -0.0008303426470114804   -0.005112812258973849
0.05581662650859158   -0.0008303426470114804   -0.005112812258973849
0.05581662650859158   -0.0008303426470114804   -0.005112812258973849
0.05581662650859158   -0.0008303426470114804   -0.005112812258973849
0.01589121012574116   -0.00026545579994632657   0.004158250891165487
0.01589121012574116   -0.00026545579994632657   0.004158250891165487
0.01589121012574116   -0.00026545579994632657   0.004158250891165487
0.01589121012574116   -0.00026545579994632657   0.004158250891165487
0.010171420783184792   -0.0107569202524223   -0.004231373528382547
0.010171420783184792   -0.0107569202524223   -0.004231373528382547
0.010171420783184792   -0.0107569202524223   -0.004231373528382547
0.010171420783184792   -0.0107569202524223   -0.004231373528382547
0.05455915248497419   0.006236868314445831   0.005347959092990261
0.05455915248497419   0.006236868314445831   0.005347959092990261
0.05455915248497419   0.006236868314445831   0.005347959092990261
0.05455915248497419   0.006236868314445831   0.005347959092990261
0.03185406983071152   -0.0015929670803872843   -0.0033890419318140397
0.03185406983071152   -0.0015929670803872843   -0.0033890419318140397
0.03185406983071152   -0.0015929670803872843   -0.0033890419318140397
0.03185406983071152   -0.0015929670803872843   -0.0033890419318140397
0.020196851858848692   0.006667791958474952   -0.0017226949088342974
0.020196851858848692   0.006667791958474952   -0.0017226949088342974
0.020196851858848692   0.006667791958474952   -0.0017226949088342974
0.020196851858848692   0.006667791958474952   -0.0017226949088342974
-0.022346132994778806   0.0017346490028620643   0.0006305011787493073
-0.022346132994778806   0.0017346490028620643   0.0006305011787493073
-0.022346132994778806   0.0017346490028620643   0.0006305011787493073
-0.022346132994778806   0.0017346490028620643   0.0006305011787493073
-0.026284180133748267   -0.005492065576487422   -0.003500236479599019
-0.026284180133748267   -0.005492065576487422   -0.003500236479599019
-0.026284180133748267   -0.005492065576487422   -0.003500236479599019
-0.026284180133748267   -0.005492065576487422   -0.003500236479599019
0.01973105819056591   0.008217262112157838   0.0037695398887653856
0.01973105819056591   0.008217262112157838   0.0037695398887653856
0.01973105819056591   0.008217262112157838   0.0037695398887653856
0.01973105819056591   0.008217262112157838   0.0037695398887653856
-0.0023432512904033673   0.0026560947523634436   0.0007764777015211842
-0.0023432512904033673   0.0026560947523634436   0.0007764777015211842
-0.0023432512904033673   0.0026560947523634436   0.0007764777015211842
-0.0023432512904033673   0.0026560947523634436   0.0007764777015211842
0.017838526516227714   0.003781126479395644   -0.0012569828501635088
0.017838526516227714   0.003781126479395644   -0.0012569828501635088
0.017838526516227714   0.003781126479395644   -0.0012569828501635088
0.017838526516227714   0.003781126479395644   -0.0012569828501635088
-0.024500407506370527   -0.0011646889906844248   0.001091250071486675
-0.024500407506370527   -0.0011646889906844248   0.001091250071486675
-0.024500407506370527   -0.0011646889906844248   0.001091250071486675
-0.024500407506370527   -0.0011646889906844248   0.001091250071486675
-0.028317510368397848   -0.007753798708889814   -0.00278667966663692
-0.028317510368397848   -0.007753798708889814   -0.00278667966663692
-0.028317510368397848   -0.007753798708889814   -0.00278667966663692
-0.028317510368397848   -0.007753798708889814   -0.00278667966663692
0.01706501763860493   0.0056416018885520735   0.004120230766985953
0.01706501763860493   0.0056416018885520735   0.004120230766985953
0.01706501763860493   0.0056416018885520735   0.004120230766985953
0.01706501763860493   0.0056416018885520735   0.004120230766985953
-0.004887091914931579   0.00015685879200197676   -0.0004279038999864102
-0.004887091914931579   0.00015685879200197676   -0.0004279038999864102
-0.004887091914931579   0.00015685879200197676   -0.0004279038999864102
-0.004887091914931579   0.00015685879200197676   -0.0004279038999864102
0.015223158359325684   0.0013518151848427719   -0.0007992789257013545
0.015223158359325684   0.0013518151848427719   -0.0007992789257013545
0.015223158359325684   0.0013518151848427719   -0.0007992789257013545
0.015223158359325684   0.0013518151848427719   -0.0007992789257013545
-0.026617385068409986   -0.0036057459844713213   0.0015658941088838932
-0.026617385068409986   -0.0036057459844713213   0.0015658941088838932
-0.026617385068409986   -0.0036057459844713213   0.0015658941088838932
-0.026617385068409986   -0.0036057459844713213   0.0015658941088838932
-0.03033141896648583   -0.009927584363797325   -0.0021441580712973094
-0.03033141896648583   -0.009927584363797325   -0.0021441580712973094
-0.03033141896648583   -0.009927584363797325   -0.0021441580712973094
-0.03033141896648583   -0.009927584363797325   -0.0021441580712973094
0.01472929696866689   0.003185106439054897   0.004615980707550998
0.01472929696866689   0.003185106439054897   0.004615980707550998
0.01472929696866689   0.003185106439054897   0.004615980707550998
0.01472929696866689   0.003185106439054897   0.004615980707550998
-0.007028942290731292   -0.001998573482550357   -0.0015424815927818343
-0.007028942290731292   -0.001998573482550357   -0.0015424815927818343
-0.007028942290731292   -0.001998573482550357   -0.0015424815927818343
-0.007028942290731292   -0.001998573482550357   -0.0015424815927818343
-0.021041458913324082   0.008534833090918055   0.00035368749796691303
-0.021041458913324082   0.008534833090918055   0.00035368749796691303
-0.021041458913324082   0.008534833090918055   0.00035368749796691303
-0.021041458913324082   0.008534833090918055   0.00035368749796691303
-0.06451095179060484   -0.0011463379485220325   -0.001866086204562785
-0.06451095179060484   -0.0011463379485220325   -0.001866086204562785
-0.06451095179060484   -0.0011463379485220325   -0.001866086204562785
-0.06451095179060484   -0.0011463379485220325   -0.001866086204562785
-0.06636776509862974   -0.0030514774703026045   -0.0011597484960718775
-0.06636776509862974   -0.0030514774703026045   -0.0011597484960718775
-0.06636776509862974   -0.0030514774703026045   -0.0011597484960718775
-0.06636776509862974   -0.0030514774703026045   -0.0011597484960718775
-0.023156377855790968   0.005437655773104292   0.0012090535605952957
-0.023156377855790968   0.005437655773104292   0.0012090535605952957
-0.023156377855790968   0.005437655773104292   0.0012090535605952957
-0.023156377855790968   0.005437655773104292   0.0012090535605952957
-0.04365495195995092   0.0023723209113176522   0.0007770219311305756
-0.04365495195995092   0.0023723209113176522   0.0007770219311305756
-0.04365495195995092   0.0023723209113176522   0.0007770219311305756
-0.04365495195995092   0.0023723209113176522   0.0007770219311305756
-0.02307257541462933   0.006043878728011252   0.0010218428114969966
-0.02307257541462933   0.006043878728011252   0.0010218428114969966
-0.02307257541462933   0.006043878728011252   0.0010218428114969966
-0.02307257541462933   0.006043878728011252   0.0010218428114969966
-0.06654933325555695   -0.0037554661409753103   -0.0013636006100367316
-0.06654933325555695   -0.0037554661409753103   -0.0013636006100367316
-0.06654933325555695   -0.0037554661409753103   -0.0013636006100367316
-0.06654933325555695   -0.0037554661409753103   -0.0013636006100367316
-0.0683973882182377   -0.005521002622023919   -0.0005227852373992912
-0.0683973882182377   -0.005521002622023919   -0.0005227852373992912
-0.0683973882182377   -0.005521002622023919   -0.0005227852373992912
-0.0683973882182377   -0.005521002622023919   -0.0005227852373992912
-0.025298527550879798   0.0028248932094510973   0.0017295425026119257
-0.025298527550879798   0.0028248932094510973   0.0017295425026119257
-0.025298527550879798   0.0028248932094510973   0.0017295425026119257
-0.025298527550879798   0.0028248932094510973   0.0017295425026119257
-0.04576654826548451   1.2153310867341408e-05   -0.00029330913844466183
-0.04576654826548451   1.2153310867341408e-05   -0.00029330913844466183
-0.04576654826548451   1.2153310867341408e-05   -0.00029330913844466183
-0.04576654826548451   1.2153310867341408e-05   -0.00029330913844466183
-0.025185273363696446   0.0035417656049668714   0.0015789410430134079
-0.025185273363696446   0.0035417656049668714   0.0015789410430134079
-0.025185273363696446   0.0035417656049668714   0.0015789410430134079
-0.025185273363696446   0.0035417656049668714   0.0015789410430134079
-0.06864858410811785   -0.006375816720235848   -0.0009239505885885921
-0.06864858410811785   -0.006375816720235848   -0.0009239505885885921
-0.06864858410811785   -0.006375816720235848   -0.0009239505885885921
-0.06864858410811785   -0.006375816720235848   -0.0009239505885885921
-0.07037885946188045   -0.007892631400463129   0.00010344257961282478
-0.07037885946188045   -0.007892631400463129   0.00010344257961282478
-0.07037885946188045   -0.007892631400463129   0.00010344257961282478
-0.07037885946188045   -0.007892631400463129   0.00010344257961282478
-0.02741526584438653   0.0003179633540154707   0.002191059821385919
-0.02741526584438653   0.0003179633540154707   0.002191059821385919
-0.02741526584438653   0.0003179633540154707   0.002191059821385919
-0.02741526584438653   0.0003179633540154707   0.002191059821385919
-0.04799621896007961   -0.0023485933442482336   -0.0014596876732414121
-0.04799621896007961   -0.0023485933442482336   -0.0014596876732414121
-0.04799621896007961   -0.0023485933442482336   -0.0014596876732414121
-0.04799621896007961   -0.0023485933442482336   -0.0014596876732414121
-0.06132075411626961   0.010398845853442208   0.0025397183651491104
-0.06132075411626961   0.010398845853442208   0.0025397183651491104
-0.06132075411626961   0.010398845853442208   0.0025397183651491104
-0.06132075411626961   0.010398845853442208   0.0025397183651491104
-0.10611536587608177   -0.003622954082239966   -0.004111145685211996
-0.10611536587608177   -0.003622954082239966   -0.004111145685211996
-0.10611536587608177   -0.003622954082239966   -0.004111145685211996
-0.10611536587608177   -0.003622954082239966   -0.004111145685211996
-0.1062860619039206   -0.0009682032389063087   0.00129274077844122
-0.1062860619039206   -0.0009682032389063087   0.00129274077844122
-0.1062860619039206   -0.0009682032389063087   0.00129274077844122
-0.1062860619039206   -0.0009682032389063087   0.00129274077844122
-0.0651969245214568   0.0028474917337642253   -0.0012045148142759247
-0.0651969245214568   0.0028474917337642253   -0.0012045148142759247
-0.0651969245214568   0.0028474917337642253   -0.0012045148142759247
-0.0651969245214568   0.0028474917337642253   -0.0012045148142759247
-0.08425231597385392   0.0021417444887175327   0.0009721595684594889
-0.08425231597385392   0.0021417444887175327   0.0009721595684594889
-0.08425231597385392   0.0021417444887175327   0.0009721595684594889
-0.08425231597385392   0.0021417444887175327   0.0009721595684594889
-0.06328075714016021   0.008015893602793473   0.0032079202231797364
-0.06328075714016021   0.008015893602793473   0.0032079202231797364
-0.06328075714016021   0.008015893602793473   0.0032079202231797364
-0.06328075714016021   0.008015893602793473   0.0032079202231797364
-0.1083852758261234   -0.006319651648840966   -0.003851880422639113
-0.1083852758261234   -0.006319651648840966   -0.003851880422639113
-0.1083852758261234   -0.006319651648840966   -0.003851880422639113
-0.1083852758261234   -0.006319651648840966   -0.003851880422639113
-0.10879507866355205   -0.003413857154333646   0.0016286786590621874
-0.10879507866355205   -0.003413857154333646   0.0016286786590621874
-0.10879507866355205   -0.003413857154333646   0.0016286786590621874
-0.10879507866355205   -0.003413857154333646   0.0016286786590621874
-0.06723719812422446   0.000422702471847591   -0.0006655398612056547
-0.06723719812422446   0.000422702471847591   -0.0006655398612056547
-0.06723719812422446   0.000422702471847591   -0.0006655398612056547
-0.06723719812422446   0.000422702471847591   -0.0006655398612056547
-0.08600317503739044   -3.322918959547394e-05   -0.00014249075354159924
-0.08600317503739044   -3.322918959547394e-05   -0.00014249075354159924
-0.08600317503739044   -3.322918959547394e-05   -0.00014249075354159924
-0.08600317503739044   -3.322918959547394e-05   -0.00014249075354159924
-0.06527148860743501   0.005735222636662735   0.00385048755792704
-0.06527148860743501   0.005735222636662735   0.00385048755792704
-0.06527148860743501   0.005735222636662735   0.00385048755792704
-0.06527148860743501   0.005735222636662735   0.00385048755792704
-0.11087635755142124   -0.008841946690228591   -0.003349626244389796
-0.11087635755142124   -0.008841946690228591   -0.003349626244389796
-0.11087635755142124   -0.008841946690228591   -0.003349626244389796
-0.11087635755142124   -0.008841946690228591   -0.003349626244389796
-0.11093948056432303   -0.006001347219862528   0.0022987314686992045
-0.11093948056432303   -0.006001347219862528   0.0022987314686992045
-0.11093948056432303   -0.006001347219862528   0.0022987314686992045
-0.11093948056432303   -0.006001347219862528   0.0022987314686992045
-0.06930857799202171   -0.0022141628751969292   -0.00022361859636160645
-0.06930857799202171   -0.0022141628751969292   -0.00022361859636160645
-0.06930857799202171   -0.0022141628751969292   -0.00022361859636160645
-0.06930857799202171   -0.0022141628751969292   -0.00022361859636160645
-0.08873644395838566   -0.0024765905998334267   -0.001385841687731879
-0.08873644395838566   -0.0024765905998334267   -0.001385841687731879
-0.08873644395838566   -0.0024765905998334267   -0.001385841687731879
-0.08873644395838566   -0.0024765905998334267   -0.001385841687731879
-0.10161381079041618   0.010294036676628846   0.004479638984249136
-0.10161381079041618   0.010294036676628846   0.004479638984249136
-0.10161381079041618   0.010294036676628846   0.004479638984249136
-0.10161381079041618   0.010294036676628846   0.004479638984249136
-0.14503009010877113   -0.006896100594817857   -0.005926303868729239
-0.14503009010877113   -0.006896100594817857   -0.005926303868729239
-0.14503009010877113   -0.006896100594817857   -0.005926303868729239
-0.14503009010877113   -0.006896100594817857   -0.005926303868729239
-0.14596935280489   0.0008997518582282149   0.004695045217459167
-0.14596935280489   0.0008997518582282149   0.004695045217459167
-0.14596935280489   0.0008997518582282149   0.004695045217459167
-0.14596935280489   0.0008997518582282149   0.004695045217459167
-0.10705137965963776   5.975532201865988e-05   -0.0035618065610714695
-0.10705137965963776   5.975532201865988e-05   -0.0035618065610714695
-0.10705137965963776   5.975532201865988e-05   -0.0035618065610714695
-0.10705137965963776   5.975532201865988e-05   -0.0035618065610714695
-0.11946725372634795   0.002242387032300633   0.0030641740693349035
-0.11946725372634795   0.002242387032300633   0.0030641740693349035
-0.11946725372634795   0.002242387032300633   0.0030641740693349035
-0.11946725372634795   0.002242387032300633   0.0030641740693349035
-0.10338299956915442   0.009538319420462921   0.005301529792900975
-0.10338299956915442   0.009538319420462921   0.005301529792900975
-0.10338299956915442   0.009538319420462921   0.005301529792900975
-0.10338299956915442   0.009538319420462921   0.005301529792900975
-0.14983641881439483   -0.008777498159238013   -0.004963034812597798
-0.14983641881439483   -0.008777498159238013   -0.004963034812597798
-0.14983641881439483   -0.008777498159238013   -0.004963034812597798
-0.14983641881439483   -0.008777498159238013   -0.004963034812597798
-0.14992053676000805   -0.0004988617262993086   0.005966196516864503
-0.14992053676000805   -0.0004988617262993086   0.005966196516864503
-0.14992053676000805   -0.0004988617262993086   0.005966196516864503
-0.14992053676000805   -0.0004988617262993086   0.005966196516864503
-0.10930248544184577   -0.001292350308937991   -0.0030298620778030413
-0.10930248544184577   -0.001292350308937991   -0.0030298620778030413
-0.10930248544184577   -0.001292350308937991   -0.0030298620778030413
-0.10930248544184577   -0.001292350308937991   -0.0030298620778030413
-0.12469579220398154   0.0006145640125331149   0.0013352671156167204
-0.12469579220398154   0.0006145640125331149   0.0013352671156167204
-0.12469579220398154   0.0006145640125331149   0.0013352671156167204
-0.12469579220398154   0.0006145640125331149   0.0013352671156167204
-0.10549257458614571   0.008449133152876771   0.0062782087388825285
-0.10549257458614571   0.008449133152876771   0.0062782087388825285
-0.10549257458614571   0.008449133152876771   0.0062782087388825285
-0.10549257458614571   0.008449133152876771   0.0062782087388825285
-0.15391095336895488   -0.010420850941360513   -0.004063897312806529
-0.15391095336895488   -0.010420850941360513   -0.004063897312806529
-0.15391095336895488   -0.010420850941360513   -0.004063897312806529
-0.15391095336895488   -0.010420850941360513   -0.004063897312806529
-0.15534772018490978   -0.004584011192294134   0.0061055444177102085
-0.15534772018490978   -0.004584011192294134   0.0061055444177102085
-0.15534772018490978   -0.004584011192294134   0.0061055444177102085
-0.15534772018490978   -0.004584011192294134   0.0061055444177102085
-0.11163830891763336   -0.004552608615108651   -0.0026441489026082328
-0.11163830891763336   -0.004552608615108651   -0.0026441489026082328
-0.11163830891763336   -0.004552608615108651   -0.0026441489026082328
-0.11163830891763336   -0.004552608615108651   -0.0026441489026082328
-0.12613331751997134   -0.001172803014847356   0.00036537829109919377
-0.12613331751997134   -0.001172803014847356   0.00036537829109919377
-0.12613331751997134   -0.001172803014847356   0.00036537829109919377
-0.12613331751997134   -0.001172803014847356   0.00036537829109919377
0.01986256699876211   0.0016112548668873446   -0.006844888707402765
0.01986256699876211   0.0016112548668873446   -0.006844888707402765
0.01986256699876211   0.0016112548668873446   -0.006844888707402765
0.01986256699876211   0.0016112548668873446   -0.006844888707402765
-0.0063557400418166096   0.004936059559144855   0.003382028573512331
-0.0063557400418166096   0.004936059559144855   0.003382028573512331
-0.0063557400418166096   0.004936059559144855   0.003382028573512331
-0.0063557400418166096   0.004936059559144855   0.003382028573512331
-0.011946517919507616   -0.006831496342149303   -0.005575727024110748
-0.011946517919507616   -0.006831496342149303   -0.005575727024110748
-0.011946517919507616   -0.006831496342149303   -0.005575727024110748
-0.011946517919507616   -0.006831496342149303   -0.005575727024110748
0.019016951713188093   0.007965383878318709   0.004086569275602778
0.019016951713188093   0.007965383878318709   0.004086569275602778
0.019016951713188093   0.007965383878318709   0.004086569275602778
0.019016951713188093   0.007965383878318709   0.004086569275602778
0.004573834355385345   0.0017603340070737623   0.0005479491764087849
0.004573834355385345   0.0017603340070737623   0.0005479491764087849
0.004573834355385345   0.0017603340070737623   0.0005479491764087849
0.004573834355385345   0.0017603340070737623   0.0005479491764087849
0.015056206971666753   -0.0015551333915244337   -0.0061966371621607706
0.015056206971666753   -0.0015551333915244337   -0.0061966371621607706
0.015056206971666753   -0.0015551333915244337   -0.0061966371621607706
0.015056206971666753   -0.0015551333915244337   -0.0061966371621607706
-0.008203204358573775   0.002471589747106341   0.0038377546913028067
-0.008203204358573775   0.002471589747106341   0.0038377546913028067
-0.008203204358573775   0.002471589747106341   0.0038377546913028067
-0.008203204358573775   0.002471589747106341   0.0038377546913028067
-0.01382774150494142   -0.007998150616877798   -0.004786271562809292
-0.01382774150494142   -0.007998150616877798   -0.004786271562809292
-0.01382774150494142   -0.007998150616877798   -0.004786271562809292
-0.01382774150494142   -0.007998150616877798   -0.004786271562809292
0.015238274212862538   0.006407585952002725   0.005678948028458977
0.015238274212862538   0.006407585952002725   0.005678948028458977
0.015238274212862538   0.006407585952002725   0.005678948028458977
0.015238274212862538   0.006407585952002725   0.005678948028458977
0.0017240656428764607   2.600052135940837e-06   -0.0007649274821380471
0.0017240656428764607   2.600052135940837e-06   -0.0007649274821380471
0.0017240656428764607   2.600052135940837e-06   -0.0007649274821380471
0.0017240656428764607   2.600052135940837e-06   -0.0007649274821380471
0.011165910165794324   -0.0030810193509539265   -0.005194266903925676
0.011165910165794324   -0.0030810193509539265   -0.005194266903925676
0.011165910165794324   -0.0030810193509539265   -0.005194266903925676
0.011165910165794324   -0.0030810193509539265   -0.005194266903925676
-0.010064791456277767   0.0011810406876742144   0.004849287375956726
-0.010064791456277767   0.0011810406876742144   0.004849287375956726
-0.010064791456277767   0.0011810406876742144   0.004849287375956726
-0.010064791456277767   0.0011810406876742144   0.004849287375956726
-0.015546139453038125   -0.009655216109036333   -0.004007171086408251
-0.015546139453038125   -0.009655216109036333   -0.004007171086408251
-0.015546139453038125   -0.009655216109036333   -0.004007171086408251
-0.015546139453038125   -0.009655216109036333   -0.004007171086408251
0.009986169602445112   0.0032336598009455484   0.0065434801159653
0.009986169602445112   0.0032336598009455484   0.0065434801159653
0.009986169602445112   0.0032336598009455484   0.0065434801159653
0.009986169602445112   0.0032336598009455484   0.0065434801159653
-0.0016322924259073472   -0.001709436851197238   -0.0023355516736898413
-0.0016322924259073472   -0.001709436851197238   -0.0023355516736898413
-0.0016322924259073472   -0.001709436851197238   -0.0023355516736898413
-0.0016322924259073472   -0.001709436851197238   -0.0023355516736898413
-0.007727716521973219   0.004019894340040123   -0.002561688608165983
-0.007727716521973219   0.004019894340040123   -0.002561688608165983
-0.007727716521973219   0.004019894340040123   -0.002561688608165983
-0.007727716521973219   0.004019894340040123   -0.002561688608165983
-0.03163358496823937   0.0013595638639039452   0.00081776676471118
-0.03163358496823937   0.0013595638639039452   0.00081776676471118
-0.03163358496823937   0.0013595638639039452   0.00081776676471118
-0.03163358496823937   0.0013595638639039452   0.00081776676471118
-0.03459284194888321   -0.003994354141681104   -0.0029646412409802068
-0.03459284194888321   -0.003994354141681104   -0.0029646412409802068
-0.03459284194888321   -0.003994354141681104   -0.0029646412409802068
-0.03459284194888321   -0.003994354141681104   -0.0029646412409802068
-0.008074510150571009   0.004084794032075423   0.002868021446347565
-0.008074510150571009   0.004084794032075423   0.002868021446347565
-0.008074510150571009   0.004084794032075423   0.002868021446347565
-0.008074510150571009   0.004084794032075423   0.002868021446347565
-0.02049332885169359   0.0012843936913797538   0.0007351292060015272
-0.02049332885169359   0.0012843936913797538   0.0007351292060015272
-0.02049332885169359   0.0012843936913797538   0.0007351292060015272
-0.02049332885169359   0.0012843936913797538   0.0007351292060015272
-0.009656734340882276   0.001161778777907024   -0.0021200842510404987
-0.009656734340882276   0.001161778777907024   -0.0021200842510404987
-0.009656734340882276   0.001161778777907024   -0.0021200842510404987
-0.009656734340882276   0.001161778777907024   -0.0021200842510404987
-0.03320072306631244   -0.0012614441952533166   0.0012630432254453073
-0.03320072306631244   -0.0012614441952533166   0.0012630432254453073
-0.03320072306631244   -0.0012614441952533166   0.0012630432254453073
-0.03320072306631244   -0.0012614441952533166   0.0012630432254453073
-0.036074892721411074   -0.006258925178672913   -0.002242494209119132
-0.036074892721411074   -0.006258925178672913   -0.002242494209119132
-0.036074892721411074   -0.006258925178672913   -0.002242494209119132
-0.036074892721411074   -0.006258925178672913   -0.002242494209119132
-0.0103086157999422   0.0015740432430840989   0.0032371631022246735
-0.0103086157999422   0.0015740432430840989   0.0032371631022246735
-0.0103086157999422   0.0015740432430840989   0.0032371631022246735
-0.0103086157999422   0.0015740432430840989   0.0032371631022246735
-0.022361440866257316   -0.001032245573171756   -0.0004440106037546833
-0.022361440866257316   -0.001032245573171756   -0.0004440106037546833
-0.022361440866257316   -0.001032245573171756   -0.0004440106037546833
-0.022361440866257316   -0.001032245573171756   -0.0004440106037546833
-0.011846048900715408   -0.0012832078370171593   -0.0015927513215398727
-0.011846048900715408   -0.0012832078370171593   -0.0015927513215398727
-0.011846048900715408   -0.0012832078370171593   -0.0015927513215398727
-0.011846048900715408   -0.0012832078370171593   -0.0015927513215398727
-0.034744056035260096   -0.003608270513193202   0.0017610345561560625
-0.034744056035260096   -0.003608270513193202   0.0017610345561560625
-0.034744056035260096   -0.003608270513193202   0.0017610345561560625
-0.034744056035260096   -0.003608270513193202   0.0017610345561560625
-0.037566609830203844   -0.008518574366193306   -0.0016065165198192767
-0.037566609830203844   -0.008518574366193306   -0.0016065165198192767
-0.037566609830203844   -0.008518574366193306   -0.0016065165198192767
-0.037566609830203844   -0.008518574366193306   -0.0016065165198192767
-0.012188084876747511   -0.0008837790569328803   0.004011664742941357
-0.012188084876747511   -0.0008837790569328803   0.004011664742941357
-0.012188084876747511   -0.0008837790569328803   0.004011664742941357
-0.012188084876747511   -0.0008837790569328803   0.004011664742941357
-0.024178314526363414   -0.003237352138236886   -0.0016202801951092241
-0.024178314526363414   -0.003237352138236886   -0.0016202801951092241
-0.024178314526363414   -0.003237352138236886   -0.0016202801951092241
-0.024178314526363414   -0.003237352138236886   -0.0016202801951092241
-0.030942871318945856   0.005888895968115639   -0.0002579970930334124
-0.030942871318945856   0.005888895968115639   -0.0002579970930334124
-0.030942871318945856   0.005888895968115639   -0.0002579970930334124
-0.030942871318945856   0.005888895968115639   -0.0002579970930334124
-0.0563791599340617   -0.0021008871304785386   -0.0016957689698245183
-0.0563791599340617   -0.0021008871304785386   -0.0016957689698245183
-0.0563791599340617   -0.0021008871304785386   -0.0016957689698245183
-0.0563791599340617   -0.0021008871304785386   -0.0016957689698245183
-0.0570358831326952   -0.0016754343448446857   -0.0004768917522453642
-0.0570358831326952   -0.0016754343448446857   -0.0004768917522453642
-0.0570358831326952   -0.0016754343448446857   -0.0004768917522453642
-0.0570358831326952   -0.0016754343448446857   -0.0004768917522453642
-0.03293871111756284   0.0008556916765619345   0.000455967097378085
-0.03293871111756284   0.0008556916765619345   0.000455967097378085
-0.03293871111756284   0.0008556916765619345   0.000455967097378085
-0.03293871111756284   0.0008556916765619345   0.000455967097378085
-0.04422026566111808   0.0006811638192350151   0.00034231632917928545
-0.04422026566111808   0.0006811638192350151   0.00034231632917928545
-0.04422026566111808   0.0006811638192350151   0.00034231632917928545
-0.04422026566111808   0.0006811638192350151   0.00034231632917928545
-0.03243132819065619   0.0034254747297557024   0.0004230986787175685
-0.03243132819065619   0.0034254747297557024   0.0004230986787175685
-0.03243132819065619   0.0034254747297557024   0.0004230986787175685
-0.03243132819065619   0.0034254747297557024   0.0004230986787175685
-0.05773024520179242   -0.004432196540229029   -0.0011919399023471483
-0.05773024520179242   -0.004432196540229029   -0.0011919399023471483
-0.05773024520179242   -0.004432196540229029   -0.0011919399023471483
-0.05773024520179242   -0.004432196540229029   -0.0011919399023471483
-0.05843540126413746   -0.0041107648233683364   0.0001881260517685849
-0.05843540126413746   -0.0041107648233683364   0.0001881260517685849
-0.05843540126413746   -0.0041107648233683364   0.0001881260517685849
-0.05843540126413746   -0.0041107648233683364   0.0001881260517685849
-0.034494931011837   -0.0015484177627606045   0.0009468069228389386
-0.034494931011837   -0.0015484177627606045   0.0009468069228389386
-0.034494931011837   -0.0015484177627606045   0.0009468069228389386
-0.034494931011837   -0.0015484177627606045   0.0009468069228389386
-0.045723325319738765   -0.0015345798480920197   -0.0007380067919532884
-0.045723325319738765   -0.0015345798480920197   -0.0007380067919532884
-0.045723325319738765   -0.0015345798480920197   -0.0007380067919532884
-0.045723325319738765   -0.0015345798480920197   -0.0007380067919532884
-0.033985895788012525   0.0009418534311192266   0.0010017118480814707
-0.033985895788012525   0.0009418534311192266   0.0010017118480814707
-0.033985895788012525   0.0009418534311192266   0.0010017118480814707
-0.033985895788012525   0.0009418534311192266   0.0010017118480814707
-0.05917130164942311   -0.006827901178709503   -0.0007742395193194446
-0.05917130164942311   -0.006827901178709503   -0.0007742395193194446
-0.05917130164942311   -0.006827901178709503   -0.0007742395193194446
-0.05917130164942311   -0.006827901178709503   -0.0007742395193194446
-0.059793855283196695   -0.006428682077015813   0.0008364221050396663
-0.059793855283196695   -0.006428682077015813   0.0008364221050396663
-0.059793855283196695   -0.006428682077015813   0.0008364221050396663
-0.059793855283196695   -0.006428682077015813   0.0008364221050396663
-0.03600591052100338   -0.0037932600847135757   0.0014716657447033303
-0.03600591052100338   -0.0037932600847135757   0.0014716657447033303
-0.03600591052100338   -0.0037932600847135757   0.0014716657447033303
-0.03600591052100338   -0.0037932600847135757   0.0014716657447033303
-0.047340372800374335   -0.0037545125773213337   -0.0019137601245567402
-0.047340372800374335   -0.0037545125773213337   -0.0019137601245567402
-0.047340372800374335   -0.0037545125773213337   -0.0019137601245567402
-0.047340372800374335   -0.0037545125773213337   -0.0019137601245567402
-0.05355322080075701   0.008148593319259234   0.0021844462469630824
-0.05355322080075701   0.008148593319259234   0.0021844462469630824
-0.05355322080075701   0.008148593319259234   0.0021844462469630824
-0.05355322080075701   0.008148593319259234   0.0021844462469630824
-0.08045859157657807   -0.003657335128331546   -0.003736661905822687
-0.08045859157657807   -0.003657335128331546   -0.003736661905822687
-0.08045859157657807   -0.003657335128331546   -0.003736661905822687
-0.08045859157657807   -0.003657335128331546   -0.003736661905822687
-0.07953451744612088   0.0006320823699294091   0.002056031291214082
-0.07953451744612088   0.0006320823699294091   0.002056031291214082
-0.07953451744612088   0.0006320823699294091   0.002056031291214082
-0.07953451744612088   0.0006320823699294091   0.002056031291214082
-0.05708527252958277   -0.0008187158489124467   -0.001580557232615491
-0.05708527252958277   -0.0008187158489124467   -0.001580557232615491
-0.05708527252958277   -0.0008187158489124467   -0.001580557232615491
-0.05708527252958277   -0.0008187158489124467   -0.001580557232615491
-0.0673740663944046   0.0010664265461506565   0.00043348306928435876
-0.0673740663944046   0.0010664265461506565   0.00043348306928435876
-0.0673740663944046   0.0010664265461506565   0.00043348306928435876
-0.0673740663944046   0.0010664265461506565   0.00043348306928435876
-0.05488792577303541   0.0057230721554551965   0.0028643885457537016
-0.05488792577303541   0.0057230721554551965   0.0028643885457537016
-0.05488792577303541   0.0057230721554551965   0.0028643885457537016
-0.05488792577303541   0.0057230721554551965   0.0028643885457537016
-0.08200635972793294   -0.006184201159702602   -0.0034868965882161145
-0.08200635972793294   -0.006184201159702602   -0.0034868965882161145
-0.08200635972793294   -0.006184201159702602   -0.0034868965882161145
-0.08200635972793294   -0.006184201159702602   -0.0034868965882161145
-0.08139130402174093   -0.001784210293555676   0.002454002209294466
-0.08139130402174093   -0.001784210293555676   0.002454002209294466
-0.08139130402174093   -0.001784210293555676   0.002454002209294466
-0.08139130402174093   -0.001784210293555676   0.002454002209294466
-0.05847089612119681   -0.0030387352322619205   -0.0010613778246346046
-0.05847089612119681   -0.0030387352322619205   -0.0010613778246346046
-0.05847089612119681   -0.0030387352322619205   -0.0010613778246346046
-0.05847089612119681   -0.0030387352322619205   -0.0010613778246346046
-0.06862316522729568   -0.0010618802422479538   -0.0007360900004511387
-0.06862316522729568   -0.0010618802422479538   -0.0007360900004511387
-0.06862316522729568   -0.0010618802422479538   -0.0007360900004511387
-0.06862316522729568   -0.0010618802422479538   -0.0007360900004511387
-0.056255365109237294   0.0034564045397219734   0.003521137463179081
-0.056255365109237294   0.0034564045397219734   0.003521137463179081
-0.056255365109237294   0.0034564045397219734   0.003521137463179081
-0.056255365109237294   0.0034564045397219734   0.003521137463179081
-0.08382365475572712   -0.008496169787567358   -0.002995791966627665
-0.08382365475572712   -0.008496169787567358   -0.002995791966627665
-0.08382365475572712   -0.008496169787567358   -0.002995791966627665
-0.08382365475572712   -0.008496169787567358   -0.002995791966627665
-0.08289498172414847   -0.0042538669276323895   0.0031642648735840237
-0.08289498172414847   -0.0042538669276323895   0.0031642648735840237
-0.08289498172414847   -0.0042538669276323895   0.0031642648735840237
-0.08289498172414847   -0.0042538669276323895   0.0031642648735840237
-0.05986806496116868   -0.005346080346591947   -0.0006172280152450227
-0.05986806496116868   -0.005346080346591947   -0.0006172280152450227
-0.05986806496116868   -0.005346080346591947   -0.0006172280152450227
-0.05986806496116868   -0.005346080346591947   -0.0006172280152450227
-0.07054764010331406   -0.003289460985818079   -0.001956776624017592
-0.07054764010331406   -0.003289460985818079   -0.001956776624017592
-0.07054764010331406   -0.003289460985818079   -0.001956776624017592
-0.07054764010331406   -0.003289460985818079   -0.001956776624017592
-0.07632985338107041   0.008899288594288079   0.0043504053490959075
-0.07632985338107041   0.008899288594288079   0.0043504053490959075
-0.07632985338107041   0.008899288594288079   0.0043504053490959075
-0.07632985338107041   0.008899288594288079   0.0043504053490959075
-0.10103450103243163   -0.005272828056817756   -0.00597211291885905
-0.10103450103243163   -0.005272828056817756   -0.00597211291885905
-0.10103450103243163   -0.005272828056817756   -0.00597211291885905
-0.10103450103243163   -0.005272828056817756   -0.00597211291885905
-0.10120195736451007   0.0029017808886198093   0.004798898976810413
-0.10120195736451007   0.0029017808886198093   0.004798898976810413
-0.10120195736451007   0.0029017808886198093   0.004798898976810413
-0.10120195736451007   0.0029017808886198093   0.004798898976810413
-0.08127052461296237   -0.002353617238026417   -0.0036383049350385208
-0.08127052461296237   -0.002353617238026417   -0.0036383049350385208
-0.08127052461296237   -0.002353617238026417   -0.0036383049350385208
-0.08127052461296237   -0.002353617238026417   -0.0036383049350385208
-0.08622682275481178   0.0018920759528342213   0.0018799072051197607
-0.08622682275481178   0.0018920759528342213   0.0018799072051197607
-0.08622682275481178   0.0018920759528342213   0.0018799072051197607
-0.08622682275481178   0.0018920759528342213   0.0018799072051197607
-0.07750473974302335   0.007707370877400921   0.005129631299229252
-0.07750473974302335   0.007707370877400921   0.005129631299229252
-0.07750473974302335   0.007707370877400921   0.005129631299229252
-0.07750473974302335   0.007707370877400921   0.005129631299229252
-0.10526111419346096   -0.00745257918581909   -0.0051425250935032835
-0.10526111419346096   -0.00745257918581909   -0.0051425250935032835
-0.10526111419346096   -0.00745257918581909   -0.0051425250935032835
-0.10526111419346096   -0.00745257918581909   -0.0051425250935032835
-0.10456984885355779   0.0014888595693371282   0.006143550725284568
-0.10456984885355779   0.0014888595693371282   0.006143550725284568
-0.10456984885355779   0.0014888595693371282   0.006143550725284568
-0.10456984885355779   0.0014888595693371282   0.006143550725284568
-0.08288315397555508   -0.003636702206277405   -0.0031527556470555035
-0.08288315397555508   -0.003636702206277405   -0.0031527556470555035
-0.08288315397555508   -0.003636702206277405   -0.0031527556470555035
-0.08288315397555508   -0.003636702206277405   -0.0031527556470555035
-0.09032803378680286   0.00020061058156274625   0.0001933023982466182
-0.09032803378680286   0.00020061058156274625   0.0001933023982466182
-0.09032803378680286   0.00020061058156274625   0.0001933023982466182
-0.09032803378680286   0.00020061058156274625   0.0001933023982466182
-0.07898135995017279   0.006601458049727435   0.0061180542238511
-0.07898135995017279   0.006601458049727435   0.0061180542238511
-0.07898135995017279   0.006601458049727435   0.0061180542238511
-0.07898135995017279   0.006601458049727435   0.0061180542238511
-0.10875984990446556   -0.009037507712192897   -0.004280087247722469
-0.10875984990446556   -0.009037507712192897   -0.004280087247722469
-0.10875984990446556   -0.009037507712192897   -0.004280087247722469
-0.10875984990446556   -0.009037507712192897   -0.004280087247722469
-0.10944063678876398   -0.002293101219283746   0.0064557159476469035
-0.10944063678876398   -0.002293101219283746   0.0064557159476469035
-0.10944063678876398   -0.002293101219283746   0.0064557159476469035
-0.10944063678876398   -0.002293101219283746   0.0064557159476469035
-0.08450909986793528   -0.006438788117855499   -0.0027214046551269394
-0.08450909986793528   -0.006438788117855499   -0.0027214046551269394
-0.08450909986793528   -0.006438788117855499   -0.0027214046551269394
-0.08450909986793528   -0.006438788117855499   -0.0027214046551269394
-0.09176002710303714   -0.0015211075783617724   -0.000956212542930302
-0.09176002710303714   -0.0015211075783617724   -0.000956212542930302
-0.09176002710303714   -0.0015211075783617724   -0.000956212542930302
-0.09176002710303714   -0.0015211075783617724   -0.000956212542930302
-0.02906454787005288   -0.001777780421402809   -0.00747836350098972
-0.02906454787005288   -0.001777780421402809   -0.00747836350098972
-0.02906454787005288   -0.001777780421402809   -0.00747836350098972
-0.02906454787005288   -0.001777780421402809   -0.00747836350098972
-0.033798090199586725   0.005394210798834743   0.0032824243925625054
-0.033798090199586725   0.005394210798834743   0.0032824243925625054
-0.033798090199586725   0.005394210798834743   0.0032824243925625054
-0.033798090199586725   0.005394210798834743   0.0032824243925625054
-0.03887215321334932   -0.005470254329827047   -0.00520251683858859
-0.03887215321334932   -0.005470254329827047   -0.00520251683858859
-0.03887215321334932   -0.005470254329827047   -0.00520251683858859
-0.03887215321334932   -0.005470254329827047   -0.00520251683858859
-0.030025773271777134   0.0037098701296721746   0.004710358338513111
-0.030025773271777134   0.0037098701296721746   0.004710358338513111
-0.030025773271777134   0.0037098701296721746   0.004710358338513111
-0.030025773271777134   0.0037098701296721746   0.004710358338513111
-0.031261877086072996   0.0011208348988013556   0.0033541947756302636
-0.031261877086072996   0.0011208348988013556   0.0033541947756302636
-0.031261877086072996   0.0011208348988013556   0.0033541947756302636
-0.031261877086072996   0.0011208348988013556   0.0033541947756302636
-0.033929116718225134   -0.004717034513246159   -0.006379454250808332
-0.033929116718225134   -0.004717034513246159   -0.006379454250808332
-0.033929116718225134   -0.004717034513246159   -0.006379454250808332
-0.033929116718225134   -0.004717034513246159   -0.006379454250808332
-0.03539922479810209   0.0025262352818905508   0.004165635625929944
-0.03539922479810209   0.0025262352818905508   0.004165635625929944
-0.03539922479810209   0.0025262352818905508   0.004165635625929944
-0.03539922479810209   0.0025262352818905508   0.004165635625929944
-0.040541439180794336   -0.006780196225971032   -0.004480249467756781
-0.040541439180794336   -0.006780196225971032   -0.004480249467756781
-0.040541439180794336   -0.006780196225971032   -0.004480249467756781
-0.040541439180794336   -0.006780196225971032   -0.004480249467756781
-0.03395332675916774   0.001982053676602656   0.009001935692695804
-0.03395332675916774   0.001982053676602656   0.009001935692695804
-0.03395332675916774   0.001982053676602656   0.009001935692695804
-0.03395332675916774   0.001982053676602656   0.009001935692695804
-0.03473454261553261   -0.0011070486757666182   0.001439337898663457
-0.03473454261553261   -0.0011070486757666182   0.001439337898663457
-0.03473454261553261   -0.0011070486757666182   0.001439337898663457
-0.03473454261553261   -0.0011070486757666182   0.001439337898663457
-0.0384657896647457   -0.006487234550774075   -0.005091090607816782
-0.0384657896647457   -0.006487234550774075   -0.005091090607816782
-0.0384657896647457   -0.006487234550774075   -0.005091090607816782
-0.0384657896647457   -0.006487234550774075   -0.005091090607816782
-0.037126335985881644   0.0005917322907398699   0.0052233379900957725
-0.037126335985881644   0.0005917322907398699   0.0052233379900957725
-0.037126335985881644   0.0005917322907398699   0.0052233379900957725
-0.037126335985881644   0.0005917322907398699   0.0052233379900957725
-0.041937638428647894   -0.009179266520497196   -0.0035973434601515824
-0.041937638428647894   -0.009179266520497196   -0.0035973434601515824
-0.041937638428647894   -0.009179266520497196   -0.0035973434601515824
-0.041937638428647894   -0.009179266520497196   -0.0035973434601515824
-0.03999000338180555   -0.0037320675054367293   0.008383094523610763
-0.03999000338180555   -0.0037320675054367293   0.008383094523610763
-0.03999000338180555   -0.0037320675054367293   0.008383094523610763
-0.03999000338180555   -0.0037320675054367293   0.008383094523610763
-0.03805586377703846   -0.0037110559698748527   -0.001720975271656284
-0.03805586377703846   -0.0037110559698748527   -0.001720975271656284
-0.03805586377703846   -0.0037110559698748527   -0.001720975271656284
-0.03805586377703846   -0.0037110559698748527   -0.001720975271656284
-0.0363736046602243   -0.0004934840414938992   -0.003707453070296958
-0.0363736046602243   -0.0004934840414938992   -0.003707453070296958
-0.0363736046602243   -0.0004934840414938992   -0.003707453070296958
-0.0363736046602243   -0.0004934840414938992   -0.003707453070296958
-0.0406268520090616   -0.005143858488703265   -0.00023980834092874128
-0.0406268520090616   -0.005143858488703265   -0.00023980834092874128
-0.0406268520090616   -0.005143858488703265   -0.00023980834092874128
-0.0406268520090616   -0.005143858488703265   -0.00023980834092874128
-0.041198548352085494   -0.003528172535899983   -0.0020727731920188166
-0.041198548352085494   -0.003528172535899983   -0.0020727731920188166
-0.041198548352085494   -0.003528172535899983   -0.0020727731920188166
-0.041198548352085494   -0.003528172535899983   -0.0020727731920188166
-0.037970698152279735   -0.006278797087770575   0.00011330122470284065
-0.037970698152279735   -0.006278797087770575   0.00011330122470284065
-0.037970698152279735   -0.006278797087770575   0.00011330122470284065
-0.037970698152279735   -0.006278797087770575   0.00011330122470284065
-0.038724059461635846   -0.004036456190875605   9.645629892072473e-05
-0.038724059461635846   -0.004036456190875605   9.645629892072473e-05
-0.038724059461635846   -0.004036456190875605   9.645629892072473e-05
-0.038724059461635846   -0.004036456190875605   9.645629892072473e-05
-0.03801117403670781   -0.0031247650762192764   -0.003243110208989125
-0.03801117403670781   -0.0031247650762192764   -0.003243110208989125
-0.03801117403670781   -0.0031247650762192764   -0.003243110208989125
-0.03801117403670781   -0.0031247650762192764   -0.003243110208989125
-0.041420042431886094   -0.006944174511680728   0.00023575838475843906
-0.041420042431886094   -0.006944174511680728   0.00023575838475843906
-0.041420042431886094   -0.006944174511680728   0.00023575838475843906
-0.041420042431886094   -0.006944174511680728   0.00023575838475843906
-0.042129446707540395   -0.005720456345448328   -0.0014145039328392734
-0.042129446707540395   -0.005720456345448328   -0.0014145039328392734
-0.042129446707540395   -0.005720456345448328   -0.0014145039328392734
-0.042129446707540395   -0.005720456345448328   -0.0014145039328392734
-0.039720365449140455   -0.008292697895668777   0.0011376208602104068
-0.039720365449140455   -0.008292697895668777   0.0011376208602104068
-0.039720365449140455   -0.008292697895668777   0.0011376208602104068
-0.039720365449140455   -0.008292697895668777   0.0011376208602104068
-0.03991545445971399   -0.005849885433827602   -0.00097605448489685
-0.03991545445971399   -0.005849885433827602   -0.00097605448489685
-0.03991545445971399   -0.005849885433827602   -0.00097605448489685
-0.03991545445971399   -0.005849885433827602   -0.00097605448489685
-0.03987306357108057   -0.005474993717183588   -0.0024435739279753898
-0.03987306357108057   -0.005474993717183588   -0.0024435739279753898
-0.03987306357108057   -0.005474993717183588   -0.0024435739279753898
-0.03987306357108057   -0.005474993717183588   -0.0024435739279753898
-0.04230820973397661   -0.008869621672309935   0.0008408462618407773
-0.04230820973397661   -0.008869621672309935   0.0008408462618407773
-0.04230820973397661   -0.008869621672309935   0.0008408462618407773
-0.04230820973397661   -0.008869621672309935   0.0008408462618407773
-0.042999188494552365   -0.008002083641348825   -0.0007687545613335162
-0.042999188494552365   -0.008002083641348825   -0.0007687545613335162
-0.042999188494552365   -0.008002083641348825   -0.0007687545613335162
-0.042999188494552365   -0.008002083641348825   -0.0007687545613335162
-0.041094910931756296   -0.010728540865803266   0.0021655683696122146
-0.041094910931756296   -0.010728540865803266   0.0021655683696122146
-0.041094910931756296   -0.010728540865803266   0.0021655683696122146
-0.041094910931756296   -0.010728540865803266   0.0021655683696122146
-0.04142273811323813   -0.007925279980124355   -0.0022892201919385976
-0.04142273811323813   -0.007925279980124355   -0.0022892201919385976
-0.04142273811323813   -0.007925279980124355   -0.0022892201919385976
-0.04142273811323813   -0.007925279980124355   -0.0022892201919385976
-0.039392723593517816   0.0014941241510113088   -0.0007071489029229997
-0.039392723593517816   0.0014941241510113088   -0.0007071489029229997
-0.039392723593517816   0.0014941241510113088   -0.0007071489029229997
-0.039392723593517816   0.0014941241510113088   -0.0007071489029229997
-0.04773693171577599   -0.009102706562935556   -0.002372142095168682
-0.04773693171577599   -0.009102706562935556   -0.002372142095168682
-0.04773693171577599   -0.009102706562935556   -0.002372142095168682
-0.04773693171577599   -0.009102706562935556   -0.002372142095168682
-0.04603991428467838   -0.0017680113115700162   0.0004386553238338738
-0.04603991428467838   -0.0017680113115700162   0.0004386553238338738
-0.04603991428467838   -0.0017680113115700162   0.0004386553238338738
-0.04603991428467838   -0.0017680113115700162   0.0004386553238338738
-0.04218256407267244   -0.009165704395786465   -0.001355319935067544
-0.04218256407267244   -0.009165704395786465   -0.001355319935067544
-0.04218256407267244   -0.009165704395786465   -0.001355319935067544
-0.04218256407267244   -0.009165704395786465   -0.001355319935067544
-0.04380522938278885   -0.004792001003331716   -0.0008511120968220536
-0.04380522938278885   -0.004792001003331716   -0.0008511120968220536
-0.04380522938278885   -0.004792001003331716   -0.0008511120968220536
-0.04380522938278885   -0.004792001003331716   -0.0008511120968220536
-0.04022381101879144   -0.0006983112795410067   -2.8947781908019322e-05
-0.04022381101879144   -0.0006983112795410067   -2.8947781908019322e-05
-0.04022381101879144   -0.0006983112795410067   -2.8947781908019322e-05
-0.04022381101879144   -0.0006983112795410067   -2.8947781908019322e-05
-0.04824182744245244   -0.010478564531708529   -0.0018603572448978685
-0.04824182744245244   -0.010478564531708529   -0.0018603572448978685
-0.04824182744245244   -0.010478564531708529   -0.0018603572448978685
-0.04824182744245244   -0.010478564531708529   -0.0018603572448978685
-0.046776647312697775   -0.003976123552913564   0.0010899942729349112
-0.046776647312697775   -0.003976123552913564   0.0010899942729349112
-0.046776647312697775   -0.003976123552913564   0.0010899942729349112
-0.046776647312697775   -0.003976123552913564   0.0010899942729349112
-0.043056043249049075   -0.01088778009124457   -0.0008801628945869359
-0.043056043249049075   -0.01088778009124457   -0.0008801628945869359
-0.043056043249049075   -0.01088778009124457   -0.0008801628945869359
-0.043056043249049075   -0.01088778009124457   -0.0008801628945869359
-0.044562870794922944   -0.006453334070993401   -0.0017725951797887124
-0.044562870794922944   -0.006453334070993401   -0.0017725951797887124
-0.044562870794922944   -0.006453334070993401   -0.0017725951797887124
-0.044562870794922944   -0.006453334070993401   -0.0017725951797887124
-0.04117141991295715   -0.002951701823855582   0.0006068755184841998
-0.04117141991295715   -0.002951701823855582   0.0006068755184841998
-0.04117141991295715   -0.002951701823855582   0.0006068755184841998
-0.04117141991295715   -0.002951701823855582   0.0006068755184841998
-0.04893321511956026   -0.012184146291073507   -0.001484822023218518
-0.04893321511956026   -0.012184146291073507   -0.001484822023218518
-0.04893321511956026   -0.012184146291073507   -0.001484822023218518
-0.04893321511956026   -0.012184146291073507   -0.001484822023218518
-0.04741770318531405   -0.006022437171528656   0.001737572974938598
-0.04741770318531405   -0.006022437171528656   0.001737572974938598
-0.04741770318531405   -0.006022437171528656   0.001737572974938598
-0.04741770318531405   -0.006022437171528656   0.001737572974938598
-0.04377696932842262   -0.012483967541206386   -0.00017577483082770748
-0.04377696932842262   -0.012483967541206386   -0.00017577483082770748
-0.04377696932842262   -0.012483967541206386   -0.00017577483082770748
-0.04377696932842262   -0.012483967541206386   -0.00017577483082770748
-0.04543439975175786   -0.008179894722334794   -0.0027817131488109613
-0.04543439975175786   -0.008179894722334794   -0.0027817131488109613
-0.04543439975175786   -0.008179894722334794   -0.0027817131488109613
-0.04543439975175786   -0.008179894722334794   -0.0027817131488109613
-0.04405163664594123   0.004801427980978561   0.0021501987100910193
-0.04405163664594123   0.004801427980978561   0.0021501987100910193
-0.04405163664594123   0.004801427980978561   0.0021501987100910193
-0.04405163664594123   0.004801427980978561   0.0021501987100910193
-0.05482460114030321   -0.00716801777204633   -0.0034289656464460854
-0.05482460114030321   -0.00716801777204633   -0.0034289656464460854
-0.05482460114030321   -0.00716801777204633   -0.0034289656464460854
-0.05482460114030321   -0.00716801777204633   -0.0034289656464460854
-0.05224825137406599   0.0010335150633150516   0.002843576173009049
-0.05224825137406599   0.0010335150633150516   0.002843576173009049
-0.05224825137406599   0.0010335150633150516   0.002843576173009049
-0.05224825137406599   0.0010335150633150516   0.002843576173009049
-0.047628567916542526   -0.007285580103601653   -0.0019870440434552315
-0.047628567916542526   -0.007285580103601653   -0.0019870440434552315
-0.047628567916542526   -0.007285580103601653   -0.0019870440434552315
-0.047628567916542526   -0.007285580103601653   -0.0019870440434552315
-0.04963830215440564   -0.0021154013546890033   -0.0005048140237272989
-0.04963830215440564   -0.0021154013546890033   -0.0005048140237272989
-0.04963830215440564   -0.0021154013546890033   -0.0005048140237272989
-0.04963830215440564   -0.0021154013546890033   -0.0005048140237272989
-0.04470588161081674   0.002534529381398559   0.002806278000173506
-0.04470588161081674   0.002534529381398559   0.002806278000173506
-0.04470588161081674   0.002534529381398559   0.002806278000173506
-0.04470588161081674   0.002534529381398559   0.002806278000173506
-0.05550081020232638   -0.009116466944219128   -0.003269235960758753
-0.05550081020232638   -0.009116466944219128   -0.003269235960758753
-0.05550081020232638   -0.009116466944219128   -0.003269235960758753
-0.05550081020232638   -0.009116466944219128   -0.003269235960758753
-0.05336891878834988   -0.001156851910873096   0.00324606144946642
-0.05336891878834988   -0.001156851910873096   0.00324606144946642
-0.05336891878834988   -0.001156851910873096   0.00324606144946642
-0.05336891878834988   -0.001156851910873096   0.00324606144946642
-0.04829821338967643   -0.008931698447393286   -0.0015622612174796134
-0.04829821338967643   -0.008931698447393286   -0.0015622612174796134
-0.04829821338967643   -0.008931698447393286   -0.0015622612174796134
-0.04829821338967643   -0.008931698447393286   -0.0015622612174796134
-0.05028835169034115   -0.003936594266505063   -0.001592833053840287
-0.05028835169034115   -0.003936594266505063   -0.001592833053840287
-0.05028835169034115   -0.003936594266505063   -0.001592833053840287
-0.05028835169034115   -0.003936594266505063   -0.001592833053840287
-0.04541787922877687   0.00047140494922767555   0.0034363061903972636
-0.04541787922877687   0.00047140494922767555   0.0034363061903972636
-0.04541787922877687   0.00047140494922767555   0.0034363061903972636
-0.04541787922877687   0.00047140494922767555   0.0034363061903972636
-0.05653364478203938   -0.010844347140283673   -0.0028900732895705133
-0.05653364478203938   -0.010844347140283673   -0.0028900732895705133
-0.05653364478203938   -0.010844347140283673   -0.0028900732895705133
-0.05653364478203938   -0.010844347140283673   -0.0028900732895705133
-0.05416702153977573   -0.0032869503463011755   0.003977378564815887
-0.05416702153977573   -0.0032869503463011755   0.003977378564815887
-0.05416702153977573   -0.0032869503463011755   0.003977378564815887
-0.05416702153977573   -0.0032869503463011755   0.003977378564815887
-0.04891254307540963   -0.010596004409078553   -0.0011630592379894011
-0.04891254307540963   -0.010596004409078553   -0.0011630592379894011
-0.04891254307540963   -0.010596004409078553   -0.0011630592379894011
-0.04891254307540963   -0.010596004409078553   -0.0011630592379894011
-0.05132245131134569   -0.005696997383338052   -0.0026636389004298343
-0.05132245131134569   -0.005696997383338052   -0.0026636389004298343
-0.05132245131134569   -0.005696997383338052   -0.0026636389004298343
-0.05132245131134569   -0.005696997383338052   -0.0026636389004298343
-0.05044605546050535   0.006915360531198896   0.0043803844492979445
-0.05044605546050535   0.006915360531198896   0.0043803844492979445
-0.05044605546050535   0.006915360531198896   0.0043803844492979445
-0.05044605546050535   0.006915360531198896   0.0043803844492979445
-0.05723068416283272   -0.004641871238346638   -0.004861917068490281
-0.05723068416283272   -0.004641871238346638   -0.004861917068490281
-0.05723068416283272   -0.004641871238346638   -0.004861917068490281
-0.05723068416283272   -0.004641871238346638   -0.004861917068490281
-0.05634660711076762   0.00433628494248718   0.004887288465334715
-0.05634660711076762   0.00433628494248718   0.004887288465334715
-0.05634660711076762   0.00433628494248718   0.004887288465334715
-0.05634660711076762   0.00433628494248718   0.004887288465334715
-0.054639850748446954   -0.0051020780182626175   -0.0029788276173181045
-0.054639850748446954   -0.0051020780182626175   -0.0029788276173181045
-0.054639850748446954   -0.0051020780182626175   -0.0029788276173181045
-0.054639850748446954   -0.0051020780182626175   -0.0029788276173181045
-0.05269874926915189   0.0010432350922946892   0.00046629857718828195
-0.05269874926915189   0.0010432350922946892   0.00046629857718828195
-0.05269874926915189   0.0010432350922946892   0.00046629857718828195
-0.05269874926915189   0.0010432350922946892   0.00046629857718828195
-0.05092092061789958   0.005455594626187561   0.00505815039096859
-0.05092092061789958   0.005455594626187561   0.00505815039096859
-0.05092092061789958   0.005455594626187561   0.00505815039096859
-0.05092092061789958   0.005455594626187561   0.00505815039096859
-0.06035050025996845   -0.006506350720615818   -0.004289541617564528
-0.06035050025996845   -0.006506350720615818   -0.004289541617564528
-0.06035050025996845   -0.006506350720615818   -0.004289541617564528
-0.06035050025996845   -0.006506350720615818   -0.004289541617564528
-0.05881807621678016   0.003056441815300015   0.006247886702056678
-0.05881807621678016   0.003056441815300015   0.006247886702056678
-0.05881807621678016   0.003056441815300015   0.006247886702056678
-0.05881807621678016   0.003056441815300015   0.006247886702056678
-0.05554021804550232   -0.006094552172182305   -0.0026727345749865752
-0.05554021804550232   -0.006094552172182305   -0.0026727345749865752
-0.05554021804550232   -0.006094552172182305   -0.0026727345749865752
-0.05554021804550232   -0.006094552172182305   -0.0026727345749865752
-0.05539950107745699   -0.0004832097826747584   -0.0008920741930422789
-0.05539950107745699   -0.0004832097826747584   -0.0008920741930422789
-0.05539950107745699   -0.0004832097826747584   -0.0008920741930422789
-0.05539950107745699   -0.0004832097826747584   -0.0008920741930422789
-0.051696775034443955   0.004434258644150424   0.006015669663972524
-0.051696775034443955   0.004434258644150424   0.006015669663972524
-0.051696775034443955   0.004434258644150424   0.006015669663972524
-0.051696775034443955   0.004434258644150424   0.006015669663972524
-0.06301317209863244   -0.007824021871826634   -0.003847129020076191
-0.06301317209863244   -0.007824021871826634   -0.003847129020076191
-0.06301317209863244   -0.007824021871826634   -0.003847129020076191
-0.06301317209863244   -0.007824021871826634   -0.003847129020076191
-0.06289937478491295   -0.00024235448593783356   0.006651038421439041
-0.06289937478491295   -0.00024235448593783356   0.006651038421439041
-0.06289937478491295   -0.00024235448593783356   0.006651038421439041
-0.06289937478491295   -0.00024235448593783356   0.006651038421439041
-0.05638540078936963   -0.008091594138729955   -0.002309873890725832
-0.05638540078936963   -0.008091594138729955   -0.002309873890725832
-0.05638540078936963   -0.008091594138729955   -0.002309873890725832
-0.05638540078936963   -0.008091594138729955   -0.002309873890725832
-0.05666172667573904   -0.0019323044629651655   -0.002067313416184888
-0.05666172667573904   -0.0019323044629651655   -0.002067313416184888
-0.05666172667573904   -0.0019323044629651655   -0.002067313416184888
-0.05666172667573904   -0.0019323044629651655   -0.002067313416184888
-0.08992473038819652   -0.008426962020354561   -0.009696799514776122
-0.08992473038819652   -0.008426962020354561   -0.009696799514776122
-0.08992473038819652   -0.008426962020354561   -0.009696799514776122
-0.08992473038819652   -0.008426962020354561   -0.009696799514776122
-0.05967849361171725   0.00409668620067867   0.002203097323494516
-0.05967849361171725   0.00409668620067867   0.002203097323494516
-0.05967849361171725   0.00409668620067867   0.002203097323494516
-0.05967849361171725   0.00409668620067867   0.002203097323494516
-0.06295699312061848   -0.004733422060500909   -0.004574882763510972
-0.06295699312061848   -0.004733422060500909   -0.004574882763510972
-0.06295699312061848   -0.004733422060500909   -0.004574882763510972
-0.06295699312061848   -0.004733422060500909   -0.004574882763510972
-0.09697193980203468   -0.012354083616515028   0.01026922281849395
-0.09697193980203468   -0.012354083616515028   0.01026922281849395
-0.09697193980203468   -0.012354083616515028   0.01026922281849395
-0.09697193980203468   -0.012354083616515028   0.01026922281849395
-0.07081508490872308   -0.0031787515379223513   0.010267927183369455
-0.07081508490872308   -0.0031787515379223513   0.010267927183369455
-0.07081508490872308   -0.0031787515379223513   0.010267927183369455
-0.07081508490872308   -0.0031787515379223513   0.010267927183369455
-0.10056964642894131   -0.0127963791299783   -0.007277014802575081
-0.10056964642894131   -0.0127963791299783   -0.007277014802575081
-0.10056964642894131   -0.0127963791299783   -0.007277014802575081
-0.10056964642894131   -0.0127963791299783   -0.007277014802575081
-0.06192807912024213   -0.006859919173567793   0.0026961843514375933
-0.06192807912024213   -0.006859919173567793   0.0026961843514375933
-0.06192807912024213   -0.006859919173567793   0.0026961843514375933
-0.06192807912024213   -0.006859919173567793   0.0026961843514375933
-0.06441416982991875   -0.0066031480869260415   -0.0034632300541966848
-0.06441416982991875   -0.0066031480869260415   -0.0034632300541966848
-0.06441416982991875   -0.0066031480869260415   -0.0034632300541966848
-0.06441416982991875   -0.0066031480869260415   -0.0034632300541966848
-0.10076295721614459   -0.017072120875657217   -0.00012812550198422208
-0.10076295721614459   -0.017072120875657217   -0.00012812550198422208
-0.10076295721614459   -0.017072120875657217   -0.00012812550198422208
-0.10076295721614459   -0.017072120875657217   -0.00012812550198422208
-0.07939093400798598   -0.010286669253449628   0.0025073470926572014
-0.07939093400798598   -0.010286669253449628   0.0025073470926572014
-0.07939093400798598   -0.010286669253449628   0.0025073470926572014
-0.07939093400798598   -0.010286669253449628   0.0025073470926572014
-0.10144216421430824   -0.014529464355546962   -0.006066817012911807
-0.10144216421430824   -0.014529464355546962   -0.006066817012911807
-0.10144216421430824   -0.014529464355546962   -0.006066817012911807
-0.10144216421430824   -0.014529464355546962   -0.006066817012911807
-0.06446449473382432   -0.009875336509105485   -0.0004426661515458439
-0.06446449473382432   -0.009875336509105485   -0.0004426661515458439
-0.06446449473382432   -0.009875336509105485   -0.0004426661515458439
-0.06446449473382432   -0.009875336509105485   -0.0004426661515458439
-0.06491116141058882   -0.010920117423452351   -0.0026359970376840848
-0.06491116141058882   -0.010920117423452351   -0.0026359970376840848
-0.06491116141058882   -0.010920117423452351   -0.0026359970376840848
-0.06491116141058882   -0.010920117423452351   -0.0026359970376840848
-0.1040375417202014   -0.025749817919814934   0.0011352858889907278
-0.1040375417202014   -0.025749817919814934   0.0011352858889907278
-0.1040375417202014   -0.025749817919814934   0.0011352858889907278
-0.1040375417202014   -0.025749817919814934   0.0011352858889907278
-0.07986034372351389   -0.014024044559752591   0.0003528326645664767
-0.07986034372351389   -0.014024044559752591   0.0003528326645664767
-0.07986034372351389   -0.014024044559752591   0.0003528326645664767
-0.07986034372351389   -0.014024044559752591   0.0003528326645664767
-0.06437809094783341   -0.011071487699627743   -0.006126715456779312
-0.06437809094783341   -0.011071487699627743   -0.006126715456779312
-0.06437809094783341   -0.011071487699627743   -0.006126715456779312
-0.06437809094783341   -0.011071487699627743   -0.006126715456779312
-0.04633513341214913   -0.03233993747856366   -0.0059485119650765994
-0.04633513341214913   -0.03233993747856366   -0.0059485119650765994
-0.04633513341214913   -0.03233993747856366   -0.0059485119650765994
-0.04633513341214913   -0.03233993747856366   -0.0059485119650765994
-0.04056247031770218   -0.006936920652894658   -0.0005855444354951303
-0.04056247031770218   -0.006936920652894658   -0.0005855444354951303
-0.04056247031770218   -0.006936920652894658   -0.0005855444354951303
-0.04056247031770218   -0.006936920652894658   -0.0005855444354951303
-0.06927874789525494   -0.03365065660320458   -0.00726642209398967
-0.06927874789525494   -0.03365065660320458   -0.00726642209398967
-0.06927874789525494   -0.03365065660320458   -0.00726642209398967
-0.06927874789525494   -0.03365065660320458   -0.00726642209398967
-0.05455077666222483   -0.022148559422286846   -0.0016532514881767249
-0.05455077666222483   -0.022148559422286846   -0.0016532514881767249
-0.05455077666222483   -0.022148559422286846   -0.0016532514881767249
-0.05455077666222483   -0.022148559422286846   -0.0016532514881767249
-0.06454122577676319   -0.012551213732129071   -0.00467825437260618
-0.06454122577676319   -0.012551213732129071   -0.00467825437260618
-0.06454122577676319   -0.012551213732129071   -0.00467825437260618
-0.06454122577676319   -0.012551213732129071   -0.00467825437260618
-0.04555026131120619   -0.028286632398982457   -0.0041747876569278395
-0.04555026131120619   -0.028286632398982457   -0.0041747876569278395
-0.04555026131120619   -0.028286632398982457   -0.0041747876569278395
-0.04555026131120619   -0.028286632398982457   -0.0041747876569278395
-0.04145423190623674   -0.008899421125713777   -0.00016212883291831013
-0.04145423190623674   -0.008899421125713777   -0.00016212883291831013
-0.04145423190623674   -0.008899421125713777   -0.00016212883291831013
-0.04145423190623674   -0.008899421125713777   -0.00016212883291831013
-0.06993485363947283   -0.033447175392665736   -0.004222621796228134
-0.06993485363947283   -0.033447175392665736   -0.004222621796228134
-0.06993485363947283   -0.033447175392665736   -0.004222621796228134
-0.06993485363947283   -0.033447175392665736   -0.004222621796228134
-0.0542374640286235   -0.020750637214008917   -0.0017614884948230305
-0.0542374640286235   -0.020750637214008917   -0.0017614884948230305
-0.0542374640286235   -0.020750637214008917   -0.0017614884948230305
-0.0542374640286235   -0.020750637214008917   -0.0017614884948230305
-0.06601374084875984   -0.014493119828916979   -0.0035711134064112145
-0.06601374084875984   -0.014493119828916979   -0.0035711134064112145
-0.06601374084875984   -0.014493119828916979   -0.0035711134064112145
-0.06601374084875984   -0.014493119828916979   -0.0035711134064112145
-0.04593371447575669   -0.02841184646826954   -0.003047116337963272
-0.04593371447575669   -0.02841184646826954   -0.003047116337963272
-0.04593371447575669   -0.02841184646826954   -0.003047116337963272
-0.04593371447575669   -0.02841184646826954   -0.003047116337963272
-0.04193114882918451   -0.011240484962249076   0.00044208578481137663
-0.04193114882918451   -0.011240484962249076   0.00044208578481137663
-0.04193114882918451   -0.011240484962249076   0.00044208578481137663
-0.04193114882918451   -0.011240484962249076   0.00044208578481137663
-0.07021176634140476   -0.03370173828664673   -0.006357400828570179
-0.07021176634140476   -0.03370173828664673   -0.006357400828570179
-0.07021176634140476   -0.03370173828664673   -0.006357400828570179
-0.07021176634140476   -0.03370173828664673   -0.006357400828570179
-0.055532151282152054   -0.022222684695481436   -0.0033199010436758747
-0.055532151282152054   -0.022222684695481436   -0.0033199010436758747
-0.055532151282152054   -0.022222684695481436   -0.0033199010436758747
-0.055532151282152054   -0.022222684695481436   -0.0033199010436758747
-0.04024342559327963   -0.007246299157717587   -0.0005836111915751901
-0.04024342559327963   -0.007246299157717587   -0.0005836111915751901
-0.04024342559327963   -0.007246299157717587   -0.0005836111915751901
-0.04024342559327963   -0.007246299157717587   -0.0005836111915751901
-0.03589541256809981   -0.02518916931215723   -0.004342813485333878
-0.03589541256809981   -0.02518916931215723   -0.004342813485333878
-0.03589541256809981   -0.02518916931215723   -0.004342813485333878
-0.03589541256809981   -0.02518916931215723   -0.004342813485333878
-0.03103489116329759   -0.006361817043036632   0.0015164439193067732
-0.03103489116329759   -0.006361817043036632   0.0015164439193067732
-0.03103489116329759   -0.006361817043036632   0.0015164439193067732
-0.03103489116329759   -0.006361817043036632   0.0015164439193067732
-0.04535620762960417   -0.026838676945871096   -0.004652474702029119
-0.04535620762960417   -0.026838676945871096   -0.004652474702029119
-0.04535620762960417   -0.026838676945871096   -0.004652474702029119
-0.04535620762960417   -0.026838676945871096   -0.004652474702029119
-0.0379935489066526   -0.01656299114102658   -0.001964372400156166
-0.0379935489066526   -0.01656299114102658   -0.001964372400156166
-0.0379935489066526   -0.01656299114102658   -0.001964372400156166
-0.0379935489066526   -0.01656299114102658   -0.001964372400156166
-0.040772620839128665   -0.008606079417640612   3.2861722117941394e-05
-0.040772620839128665   -0.008606079417640612   3.2861722117941394e-05
-0.040772620839128665   -0.008606079417640612   3.2861722117941394e-05
-0.040772620839128665   -0.008606079417640612   3.2861722117941394e-05
-0.03585639946533542   -0.02483233608282944   -0.004120578551089594
-0.03585639946533542   -0.02483233608282944   -0.004120578551089594
-0.03585639946533542   -0.02483233608282944   -0.004120578551089594
-0.03585639946533542   -0.02483233608282944   -0.004120578551089594
-0.03144675565655683   -0.007990641656358478   0.0019962416873512863
-0.03144675565655683   -0.007990641656358478   0.0019962416873512863
-0.03144675565655683   -0.007990641656358478   0.0019962416873512863
-0.03144675565655683   -0.007990641656358478   0.0019962416873512863
-0.045901173557261706   -0.02725717882284618   -0.004039079390911699
-0.045901173557261706   -0.02725717882284618   -0.004039079390911699
-0.045901173557261706   -0.02725717882284618   -0.004039079390911699
-0.045901173557261706   -0.02725717882284618   -0.004039079390911699
-0.03826843393595985   -0.017121122498273276   -0.0025592343982791454
-0.03826843393595985   -0.017121122498273276   -0.0025592343982791454
-0.03826843393595985   -0.017121122498273276   -0.0025592343982791454
-0.03826843393595985   -0.017121122498273276   -0.0025592343982791454
-0.0415532816604056   -0.01026879578374529   0.0007119970542679168
-0.0415532816604056   -0.01026879578374529   0.0007119970542679168
-0.0415532816604056   -0.01026879578374529   0.0007119970542679168
-0.0415532816604056   -0.01026879578374529   0.0007119970542679168
-0.035931562747097356   -0.02511593988914427   -0.003302495532566496
-0.035931562747097356   -0.02511593988914427   -0.003302495532566496
-0.035931562747097356   -0.02511593988914427   -0.003302495532566496
-0.035931562747097356   -0.02511593988914427   -0.003302495532566496
-0.03153053215236578   -0.00949272538973173   0.0025339987504887323
-0.03153053215236578   -0.00949272538973173   0.0025339987504887323
-0.03153053215236578   -0.00949272538973173   0.0025339987504887323
-0.03153053215236578   -0.00949272538973173   0.0025339987504887323
-0.04583648670173129   -0.027483155875556064   -0.0028419326646155017
-0.04583648670173129   -0.027483155875556064   -0.0028419326646155017
-0.04583648670173129   -0.027483155875556064   -0.0028419326646155017
-0.04583648670173129   -0.027483155875556064   -0.0028419326646155017
-0.03860158871112975   -0.017923998662449966   -0.003032887934780626
-0.03860158871112975   -0.017923998662449966   -0.003032887934780626
-0.03860158871112975   -0.017923998662449966   -0.003032887934780626
-0.03860158871112975   -0.017923998662449966   -0.003032887934780626
-0.02957710635792478   -0.0008506800296705138   0.0029102282830545697
-0.02957710635792478   -0.0008506800296705138   0.0029102282830545697
-0.02957710635792478   -0.0008506800296705138   0.0029102282830545697
-0.02957710635792478   -0.0008506800296705138   0.0029102282830545697
-0.03012136195585837   -0.013772379442166817   -0.0027977170471709116
-0.03012136195585837   -0.013772379442166817   -0.0027977170471709116
-0.03012136195585837   -0.013772379442166817   -0.0027977170471709116
-0.03012136195585837   -0.013772379442166817   -0.0027977170471709116
-0.026362929139892643   -0.001974634456220391   0.003302045416801191
-0.026362929139892643   -0.001974634456220391   0.003302045416801191
-0.026362929139892643   -0.001974634456220391   0.003302045416801191
-0.026362929139892643   -0.001974634456220391   0.003302045416801191
-0.03351642937290607   -0.0153532343232571   -0.0018998298485151319
-0.03351642937290607   -0.0153532343232571   -0.0018998298485151319
-0.03351642937290607   -0.0153532343232571   -0.0018998298485151319
-0.03351642937290607   -0.0153532343232571   -0.0018998298485151319
-0.029976882999213767   -0.00787844591711864   -0.0010892241931519798
-0.029976882999213767   -0.00787844591711864   -0.0010892241931519798
-0.029976882999213767   -0.00787844591711864   -0.0010892241931519798
-0.029976882999213767   -0.00787844591711864   -0.0010892241931519798
-0.029928334087742845   -0.0026755350652849165   0.003362947319328771
-0.029928334087742845   -0.0026755350652849165   0.003362947319328771
-0.029928334087742845   -0.0026755350652849165   0.003362947319328771
-0.029928334087742845   -0.0026755350652849165   0.003362947319328771
-0.030227221635116014   -0.014928530924252727   -0.0030655205912833135
-0.030227221635116014   -0.014928530924252727   -0.0030655205912833135
-0.030227221635116014   -0.014928530924252727   -0.0030655205912833135
-0.030227221635116014   -0.014928530924252727   -0.0030655205912833135
-0.026782709289477607   -0.0036006352726319084   0.0035775505561284463
-0.026782709289477607   -0.0036006352726319084   0.0035775505561284463
-0.026782709289477607   -0.0036006352726319084   0.0035775505561284463
-0.026782709289477607   -0.0036006352726319084   0.0035775505561284463
-0.033917094356521356   -0.016316535963391565   -0.002029557505439217
-0.033917094356521356   -0.016316535963391565   -0.002029557505439217
-0.033917094356521356   -0.016316535963391565   -0.002029557505439217
-0.033917094356521356   -0.016316535963391565   -0.002029557505439217
-0.030199581866158034   -0.00914858660122057   -0.0018849470814695053
-0.030199581866158034   -0.00914858660122057   -0.0018849470814695053
-0.030199581866158034   -0.00914858660122057   -0.0018849470814695053
-0.030199581866158034   -0.00914858660122057   -0.0018849470814695053
-0.030336793310576076   -0.004263233196581966   0.0038186449574766266
-0.030336793310576076   -0.004263233196581966   0.0038186449574766266
-0.030336793310576076   -0.004263233196581966   0.0038186449574766266
-0.030336793310576076   -0.004263233196581966   0.0038186449574766266
-0.030532093703445933   -0.01582302140746471   -0.0029469853788803724
-0.030532093703445933   -0.01582302140746471   -0.0029469853788803724
-0.030532093703445933   -0.01582302140746471   -0.0029469853788803724
-0.030532093703445933   -0.01582302140746471   -0.0029469853788803724
-0.02696918412831171   -0.00514206574814075   0.004163275119603606
-0.02696918412831171   -0.00514206574814075   0.004163275119603606
-0.02696918412831171   -0.00514206574814075   0.004163275119603606
-0.02696918412831171   -0.00514206574814075   0.004163275119603606
-0.03385090127554781   -0.017247830828937816   -0.0013127414262153296
-0.03385090127554781   -0.017247830828937816   -0.0013127414262153296
-0.03385090127554781   -0.017247830828937816   -0.0013127414262153296
-0.03385090127554781   -0.017247830828937816   -0.0013127414262153296
-0.030547712134625527   -0.01031100663714049   -0.0024914072047888696
-0.030547712134625527   -0.01031100663714049   -0.0024914072047888696
-0.030547712134625527   -0.01031100663714049   -0.0024914072047888696
-0.030547712134625527   -0.01031100663714049   -0.0024914072047888696
-0.02513421208000598   0.003685780974918007   0.004679871915006203
-0.02513421208000598   0.003685780974918007   0.004679871915006203
-0.02513421208000598   0.003685780974918007   0.004679871915006203
-0.02513421208000598   0.003685780974918007   0.004679871915006203
-0.019639849143848295   -0.004854578274214131   -0.0018653213439443449
-0.019639849143848295   -0.004854578274214131   -0.0018653213439443449
-0.019639849143848295   -0.004854578274214131   -0.0018653213439443449
-0.019639849143848295   -0.004854578274214131   -0.0018653213439443449
-0.017958993497339582   0.003764602101956662   0.004673715732669007
-0.017958993497339582   0.003764602101956662   0.004673715732669007
-0.017958993497339582   0.003764602101956662   0.004673715732669007
-0.017958993497339582   0.003764602101956662   0.004673715732669007
-0.028169286318994635   -0.006709624086303616   -0.0009947508486255361
-0.028169286318994635   -0.006709624086303616   -0.0009947508486255361
-0.028169286318994635   -0.006709624086303616   -0.0009947508486255361
-0.028169286318994635   -0.006709624086303616   -0.0009947508486255361
-0.022292929344936922   -0.0005337125297004202   -0.000676645181093253
-0.022292929344936922   -0.0005337125297004202   -0.000676645181093253
-0.022292929344936922   -0.0005337125297004202   -0.000676645181093253
-0.022292929344936922   -0.0005337125297004202   -0.000676645181093253
-0.025121602279053808   0.0024201218766953638   0.005113923388078661
-0.025121602279053808   0.0024201218766953638   0.005113923388078661
-0.025121602279053808   0.0024201218766953638   0.005113923388078661
-0.025121602279053808   0.0024201218766953638   0.005113923388078661
-0.021063660936435552   -0.00542212726019762   -0.0016628921006546409
-0.021063660936435552   -0.00542212726019762   -0.0016628921006546409
-0.021063660936435552   -0.00542212726019762   -0.0016628921006546409
-0.021063660936435552   -0.00542212726019762   -0.0016628921006546409
-0.01905463273832091   0.0029075960525301267   0.00585242124139417
-0.01905463273832091   0.0029075960525301267   0.00585242124139417
-0.01905463273832091   0.0029075960525301267   0.00585242124139417
-0.01905463273832091   0.0029075960525301267   0.00585242124139417
-0.028451747463147707   -0.007202963344012358   -0.0011653122408415964
-0.028451747463147707   -0.007202963344012358   -0.0011653122408415964
-0.028451747463147707   -0.007202963344012358   -0.0011653122408415964
-0.028451747463147707   -0.007202963344012358   -0.0011653122408415964
-0.02338095244964326   -0.0014583756835759602   -0.001181752551288312
-0.02338095244964326   -0.0014583756835759602   -0.001181752551288312
-0.02338095244964326   -0.0014583756835759602   -0.001181752551288312
-0.02338095244964326   -0.0014583756835759602   -0.001181752551288312
-0.025271890538305024   0.0016665517101052997   0.005864457329254153
-0.025271890538305024   0.0016665517101052997   0.005864457329254153
-0.025271890538305024   0.0016665517101052997   0.005864457329254153
-0.025271890538305024   0.0016665517101052997   0.005864457329254153
-0.022452661333857076   -0.006180090672280698   -0.0020500350114739264
-0.022452661333857076   -0.006180090672280698   -0.0020500350114739264
-0.022452661333857076   -0.006180090672280698   -0.0020500350114739264
-0.022452661333857076   -0.006180090672280698   -0.0020500350114739264
-0.021654265728781628   0.0005359364345673659   0.006096643915172769
-0.021654265728781628   0.0005359364345673659   0.006096643915172769
-0.021654265728781628   0.0005359364345673659   0.006096643915172769
-0.021654265728781628   0.0005359364345673659   0.006096643915172769
-0.028515640645756873   -0.007776652274927767   -0.0009344209408352017
-0.028515640645756873   -0.007776652274927767   -0.0009344209408352017
-0.028515640645756873   -0.007776652274927767   -0.0009344209408352017
-0.028515640645756873   -0.007776652274927767   -0.0009344209408352017
-0.024061638115912807   -0.002202657435003146   -0.0018594550420751818
-0.024061638115912807   -0.002202657435003146   -0.0018594550420751818
-0.024061638115912807   -0.002202657435003146   -0.0018594550420751818
-0.024061638115912807   -0.002202657435003146   -0.0018594550420751818
-0.22792988680162013   -0.03404637695169231   -0.020260825248458497
-0.22792988680162013   -0.03404637695169231   -0.020260825248458497
-0.22792988680162013   -0.03404637695169231   -0.020260825248458497
-0.22792988680162013   -0.03404637695169231   -0.020260825248458497
-0.08149638124191387   -0.14690758805692744   -0.015493846318404142
-0.08149638124191387   -0.14690758805692744   -0.015493846318404142
-0.08149638124191387   -0.14690758805692744   -0.015493846318404142
-0.08149638124191387   -0.14690758805692744   -0.015493846318404142
-0.06037117464454704   -0.00712367747224763   -0.00017951161765668473
-0.06037117464454704   -0.00712367747224763   -0.00017951161765668473
-0.06037117464454704   -0.00712367747224763   -0.00017951161765668473
-0.06037117464454704   -0.00712367747224763   -0.00017951161765668473
-0.24841446296878772   -0.16871275803319452   -0.08342544420039645
-0.24841446296878772   -0.16871275803319452   -0.08342544420039645
-0.24841446296878772   -0.16871275803319452   -0.08342544420039645
-0.24841446296878772   -0.16871275803319452   -0.08342544420039645
-0.15059400977771764   -0.08337136130700609   -0.01222017431958656
-0.15059400977771764   -0.08337136130700609   -0.01222017431958656
-0.15059400977771764   -0.08337136130700609   -0.01222017431958656
-0.15059400977771764   -0.08337136130700609   -0.01222017431958656
-0.21208942783102988   -0.04294502591247793   -0.027568000632325375
-0.21208942783102988   -0.04294502591247793   -0.027568000632325375
-0.21208942783102988   -0.04294502591247793   -0.027568000632325375
-0.21208942783102988   -0.04294502591247793   -0.027568000632325375
-0.08877407721405048   -0.12496927702470997   -0.024348424912711043
-0.08877407721405048   -0.12496927702470997   -0.024348424912711043
-0.08877407721405048   -0.12496927702470997   -0.024348424912711043
-0.08877407721405048   -0.12496927702470997   -0.024348424912711043
-0.06226835549959433   -0.008903700885306431   0.00221937273321944
-0.06226835549959433   -0.008903700885306431   0.00221937273321944
-0.06226835549959433   -0.008903700885306431   0.00221937273321944
-0.06226835549959433   -0.008903700885306431   0.00221937273321944
-0.23291182894822707   -0.15265603030893385   -0.07711357185143218
-0.23291182894822707   -0.15265603030893385   -0.07711357185143218
-0.23291182894822707   -0.15265603030893385   -0.07711357185143218
-0.23291182894822707   -0.15265603030893385   -0.07711357185143218
-0.14221856952190187   -0.07588028634097785   0.005212967347639728
-0.14221856952190187   -0.07588028634097785   0.005212967347639728
-0.14221856952190187   -0.07588028634097785   0.005212967347639728
-0.14221856952190187   -0.07588028634097785   0.005212967347639728
-0.19934243904990318   -0.04095576889646813   -0.020966883772280218
-0.19934243904990318   -0.04095576889646813   -0.020966883772280218
-0.19934243904990318   -0.04095576889646813   -0.020966883772280218
-0.19934243904990318   -0.04095576889646813   -0.020966883772280218
-0.08696380192093454   -0.11173001882078865   -0.018431541437998706
-0.08696380192093454   -0.11173001882078865   -0.018431541437998706
-0.08696380192093454   -0.11173001882078865   -0.018431541437998706
-0.08696380192093454   -0.11173001882078865   -0.018431541437998706
-0.07315043736431012   -0.020667095522499176   -0.004338206480321738
-0.07315043736431012   -0.020667095522499176   -0.004338206480321738
-0.07315043736431012   -0.020667095522499176   -0.004338206480321738
-0.07315043736431012   -0.020667095522499176   -0.004338206480321738
-0.21255691118105502   -0.1311023588677303   -0.06873185400975707
-0.21255691118105502   -0.1311023588677303   -0.06873185400975707
-0.21255691118105502   -0.1311023588677303   -0.06873185400975707
-0.21255691118105502   -0.1311023588677303   -0.06873185400975707
-0.13216265036693106   -0.06631388492270862   0.025110529720857915
-0.13216265036693106   -0.06631388492270862   0.025110529720857915
-0.13216265036693106   -0.06631388492270862   0.025110529720857915
-0.13216265036693106   -0.06631388492270862   0.025110529720857915
-0.05684114640689058   -0.03423040810378313   -0.004894852096432493
-0.05684114640689058   -0.03423040810378313   -0.004894852096432493
-0.05684114640689058   -0.03423040810378313   -0.004894852096432493
-0.05684114640689058   -0.03423040810378313   -0.004894852096432493
-0.028421672244420732   -0.05255905107075917   -0.00712409529271643
-0.028421672244420732   -0.05255905107075917   -0.00712409529271643
-0.028421672244420732   -0.05255905107075917   -0.00712409529271643
-0.028421672244420732   -0.05255905107075917   -0.00712409529271643
-0.02373832333974765   -0.02300158308779385   0.0004385209275576405
-0.02373832333974765   -0.02300158308779385   0.0004385209275576405
-0.02373832333974765   -0.02300158308779385   0.0004385209275576405
-0.02373832333974765   -0.02300158308779385   0.0004385209275576405
-0.07312196981658106   -0.07218309877343486   0.0011259338233609376
-0.07312196981658106   -0.07218309877343486   0.0011259338233609376
-0.07312196981658106   -0.07218309877343486   0.0011259338233609376
-0.07312196981658106   -0.07218309877343486   0.0011259338233609376
-0.03830564373219165   -0.03443531357917268   0.01303174130715151
-0.03830564373219165   -0.03443531357917268   0.01303174130715151
-0.03830564373219165   -0.03443531357917268   0.01303174130715151
-0.03830564373219165   -0.03443531357917268   0.01303174130715151
-0.06598055163928354   -0.03217312312160831   -0.003176950941978781
-0.06598055163928354   -0.03217312312160831   -0.003176950941978781
-0.06598055163928354   -0.03217312312160831   -0.003176950941978781
-0.06598055163928354   -0.03217312312160831   -0.003176950941978781
-0.03317998482721063   -0.06531180204978598   -0.00445956754776514
-0.03317998482721063   -0.06531180204978598   -0.00445956754776514
-0.03317998482721063   -0.06531180204978598   -0.00445956754776514
-0.03317998482721063   -0.06531180204978598   -0.00445956754776514
-0.026268634346754846   -0.023751702428880132   0.0005885237299828924
-0.026268634346754846   -0.023751702428880132   0.0005885237299828924
-0.026268634346754846   -0.023751702428880132   0.0005885237299828924
-0.026268634346754846   -0.023751702428880132   0.0005885237299828924
-0.07765144529859923   -0.07205811168536   -0.01154166546175077
-0.07765144529859923   -0.07205811168536   -0.01154166546175077
-0.07765144529859923   -0.07205811168536   -0.01154166546175077
-0.07765144529859923   -0.07205811168536   -0.01154166546175077
-0.04689343614158399   -0.043444695022404986   0.0053718685783284755
-0.04689343614158399   -0.043444695022404986   0.0053718685783284755
-0.04689343614158399   -0.043444695022404986   0.0053718685783284755
-0.04689343614158399   -0.043444695022404986   0.0053718685783284755
-0.0688656499125537   -0.03360247527617771   -0.00606832494070616
-0.0688656499125537   -0.03360247527617771   -0.00606832494070616
-0.0688656499125537   -0.03360247527617771   -0.00606832494070616
-0.0688656499125537   -0.03360247527617771   -0.00606832494070616
-0.03487240049269018   -0.06202530959795226   -0.004156699830621153
-0.03487240049269018   -0.06202530959795226   -0.004156699830621153
-0.03487240049269018   -0.06202530959795226   -0.004156699830621153
-0.03487240049269018   -0.06202530959795226   -0.004156699830621153
-0.030370842797651565   -0.024283862451999705   0.0008910548009117411
-0.030370842797651565   -0.024283862451999705   0.0008910548009117411
-0.030370842797651565   -0.024283862451999705   0.0008910548009117411
-0.030370842797651565   -0.024283862451999705   0.0008910548009117411
-0.08419888379214671   -0.07059581674493327   -0.009651717397070016
-0.08419888379214671   -0.07059581674493327   -0.009651717397070016
-0.08419888379214671   -0.07059581674493327   -0.009651717397070016
-0.08419888379214671   -0.07059581674493327   -0.009651717397070016
-0.04991811145831962   -0.04108427917692327   0.00556666931627596
-0.04991811145831962   -0.04108427917692327   0.00556666931627596
-0.04991811145831962   -0.04108427917692327   0.00556666931627596
-0.04991811145831962   -0.04108427917692327   0.00556666931627596
-0.02035977604869649   -0.020906843656817147   0.001533178271963232
-0.02035977604869649   -0.020906843656817147   0.001533178271963232
-0.02035977604869649   -0.020906843656817147   0.001533178271963232
-0.02035977604869649   -0.020906843656817147   0.001533178271963232
-0.014213668761730358   -0.019617733076746642   -0.0036405547361839105
-0.014213668761730358   -0.019617733076746642   -0.0036405547361839105
-0.014213668761730358   -0.019617733076746642   -0.0036405547361839105
-0.014213668761730358   -0.019617733076746642   -0.0036405547361839105
-0.01316946536496624   -0.019190407905200872   0.0014021282366840837
-0.01316946536496624   -0.019190407905200872   0.0014021282366840837
-0.01316946536496624   -0.019190407905200872   0.0014021282366840837
-0.01316946536496624   -0.019190407905200872   0.0014021282366840837
-0.024371017445979852   -0.024936982143767362   -0.0007895505476298746
-0.024371017445979852   -0.024936982143767362   -0.0007895505476298746
-0.024371017445979852   -0.024936982143767362   -0.0007895505476298746
-0.024371017445979852   -0.024936982143767362   -0.0007895505476298746
-0.015012653388362624   -0.017675123044597098   0.006676884830771169
-0.015012653388362624   -0.017675123044597098   0.006676884830771169
-0.015012653388362624   -0.017675123044597098   0.006676884830771169
-0.015012653388362624   -0.017675123044597098   0.006676884830771169
-0.023096442507009946   -0.021105800483546718   0.0017521424869985569
-0.023096442507009946   -0.021105800483546718   0.0017521424869985569
-0.023096442507009946   -0.021105800483546718   0.0017521424869985569
-0.023096442507009946   -0.021105800483546718   0.0017521424869985569
-0.01478277832148156   -0.023360327582967005   -0.0024945168681263803
-0.01478277832148156   -0.023360327582967005   -0.0024945168681263803
-0.01478277832148156   -0.023360327582967005   -0.0024945168681263803
-0.01478277832148156   -0.023360327582967005   -0.0024945168681263803
-0.01374796973013518   -0.019755424225765903   0.0013164897673631727
-0.01374796973013518   -0.019755424225765903   0.0013164897673631727
-0.01374796973013518   -0.019755424225765903   0.0013164897673631727
-0.01374796973013518   -0.019755424225765903   0.0013164897673631727
-0.026538863600354033   -0.02870445172871341   0.004190126761820723
-0.026538863600354033   -0.02870445172871341   0.004190126761820723
-0.026538863600354033   -0.02870445172871341   0.004190126761820723
-0.026538863600354033   -0.02870445172871341   0.004190126761820723
-0.017043740865798126   -0.019839555688027585   0.005228052375016053
-0.017043740865798126   -0.019839555688027585   0.005228052375016053
-0.017043740865798126   -0.019839555688027585   0.005228052375016053
-0.017043740865798126   -0.019839555688027585   0.005228052375016053
-0.025553090780630866   -0.02191403213582762   0.002328571267550277
-0.025553090780630866   -0.02191403213582762   0.002328571267550277
-0.025553090780630866   -0.02191403213582762   0.002328571267550277
-0.025553090780630866   -0.02191403213582762   0.002328571267550277
-0.01602168870384196   -0.02783378997263539   -0.001973739354301237
-0.01602168870384196   -0.02783378997263539   -0.001973739354301237
-0.01602168870384196   -0.02783378997263539   -0.001973739354301237
-0.01602168870384196   -0.02783378997263539   -0.001973739354301237
-0.014670489608088286   -0.020298946363845344   0.0019131178002950947
-0.014670489608088286   -0.020298946363845344   0.0019131178002950947
-0.014670489608088286   -0.020298946363845344   0.0019131178002950947
-0.014670489608088286   -0.020298946363845344   0.0019131178002950947
-0.032175215702914595   -0.034335392686939636   0.0019207205095365214
-0.032175215702914595   -0.034335392686939636   0.0019207205095365214
-0.032175215702914595   -0.034335392686939636   0.0019207205095365214
-0.032175215702914595   -0.034335392686939636   0.0019207205095365214
-0.019794860318391116   -0.022271447136430263   0.001873147117646256
-0.019794860318391116   -0.022271447136430263   0.001873147117646256
-0.019794860318391116   -0.022271447136430263   0.001873147117646256
-0.019794860318391116   -0.022271447136430263   0.001873147117646256
-0.010434029318727897   -0.008456156354075157   0.004096065756156907
-0.010434029318727897   -0.008456156354075157   0.004096065756156907
-0.010434029318727897   -0.008456156354075157   0.004096065756156907
-0.010434029318727897   -0.008456156354075157   0.004096065756156907
-0.008700074477796107   -0.0029840381859682318   -0.0009060227493043965
-0.008700074477796107   -0.0029840381859682318   -0.0009060227493043965
-0.008700074477796107   -0.0029840381859682318   -0.0009060227493043965
-0.008700074477796107   -0.0029840381859682318   -0.0009060227493043965
-0.008157684591164442   -0.009407938056630732   0.002467906702875085
-0.008157684591164442   -0.009407938056630732   0.002467906702875085
-0.008157684591164442   -0.009407938056630732   0.002467906702875085
-0.008157684591164442   -0.009407938056630732   0.002467906702875085
-0.010573631961644136   -0.004850093242574105   4.0980590667844094e-05
-0.010573631961644136   -0.004850093242574105   4.0980590667844094e-05
-0.010573631961644136   -0.004850093242574105   4.0980590667844094e-05
-0.010573631961644136   -0.004850093242574105   4.0980590667844094e-05
-0.008680414302479398   -0.0058633343616690935   0.002024333542607154
-0.008680414302479398   -0.0058633343616690935   0.002024333542607154
-0.008680414302479398   -0.0058633343616690935   0.002024333542607154
-0.008680414302479398   -0.0058633343616690935   0.002024333542607154
-0.010750014345966948   -0.009631825219058598   0.003940800645538271
-0.010750014345966948   -0.009631825219058598   0.003940800645538271
-0.010750014345966948   -0.009631825219058598   0.003940800645538271
-0.010750014345966948   -0.009631825219058598   0.003940800645538271
-0.007863848446018343   -0.004508752319322955   -0.0009620983087021967
-0.007863848446018343   -0.004508752319322955   -0.0009620983087021967
-0.007863848446018343   -0.004508752319322955   -0.0009620983087021967
-0.007863848446018343   -0.004508752319322955   -0.0009620983087021967
-0.007868988805386088   -0.010231913458514609   0.002345449467810289
-0.007868988805386088   -0.010231913458514609   0.002345449467810289
-0.007868988805386088   -0.010231913458514609   0.002345449467810289
-0.007868988805386088   -0.010231913458514609   0.002345449467810289
-0.011157393124090977   -0.006990564263439042   0.0015045128352573324
-0.011157393124090977   -0.006990564263439042   0.0015045128352573324
-0.011157393124090977   -0.006990564263439042   0.0015045128352573324
-0.011157393124090977   -0.006990564263439042   0.0015045128352573324
-0.008454400640031794   -0.006827667799676273   0.0020880863569771677
-0.008454400640031794   -0.006827667799676273   0.0020880863569771677
-0.008454400640031794   -0.006827667799676273   0.0020880863569771677
-0.008454400640031794   -0.006827667799676273   0.0020880863569771677
-0.011239147763926718   -0.010461666724380729   0.004566842097020325
-0.011239147763926718   -0.010461666724380729   0.004566842097020325
-0.011239147763926718   -0.010461666724380729   0.004566842097020325
-0.011239147763926718   -0.010461666724380729   0.004566842097020325
-0.007953714124480886   -0.006927290956503461   -0.001382799629674852
-0.007953714124480886   -0.006927290956503461   -0.001382799629674852
-0.007953714124480886   -0.006927290956503461   -0.001382799629674852
-0.007953714124480886   -0.006927290956503461   -0.001382799629674852
-0.007281735855151364   -0.011143657672043084   0.002638958937862848
-0.007281735855151364   -0.011143657672043084   0.002638958937862848
-0.007281735855151364   -0.011143657672043084   0.002638958937862848
-0.007281735855151364   -0.011143657672043084   0.002638958937862848
-0.01293273724037366   -0.011589896381580518   0.0018928296566034027
-0.01293273724037366   -0.011589896381580518   0.0018928296566034027
-0.01293273724037366   -0.011589896381580518   0.0018928296566034027
-0.01293273724037366   -0.011589896381580518   0.0018928296566034027
-0.008750793733559378   -0.008418541473784494   0.0014109690773750467
-0.008750793733559378   -0.008418541473784494   0.0014109690773750467
-0.008750793733559378   -0.008418541473784494   0.0014109690773750467
-0.008750793733559378   -0.008418541473784494   0.0014109690773750467
-0.0072946561408854995   -0.001154224379147185   0.004291255128427589
-0.0072946561408854995   -0.001154224379147185   0.004291255128427589
-0.0072946561408854995   -0.001154224379147185   0.004291255128427589
-0.0072946561408854995   -0.001154224379147185   0.004291255128427589
-0.0022976061752272778   0.0003082037590307126   -8.757781424072669e-05
-0.0022976061752272778   0.0003082037590307126   -8.757781424072669e-05
-0.0022976061752272778   0.0003082037590307126   -8.757781424072669e-05
-0.0022976061752272778   0.0003082037590307126   -8.757781424072669e-05
-0.0007810072035480176   -0.0004766099517682057   0.002782040708604896
-0.0007810072035480176   -0.0004766099517682057   0.002782040708604896
-0.0007810072035480176   -0.0004766099517682057   0.002782040708604896
-0.0007810072035480176   -0.0004766099517682057   0.002782040708604896
-0.00678537998162438   -0.0001268600776491147   4.835177159377192e-05
-0.00678537998162438   -0.0001268600776491147   4.835177159377192e-05
-0.00678537998162438   -0.0001268600776491147   4.835177159377192e-05
-0.00678537998162438   -0.0001268600776491147   4.835177159377192e-05
-0.004302378133883667   -0.0004368960977080682   -0.00022101782423956094
-0.004302378133883667   -0.0004368960977080682   -0.00022101782423956094
-0.004302378133883667   -0.0004368960977080682   -0.00022101782423956094
-0.004302378133883667   -0.0004368960977080682   -0.00022101782423956094
-0.006108305559400453   -0.0011975875030391702   0.00450445130810251
-0.006108305559400453   -0.0011975875030391702   0.00450445130810251
-0.006108305559400453   -0.0011975875030391702   0.00450445130810251
-0.006108305559400453   -0.0011975875030391702   0.00450445130810251
-0.0012652051520991386   0.0007869939472948169   -0.0009025529332118129
-0.0012652051520991386   0.0007869939472948169   -0.0009025529332118129
-0.0012652051520991386   0.0007869939472948169   -0.0009025529332118129
-0.0012652051520991386   0.0007869939472948169   -0.0009025529332118129
-0.00026558273094786077   -0.0006421230738620716   0.0034527243777099943
-0.00026558273094786077   -0.0006421230738620716   0.0034527243777099943
-0.00026558273094786077   -0.0006421230738620716   0.0034527243777099943
-0.00026558273094786077   -0.0006421230738620716   0.0034527243777099943
-0.006386300707150965   -0.0005901543353871482   0.00011713083585844307
-0.006386300707150965   -0.0005901543353871482   0.00011713083585844307
-0.006386300707150965   -0.0005901543353871482   0.00011713083585844307
-0.006386300707150965   -0.0005901543353871482   0.00011713083585844307
-0.003446818197138882   -0.00035210687781834577   0.00031422965969877756
-0.003446818197138882   -0.00035210687781834577   0.00031422965969877756
-0.003446818197138882   -0.00035210687781834577   0.00031422965969877756
-0.003446818197138882   -0.00035210687781834577   0.00031422965969877756
-0.005589527163581517   -0.0014127399935557534   0.004923584211874284
-0.005589527163581517   -0.0014127399935557534   0.004923584211874284
-0.005589527163581517   -0.0014127399935557534   0.004923584211874284
-0.005589527163581517   -0.0014127399935557534   0.004923584211874284
-0.0009341510114107517   0.00030866784741324937   -0.0008409079458797811
-0.0009341510114107517   0.00030866784741324937   -0.0008409079458797811
-0.0009341510114107517   0.00030866784741324937   -0.0008409079458797811
-0.0009341510114107517   0.00030866784741324937   -0.0008409079458797811
3.208034283355807e-05   -0.0011912891639360161   0.003444673625533126
3.208034283355807e-05   -0.0011912891639360161   0.003444673625533126
3.208034283355807e-05   -0.0011912891639360161   0.003444673625533126
3.208034283355807e-05   -0.0011912891639360161   0.003444673625533126
-0.005802849348845968   -0.0012859147661717343   0.00017564856351847977
-0.005802849348845968   -0.0012859147661717343   0.00017564856351847977
-0.005802849348845968   -0.0012859147661717343   0.00017564856351847977
-0.005802849348845968   -0.0012859147661717343   0.00017564856351847977
-0.002773773152591069   -0.0004560344047339428   0.0006588226368169218
-0.002773773152591069   -0.0004560344047339428   0.0006588226368169218
-0.002773773152591069   -0.0004560344047339428   0.0006588226368169218
-0.002773773152591069   -0.0004560344047339428   0.0006588226368169218
              </DataArray>   
             <DataArray type="Float64" NumberOfComponents="3" Name="Displacements" format="ascii">   
0.0   0.0   0.0
-0.0006505784405860398   -0.0004382700316521722   -0.00021864750125259977
0.0   0.0   0.0
0.0   0.0   0.0
-0.0006505784405860398   -0.0004382700316521722   -0.00021864750125259977
-0.0004128584478370001   -0.00039592624070943096   -0.00016077444055078718
0.0   0.0   0.0
-0.00040392170274220445   -0.0004151279392576016   -0.0001349400419511309
0.0   0.0   0.0
0.0   0.0   0.0
-0.00040392170274220445   -0.0004151279392576016   -0.0001349400419511309
0.0   0.0   0.0
0.0   0.0   0.0
-0.00040392170274220445   -0.0004151279392576016   -0.0001349400419511309
-0.000679906789252943   -0.0004663716578651846   -0.00017591281543436377
-0.0006505784405860398   -0.0004382700316521722   -0.00021864750125259977
0.0   0.0   0.0
-0.00040392170274220445   -0.0004151279392576016   -0.0001349400419511309
-0.0006505784405860398   -0.0004382700316521722   -0.00021864750125259977
0.0   0.0   0.0
0.0   0.0   0.0
-0.000679906789252943   -0.0004663716578651846   -0.00017591281543436377
0.0   0.0   0.0
0.0   0.0   0.0
-0.000679906789252943   -0.0004663716578651846   -0.00017591281543436377
-0.00040392170274220445   -0.0004151279392576016   -0.0001349400419511309
0.0   0.0   0.0
-0.00040422632806024015   -0.0004250641958429006   -0.0001092379993253029
0.0   0.0   0.0
0.0   0.0   0.0
-0.00040422632806024015   -0.0004250641958429006   -0.0001092379993253029
0.0   0.0   0.0
0.0   0.0   0.0
-0.00040422632806024015   -0.0004250641958429006   -0.0001092379993253029
-0.000700120696325069   -0.00048008097045963553   -0.00013514691982728847
-0.000679906789252943   -0.0004663716578651846   -0.00017591281543436377
0.0   0.0   0.0
-0.00040422632806024015   -0.0004250641958429006   -0.0001092379993253029
-0.000679906789252943   -0.0004663716578651846   -0.00017591281543436377
0.0   0.0   0.0
0.0   0.0   0.0
-0.000700120696325069   -0.00048008097045963553   -0.00013514691982728847
0.0   0.0   0.0
0.0   0.0   0.0
-0.000700120696325069   -0.00048008097045963553   -0.00013514691982728847
-0.00040422632806024015   -0.0004250641958429006   -0.0001092379993253029
0.0   0.0   0.0
-0.0004030731371588235   -0.0004277490102452476   -8.278038419797013e-05
0.0   0.0   0.0
0.0   0.0   0.0
-0.0004030731371588235   -0.0004277490102452476   -8.278038419797013e-05
0.0   0.0   0.0
0.0   0.0   0.0
-0.0004030731371588235   -0.0004277490102452476   -8.278038419797013e-05
-0.0007444951763411386   -0.0004907892909848076   -8.797017033370561e-05
-0.000700120696325069   -0.00048008097045963553   -0.00013514691982728847
0.0   0.0   0.0
-0.0004030731371588235   -0.0004277490102452476   -8.278038419797013e-05
-0.000700120696325069   -0.00048008097045963553   -0.00013514691982728847
0.0   0.0   0.0
0.0   0.0   0.0
-0.0004128584478370001   -0.00039592624070943096   -0.00016077444055078718
0.0   0.0   0.0
0.0   0.0   0.0
-0.0004128584478370001   -0.00039592624070943096   -0.00016077444055078718
-0.00018898301432330964   -0.00038056969351824677   -0.0001226462947930698
0.0   0.0   0.0
-0.00018094784866567936   -0.0003929687598278999   -0.00011034963190171387
0.0   0.0   0.0
0.0   0.0   0.0
-0.00018094784866567936   -0.0003929687598278999   -0.00011034963190171387
0.0   0.0   0.0
0.0   0.0   0.0
-0.00018094784866567936   -0.0003929687598278999   -0.00011034963190171387
-0.00040392170274220445   -0.0004151279392576016   -0.0001349400419511309
-0.0004128584478370001   -0.00039592624070943096   -0.00016077444055078718
0.0   0.0   0.0
-0.00018094784866567936   -0.0003929687598278999   -0.00011034963190171387
-0.0004128584478370001   -0.00039592624070943096   -0.00016077444055078718
0.0   0.0   0.0
0.0   0.0   0.0
-0.00040392170274220445   -0.0004151279392576016   -0.0001349400419511309
0.0   0.0   0.0
0.0   0.0   0.0
-0.00040392170274220445   -0.0004151279392576016   -0.0001349400419511309
-0.00018094784866567936   -0.0003929687598278999   -0.00011034963190171387
0.0   0.0   0.0
-0.00017609392742932512   -0.0003977290009323447   -9.846781357171591e-05
0.0   0.0   0.0
0.0   0.0   0.0
-0.00017609392742932512   -0.0003977290009323447   -9.846781357171591e-05
0.0   0.0   0.0
0.0   0.0   0.0
-0.00017609392742932512   -0.0003977290009323447   -9.846781357171591e-05
-0.00040422632806024015   -0.0004250641958429006   -0.0001092379993253029
-0.00040392170274220445   -0.0004151279392576016   -0.0001349400419511309
0.0   0.0   0.0
-0.00017609392742932512   -0.0003977290009323447   -9.846781357171591e-05
-0.00040392170274220445   -0.0004151279392576016   -0.0001349400419511309
0.0   0.0   0.0
0.0   0.0   0.0
-0.00040422632806024015   -0.0004250641958429006   -0.0001092379993253029
0.0   0.0   0.0
0.0   0.0   0.0
-0.00040422632806024015   -0.0004250641958429006   -0.0001092379993253029
-0.00017609392742932512   -0.0003977290009323447   -9.846781357171591e-05
0.0   0.0   0.0
-0.00017153619635214984   -0.00039582255446983354   -8.628192250430925e-05
0.0   0.0   0.0
0.0   0.0   0.0
-0.00017153619635214984   -0.00039582255446983354   -8.628192250430925e-05
0.0   0.0   0.0
0.0   0.0   0.0
-0.00017153619635214984   -0.00039582255446983354   -8.628192250430925e-05
-0.0004030731371588235   -0.0004277490102452476   -8.278038419797013e-05
-0.00040422632806024015   -0.0004250641958429006   -0.0001092379993253029
0.0   0.0   0.0
-0.00017153619635214984   -0.00039582255446983354   -8.628192250430925e-05
-0.00040422632806024015   -0.0004250641958429006   -0.0001092379993253029
0.0   0.0   0.0
0.0   0.0   0.0
-0.00018898301432330964   -0.00038056969351824677   -0.0001226462947930698
0.0   0.0   0.0
0.0   0.0   0.0
-0.00018898301432330964   -0.00038056969351824677   -0.0001226462947930698
2.182401807314512e-05   -0.0003826676703242739   -9.859201623554102e-05
0.0   0.0   0.0
2.7339690966301306e-05   -0.00038898293712803783   -0.00010005276819626316
0.0   0.0   0.0
0.0   0.0   0.0
2.7339690966301306e-05   -0.00038898293712803783   -0.00010005276819626316
0.0   0.0   0.0
0.0   0.0   0.0
2.7339690966301306e-05   -0.00038898293712803783   -0.00010005276819626316
-0.00018094784866567936   -0.0003929687598278999   -0.00011034963190171387
-0.00018898301432330964   -0.00038056969351824677   -0.0001226462947930698
0.0   0.0   0.0
2.7339690966301306e-05   -0.00038898293712803783   -0.00010005276819626316
-0.00018898301432330964   -0.00038056969351824677   -0.0001226462947930698
0.0   0.0   0.0
0.0   0.0   0.0
-0.00018094784866567936   -0.0003929687598278999   -0.00011034963190171387
0.0   0.0   0.0
0.0   0.0   0.0
-0.00018094784866567936   -0.0003929687598278999   -0.00011034963190171387
2.7339690966301306e-05   -0.00038898293712803783   -0.00010005276819626316
0.0   0.0   0.0
3.180330985010309e-05   -0.0003883623539369167   -0.0001014530737643718
0.0   0.0   0.0
0.0   0.0   0.0
3.180330985010309e-05   -0.0003883623539369167   -0.0001014530737643718
0.0   0.0   0.0
0.0   0.0   0.0
3.180330985010309e-05   -0.0003883623539369167   -0.0001014530737643718
-0.00017609392742932512   -0.0003977290009323447   -9.846781357171591e-05
-0.00018094784866567936   -0.0003929687598278999   -0.00011034963190171387
0.0   0.0   0.0
3.180330985010309e-05   -0.0003883623539369167   -0.0001014530737643718
-0.00018094784866567936   -0.0003929687598278999   -0.00011034963190171387
0.0   0.0   0.0
0.0   0.0   0.0
-0.00017609392742932512   -0.0003977290009323447   -9.846781357171591e-05
0.0   0.0   0.0
0.0   0.0   0.0
-0.00017609392742932512   -0.0003977290009323447   -9.846781357171591e-05
3.180330985010309e-05   -0.0003883623539369167   -0.0001014530737643718
0.0   0.0   0.0
3.7532111234959184e-05   -0.00038025331160286823   -0.00010298998801013342
0.0   0.0   0.0
0.0   0.0   0.0
3.7532111234959184e-05   -0.00038025331160286823   -0.00010298998801013342
0.0   0.0   0.0
0.0   0.0   0.0
3.7532111234959184e-05   -0.00038025331160286823   -0.00010298998801013342
-0.00017153619635214984   -0.00039582255446983354   -8.628192250430925e-05
-0.00017609392742932512   -0.0003977290009323447   -9.846781357171591e-05
0.0   0.0   0.0
3.7532111234959184e-05   -0.00038025331160286823   -0.00010298998801013342
-0.00017609392742932512   -0.0003977290009323447   -9.846781357171591e-05
0.0   0.0   0.0
0.0   0.0   0.0
2.182401807314512e-05   -0.0003826676703242739   -9.859201623554102e-05
0.0   0.0   0.0
0.0   0.0   0.0
2.182401807314512e-05   -0.0003826676703242739   -9.859201623554102e-05
0.0002513618385554276   -0.0004003596142658303   -8.701329867906956e-05
0.0   0.0   0.0
0.0002528532587596137   -0.0004021791879376342   -0.00010295752805498422
0.0   0.0   0.0
0.0   0.0   0.0
0.0002528532587596137   -0.0004021791879376342   -0.00010295752805498422
0.0   0.0   0.0
0.0   0.0   0.0
0.0002528532587596137   -0.0004021791879376342   -0.00010295752805498422
2.7339690966301306e-05   -0.00038898293712803783   -0.00010005276819626316
2.182401807314512e-05   -0.0003826676703242739   -9.859201623554102e-05
0.0   0.0   0.0
0.0002528532587596137   -0.0004021791879376342   -0.00010295752805498422
2.182401807314512e-05   -0.0003826676703242739   -9.859201623554102e-05
0.0   0.0   0.0
0.0   0.0   0.0
2.7339690966301306e-05   -0.00038898293712803783   -0.00010005276819626316
0.0   0.0   0.0
0.0   0.0   0.0
2.7339690966301306e-05   -0.00038898293712803783   -0.00010005276819626316
0.0002528532587596137   -0.0004021791879376342   -0.00010295752805498422
0.0   0.0   0.0
0.00025267041774819805   -0.0003964437036139836   -0.00011836948292472674
0.0   0.0   0.0
0.0   0.0   0.0
0.00025267041774819805   -0.0003964437036139836   -0.00011836948292472674
0.0   0.0   0.0
0.0   0.0   0.0
0.00025267041774819805   -0.0003964437036139836   -0.00011836948292472674
3.180330985010309e-05   -0.0003883623539369167   -0.0001014530737643718
2.7339690966301306e-05   -0.00038898293712803783   -0.00010005276819626316
0.0   0.0   0.0
0.00025267041774819805   -0.0003964437036139836   -0.00011836948292472674
2.7339690966301306e-05   -0.00038898293712803783   -0.00010005276819626316
0.0   0.0   0.0
0.0   0.0   0.0
3.180330985010309e-05   -0.0003883623539369167   -0.0001014530737643718
0.0   0.0   0.0
0.0   0.0   0.0
3.180330985010309e-05   -0.0003883623539369167   -0.0001014530737643718
0.00025267041774819805   -0.0003964437036139836   -0.00011836948292472674
0.0   0.0   0.0
0.00025842875312943154   -0.0003814942863597097   -0.0001335801070408117
0.0   0.0   0.0
0.0   0.0   0.0
0.00025842875312943154   -0.0003814942863597097   -0.0001335801070408117
0.0   0.0   0.0
0.0   0.0   0.0
0.00025842875312943154   -0.0003814942863597097   -0.0001335801070408117
3.7532111234959184e-05   -0.00038025331160286823   -0.00010298998801013342
3.180330985010309e-05   -0.0003883623539369167   -0.0001014530737643718
0.0   0.0   0.0
0.00025842875312943154   -0.0003814942863597097   -0.0001335801070408117
3.180330985010309e-05   -0.0003883623539369167   -0.0001014530737643718
0.0   0.0   0.0
0.0   0.0   0.0
0.0002513618385554276   -0.0004003596142658303   -8.701329867906956e-05
0.0   0.0   0.0
0.0   0.0   0.0
0.0002513618385554276   -0.0004003596142658303   -8.701329867906956e-05
0.0005730076917639508   -0.00044563019809004293   -8.290178415809905e-05
0.0   0.0   0.0
0.0005395033669335526   -0.00044036625814540553   -0.00011937947274548632
0.0   0.0   0.0
0.0   0.0   0.0
0.0005395033669335526   -0.00044036625814540553   -0.00011937947274548632
0.0   0.0   0.0
0.0   0.0   0.0
0.0005395033669335526   -0.00044036625814540553   -0.00011937947274548632
0.0002528532587596137   -0.0004021791879376342   -0.00010295752805498422
0.0002513618385554276   -0.0004003596142658303   -8.701329867906956e-05
0.0   0.0   0.0
0.0005395033669335526   -0.00044036625814540553   -0.00011937947274548632
0.0002513618385554276   -0.0004003596142658303   -8.701329867906956e-05
0.0   0.0   0.0
0.0   0.0   0.0
0.0002528532587596137   -0.0004021791879376342   -0.00010295752805498422
0.0   0.0   0.0
0.0   0.0   0.0
0.0002528532587596137   -0.0004021791879376342   -0.00010295752805498422
0.0005395033669335526   -0.00044036625814540553   -0.00011937947274548632
0.0   0.0   0.0
0.000524459745931054   -0.0004312206694654513   -0.00015031811641733612
0.0   0.0   0.0
0.0   0.0   0.0
0.000524459745931054   -0.0004312206694654513   -0.00015031811641733612
0.0   0.0   0.0
0.0   0.0   0.0
0.000524459745931054   -0.0004312206694654513   -0.00015031811641733612
0.00025267041774819805   -0.0003964437036139836   -0.00011836948292472674
0.0002528532587596137   -0.0004021791879376342   -0.00010295752805498422
0.0   0.0   0.0
0.000524459745931054   -0.0004312206694654513   -0.00015031811641733612
0.0002528532587596137   -0.0004021791879376342   -0.00010295752805498422
0.0   0.0   0.0
0.0   0.0   0.0
0.00025267041774819805   -0.0003964437036139836   -0.00011836948292472674
0.0   0.0   0.0
0.0   0.0   0.0
0.00025267041774819805   -0.0003964437036139836   -0.00011836948292472674
0.000524459745931054   -0.0004312206694654513   -0.00015031811641733612
0.0   0.0   0.0
0.0005014349116758384   -0.0004081347335500518   -0.00018326135714773483
0.0   0.0   0.0
0.0   0.0   0.0
0.0005014349116758384   -0.0004081347335500518   -0.00018326135714773483
0.0   0.0   0.0
0.0   0.0   0.0
0.0005014349116758384   -0.0004081347335500518   -0.00018326135714773483
0.00025842875312943154   -0.0003814942863597097   -0.0001335801070408117
0.00025267041774819805   -0.0003964437036139836   -0.00011836948292472674
0.0   0.0   0.0
0.0005014349116758384   -0.0004081347335500518   -0.00018326135714773483
0.00025267041774819805   -0.0003964437036139836   -0.00011836948292472674
0.0   0.0   0.0
-0.0006505784405860398   -0.0004382700316521722   -0.00021864750125259977
-0.0012066865029285055   -0.0012068599124682648   -0.00029498769609359956
-0.0004128584478370001   -0.00039592624070943096   -0.00016077444055078718
-0.000679906789252943   -0.0004663716578651846   -0.00017591281543436377
-0.0012066865029285055   -0.0012068599124682648   -0.00029498769609359956
-0.0007697929521459912   -0.0011690846021330666   -0.00024367769490057746
-0.0004128584478370001   -0.00039592624070943096   -0.00016077444055078718
-0.0007693872005737631   -0.0011885636530048205   -0.00022000776158075845
-0.000679906789252943   -0.0004663716578651846   -0.00017591281543436377
-0.00040392170274220445   -0.0004151279392576016   -0.0001349400419511309
-0.0007693872005737631   -0.0011885636530048205   -0.00022000776158075845
-0.0004128584478370001   -0.00039592624070943096   -0.00016077444055078718
-0.000679906789252943   -0.0004663716578651846   -0.00017591281543436377
-0.0007693872005737631   -0.0011885636530048205   -0.00022000776158075845
-0.0012410931240957985   -0.0012341789918793923   -0.0002567493655134673
-0.0012066865029285055   -0.0012068599124682648   -0.00029498769609359956
-0.000679906789252943   -0.0004663716578651846   -0.00017591281543436377
-0.0007693872005737631   -0.0011885636530048205   -0.00022000776158075845
-0.0012066865029285055   -0.0012068599124682648   -0.00029498769609359956
-0.0004128584478370001   -0.00039592624070943096   -0.00016077444055078718
-0.000679906789252943   -0.0004663716578651846   -0.00017591281543436377
-0.0012410931240957985   -0.0012341789918793923   -0.0002567493655134673
-0.00040392170274220445   -0.0004151279392576016   -0.0001349400419511309
-0.000700120696325069   -0.00048008097045963553   -0.00013514691982728847
-0.0012410931240957985   -0.0012341789918793923   -0.0002567493655134673
-0.0007693872005737631   -0.0011885636530048205   -0.00022000776158075845
-0.00040392170274220445   -0.0004151279392576016   -0.0001349400419511309
-0.0007710039291110523   -0.001200558942905627   -0.00019734757887583754
-0.000700120696325069   -0.00048008097045963553   -0.00013514691982728847
-0.00040422632806024015   -0.0004250641958429006   -0.0001092379993253029
-0.0007710039291110523   -0.001200558942905627   -0.00019734757887583754
-0.00040392170274220445   -0.0004151279392576016   -0.0001349400419511309
-0.000700120696325069   -0.00048008097045963553   -0.00013514691982728847
-0.0007710039291110523   -0.001200558942905627   -0.00019734757887583754
-0.0012644436059521382   -0.0012497233934084596   -0.00021942581485007238
-0.0012410931240957985   -0.0012341789918793923   -0.0002567493655134673
-0.000700120696325069   -0.00048008097045963553   -0.00013514691982728847
-0.0007710039291110523   -0.001200558942905627   -0.00019734757887583754
-0.0012410931240957985   -0.0012341789918793923   -0.0002567493655134673
-0.00040392170274220445   -0.0004151279392576016   -0.0001349400419511309
-0.000700120696325069   -0.00048008097045963553   -0.00013514691982728847
-0.0012644436059521382   -0.0012497233934084596   -0.00021942581485007238
-0.00040422632806024015   -0.0004250641958429006   -0.0001092379993253029
-0.0007444951763411386   -0.0004907892909848076   -8.797017033370561e-05
-0.0012644436059521382   -0.0012497233934084596   -0.00021942581485007238
-0.0007710039291110523   -0.001200558942905627   -0.00019734757887583754
-0.00040422632806024015   -0.0004250641958429006   -0.0001092379993253029
-0.0007672406963525199   -0.0012069842381974912   -0.00017622241641223723
-0.0007444951763411386   -0.0004907892909848076   -8.797017033370561e-05
-0.0004030731371588235   -0.0004277490102452476   -8.278038419797013e-05
-0.0007672406963525199   -0.0012069842381974912   -0.00017622241641223723
-0.00040422632806024015   -0.0004250641958429006   -0.0001092379993253029
-0.0007444951763411386   -0.0004907892909848076   -8.797017033370561e-05
-0.0007672406963525199   -0.0012069842381974912   -0.00017622241641223723
-0.0012919826839465102   -0.0012591191590969706   -0.0001856582938699357
-0.0012644436059521382   -0.0012497233934084596   -0.00021942581485007238
-0.0007444951763411386   -0.0004907892909848076   -8.797017033370561e-05
-0.0007672406963525199   -0.0012069842381974912   -0.00017622241641223723
-0.0012644436059521382   -0.0012497233934084596   -0.00021942581485007238
-0.00040422632806024015   -0.0004250641958429006   -0.0001092379993253029
-0.0004128584478370001   -0.00039592624070943096   -0.00016077444055078718
-0.0007697929521459912   -0.0011690846021330666   -0.00024367769490057746
-0.00018898301432330964   -0.00038056969351824677   -0.0001226462947930698
-0.00040392170274220445   -0.0004151279392576016   -0.0001349400419511309
-0.0007697929521459912   -0.0011690846021330666   -0.00024367769490057746
-0.00035946051743297996   -0.00115149763660236   -0.0002087764071381138
-0.00018898301432330964   -0.00038056969351824677   -0.0001226462947930698
-0.00035501943287071435   -0.0011637737736922007   -0.00019652320540893174
-0.00040392170274220445   -0.0004151279392576016   -0.0001349400419511309
-0.00018094784866567936   -0.0003929687598278999   -0.00011034963190171387
-0.00035501943287071435   -0.0011637737736922007   -0.00019652320540893174
-0.00018898301432330964   -0.00038056969351824677   -0.0001226462947930698
-0.00040392170274220445   -0.0004151279392576016   -0.0001349400419511309
-0.00035501943287071435   -0.0011637737736922007   -0.00019652320540893174
-0.0007693872005737631   -0.0011885636530048205   -0.00022000776158075845
-0.0007697929521459912   -0.0011690846021330666   -0.00024367769490057746
-0.00040392170274220445   -0.0004151279392576016   -0.0001349400419511309
-0.00035501943287071435   -0.0011637737736922007   -0.00019652320540893174
-0.0007697929521459912   -0.0011690846021330666   -0.00024367769490057746
-0.00018898301432330964   -0.00038056969351824677   -0.0001226462947930698
-0.00040392170274220445   -0.0004151279392576016   -0.0001349400419511309
-0.0007693872005737631   -0.0011885636530048205   -0.00022000776158075845
-0.00018094784866567936   -0.0003929687598278999   -0.00011034963190171387
-0.00040422632806024015   -0.0004250641958429006   -0.0001092379993253029
-0.0007693872005737631   -0.0011885636530048205   -0.00022000776158075845
-0.00035501943287071435   -0.0011637737736922007   -0.00019652320540893174
-0.00018094784866567936   -0.0003929687598278999   -0.00011034963190171387
-0.00035093298919850347   -0.0011697732136111457   -0.00018547273339881295
-0.00040422632806024015   -0.0004250641958429006   -0.0001092379993253029
-0.00017609392742932512   -0.0003977290009323447   -9.846781357171591e-05
-0.00035093298919850347   -0.0011697732136111457   -0.00018547273339881295
-0.00018094784866567936   -0.0003929687598278999   -0.00011034963190171387
-0.00040422632806024015   -0.0004250641958429006   -0.0001092379993253029
-0.00035093298919850347   -0.0011697732136111457   -0.00018547273339881295
-0.0007710039291110523   -0.001200558942905627   -0.00019734757887583754
-0.0007693872005737631   -0.0011885636530048205   -0.00022000776158075845
-0.00040422632806024015   -0.0004250641958429006   -0.0001092379993253029
-0.00035093298919850347   -0.0011697732136111457   -0.00018547273339881295
-0.0007693872005737631   -0.0011885636530048205   -0.00022000776158075845
-0.00018094784866567936   -0.0003929687598278999   -0.00011034963190171387
-0.00040422632806024015   -0.0004250641958429006   -0.0001092379993253029
-0.0007710039291110523   -0.001200558942905627   -0.00019734757887583754
-0.00017609392742932512   -0.0003977290009323447   -9.846781357171591e-05
-0.0004030731371588235   -0.0004277490102452476   -8.278038419797013e-05
-0.0007710039291110523   -0.001200558942905627   -0.00019734757887583754
-0.00035093298919850347   -0.0011697732136111457   -0.00018547273339881295
-0.00017609392742932512   -0.0003977290009323447   -9.846781357171591e-05
-0.00034545987811662363   -0.0011697187032781615   -0.00017591990065286026
-0.0004030731371588235   -0.0004277490102452476   -8.278038419797013e-05
-0.00017153619635214984   -0.00039582255446983354   -8.628192250430925e-05
-0.00034545987811662363   -0.0011697187032781615   -0.00017591990065286026
-0.00017609392742932512   -0.0003977290009323447   -9.846781357171591e-05
-0.0004030731371588235   -0.0004277490102452476   -8.278038419797013e-05
-0.00034545987811662363   -0.0011697187032781615   -0.00017591990065286026
-0.0007672406963525199   -0.0012069842381974912   -0.00017622241641223723
-0.0007710039291110523   -0.001200558942905627   -0.00019734757887583754
-0.0004030731371588235   -0.0004277490102452476   -8.278038419797013e-05
-0.00034545987811662363   -0.0011697187032781615   -0.00017591990065286026
-0.0007710039291110523   -0.001200558942905627   -0.00019734757887583754
-0.00017609392742932512   -0.0003977290009323447   -9.846781357171591e-05
-0.00018898301432330964   -0.00038056969351824677   -0.0001226462947930698
-0.00035946051743297996   -0.00115149763660236   -0.0002087764071381138
2.182401807314512e-05   -0.0003826676703242739   -9.859201623554102e-05
-0.00018094784866567936   -0.0003929687598278999   -0.00011034963190171387
-0.00035946051743297996   -0.00115149763660236   -0.0002087764071381138
3.5369437390964464e-05   -0.0011521016480994272   -0.00018700925598588608
2.182401807314512e-05   -0.0003826676703242739   -9.859201623554102e-05
4.059512984487421e-05   -0.0011577258834684567   -0.00018595005959502604
-0.00018094784866567936   -0.0003929687598278999   -0.00011034963190171387
2.7339690966301306e-05   -0.00038898293712803783   -0.00010005276819626316
4.059512984487421e-05   -0.0011577258834684567   -0.00018595005959502604
2.182401807314512e-05   -0.0003826676703242739   -9.859201623554102e-05
-0.00018094784866567936   -0.0003929687598278999   -0.00011034963190171387
4.059512984487421e-05   -0.0011577258834684567   -0.00018595005959502604
-0.00035501943287071435   -0.0011637737736922007   -0.00019652320540893174
-0.00035946051743297996   -0.00115149763660236   -0.0002087764071381138
-0.00018094784866567936   -0.0003929687598278999   -0.00011034963190171387
4.059512984487421e-05   -0.0011577258834684567   -0.00018595005959502604
-0.00035946051743297996   -0.00115149763660236   -0.0002087764071381138
2.182401807314512e-05   -0.0003826676703242739   -9.859201623554102e-05
-0.00018094784866567936   -0.0003929687598278999   -0.00011034963190171387
-0.00035501943287071435   -0.0011637737736922007   -0.00019652320540893174
2.7339690966301306e-05   -0.00038898293712803783   -0.00010005276819626316
-0.00017609392742932512   -0.0003977290009323447   -9.846781357171591e-05
-0.00035501943287071435   -0.0011637737736922007   -0.00019652320540893174
4.059512984487421e-05   -0.0011577258834684567   -0.00018595005959502604
2.7339690966301306e-05   -0.00038898293712803783   -0.00010005276819626316
4.4536695625754036e-05   -0.0011572159031369177   -0.0001862508397049197
-0.00017609392742932512   -0.0003977290009323447   -9.846781357171591e-05
3.180330985010309e-05   -0.0003883623539369167   -0.0001014530737643718
4.4536695625754036e-05   -0.0011572159031369177   -0.0001862508397049197
2.7339690966301306e-05   -0.00038898293712803783   -0.00010005276819626316
-0.00017609392742932512   -0.0003977290009323447   -9.846781357171591e-05
4.4536695625754036e-05   -0.0011572159031369177   -0.0001862508397049197
-0.00035093298919850347   -0.0011697732136111457   -0.00018547273339881295
-0.00035501943287071435   -0.0011637737736922007   -0.00019652320540893174
-0.00017609392742932512   -0.0003977290009323447   -9.846781357171591e-05
4.4536695625754036e-05   -0.0011572159031369177   -0.0001862508397049197
-0.00035501943287071435   -0.0011637737736922007   -0.00019652320540893174
2.7339690966301306e-05   -0.00038898293712803783   -0.00010005276819626316
-0.00017609392742932512   -0.0003977290009323447   -9.846781357171591e-05
-0.00035093298919850347   -0.0011697732136111457   -0.00018547273339881295
3.180330985010309e-05   -0.0003883623539369167   -0.0001014530737643718
-0.00017153619635214984   -0.00039582255446983354   -8.628192250430925e-05
-0.00035093298919850347   -0.0011697732136111457   -0.00018547273339881295
4.4536695625754036e-05   -0.0011572159031369177   -0.0001862508397049197
3.180330985010309e-05   -0.0003883623539369167   -0.0001014530737643718
4.866555940457525e-05   -0.0011503910577841982   -0.00018793141195085945
-0.00017153619635214984   -0.00039582255446983354   -8.628192250430925e-05
3.7532111234959184e-05   -0.00038025331160286823   -0.00010298998801013342
4.866555940457525e-05   -0.0011503910577841982   -0.00018793141195085945
3.180330985010309e-05   -0.0003883623539369167   -0.0001014530737643718
-0.00017153619635214984   -0.00039582255446983354   -8.628192250430925e-05
4.866555940457525e-05   -0.0011503910577841982   -0.00018793141195085945
-0.00034545987811662363   -0.0011697187032781615   -0.00017591990065286026
-0.00035093298919850347   -0.0011697732136111457   -0.00018547273339881295
-0.00017153619635214984   -0.00039582255446983354   -8.628192250430925e-05
4.866555940457525e-05   -0.0011503910577841982   -0.00018793141195085945
-0.00035093298919850347   -0.0011697732136111457   -0.00018547273339881295
3.180330985010309e-05   -0.0003883623539369167   -0.0001014530737643718
2.182401807314512e-05   -0.0003826676703242739   -9.859201623554102e-05
3.5369437390964464e-05   -0.0011521016480994272   -0.00018700925598588608
0.0002513618385554276   -0.0004003596142658303   -8.701329867906956e-05
2.7339690966301306e-05   -0.00038898293712803783   -0.00010005276819626316
3.5369437390964464e-05   -0.0011521016480994272   -0.00018700925598588608
0.000454522787318501   -0.00117026618664925   -0.00017732907854817797
0.0002513618385554276   -0.0004003596142658303   -8.701329867906956e-05
0.0004582440055696958   -0.001169790716572517   -0.0001878175661681084
2.7339690966301306e-05   -0.00038898293712803783   -0.00010005276819626316
0.0002528532587596137   -0.0004021791879376342   -0.00010295752805498422
0.0004582440055696958   -0.001169790716572517   -0.0001878175661681084
0.0002513618385554276   -0.0004003596142658303   -8.701329867906956e-05
2.7339690966301306e-05   -0.00038898293712803783   -0.00010005276819626316
0.0004582440055696958   -0.001169790716572517   -0.0001878175661681084
4.059512984487421e-05   -0.0011577258834684567   -0.00018595005959502604
3.5369437390964464e-05   -0.0011521016480994272   -0.00018700925598588608
2.7339690966301306e-05   -0.00038898293712803783   -0.00010005276819626316
0.0004582440055696958   -0.001169790716572517   -0.0001878175661681084
3.5369437390964464e-05   -0.0011521016480994272   -0.00018700925598588608
0.0002513618385554276   -0.0004003596142658303   -8.701329867906956e-05
2.7339690966301306e-05   -0.00038898293712803783   -0.00010005276819626316
4.059512984487421e-05   -0.0011577258834684567   -0.00018595005959502604
0.0002528532587596137   -0.0004021791879376342   -0.00010295752805498422
3.180330985010309e-05   -0.0003883623539369167   -0.0001014530737643718
4.059512984487421e-05   -0.0011577258834684567   -0.00018595005959502604
0.0004582440055696958   -0.001169790716572517   -0.0001878175661681084
0.0002528532587596137   -0.0004021791879376342   -0.00010295752805498422
0.0004576385472221998   -0.001163340656023818   -0.00019984358475788304
3.180330985010309e-05   -0.0003883623539369167   -0.0001014530737643718
0.00025267041774819805   -0.0003964437036139836   -0.00011836948292472674
0.0004576385472221998   -0.001163340656023818   -0.00019984358475788304
0.0002528532587596137   -0.0004021791879376342   -0.00010295752805498422
3.180330985010309e-05   -0.0003883623539369167   -0.0001014530737643718
0.0004576385472221998   -0.001163340656023818   -0.00019984358475788304
4.4536695625754036e-05   -0.0011572159031369177   -0.0001862508397049197
4.059512984487421e-05   -0.0011577258834684567   -0.00018595005959502604
3.180330985010309e-05   -0.0003883623539369167   -0.0001014530737643718
0.0004576385472221998   -0.001163340656023818   -0.00019984358475788304
4.059512984487421e-05   -0.0011577258834684567   -0.00018595005959502604
0.0002528532587596137   -0.0004021791879376342   -0.00010295752805498422
3.180330985010309e-05   -0.0003883623539369167   -0.0001014530737643718
4.4536695625754036e-05   -0.0011572159031369177   -0.0001862508397049197
0.00025267041774819805   -0.0003964437036139836   -0.00011836948292472674
3.7532111234959184e-05   -0.00038025331160286823   -0.00010298998801013342
4.4536695625754036e-05   -0.0011572159031369177   -0.0001862508397049197
0.0004576385472221998   -0.001163340656023818   -0.00019984358475788304
0.00025267041774819805   -0.0003964437036139836   -0.00011836948292472674
0.00045784003713338615   -0.0011492122198847406   -0.00021295701741504938
3.7532111234959184e-05   -0.00038025331160286823   -0.00010298998801013342
0.00025842875312943154   -0.0003814942863597097   -0.0001335801070408117
0.00045784003713338615   -0.0011492122198847406   -0.00021295701741504938
0.00025267041774819805   -0.0003964437036139836   -0.00011836948292472674
3.7532111234959184e-05   -0.00038025331160286823   -0.00010298998801013342
0.00045784003713338615   -0.0011492122198847406   -0.00021295701741504938
4.866555940457525e-05   -0.0011503910577841982   -0.00018793141195085945
4.4536695625754036e-05   -0.0011572159031369177   -0.0001862508397049197
3.7532111234959184e-05   -0.00038025331160286823   -0.00010298998801013342
0.00045784003713338615   -0.0011492122198847406   -0.00021295701741504938
4.4536695625754036e-05   -0.0011572159031369177   -0.0001862508397049197
0.00025267041774819805   -0.0003964437036139836   -0.00011836948292472674
0.0002513618385554276   -0.0004003596142658303   -8.701329867906956e-05
0.000454522787318501   -0.00117026618664925   -0.00017732907854817797
0.0005730076917639508   -0.00044563019809004293   -8.290178415809905e-05
0.0002528532587596137   -0.0004021791879376342   -0.00010295752805498422
0.000454522787318501   -0.00117026618664925   -0.00017732907854817797
0.0009622831993388858   -0.001203762052318111   -0.00017567298124595188
0.0005730076917639508   -0.00044563019809004293   -8.290178415809905e-05
0.0009449391664144269   -0.001199913778712238   -0.00019947307982608742
0.0002528532587596137   -0.0004021791879376342   -0.00010295752805498422
0.0005395033669335526   -0.00044036625814540553   -0.00011937947274548632
0.0009449391664144269   -0.001199913778712238   -0.00019947307982608742
0.0005730076917639508   -0.00044563019809004293   -8.290178415809905e-05
0.0002528532587596137   -0.0004021791879376342   -0.00010295752805498422
0.0009449391664144269   -0.001199913778712238   -0.00019947307982608742
0.0004582440055696958   -0.001169790716572517   -0.0001878175661681084
0.000454522787318501   -0.00117026618664925   -0.00017732907854817797
0.0002528532587596137   -0.0004021791879376342   -0.00010295752805498422
0.0009449391664144269   -0.001199913778712238   -0.00019947307982608742
0.000454522787318501   -0.00117026618664925   -0.00017732907854817797
0.0005730076917639508   -0.00044563019809004293   -8.290178415809905e-05
0.0002528532587596137   -0.0004021791879376342   -0.00010295752805498422
0.0004582440055696958   -0.001169790716572517   -0.0001878175661681084
0.0005395033669335526   -0.00044036625814540553   -0.00011937947274548632
0.00025267041774819805   -0.0003964437036139836   -0.00011836948292472674
0.0004582440055696958   -0.001169790716572517   -0.0001878175661681084
0.0009449391664144269   -0.001199913778712238   -0.00019947307982608742
0.0005395033669335526   -0.00044036625814540553   -0.00011937947274548632
0.00092924853001657   -0.0011900526022230172   -0.0002264902999234312
0.00025267041774819805   -0.0003964437036139836   -0.00011836948292472674
0.000524459745931054   -0.0004312206694654513   -0.00015031811641733612
0.00092924853001657   -0.0011900526022230172   -0.0002264902999234312
0.0005395033669335526   -0.00044036625814540553   -0.00011937947274548632
0.00025267041774819805   -0.0003964437036139836   -0.00011836948292472674
0.00092924853001657   -0.0011900526022230172   -0.0002264902999234312
0.0004576385472221998   -0.001163340656023818   -0.00019984358475788304
0.0004582440055696958   -0.001169790716572517   -0.0001878175661681084
0.00025267041774819805   -0.0003964437036139836   -0.00011836948292472674
0.00092924853001657   -0.0011900526022230172   -0.0002264902999234312
0.0004582440055696958   -0.001169790716572517   -0.0001878175661681084
0.0005395033669335526   -0.00044036625814540553   -0.00011937947274548632
0.00025267041774819805   -0.0003964437036139836   -0.00011836948292472674
0.0004576385472221998   -0.001163340656023818   -0.00019984358475788304
0.000524459745931054   -0.0004312206694654513   -0.00015031811641733612
0.00025842875312943154   -0.0003814942863597097   -0.0001335801070408117
0.0004576385472221998   -0.001163340656023818   -0.00019984358475788304
0.00092924853001657   -0.0011900526022230172   -0.0002264902999234312
0.000524459745931054   -0.0004312206694654513   -0.00015031811641733612
0.0009047866013431228   -0.001168607638886175   -0.0002547618529397086
0.00025842875312943154   -0.0003814942863597097   -0.0001335801070408117
0.0005014349116758384   -0.0004081347335500518   -0.00018326135714773483
0.0009047866013431228   -0.001168607638886175   -0.0002547618529397086
0.000524459745931054   -0.0004312206694654513   -0.00015031811641733612
0.00025842875312943154   -0.0003814942863597097   -0.0001335801070408117
0.0009047866013431228   -0.001168607638886175   -0.0002547618529397086
0.00045784003713338615   -0.0011492122198847406   -0.00021295701741504938
0.0004576385472221998   -0.001163340656023818   -0.00019984358475788304
0.00025842875312943154   -0.0003814942863597097   -0.0001335801070408117
0.0009047866013431228   -0.001168607638886175   -0.0002547618529397086
0.0004576385472221998   -0.001163340656023818   -0.00019984358475788304
0.000524459745931054   -0.0004312206694654513   -0.00015031811641733612
-0.0012066865029285055   -0.0012068599124682648   -0.00029498769609359956
-0.0016427991971861176   -0.002241184924617208   -0.00033723075186306757
-0.0007697929521459912   -0.0011690846021330666   -0.00024367769490057746
-0.0012410931240957985   -0.0012341789918793923   -0.0002567493655134673
-0.0016427991971861176   -0.002241184924617208   -0.00033723075186306757
-0.0010573656630542222   -0.0022126787479841343   -0.00029626565773123356
-0.0007697929521459912   -0.0011690846021330666   -0.00024367769490057746
-0.0010580810590284095   -0.002229261549609358   -0.0002781186486535394
-0.0012410931240957985   -0.0012341789918793923   -0.0002567493655134673
-0.0007693872005737631   -0.0011885636530048205   -0.00022000776158075845
-0.0010580810590284095   -0.002229261549609358   -0.0002781186486535394
-0.0007697929521459912   -0.0011690846021330666   -0.00024367769490057746
-0.0012410931240957985   -0.0012341789918793923   -0.0002567493655134673
-0.0010580810590284095   -0.002229261549609358   -0.0002781186486535394
-0.0016698099623518243   -0.002263939726110831   -0.0003092064158826568
-0.0016427991971861176   -0.002241184924617208   -0.00033723075186306757
-0.0012410931240957985   -0.0012341789918793923   -0.0002567493655134673
-0.0010580810590284095   -0.002229261549609358   -0.0002781186486535394
-0.0016427991971861176   -0.002241184924617208   -0.00033723075186306757
-0.0007697929521459912   -0.0011690846021330666   -0.00024367769490057746
-0.0012410931240957985   -0.0012341789918793923   -0.0002567493655134673
-0.0016698099623518243   -0.002263939726110831   -0.0003092064158826568
-0.0007693872005737631   -0.0011885636530048205   -0.00022000776158075845
-0.0012644436059521382   -0.0012497233934084596   -0.00021942581485007238
-0.0016698099623518243   -0.002263939726110831   -0.0003092064158826568
-0.0010580810590284095   -0.002229261549609358   -0.0002781186486535394
-0.0007693872005737631   -0.0011885636530048205   -0.00022000776158075845
-0.001059118990656137   -0.0022409317676880002   -0.0002613431252704911
-0.0012644436059521382   -0.0012497233934084596   -0.00021942581485007238
-0.0007710039291110523   -0.001200558942905627   -0.00019734757887583754
-0.001059118990656137   -0.0022409317676880002   -0.0002613431252704911
-0.0007693872005737631   -0.0011885636530048205   -0.00022000776158075845
-0.0012644436059521382   -0.0012497233934084596   -0.00021942581485007238
-0.001059118990656137   -0.0022409317676880002   -0.0002613431252704911
-0.0016861024146990354   -0.002278355438975891   -0.00028318682442354863
-0.0016698099623518243   -0.002263939726110831   -0.0003092064158826568
-0.0012644436059521382   -0.0012497233934084596   -0.00021942581485007238
-0.001059118990656137   -0.0022409317676880002   -0.0002613431252704911
-0.0016698099623518243   -0.002263939726110831   -0.0003092064158826568
-0.0007693872005737631   -0.0011885636530048205   -0.00022000776158075845
-0.0012644436059521382   -0.0012497233934084596   -0.00021942581485007238
-0.0016861024146990354   -0.002278355438975891   -0.00028318682442354863
-0.0007710039291110523   -0.001200558942905627   -0.00019734757887583754
-0.0012919826839465102   -0.0012591191590969706   -0.0001856582938699357
-0.0016861024146990354   -0.002278355438975891   -0.00028318682442354863
-0.001059118990656137   -0.0022409317676880002   -0.0002613431252704911
-0.0007710039291110523   -0.001200558942905627   -0.00019734757887583754
-0.0010554380958991245   -0.002248809010898639   -0.00024564295016081474
-0.0012919826839465102   -0.0012591191590969706   -0.0001856582938699357
-0.0007672406963525199   -0.0012069842381974912   -0.00017622241641223723
-0.0010554380958991245   -0.002248809010898639   -0.00024564295016081474
-0.0007710039291110523   -0.001200558942905627   -0.00019734757887583754
-0.0012919826839465102   -0.0012591191590969706   -0.0001856582938699357
-0.0010554380958991245   -0.002248809010898639   -0.00024564295016081474
-0.0017046386485467377   -0.002289046093228836   -0.0002593608963832834
-0.0016861024146990354   -0.002278355438975891   -0.00028318682442354863
-0.0012919826839465102   -0.0012591191590969706   -0.0001856582938699357
-0.0010554380958991245   -0.002248809010898639   -0.00024564295016081474
-0.0016861024146990354   -0.002278355438975891   -0.00028318682442354863
-0.0007710039291110523   -0.001200558942905627   -0.00019734757887583754
-0.0007697929521459912   -0.0011690846021330666   -0.00024367769490057746
-0.0010573656630542222   -0.0022126787479841343   -0.00029626565773123356
-0.00035946051743297996   -0.00115149763660236   -0.0002087764071381138
-0.0007693872005737631   -0.0011885636530048205   -0.00022000776158075845
-0.0010573656630542222   -0.0022126787479841343   -0.00029626565773123356
-0.0005076300092328353   -0.0021983293596678625   -0.0002678753006571878
-0.00035946051743297996   -0.00115149763660236   -0.0002087764071381138
-0.000504766816348018   -0.002208813214527489   -0.00025746431875262835
-0.0007693872005737631   -0.0011885636530048205   -0.00022000776158075845
-0.00035501943287071435   -0.0011637737736922007   -0.00019652320540893174
-0.000504766816348018   -0.002208813214527489   -0.00025746431875262835
-0.00035946051743297996   -0.00115149763660236   -0.0002087764071381138
-0.0007693872005737631   -0.0011885636530048205   -0.00022000776158075845
-0.000504766816348018   -0.002208813214527489   -0.00025746431875262835
-0.0010580810590284095   -0.002229261549609358   -0.0002781186486535394
-0.0010573656630542222   -0.0022126787479841343   -0.00029626565773123356
-0.0007693872005737631   -0.0011885636530048205   -0.00022000776158075845
-0.000504766816348018   -0.002208813214527489   -0.00025746431875262835
-0.0010573656630542222   -0.0022126787479841343   -0.00029626565773123356
-0.00035946051743297996   -0.00115149763660236   -0.0002087764071381138
-0.0007693872005737631   -0.0011885636530048205   -0.00022000776158075845
-0.0010580810590284095   -0.002229261549609358   -0.0002781186486535394
-0.00035501943287071435   -0.0011637737736922007   -0.00019652320540893174
-0.0007710039291110523   -0.001200558942905627   -0.00019734757887583754
-0.0010580810590284095   -0.002229261549609358   -0.0002781186486535394
-0.000504766816348018   -0.002208813214527489   -0.00025746431875262835
-0.00035501943287071435   -0.0011637737736922007   -0.00019652320540893174
-0.0005016271318942961   -0.002215022233528687   -0.00024834940708596604
-0.0007710039291110523   -0.001200558942905627   -0.00019734757887583754
-0.00035093298919850347   -0.0011697732136111457   -0.00018547273339881295
-0.0005016271318942961   -0.002215022233528687   -0.00024834940708596604
-0.00035501943287071435   -0.0011637737736922007   -0.00019652320540893174
-0.0007710039291110523   -0.001200558942905627   -0.00019734757887583754
-0.0005016271318942961   -0.002215022233528687   -0.00024834940708596604
-0.001059118990656137   -0.0022409317676880002   -0.0002613431252704911
-0.0010580810590284095   -0.002229261549609358   -0.0002781186486535394
-0.0007710039291110523   -0.001200558942905627   -0.00019734757887583754
-0.0005016271318942961   -0.002215022233528687   -0.00024834940708596604
-0.0010580810590284095   -0.002229261549609358   -0.0002781186486535394
-0.00035501943287071435   -0.0011637737736922007   -0.00019652320540893174
-0.0007710039291110523   -0.001200558942905627   -0.00019734757887583754
-0.001059118990656137   -0.0022409317676880002   -0.0002613431252704911
-0.00035093298919850347   -0.0011697732136111457   -0.00018547273339881295
-0.0007672406963525199   -0.0012069842381974912   -0.00017622241641223723
-0.001059118990656137   -0.0022409317676880002   -0.0002613431252704911
-0.0005016271318942961   -0.002215022233528687   -0.00024834940708596604
-0.00035093298919850347   -0.0011697732136111457   -0.00018547273339881295
-0.0004974613787799015   -0.0022170448396090876   -0.00024053131582058194
-0.0007672406963525199   -0.0012069842381974912   -0.00017622241641223723
-0.00034545987811662363   -0.0011697187032781615   -0.00017591990065286026
-0.0004974613787799015   -0.0022170448396090876   -0.00024053131582058194
-0.00035093298919850347   -0.0011697732136111457   -0.00018547273339881295
-0.0007672406963525199   -0.0012069842381974912   -0.00017622241641223723
-0.0004974613787799015   -0.0022170448396090876   -0.00024053131582058194
-0.0010554380958991245   -0.002248809010898639   -0.00024564295016081474
-0.001059118990656137   -0.0022409317676880002   -0.0002613431252704911
-0.0007672406963525199   -0.0012069842381974912   -0.00017622241641223723
-0.0004974613787799015   -0.0022170448396090876   -0.00024053131582058194
-0.001059118990656137   -0.0022409317676880002   -0.0002613431252704911
-0.00035093298919850347   -0.0011697732136111457   -0.00018547273339881295
-0.00035946051743297996   -0.00115149763660236   -0.0002087764071381138
-0.0005076300092328353   -0.0021983293596678625   -0.0002678753006571878
3.5369437390964464e-05   -0.0011521016480994272   -0.00018700925598588608
-0.00035501943287071435   -0.0011637737736922007   -0.00019652320540893174
-0.0005076300092328353   -0.0021983293596678625   -0.0002678753006571878
2.52813509296967e-05   -0.0021975388521813764   -0.0002505904926390879
3.5369437390964464e-05   -0.0011521016480994272   -0.00018700925598588608
2.9269017714302075e-05   -0.002201979960214005   -0.00024788433426377424
-0.00035501943287071435   -0.0011637737736922007   -0.00019652320540893174
4.059512984487421e-05   -0.0011577258834684567   -0.00018595005959502604
2.9269017714302075e-05   -0.002201979960214005   -0.00024788433426377424
3.5369437390964464e-05   -0.0011521016480994272   -0.00018700925598588608
-0.00035501943287071435   -0.0011637737736922007   -0.00019652320540893174
2.9269017714302075e-05   -0.002201979960214005   -0.00024788433426377424
-0.000504766816348018   -0.002208813214527489   -0.00025746431875262835
-0.0005076300092328353   -0.0021983293596678625   -0.0002678753006571878
-0.00035501943287071435   -0.0011637737736922007   -0.00019652320540893174
2.9269017714302075e-05   -0.002201979960214005   -0.00024788433426377424
-0.0005076300092328353   -0.0021983293596678625   -0.0002678753006571878
3.5369437390964464e-05   -0.0011521016480994272   -0.00018700925598588608
-0.00035501943287071435   -0.0011637737736922007   -0.00019652320540893174
-0.000504766816348018   -0.002208813214527489   -0.00025746431875262835
4.059512984487421e-05   -0.0011577258834684567   -0.00018595005959502604
-0.00035093298919850347   -0.0011697732136111457   -0.00018547273339881295
-0.000504766816348018   -0.002208813214527489   -0.00025746431875262835
2.9269017714302075e-05   -0.002201979960214005   -0.00024788433426377424
4.059512984487421e-05   -0.0011577258834684567   -0.00018595005959502604
3.239316206839088e-05   -0.0022021602202882858   -0.0002464457881872926
-0.00035093298919850347   -0.0011697732136111457   -0.00018547273339881295
4.4536695625754036e-05   -0.0011572159031369177   -0.0001862508397049197
3.239316206839088e-05   -0.0022021602202882858   -0.0002464457881872926
4.059512984487421e-05   -0.0011577258834684567   -0.00018595005959502604
-0.00035093298919850347   -0.0011697732136111457   -0.00018547273339881295
3.239316206839088e-05   -0.0022021602202882858   -0.0002464457881872926
-0.0005016271318942961   -0.002215022233528687   -0.00024834940708596604
-0.000504766816348018   -0.002208813214527489   -0.00025746431875262835
-0.00035093298919850347   -0.0011697732136111457   -0.00018547273339881295
3.239316206839088e-05   -0.0022021602202882858   -0.0002464457881872926
-0.000504766816348018   -0.002208813214527489   -0.00025746431875262835
4.059512984487421e-05   -0.0011577258834684567   -0.00018595005959502604
-0.00035093298919850347   -0.0011697732136111457   -0.00018547273339881295
-0.0005016271318942961   -0.002215022233528687   -0.00024834940708596604
4.4536695625754036e-05   -0.0011572159031369177   -0.0001862508397049197
-0.00034545987811662363   -0.0011697187032781615   -0.00017591990065286026
-0.0005016271318942961   -0.002215022233528687   -0.00024834940708596604
3.239316206839088e-05   -0.0022021602202882858   -0.0002464457881872926
4.4536695625754036e-05   -0.0011572159031369177   -0.0001862508397049197
3.511131888678635e-05   -0.0021980182606748965   -0.0002463458429530492
-0.00034545987811662363   -0.0011697187032781615   -0.00017591990065286026
4.866555940457525e-05   -0.0011503910577841982   -0.00018793141195085945
3.511131888678635e-05   -0.0021980182606748965   -0.0002463458429530492
4.4536695625754036e-05   -0.0011572159031369177   -0.0001862508397049197
-0.00034545987811662363   -0.0011697187032781615   -0.00017591990065286026
3.511131888678635e-05   -0.0021980182606748965   -0.0002463458429530492
-0.0004974613787799015   -0.0022170448396090876   -0.00024053131582058194
-0.0005016271318942961   -0.002215022233528687   -0.00024834940708596604
-0.00034545987811662363   -0.0011697187032781615   -0.00017591990065286026
3.511131888678635e-05   -0.0021980182606748965   -0.0002463458429530492
-0.0005016271318942961   -0.002215022233528687   -0.00024834940708596604
4.4536695625754036e-05   -0.0011572159031369177   -0.0001862508397049197
3.5369437390964464e-05   -0.0011521016480994272   -0.00018700925598588608
2.52813509296967e-05   -0.0021975388521813764   -0.0002505904926390879
0.000454522787318501   -0.00117026618664925   -0.00017732907854817797
4.059512984487421e-05   -0.0011577258834684567   -0.00018595005959502604
2.52813509296967e-05   -0.0021975388521813764   -0.0002505904926390879
0.0005813876489098827   -0.0022094869484812034   -0.00024416243270947646
0.000454522787318501   -0.00117026618664925   -0.00017732907854817797
0.0005852320421639678   -0.002208333434353003   -0.0002493082194616753
4.059512984487421e-05   -0.0011577258834684567   -0.00018595005959502604
0.0004582440055696958   -0.001169790716572517   -0.0001878175661681084
0.0005852320421639678   -0.002208333434353003   -0.0002493082194616753
0.000454522787318501   -0.00117026618664925   -0.00017732907854817797
4.059512984487421e-05   -0.0011577258834684567   -0.00018595005959502604
0.0005852320421639678   -0.002208333434353003   -0.0002493082194616753
2.9269017714302075e-05   -0.002201979960214005   -0.00024788433426377424
2.52813509296967e-05   -0.0021975388521813764   -0.0002505904926390879
4.059512984487421e-05   -0.0011577258834684567   -0.00018595005959502604
0.0005852320421639678   -0.002208333434353003   -0.0002493082194616753
2.52813509296967e-05   -0.0021975388521813764   -0.0002505904926390879
0.000454522787318501   -0.00117026618664925   -0.00017732907854817797
4.059512984487421e-05   -0.0011577258834684567   -0.00018595005959502604
2.9269017714302075e-05   -0.002201979960214005   -0.00024788433426377424
0.0004582440055696958   -0.001169790716572517   -0.0001878175661681084
4.4536695625754036e-05   -0.0011572159031369177   -0.0001862508397049197
2.9269017714302075e-05   -0.002201979960214005   -0.00024788433426377424
0.0005852320421639678   -0.002208333434353003   -0.0002493082194616753
0.0004582440055696958   -0.001169790716572517   -0.0001878175661681084
0.0005855559033274551   -0.0022030638523179787   -0.00025562849830753964
4.4536695625754036e-05   -0.0011572159031369177   -0.0001862508397049197
0.0004576385472221998   -0.001163340656023818   -0.00019984358475788304
0.0005855559033274551   -0.0022030638523179787   -0.00025562849830753964
0.0004582440055696958   -0.001169790716572517   -0.0001878175661681084
4.4536695625754036e-05   -0.0011572159031369177   -0.0001862508397049197
0.0005855559033274551   -0.0022030638523179787   -0.00025562849830753964
3.239316206839088e-05   -0.0022021602202882858   -0.0002464457881872926
2.9269017714302075e-05   -0.002201979960214005   -0.00024788433426377424
4.4536695625754036e-05   -0.0011572159031369177   -0.0001862508397049197
0.0005855559033274551   -0.0022030638523179787   -0.00025562849830753964
2.9269017714302075e-05   -0.002201979960214005   -0.00024788433426377424
0.0004582440055696958   -0.001169790716572517   -0.0001878175661681084
4.4536695625754036e-05   -0.0011572159031369177   -0.0001862508397049197
3.239316206839088e-05   -0.0022021602202882858   -0.0002464457881872926
0.0004576385472221998   -0.001163340656023818   -0.00019984358475788304
4.866555940457525e-05   -0.0011503910577841982   -0.00018793141195085945
3.239316206839088e-05   -0.0022021602202882858   -0.0002464457881872926
0.0005855559033274551   -0.0022030638523179787   -0.00025562849830753964
0.0004576385472221998   -0.001163340656023818   -0.00019984358475788304
0.0005850276001172695   -0.002192599659672938   -0.0002632672784106589
4.866555940457525e-05   -0.0011503910577841982   -0.00018793141195085945
0.00045784003713338615   -0.0011492122198847406   -0.00021295701741504938
0.0005850276001172695   -0.002192599659672938   -0.0002632672784106589
0.0004576385472221998   -0.001163340656023818   -0.00019984358475788304
4.866555940457525e-05   -0.0011503910577841982   -0.00018793141195085945
0.0005850276001172695   -0.002192599659672938   -0.0002632672784106589
3.511131888678635e-05   -0.0021980182606748965   -0.0002463458429530492
3.239316206839088e-05   -0.0022021602202882858   -0.0002464457881872926
4.866555940457525e-05   -0.0011503910577841982   -0.00018793141195085945
0.0005850276001172695   -0.002192599659672938   -0.0002632672784106589
3.239316206839088e-05   -0.0022021602202882858   -0.0002464457881872926
0.0004576385472221998   -0.001163340656023818   -0.00019984358475788304
0.000454522787318501   -0.00117026618664925   -0.00017732907854817797
0.0005813876489098827   -0.0022094869484812034   -0.00024416243270947646
0.0009622831993388858   -0.001203762052318111   -0.00017567298124595188
0.0004582440055696958   -0.001169790716572517   -0.0001878175661681084
0.0005813876489098827   -0.0022094869484812034   -0.00024416243270947646
0.0012156464002790674   -0.002230801859728508   -0.0002455710004051746
0.0009622831993388858   -0.001203762052318111   -0.00017567298124595188
0.0012077090444888013   -0.002226336714031425   -0.0002594052170277879
0.0004582440055696958   -0.001169790716572517   -0.0001878175661681084
0.0009449391664144269   -0.001199913778712238   -0.00019947307982608742
0.0012077090444888013   -0.002226336714031425   -0.0002594052170277879
0.0009622831993388858   -0.001203762052318111   -0.00017567298124595188
0.0004582440055696958   -0.001169790716572517   -0.0001878175661681084
0.0012077090444888013   -0.002226336714031425   -0.0002594052170277879
0.0005852320421639678   -0.002208333434353003   -0.0002493082194616753
0.0005813876489098827   -0.0022094869484812034   -0.00024416243270947646
0.0004582440055696958   -0.001169790716572517   -0.0001878175661681084
0.0012077090444888013   -0.002226336714031425   -0.0002594052170277879
0.0005813876489098827   -0.0022094869484812034   -0.00024416243270947646
0.0009622831993388858   -0.001203762052318111   -0.00017567298124595188
0.0004582440055696958   -0.001169790716572517   -0.0001878175661681084
0.0005852320421639678   -0.002208333434353003   -0.0002493082194616753
0.0009449391664144269   -0.001199913778712238   -0.00019947307982608742
0.0004576385472221998   -0.001163340656023818   -0.00019984358475788304
0.0005852320421639678   -0.002208333434353003   -0.0002493082194616753
0.0012077090444888013   -0.002226336714031425   -0.0002594052170277879
0.0009449391664144269   -0.001199913778712238   -0.00019947307982608742
0.001199415067591325   -0.0022183276501902076   -0.00027535871606663417
0.0004576385472221998   -0.001163340656023818   -0.00019984358475788304
0.00092924853001657   -0.0011900526022230172   -0.0002264902999234312
0.001199415067591325   -0.0022183276501902076   -0.00027535871606663417
0.0009449391664144269   -0.001199913778712238   -0.00019947307982608742
0.0004576385472221998   -0.001163340656023818   -0.00019984358475788304
0.001199415067591325   -0.0022183276501902076   -0.00027535871606663417
0.0005855559033274551   -0.0022030638523179787   -0.00025562849830753964
0.0005852320421639678   -0.002208333434353003   -0.0002493082194616753
0.0004576385472221998   -0.001163340656023818   -0.00019984358475788304
0.001199415067591325   -0.0022183276501902076   -0.00027535871606663417
0.0005852320421639678   -0.002208333434353003   -0.0002493082194616753
0.0009449391664144269   -0.001199913778712238   -0.00019947307982608742
0.0004576385472221998   -0.001163340656023818   -0.00019984358475788304
0.0005855559033274551   -0.0022030638523179787   -0.00025562849830753964
0.00092924853001657   -0.0011900526022230172   -0.0002264902999234312
0.00045784003713338615   -0.0011492122198847406   -0.00021295701741504938
0.0005855559033274551   -0.0022030638523179787   -0.00025562849830753964
0.001199415067591325   -0.0022183276501902076   -0.00027535871606663417
0.00092924853001657   -0.0011900526022230172   -0.0002264902999234312
0.001182977174918615   -0.002202092819939277   -0.0002934343894980853
0.00045784003713338615   -0.0011492122198847406   -0.00021295701741504938
0.0009047866013431228   -0.001168607638886175   -0.0002547618529397086
0.001182977174918615   -0.002202092819939277   -0.0002934343894980853
0.00092924853001657   -0.0011900526022230172   -0.0002264902999234312
0.00045784003713338615   -0.0011492122198847406   -0.00021295701741504938
0.001182977174918615   -0.002202092819939277   -0.0002934343894980853
0.0005850276001172695   -0.002192599659672938   -0.0002632672784106589
0.0005855559033274551   -0.0022030638523179787   -0.00025562849830753964
0.00045784003713338615   -0.0011492122198847406   -0.00021295701741504938
0.001182977174918615   -0.002202092819939277   -0.0002934343894980853
0.0005855559033274551   -0.0022030638523179787   -0.00025562849830753964
0.00092924853001657   -0.0011900526022230172   -0.0002264902999234312
-0.0016427991971861176   -0.002241184924617208   -0.00033723075186306757
-0.0019503327825907257   -0.0034546845750740296   -0.00036135488427512533
-0.0010573656630542222   -0.0022126787479841343   -0.00029626565773123356
-0.0016698099623518243   -0.002263939726110831   -0.0003092064158826568
-0.0019503327825907257   -0.0034546845750740296   -0.00036135488427512533
-0.001269045852440916   -0.0034368871241055835   -0.00032853598774310326
-0.0010573656630542222   -0.0022126787479841343   -0.00029626565773123356
-0.0012689458048880812   -0.0034509213370704952   -0.0003157175797509225
-0.0016698099623518243   -0.002263939726110831   -0.0003092064158826568
-0.0010580810590284095   -0.002229261549609358   -0.0002781186486535394
-0.0012689458048880812   -0.0034509213370704952   -0.0003157175797509225
-0.0010573656630542222   -0.0022126787479841343   -0.00029626565773123356
-0.0016698099623518243   -0.002263939726110831   -0.0003092064158826568
-0.0012689458048880812   -0.0034509213370704952   -0.0003157175797509225
-0.0019676006638386584   -0.0034737512872542063   -0.00034315769616749786
-0.0019503327825907257   -0.0034546845750740296   -0.00036135488427512533
-0.0016698099623518243   -0.002263939726110831   -0.0003092064158826568
-0.0012689458048880812   -0.0034509213370704952   -0.0003157175797509225
-0.0019503327825907257   -0.0034546845750740296   -0.00036135488427512533
-0.0010573656630542222   -0.0022126787479841343   -0.00029626565773123356
-0.0016698099623518243   -0.002263939726110831   -0.0003092064158826568
-0.0019676006638386584   -0.0034737512872542063   -0.00034315769616749786
-0.0010580810590284095   -0.002229261549609358   -0.0002781186486535394
-0.0016861024146990354   -0.002278355438975891   -0.00028318682442354863
-0.0019676006638386584   -0.0034737512872542063   -0.00034315769616749786
-0.0012689458048880812   -0.0034509213370704952   -0.0003157175797509225
-0.0010580810590284095   -0.002229261549609358   -0.0002781186486535394
-0.001268354247446537   -0.003462185358065618   -0.00030420508188484433
-0.0016861024146990354   -0.002278355438975891   -0.00028318682442354863
-0.001059118990656137   -0.0022409317676880002   -0.0002613431252704911
-0.001268354247446537   -0.003462185358065618   -0.00030420508188484433
-0.0010580810590284095   -0.002229261549609358   -0.0002781186486535394
-0.0016861024146990354   -0.002278355438975891   -0.00028318682442354863
-0.001268354247446537   -0.003462185358065618   -0.00030420508188484433
-0.0019767060092077964   -0.0034874072374773625   -0.0003267760506592346
-0.0019676006638386584   -0.0034737512872542063   -0.00034315769616749786
-0.0016861024146990354   -0.002278355438975891   -0.00028318682442354863
-0.001268354247446537   -0.003462185358065618   -0.00030420508188484433
-0.0019676006638386584   -0.0034737512872542063   -0.00034315769616749786
-0.0010580810590284095   -0.002229261549609358   -0.0002781186486535394
-0.0016861024146990354   -0.002278355438975891   -0.00028318682442354863
-0.0019767060092077964   -0.0034874072374773625   -0.0003267760506592346
-0.001059118990656137   -0.0022409317676880002   -0.0002613431252704911
-0.0017046386485467377   -0.002289046093228836   -0.0002593608963832834
-0.0019767060092077964   -0.0034874072374773625   -0.0003267760506592346
-0.001268354247446537   -0.003462185358065618   -0.00030420508188484433
-0.001059118990656137   -0.0022409317676880002   -0.0002613431252704911
-0.0012640837285495343   -0.0034716283789300137   -0.00029381464292968225
-0.0017046386485467377   -0.002289046093228836   -0.0002593608963832834
-0.0010554380958991245   -0.002248809010898639   -0.00024564295016081474
-0.0012640837285495343   -0.0034716283789300137   -0.00029381464292968225
-0.001059118990656137   -0.0022409317676880002   -0.0002613431252704911
-0.0017046386485467377   -0.002289046093228836   -0.0002593608963832834
-0.0012640837285495343   -0.0034716283789300137   -0.00029381464292968225
-0.0019859500521487027   -0.0034999305389420915   -0.0003124351771920219
-0.0019767060092077964   -0.0034874072374773625   -0.0003267760506592346
-0.0017046386485467377   -0.002289046093228836   -0.0002593608963832834
-0.0012640837285495343   -0.0034716283789300137   -0.00029381464292968225
-0.0019767060092077964   -0.0034874072374773625   -0.0003267760506592346
-0.001059118990656137   -0.0022409317676880002   -0.0002613431252704911
-0.0010573656630542222   -0.0022126787479841343   -0.00029626565773123356
-0.001269045852440916   -0.0034368871241055835   -0.00032853598774310326
-0.0005076300092328353   -0.0021983293596678625   -0.0002678753006571878
-0.0010580810590284095   -0.002229261549609358   -0.0002781186486535394
-0.001269045852440916   -0.0034368871241055835   -0.00032853598774310326
-0.0006317182461199583   -0.0034274611339443948   -0.0003058618190936205
-0.0005076300092328353   -0.0021983293596678625   -0.0002678753006571878
-0.00062893735197338   -0.0034361500090807004   -0.00029721273991520705
-0.0010580810590284095   -0.002229261549609358   -0.0002781186486535394
-0.000504766816348018   -0.002208813214527489   -0.00025746431875262835
-0.00062893735197338   -0.0034361500090807004   -0.00029721273991520705
-0.0005076300092328353   -0.0021983293596678625   -0.0002678753006571878
-0.0010580810590284095   -0.002229261549609358   -0.0002781186486535394
-0.00062893735197338   -0.0034361500090807004   -0.00029721273991520705
-0.0012689458048880812   -0.0034509213370704952   -0.0003157175797509225
-0.001269045852440916   -0.0034368871241055835   -0.00032853598774310326
-0.0010580810590284095   -0.002229261549609358   -0.0002781186486535394
-0.00062893735197338   -0.0034361500090807004   -0.00029721273991520705
-0.001269045852440916   -0.0034368871241055835   -0.00032853598774310326
-0.0005076300092328353   -0.0021983293596678625   -0.0002678753006571878
-0.0010580810590284095   -0.002229261549609358   -0.0002781186486535394
-0.0012689458048880812   -0.0034509213370704952   -0.0003157175797509225
-0.000504766816348018   -0.002208813214527489   -0.00025746431875262835
-0.001059118990656137   -0.0022409317676880002   -0.0002613431252704911
-0.0012689458048880812   -0.0034509213370704952   -0.0003157175797509225
-0.00062893735197338   -0.0034361500090807004   -0.00029721273991520705
-0.000504766816348018   -0.002208813214527489   -0.00025746431875262835
-0.0006257384195018669   -0.0034425030052031747   -0.0002898417523530675
-0.001059118990656137   -0.0022409317676880002   -0.0002613431252704911
-0.0005016271318942961   -0.002215022233528687   -0.00024834940708596604
-0.0006257384195018669   -0.0034425030052031747   -0.0002898417523530675
-0.000504766816348018   -0.002208813214527489   -0.00025746431875262835
-0.001059118990656137   -0.0022409317676880002   -0.0002613431252704911
-0.0006257384195018669   -0.0034425030052031747   -0.0002898417523530675
-0.001268354247446537   -0.003462185358065618   -0.00030420508188484433
-0.0012689458048880812   -0.0034509213370704952   -0.0003157175797509225
-0.001059118990656137   -0.0022409317676880002   -0.0002613431252704911
-0.0006257384195018669   -0.0034425030052031747   -0.0002898417523530675
-0.0012689458048880812   -0.0034509213370704952   -0.0003157175797509225
-0.000504766816348018   -0.002208813214527489   -0.00025746431875262835
-0.001059118990656137   -0.0022409317676880002   -0.0002613431252704911
-0.001268354247446537   -0.003462185358065618   -0.00030420508188484433
-0.0005016271318942961   -0.002215022233528687   -0.00024834940708596604
-0.0010554380958991245   -0.002248809010898639   -0.00024564295016081474
-0.001268354247446537   -0.003462185358065618   -0.00030420508188484433
-0.0006257384195018669   -0.0034425030052031747   -0.0002898417523530675
-0.0005016271318942961   -0.002215022233528687   -0.00024834940708596604
-0.0006217201723778396   -0.0034465634855333055   -0.00028377597599800475
-0.0010554380958991245   -0.002248809010898639   -0.00024564295016081474
-0.0004974613787799015   -0.0022170448396090876   -0.00024053131582058194
-0.0006217201723778396   -0.0034465634855333055   -0.00028377597599800475
-0.0005016271318942961   -0.002215022233528687   -0.00024834940708596604
-0.0010554380958991245   -0.002248809010898639   -0.00024564295016081474
-0.0006217201723778396   -0.0034465634855333055   -0.00028377597599800475
-0.0012640837285495343   -0.0034716283789300137   -0.00029381464292968225
-0.001268354247446537   -0.003462185358065618   -0.00030420508188484433
-0.0010554380958991245   -0.002248809010898639   -0.00024564295016081474
-0.0006217201723778396   -0.0034465634855333055   -0.00028377597599800475
-0.001268354247446537   -0.003462185358065618   -0.00030420508188484433
-0.0005016271318942961   -0.002215022233528687   -0.00024834940708596604
-0.0005076300092328353   -0.0021983293596678625   -0.0002678753006571878
-0.0006317182461199583   -0.0034274611339443948   -0.0003058618190936205
2.52813509296967e-05   -0.0021975388521813764   -0.0002505904926390879
-0.000504766816348018   -0.002208813214527489   -0.00025746431875262835
-0.0006317182461199583   -0.0034274611339443948   -0.0003058618190936205
-1.2087653511623691e-05   -0.003425698308414229   -0.00029299313733408114
2.52813509296967e-05   -0.0021975388521813764   -0.0002505904926390879
-8.208105604821003e-06   -0.0034289635687127585   -0.000288565173887945
-0.000504766816348018   -0.002208813214527489   -0.00025746431875262835
2.9269017714302075e-05   -0.002201979960214005   -0.00024788433426377424
-8.208105604821003e-06   -0.0034289635687127585   -0.000288565173887945
2.52813509296967e-05   -0.0021975388521813764   -0.0002505904926390879
-0.000504766816348018   -0.002208813214527489   -0.00025746431875262835
-8.208105604821003e-06   -0.0034289635687127585   -0.000288565173887945
-0.00062893735197338   -0.0034361500090807004   -0.00029721273991520705
-0.0006317182461199583   -0.0034274611339443948   -0.0003058618190936205
-0.000504766816348018   -0.002208813214527489   -0.00025746431875262835
-8.208105604821003e-06   -0.0034289635687127585   -0.000288565173887945
-0.0006317182461199583   -0.0034274611339443948   -0.0003058618190936205
2.52813509296967e-05   -0.0021975388521813764   -0.0002505904926390879
-0.000504766816348018   -0.002208813214527489   -0.00025746431875262835
-0.00062893735197338   -0.0034361500090807004   -0.00029721273991520705
2.9269017714302075e-05   -0.002201979960214005   -0.00024788433426377424
-0.0005016271318942961   -0.002215022233528687   -0.00024834940708596604
-0.00062893735197338   -0.0034361500090807004   -0.00029721273991520705
-8.208105604821003e-06   -0.0034289635687127585   -0.000288565173887945
2.9269017714302075e-05   -0.002201979960214005   -0.00024788433426377424
-4.993599732865994e-06   -0.003429874835680497   -0.0002854048050026563
-0.0005016271318942961   -0.002215022233528687   -0.00024834940708596604
3.239316206839088e-05   -0.0022021602202882858   -0.0002464457881872926
-4.993599732865994e-06   -0.003429874835680497   -0.0002854048050026563
2.9269017714302075e-05   -0.002201979960214005   -0.00024788433426377424
-0.0005016271318942961   -0.002215022233528687   -0.00024834940708596604
-4.993599732865994e-06   -0.003429874835680497   -0.0002854048050026563
-0.0006257384195018669   -0.0034425030052031747   -0.0002898417523530675
-0.00062893735197338   -0.0034361500090807004   -0.00029721273991520705
-0.0005016271318942961   -0.002215022233528687   -0.00024834940708596604
-4.993599732865994e-06   -0.003429874835680497   -0.0002854048050026563
-0.00062893735197338   -0.0034361500090807004   -0.00029721273991520705
2.9269017714302075e-05   -0.002201979960214005   -0.00024788433426377424
-0.0005016271318942961   -0.002215022233528687   -0.00024834940708596604
-0.0006257384195018669   -0.0034425030052031747   -0.0002898417523530675
3.239316206839088e-05   -0.0022021602202882858   -0.0002464457881872926
-0.0004974613787799015   -0.0022170448396090876   -0.00024053131582058194
-0.0006257384195018669   -0.0034425030052031747   -0.0002898417523530675
-4.993599732865994e-06   -0.003429874835680497   -0.0002854048050026563
3.239316206839088e-05   -0.0022021602202882858   -0.0002464457881872926
-2.346947959568893e-06   -0.003428398471659359   -0.0002835633086839031
-0.0004974613787799015   -0.0022170448396090876   -0.00024053131582058194
3.511131888678635e-05   -0.0021980182606748965   -0.0002463458429530492
-2.346947959568893e-06   -0.003428398471659359   -0.0002835633086839031
3.239316206839088e-05   -0.0022021602202882858   -0.0002464457881872926
-0.0004974613787799015   -0.0022170448396090876   -0.00024053131582058194
-2.346947959568893e-06   -0.003428398471659359   -0.0002835633086839031
-0.0006217201723778396   -0.0034465634855333055   -0.00028377597599800475
-0.0006257384195018669   -0.0034425030052031747   -0.0002898417523530675
-0.0004974613787799015   -0.0022170448396090876   -0.00024053131582058194
-2.346947959568893e-06   -0.003428398471659359   -0.0002835633086839031
-0.0006257384195018669   -0.0034425030052031747   -0.0002898417523530675
3.239316206839088e-05   -0.0022021602202882858   -0.0002464457881872926
2.52813509296967e-05   -0.0021975388521813764   -0.0002505904926390879
-1.2087653511623691e-05   -0.003425698308414229   -0.00029299313733408114
0.0005813876489098827   -0.0022094869484812034   -0.00024416243270947646
2.9269017714302075e-05   -0.002201979960214005   -0.00024788433426377424
-1.2087653511623691e-05   -0.003425698308414229   -0.00029299313733408114
0.0006289433106862316   -0.0034309045125076334   -0.0002899375069295025
0.0005813876489098827   -0.0022094869484812034   -0.00024416243270947646
0.000633461990487005   -0.0034290114694871935   -0.00028980700329135113
2.9269017714302075e-05   -0.002201979960214005   -0.00024788433426377424
0.0005852320421639678   -0.002208333434353003   -0.0002493082194616753
0.000633461990487005   -0.0034290114694871935   -0.00028980700329135113
0.0005813876489098827   -0.0022094869484812034   -0.00024416243270947646
2.9269017714302075e-05   -0.002201979960214005   -0.00024788433426377424
0.000633461990487005   -0.0034290114694871935   -0.00028980700329135113
-8.208105604821003e-06   -0.0034289635687127585   -0.000288565173887945
-1.2087653511623691e-05   -0.003425698308414229   -0.00029299313733408114
2.9269017714302075e-05   -0.002201979960214005   -0.00024788433426377424
0.000633461990487005   -0.0034290114694871935   -0.00028980700329135113
-1.2087653511623691e-05   -0.003425698308414229   -0.00029299313733408114
0.0005813876489098827   -0.0022094869484812034   -0.00024416243270947646
2.9269017714302075e-05   -0.002201979960214005   -0.00024788433426377424
-8.208105604821003e-06   -0.0034289635687127585   -0.000288565173887945
0.0005852320421639678   -0.002208333434353003   -0.0002493082194616753
3.239316206839088e-05   -0.0022021602202882858   -0.0002464457881872926
-8.208105604821003e-06   -0.0034289635687127585   -0.000288565173887945
0.000633461990487005   -0.0034290114694871935   -0.00028980700329135113
0.0005852320421639678   -0.002208333434353003   -0.0002493082194616753
0.0006355089562415757   -0.00342500635315632   -0.0002908715958425717
3.239316206839088e-05   -0.0022021602202882858   -0.0002464457881872926
0.0005855559033274551   -0.0022030638523179787   -0.00025562849830753964
0.0006355089562415757   -0.00342500635315632   -0.0002908715958425717
0.0005852320421639678   -0.002208333434353003   -0.0002493082194616753
3.239316206839088e-05   -0.0022021602202882858   -0.0002464457881872926
0.0006355089562415757   -0.00342500635315632   -0.0002908715958425717
-4.993599732865994e-06   -0.003429874835680497   -0.0002854048050026563
-8.208105604821003e-06   -0.0034289635687127585   -0.000288565173887945
3.239316206839088e-05   -0.0022021602202882858   -0.0002464457881872926
0.0006355089562415757   -0.00342500635315632   -0.0002908715958425717
-8.208105604821003e-06   -0.0034289635687127585   -0.000288565173887945
0.0005852320421639678   -0.002208333434353003   -0.0002493082194616753
3.239316206839088e-05   -0.0022021602202882858   -0.0002464457881872926
-4.993599732865994e-06   -0.003429874835680497   -0.0002854048050026563
0.0005855559033274551   -0.0022030638523179787   -0.00025562849830753964
3.511131888678635e-05   -0.0021980182606748965   -0.0002463458429530492
-4.993599732865994e-06   -0.003429874835680497   -0.0002854048050026563
0.0006355089562415757   -0.00342500635315632   -0.0002908715958425717
0.0005855559033274551   -0.0022030638523179787   -0.00025562849830753964
0.0006358580417994943   -0.003417946690615212   -0.0002931824315280258
3.511131888678635e-05   -0.0021980182606748965   -0.0002463458429530492
0.0005850276001172695   -0.002192599659672938   -0.0002632672784106589
0.0006358580417994943   -0.003417946690615212   -0.0002931824315280258
0.0005855559033274551   -0.0022030638523179787   -0.00025562849830753964
3.511131888678635e-05   -0.0021980182606748965   -0.0002463458429530492
0.0006358580417994943   -0.003417946690615212   -0.0002931824315280258
-2.346947959568893e-06   -0.003428398471659359   -0.0002835633086839031
-4.993599732865994e-06   -0.003429874835680497   -0.0002854048050026563
3.511131888678635e-05   -0.0021980182606748965   -0.0002463458429530492
0.0006358580417994943   -0.003417946690615212   -0.0002931824315280258
-4.993599732865994e-06   -0.003429874835680497   -0.0002854048050026563
0.0005855559033274551   -0.0022030638523179787   -0.00025562849830753964
0.0005813876489098827   -0.0022094869484812034   -0.00024416243270947646
0.0006289433106862316   -0.0034309045125076334   -0.0002899375069295025
0.0012156464002790674   -0.002230801859728508   -0.0002455710004051746
0.0005852320421639678   -0.002208333434353003   -0.0002493082194616753
0.0006289433106862316   -0.0034309045125076334   -0.0002899375069295025
0.0013366311742854125   -0.0034401863359654976   -0.0002948423068197133
0.0012156464002790674   -0.002230801859728508   -0.0002455710004051746
0.0013381266004980643   -0.003434735046858757   -0.00029916242114083765
0.0005852320421639678   -0.002208333434353003   -0.0002493082194616753
0.0012077090444888013   -0.002226336714031425   -0.0002594052170277879
0.0013381266004980643   -0.003434735046858757   -0.00029916242114083765
0.0012156464002790674   -0.002230801859728508   -0.0002455710004051746
0.0005852320421639678   -0.002208333434353003   -0.0002493082194616753
0.0013381266004980643   -0.003434735046858757   -0.00029916242114083765
0.000633461990487005   -0.0034290114694871935   -0.00028980700329135113
0.0006289433106862316   -0.0034309045125076334   -0.0002899375069295025
0.0005852320421639678   -0.002208333434353003   -0.0002493082194616753
0.0013381266004980643   -0.003434735046858757   -0.00029916242114083765
0.0006289433106862316   -0.0034309045125076334   -0.0002899375069295025
0.0012156464002790674   -0.002230801859728508   -0.0002455710004051746
0.0005852320421639678   -0.002208333434353003   -0.0002493082194616753
0.000633461990487005   -0.0034290114694871935   -0.00028980700329135113
0.0012077090444888013   -0.002226336714031425   -0.0002594052170277879
0.0005855559033274551   -0.0022030638523179787   -0.00025562849830753964
0.000633461990487005   -0.0034290114694871935   -0.00028980700329135113
0.0013381266004980643   -0.003434735046858757   -0.00029916242114083765
0.0012077090444888013   -0.002226336714031425   -0.0002594052170277879
0.0013371796557651514   -0.003428330839476653   -0.0003054330445807656
0.0005855559033274551   -0.0022030638523179787   -0.00025562849830753964
0.001199415067591325   -0.0022183276501902076   -0.00027535871606663417
0.0013371796557651514   -0.003428330839476653   -0.0003054330445807656
0.0012077090444888013   -0.002226336714031425   -0.0002594052170277879
0.0005855559033274551   -0.0022030638523179787   -0.00025562849830753964
0.0013371796557651514   -0.003428330839476653   -0.0003054330445807656
0.0006355089562415757   -0.00342500635315632   -0.0002908715958425717
0.000633461990487005   -0.0034290114694871935   -0.00028980700329135113
0.0005855559033274551   -0.0022030638523179787   -0.00025562849830753964
0.0013371796557651514   -0.003428330839476653   -0.0003054330445807656
0.000633461990487005   -0.0034290114694871935   -0.00028980700329135113
0.0012077090444888013   -0.002226336714031425   -0.0002594052170277879
0.0005855559033274551   -0.0022030638523179787   -0.00025562849830753964
0.0006355089562415757   -0.00342500635315632   -0.0002908715958425717
0.001199415067591325   -0.0022183276501902076   -0.00027535871606663417
0.0005850276001172695   -0.002192599659672938   -0.0002632672784106589
0.0006355089562415757   -0.00342500635315632   -0.0002908715958425717
0.0013371796557651514   -0.003428330839476653   -0.0003054330445807656
0.001199415067591325   -0.0022183276501902076   -0.00027535871606663417
0.0013306280922446459   -0.0034166637059433844   -0.0003136397878624258
0.0005850276001172695   -0.002192599659672938   -0.0002632672784106589
0.001182977174918615   -0.002202092819939277   -0.0002934343894980853
0.0013306280922446459   -0.0034166637059433844   -0.0003136397878624258
0.001199415067591325   -0.0022183276501902076   -0.00027535871606663417
0.0005850276001172695   -0.002192599659672938   -0.0002632672784106589
0.0013306280922446459   -0.0034166637059433844   -0.0003136397878624258
0.0006358580417994943   -0.003417946690615212   -0.0002931824315280258
0.0006355089562415757   -0.00342500635315632   -0.0002908715958425717
0.0005850276001172695   -0.002192599659672938   -0.0002632672784106589
0.0013306280922446459   -0.0034166637059433844   -0.0003136397878624258
0.0006355089562415757   -0.00342500635315632   -0.0002908715958425717
0.001199415067591325   -0.0022183276501902076   -0.00027535871606663417
-0.0019503327825907257   -0.0034546845750740296   -0.00036135488427512533
-0.002131308749020803   -0.004763224332305812   -0.0003698494784679703
-0.001269045852440916   -0.0034368871241055835   -0.00032853598774310326
-0.0019676006638386584   -0.0034737512872542063   -0.00034315769616749786
-0.002131308749020803   -0.004763224332305812   -0.0003698494784679703
-0.001405715995837419   -0.004756277957115823   -0.0003442214777121822
-0.001269045852440916   -0.0034368871241055835   -0.00032853598774310326
-0.0014037745596639356   -0.004768037282711196   -0.0003364782062596193
-0.0019676006638386584   -0.0034737512872542063   -0.00034315769616749786
-0.0012689458048880812   -0.0034509213370704952   -0.0003157175797509225
-0.0014037745596639356   -0.004768037282711196   -0.0003364782062596193
-0.001269045852440916   -0.0034368871241055835   -0.00032853598774310326
-0.0019676006638386584   -0.0034737512872542063   -0.00034315769616749786
-0.0014037745596639356   -0.004768037282711196   -0.0003364782062596193
-0.0021383677135611225   -0.004779105939755834   -0.00036083901528888426
-0.002131308749020803   -0.004763224332305812   -0.0003698494784679703
-0.0019676006638386584   -0.0034737512872542063   -0.00034315769616749786
-0.0014037745596639356   -0.004768037282711196   -0.0003364782062596193
-0.002131308749020803   -0.004763224332305812   -0.0003698494784679703
-0.001269045852440916   -0.0034368871241055835   -0.00032853598774310326
-0.0019676006638386584   -0.0034737512872542063   -0.00034315769616749786
-0.0021383677135611225   -0.004779105939755834   -0.00036083901528888426
-0.0012689458048880812   -0.0034509213370704952   -0.0003157175797509225
-0.0019767060092077964   -0.0034874072374773625   -0.0003267760506592346
-0.0021383677135611225   -0.004779105939755834   -0.00036083901528888426
-0.0014037745596639356   -0.004768037282711196   -0.0003364782062596193
-0.0012689458048880812   -0.0034509213370704952   -0.0003157175797509225
-0.001400503065554744   -0.004779045395868954   -0.00033002572646661864
-0.0019767060092077964   -0.0034874072374773625   -0.0003267760506592346
-0.001268354247446537   -0.003462185358065618   -0.00030420508188484433
-0.001400503065554744   -0.004779045395868954   -0.00033002572646661864
-0.0012689458048880812   -0.0034509213370704952   -0.0003157175797509225
-0.0019767060092077964   -0.0034874072374773625   -0.0003267760506592346
-0.001400503065554744   -0.004779045395868954   -0.00033002572646661864
-0.0021394810534817784   -0.0047922538053171895   -0.0003536815768998736
-0.0021383677135611225   -0.004779105939755834   -0.00036083901528888426
-0.0019767060092077964   -0.0034874072374773625   -0.0003267760506592346
-0.001400503065554744   -0.004779045395868954   -0.00033002572646661864
-0.0021383677135611225   -0.004779105939755834   -0.00036083901528888426
-0.0012689458048880812   -0.0034509213370704952   -0.0003157175797509225
-0.0019767060092077964   -0.0034874072374773625   -0.0003267760506592346
-0.0021394810534817784   -0.0047922538053171895   -0.0003536815768998736
-0.001268354247446537   -0.003462185358065618   -0.00030420508188484433
-0.0019859500521487027   -0.0034999305389420915   -0.0003124351771920219
-0.0021394810534817784   -0.0047922538053171895   -0.0003536815768998736
-0.001400503065554744   -0.004779045395868954   -0.00033002572646661864
-0.001268354247446537   -0.003462185358065618   -0.00030420508188484433
-0.0013945426630850573   -0.004790156454540618   -0.0003247599051326154
-0.0019859500521487027   -0.0034999305389420915   -0.0003124351771920219
-0.0012640837285495343   -0.0034716283789300137   -0.00029381464292968225
-0.0013945426630850573   -0.004790156454540618   -0.0003247599051326154
-0.001268354247446537   -0.003462185358065618   -0.00030420508188484433
-0.0019859500521487027   -0.0034999305389420915   -0.0003124351771920219
-0.0013945426630850573   -0.004790156454540618   -0.0003247599051326154
-0.0021385853413596737   -0.004806782346861531   -0.0003485516770277398
-0.0021394810534817784   -0.0047922538053171895   -0.0003536815768998736
-0.0019859500521487027   -0.0034999305389420915   -0.0003124351771920219
-0.0013945426630850573   -0.004790156454540618   -0.0003247599051326154
-0.0021394810534817784   -0.0047922538053171895   -0.0003536815768998736
-0.001268354247446537   -0.003462185358065618   -0.00030420508188484433
-0.001269045852440916   -0.0034368871241055835   -0.00032853598774310326
-0.001405715995837419   -0.004756277957115823   -0.0003442214777121822
-0.0006317182461199583   -0.0034274611339443948   -0.0003058618190936205
-0.0012689458048880812   -0.0034509213370704952   -0.0003157175797509225
-0.001405715995837419   -0.004756277957115823   -0.0003442214777121822
-0.000732016510987854   -0.004751982552556513   -0.0003268219837880763
-0.0006317182461199583   -0.0034274611339443948   -0.0003058618190936205
-0.0007281461912278706   -0.0047589839149156515   -0.0003198481000686726
-0.0012689458048880812   -0.0034509213370704952   -0.0003157175797509225
-0.00062893735197338   -0.0034361500090807004   -0.00029721273991520705
-0.0007281461912278706   -0.0047589839149156515   -0.0003198481000686726
-0.0006317182461199583   -0.0034274611339443948   -0.0003058618190936205
-0.0012689458048880812   -0.0034509213370704952   -0.0003157175797509225
-0.0007281461912278706   -0.0047589839149156515   -0.0003198481000686726
-0.0014037745596639356   -0.004768037282711196   -0.0003364782062596193
-0.001405715995837419   -0.004756277957115823   -0.0003442214777121822
-0.0012689458048880812   -0.0034509213370704952   -0.0003157175797509225
-0.0007281461912278706   -0.0047589839149156515   -0.0003198481000686726
-0.001405715995837419   -0.004756277957115823   -0.0003442214777121822
-0.0006317182461199583   -0.0034274611339443948   -0.0003058618190936205
-0.0012689458048880812   -0.0034509213370704952   -0.0003157175797509225
-0.0014037745596639356   -0.004768037282711196   -0.0003364782062596193
-0.00062893735197338   -0.0034361500090807004   -0.00029721273991520705
-0.001268354247446537   -0.003462185358065618   -0.00030420508188484433
-0.0014037745596639356   -0.004768037282711196   -0.0003364782062596193
-0.0007281461912278706   -0.0047589839149156515   -0.0003198481000686726
-0.00062893735197338   -0.0034361500090807004   -0.00029721273991520705
-0.0007237281947898588   -0.0047655200242441315   -0.00031415875620766114
-0.001268354247446537   -0.003462185358065618   -0.00030420508188484433
-0.0006257384195018669   -0.0034425030052031747   -0.0002898417523530675
-0.0007237281947898588   -0.0047655200242441315   -0.00031415875620766114
-0.00062893735197338   -0.0034361500090807004   -0.00029721273991520705
-0.001268354247446537   -0.003462185358065618   -0.00030420508188484433
-0.0007237281947898588   -0.0047655200242441315   -0.00031415875620766114
-0.001400503065554744   -0.004779045395868954   -0.00033002572646661864
-0.0014037745596639356   -0.004768037282711196   -0.0003364782062596193
-0.001268354247446537   -0.003462185358065618   -0.00030420508188484433
-0.0007237281947898588   -0.0047655200242441315   -0.00031415875620766114
-0.0014037745596639356   -0.004768037282711196   -0.0003364782062596193
-0.00062893735197338   -0.0034361500090807004   -0.00029721273991520705
-0.001268354247446537   -0.003462185358065618   -0.00030420508188484433
-0.001400503065554744   -0.004779045395868954   -0.00033002572646661864
-0.0006257384195018669   -0.0034425030052031747   -0.0002898417523530675
-0.0012640837285495343   -0.0034716283789300137   -0.00029381464292968225
-0.001400503065554744   -0.004779045395868954   -0.00033002572646661864
-0.0007237281947898588   -0.0047655200242441315   -0.00031415875620766114
-0.0006257384195018669   -0.0034425030052031747   -0.0002898417523530675
-0.0007186711070261499   -0.0047716150852090584   -0.00030979183206050016
-0.0012640837285495343   -0.0034716283789300137   -0.00029381464292968225
-0.0006217201723778396   -0.0034465634855333055   -0.00028377597599800475
-0.0007186711070261499   -0.0047716150852090584   -0.00030979183206050016
-0.0006257384195018669   -0.0034425030052031747   -0.0002898417523530675
-0.0012640837285495343   -0.0034716283789300137   -0.00029381464292968225
-0.0007186711070261499   -0.0047716150852090584   -0.00030979183206050016
-0.0013945426630850573   -0.004790156454540618   -0.0003247599051326154
-0.001400503065554744   -0.004779045395868954   -0.00033002572646661864
-0.0012640837285495343   -0.0034716283789300137   -0.00029381464292968225
-0.0007186711070261499   -0.0047716150852090584   -0.00030979183206050016
-0.001400503065554744   -0.004779045395868954   -0.00033002572646661864
-0.0006257384195018669   -0.0034425030052031747   -0.0002898417523530675
-0.0006317182461199583   -0.0034274611339443948   -0.0003058618190936205
-0.000732016510987854   -0.004751982552556513   -0.0003268219837880763
-1.2087653511623691e-05   -0.003425698308414229   -0.00029299313733408114
-0.00062893735197338   -0.0034361500090807004   -0.00029721273991520705
-0.000732016510987854   -0.004751982552556513   -0.0003268219837880763
-7.662615502493613e-05   -0.004749316974332938   -0.0003181901700459305
-1.2087653511623691e-05   -0.003425698308414229   -0.00029299313733408114
-7.171269476448659e-05   -0.004751418560487845   -0.00031207183955818336
-0.00062893735197338   -0.0034361500090807004   -0.00029721273991520705
-8.208105604821003e-06   -0.0034289635687127585   -0.000288565173887945
-7.171269476448659e-05   -0.004751418560487845   -0.00031207183955818336
-1.2087653511623691e-05   -0.003425698308414229   -0.00029299313733408114
-0.00062893735197338   -0.0034361500090807004   -0.00029721273991520705
-7.171269476448659e-05   -0.004751418560487845   -0.00031207183955818336
-0.0007281461912278706   -0.0047589839149156515   -0.0003198481000686726
-0.000732016510987854   -0.004751982552556513   -0.0003268219837880763
-0.00062893735197338   -0.0034361500090807004   -0.00029721273991520705
-7.171269476448659e-05   -0.004751418560487845   -0.00031207183955818336
-0.000732016510987854   -0.004751982552556513   -0.0003268219837880763
-1.2087653511623691e-05   -0.003425698308414229   -0.00029299313733408114
-0.00062893735197338   -0.0034361500090807004   -0.00029721273991520705
-0.0007281461912278706   -0.0047589839149156515   -0.0003198481000686726
-8.208105604821003e-06   -0.0034289635687127585   -0.000288565173887945
-0.0006257384195018669   -0.0034425030052031747   -0.0002898417523530675
-0.0007281461912278706   -0.0047589839149156515   -0.0003198481000686726
-7.171269476448659e-05   -0.004751418560487845   -0.00031207183955818336
-8.208105604821003e-06   -0.0034289635687127585   -0.000288565173887945
-6.728449322019089e-05   -0.004753014427324038   -0.00030723297000522675
-0.0006257384195018669   -0.0034425030052031747   -0.0002898417523530675
-4.993599732865994e-06   -0.003429874835680497   -0.0002854048050026563
-6.728449322019089e-05   -0.004753014427324038   -0.00030723297000522675
-8.208105604821003e-06   -0.0034289635687127585   -0.000288565173887945
-0.0006257384195018669   -0.0034425030052031747   -0.0002898417523530675
-6.728449322019089e-05   -0.004753014427324038   -0.00030723297000522675
-0.0007237281947898588   -0.0047655200242441315   -0.00031415875620766114
-0.0007281461912278706   -0.0047589839149156515   -0.0003198481000686726
-0.0006257384195018669   -0.0034425030052031747   -0.0002898417523530675
-6.728449322019089e-05   -0.004753014427324038   -0.00030723297000522675
-0.0007281461912278706   -0.0047589839149156515   -0.0003198481000686726
-8.208105604821003e-06   -0.0034289635687127585   -0.000288565173887945
-0.0006257384195018669   -0.0034425030052031747   -0.0002898417523530675
-0.0007237281947898588   -0.0047655200242441315   -0.00031415875620766114
-4.993599732865994e-06   -0.003429874835680497   -0.0002854048050026563
-0.0006217201723778396   -0.0034465634855333055   -0.00028377597599800475
-0.0007237281947898588   -0.0047655200242441315   -0.00031415875620766114
-6.728449322019089e-05   -0.004753014427324038   -0.00030723297000522675
-4.993599732865994e-06   -0.003429874835680497   -0.0002854048050026563
-6.35619746182466e-05   -0.004754091838844089   -0.0003037163971205113
-0.0006217201723778396   -0.0034465634855333055   -0.00028377597599800475
-2.346947959568893e-06   -0.003428398471659359   -0.0002835633086839031
-6.35619746182466e-05   -0.004754091838844089   -0.0003037163971205113
-4.993599732865994e-06   -0.003429874835680497   -0.0002854048050026563
-0.0006217201723778396   -0.0034465634855333055   -0.00028377597599800475
-6.35619746182466e-05   -0.004754091838844089   -0.0003037163971205113
-0.0007186711070261499   -0.0047716150852090584   -0.00030979183206050016
-0.0007237281947898588   -0.0047655200242441315   -0.00031415875620766114
-0.0006217201723778396   -0.0034465634855333055   -0.00028377597599800475
-6.35619746182466e-05   -0.004754091838844089   -0.0003037163971205113
-0.0007237281947898588   -0.0047655200242441315   -0.00031415875620766114
-4.993599732865994e-06   -0.003429874835680497   -0.0002854048050026563
-1.2087653511623691e-05   -0.003425698308414229   -0.00029299313733408114
-7.662615502493613e-05   -0.004749316974332938   -0.0003181901700459305
0.0006289433106862316   -0.0034309045125076334   -0.0002899375069295025
-8.208105604821003e-06   -0.0034289635687127585   -0.000288565173887945
-7.662615502493613e-05   -0.004749316974332938   -0.0003181901700459305
0.0005984665273769944   -0.004747811174051605   -0.0003184624178829334
0.0006289433106862316   -0.0034309045125076334   -0.0002899375069295025
0.000604651036688091   -0.004745125000481734   -0.0003132355189519738
-8.208105604821003e-06   -0.0034289635687127585   -0.000288565173887945
0.000633461990487005   -0.0034290114694871935   -0.00028980700329135113
0.000604651036688091   -0.004745125000481734   -0.0003132355189519738
0.0006289433106862316   -0.0034309045125076334   -0.0002899375069295025
-8.208105604821003e-06   -0.0034289635687127585   -0.000288565173887945
0.000604651036688091   -0.004745125000481734   -0.0003132355189519738
-7.171269476448659e-05   -0.004751418560487845   -0.00031207183955818336
-7.662615502493613e-05   -0.004749316974332938   -0.0003181901700459305
-8.208105604821003e-06   -0.0034289635687127585   -0.000288565173887945
0.000604651036688091   -0.004745125000481734   -0.0003132355189519738
-7.662615502493613e-05   -0.004749316974332938   -0.0003181901700459305
0.0006289433106862316   -0.0034309045125076334   -0.0002899375069295025
-8.208105604821003e-06   -0.0034289635687127585   -0.000288565173887945
-7.171269476448659e-05   -0.004751418560487845   -0.00031207183955818336
0.000633461990487005   -0.0034290114694871935   -0.00028980700329135113
-4.993599732865994e-06   -0.003429874835680497   -0.0002854048050026563
-7.171269476448659e-05   -0.004751418560487845   -0.00031207183955818336
0.000604651036688091   -0.004745125000481734   -0.0003132355189519738
0.000633461990487005   -0.0034290114694871935   -0.00028980700329135113
0.0006093677898148984   -0.004742250272843862   -0.0003092466909411983
-4.993599732865994e-06   -0.003429874835680497   -0.0002854048050026563
0.0006355089562415757   -0.00342500635315632   -0.0002908715958425717
0.0006093677898148984   -0.004742250272843862   -0.0003092466909411983
0.000633461990487005   -0.0034290114694871935   -0.00028980700329135113
-4.993599732865994e-06   -0.003429874835680497   -0.0002854048050026563
0.0006093677898148984   -0.004742250272843862   -0.0003092466909411983
-6.728449322019089e-05   -0.004753014427324038   -0.00030723297000522675
-7.171269476448659e-05   -0.004751418560487845   -0.00031207183955818336
-4.993599732865994e-06   -0.003429874835680497   -0.0002854048050026563
0.0006093677898148984   -0.004742250272843862   -0.0003092466909411983
-7.171269476448659e-05   -0.004751418560487845   -0.00031207183955818336
0.000633461990487005   -0.0034290114694871935   -0.00028980700329135113
-4.993599732865994e-06   -0.003429874835680497   -0.0002854048050026563
-6.728449322019089e-05   -0.004753014427324038   -0.00030723297000522675
0.0006355089562415757   -0.00342500635315632   -0.0002908715958425717
-2.346947959568893e-06   -0.003428398471659359   -0.0002835633086839031
-6.728449322019089e-05   -0.004753014427324038   -0.00030723297000522675
0.0006093677898148984   -0.004742250272843862   -0.0003092466909411983
0.0006355089562415757   -0.00342500635315632   -0.0002908715958425717
0.000611547562428539   -0.004738325061951219   -0.0003064740466657777
-2.346947959568893e-06   -0.003428398471659359   -0.0002835633086839031
0.0006358580417994943   -0.003417946690615212   -0.0002931824315280258
0.000611547562428539   -0.004738325061951219   -0.0003064740466657777
0.0006355089562415757   -0.00342500635315632   -0.0002908715958425717
-2.346947959568893e-06   -0.003428398471659359   -0.0002835633086839031
0.000611547562428539   -0.004738325061951219   -0.0003064740466657777
-6.35619746182466e-05   -0.004754091838844089   -0.0003037163971205113
-6.728449322019089e-05   -0.004753014427324038   -0.00030723297000522675
-2.346947959568893e-06   -0.003428398471659359   -0.0002835633086839031
0.000611547562428539   -0.004738325061951219   -0.0003064740466657777
-6.728449322019089e-05   -0.004753014427324038   -0.00030723297000522675
0.0006355089562415757   -0.00342500635315632   -0.0002908715958425717
0.0006289433106862316   -0.0034309045125076334   -0.0002899375069295025
0.0005984665273769944   -0.004747811174051605   -0.0003184624178829334
0.0013366311742854125   -0.0034401863359654976   -0.0002948423068197133
0.000633461990487005   -0.0034290114694871935   -0.00028980700329135113
0.0005984665273769944   -0.004747811174051605   -0.0003184624178829334
0.0013288334841643232   -0.004745313704638615   -0.0003269842994363672
0.0013366311742854125   -0.0034401863359654976   -0.0002948423068197133
0.001340393110605552   -0.0047387915664110405   -0.0003221588858055229
0.000633461990487005   -0.0034290114694871935   -0.00028980700329135113
0.0013381266004980643   -0.003434735046858757   -0.00029916242114083765
0.001340393110605552   -0.0047387915664110405   -0.0003221588858055229
0.0013366311742854125   -0.0034401863359654976   -0.0002948423068197133
0.000633461990487005   -0.0034290114694871935   -0.00028980700329135113
0.001340393110605552   -0.0047387915664110405   -0.0003221588858055229
0.000604651036688091   -0.004745125000481734   -0.0003132355189519738
0.0005984665273769944   -0.004747811174051605   -0.0003184624178829334
0.000633461990487005   -0.0034290114694871935   -0.00028980700329135113
0.001340393110605552   -0.0047387915664110405   -0.0003221588858055229
0.0005984665273769944   -0.004747811174051605   -0.0003184624178829334
0.0013366311742854125   -0.0034401863359654976   -0.0002948423068197133
0.000633461990487005   -0.0034290114694871935   -0.00028980700329135113
0.000604651036688091   -0.004745125000481734   -0.0003132355189519738
0.0013381266004980643   -0.003434735046858757   -0.00029916242114083765
0.0006355089562415757   -0.00342500635315632   -0.0002908715958425717
0.000604651036688091   -0.004745125000481734   -0.0003132355189519738
0.001340393110605552   -0.0047387915664110405   -0.0003221588858055229
0.0013381266004980643   -0.003434735046858757   -0.00029916242114083765
0.0013474223101787898   -0.004733786312619173   -0.00031923127943966483
0.0006355089562415757   -0.00342500635315632   -0.0002908715958425717
0.0013371796557651514   -0.003428330839476653   -0.0003054330445807656
0.0013474223101787898   -0.004733786312619173   -0.00031923127943966483
0.0013381266004980643   -0.003434735046858757   -0.00029916242114083765
0.0006355089562415757   -0.00342500635315632   -0.0002908715958425717
0.0013474223101787898   -0.004733786312619173   -0.00031923127943966483
0.0006093677898148984   -0.004742250272843862   -0.0003092466909411983
0.000604651036688091   -0.004745125000481734   -0.0003132355189519738
0.0006355089562415757   -0.00342500635315632   -0.0002908715958425717
0.0013474223101787898   -0.004733786312619173   -0.00031923127943966483
0.000604651036688091   -0.004745125000481734   -0.0003132355189519738
0.0013381266004980643   -0.003434735046858757   -0.00029916242114083765
0.0006355089562415757   -0.00342500635315632   -0.0002908715958425717
0.0006093677898148984   -0.004742250272843862   -0.0003092466909411983
0.0013371796557651514   -0.003428330839476653   -0.0003054330445807656
0.0006358580417994943   -0.003417946690615212   -0.0002931824315280258
0.0006093677898148984   -0.004742250272843862   -0.0003092466909411983
0.0013474223101787898   -0.004733786312619173   -0.00031923127943966483
0.0013371796557651514   -0.003428330839476653   -0.0003054330445807656
0.0013511151519023056   -0.004726208067001911   -0.0003182345538839442
0.0006358580417994943   -0.003417946690615212   -0.0002931824315280258
0.0013306280922446459   -0.0034166637059433844   -0.0003136397878624258
0.0013511151519023056   -0.004726208067001911   -0.0003182345538839442
0.0013371796557651514   -0.003428330839476653   -0.0003054330445807656
0.0006358580417994943   -0.003417946690615212   -0.0002931824315280258
0.0013511151519023056   -0.004726208067001911   -0.0003182345538839442
0.000611547562428539   -0.004738325061951219   -0.0003064740466657777
0.0006093677898148984   -0.004742250272843862   -0.0003092466909411983
0.0006358580417994943   -0.003417946690615212   -0.0002931824315280258
0.0013511151519023056   -0.004726208067001911   -0.0003182345538839442
0.0006093677898148984   -0.004742250272843862   -0.0003092466909411983
0.0013371796557651514   -0.003428330839476653   -0.0003054330445807656
-0.002131308749020803   -0.004763224332305812   -0.0003698494784679703
-0.0021888384390999385   -0.006083678627627495   -0.00036539152801294057
-0.001405715995837419   -0.004756277957115823   -0.0003442214777121822
-0.0021383677135611225   -0.004779105939755834   -0.00036083901528888426
-0.0021888384390999385   -0.006083678627627495   -0.00036539152801294057
-0.0014693349030219923   -0.006087394767693931   -0.00034688139135114854
-0.001405715995837419   -0.004756277957115823   -0.0003442214777121822
-0.0014645163421347107   -0.00609690746857046   -0.00034402182316445497
-0.0021383677135611225   -0.004779105939755834   -0.00036083901528888426
-0.0014037745596639356   -0.004768037282711196   -0.0003364782062596193
-0.0014645163421347107   -0.00609690746857046   -0.00034402182316445497
-0.001405715995837419   -0.004756277957115823   -0.0003442214777121822
-0.0021383677135611225   -0.004779105939755834   -0.00036083901528888426
-0.0014645163421347107   -0.00609690746857046   -0.00034402182316445497
-0.0021849113813429293   -0.006096463379989392   -0.0003653070540798056
-0.0021888384390999385   -0.006083678627627495   -0.00036539152801294057
-0.0021383677135611225   -0.004779105939755834   -0.00036083901528888426
-0.0014645163421347107   -0.00609690746857046   -0.00034402182316445497
-0.0021888384390999385   -0.006083678627627495   -0.00036539152801294057
-0.001405715995837419   -0.004756277957115823   -0.0003442214777121822
-0.0021383677135611225   -0.004779105939755834   -0.00036083901528888426
-0.0021849113813429293   -0.006096463379989392   -0.0003653070540798056
-0.0014037745596639356   -0.004768037282711196   -0.0003364782062596193
-0.0021394810534817784   -0.0047922538053171895   -0.0003536815768998736
-0.0021849113813429293   -0.006096463379989392   -0.0003653070540798056
-0.0014645163421347107   -0.00609690746857046   -0.00034402182316445497
-0.0014037745596639356   -0.004768037282711196   -0.0003364782062596193
-0.001457551305014815   -0.006107648235538276   -0.0003424510617642847
-0.0021394810534817784   -0.0047922538053171895   -0.0003536815768998736
-0.001400503065554744   -0.004779045395868954   -0.00033002572646661864
-0.001457551305014815   -0.006107648235538276   -0.0003424510617642847
-0.0014037745596639356   -0.004768037282711196   -0.0003364782062596193
-0.0021394810534817784   -0.0047922538053171895   -0.0003536815768998736
-0.001457551305014815   -0.006107648235538276   -0.0003424510617642847
-0.0021771197881585986   -0.0061091207727619785   -0.0003671436460595255
-0.0021849113813429293   -0.006096463379989392   -0.0003653070540798056
-0.0021394810534817784   -0.0047922538053171895   -0.0003536815768998736
-0.001457551305014815   -0.006107648235538276   -0.0003424510617642847
-0.0021849113813429293   -0.006096463379989392   -0.0003653070540798056
-0.0014037745596639356   -0.004768037282711196   -0.0003364782062596193
-0.0021394810534817784   -0.0047922538053171895   -0.0003536815768998736
-0.0021771197881585986   -0.0061091207727619785   -0.0003671436460595255
-0.001400503065554744   -0.004779045395868954   -0.00033002572646661864
-0.0021385853413596737   -0.004806782346861531   -0.0003485516770277398
-0.0021771197881585986   -0.0061091207727619785   -0.0003671436460595255
-0.001457551305014815   -0.006107648235538276   -0.0003424510617642847
-0.001400503065554744   -0.004779045395868954   -0.00033002572646661864
-0.0014488591518253856   -0.006120370778829746   -0.0003421336059298742
-0.0021385853413596737   -0.004806782346861531   -0.0003485516770277398
-0.0013945426630850573   -0.004790156454540618   -0.0003247599051326154
-0.0014488591518253856   -0.006120370778829746   -0.0003421336059298742
-0.001400503065554744   -0.004779045395868954   -0.00033002572646661864
-0.0021385853413596737   -0.004806782346861531   -0.0003485516770277398
-0.0014488591518253856   -0.006120370778829746   -0.0003421336059298742
-0.0021652291015607427   -0.006125643126939913   -0.00037101688542557905
-0.0021771197881585986   -0.0061091207727619785   -0.0003671436460595255
-0.0021385853413596737   -0.004806782346861531   -0.0003485516770277398
-0.0014488591518253856   -0.006120370778829746   -0.0003421336059298742
-0.0021771197881585986   -0.0061091207727619785   -0.0003671436460595255
-0.001400503065554744   -0.004779045395868954   -0.00033002572646661864
-0.001405715995837419   -0.004756277957115823   -0.0003442214777121822
-0.0014693349030219923   -0.006087394767693931   -0.00034688139135114854
-0.000732016510987854   -0.004751982552556513   -0.0003268219837880763
-0.0014037745596639356   -0.004768037282711196   -0.0003364782062596193
-0.0014693349030219923   -0.006087394767693931   -0.00034688139135114854
-0.0008094358850485791   -0.006087985319102959   -0.0003346339155749918
-0.000732016510987854   -0.004751982552556513   -0.0003268219837880763
-0.0008033595332319622   -0.006093326769414062   -0.0003292530798022999
-0.0014037745596639356   -0.004768037282711196   -0.0003364782062596193
-0.0007281461912278706   -0.0047589839149156515   -0.0003198481000686726
-0.0008033595332319622   -0.006093326769414062   -0.0003292530798022999
-0.000732016510987854   -0.004751982552556513   -0.0003268219837880763
-0.0014037745596639356   -0.004768037282711196   -0.0003364782062596193
-0.0008033595332319622   -0.006093326769414062   -0.0003292530798022999
-0.0014645163421347107   -0.00609690746857046   -0.00034402182316445497
-0.0014693349030219923   -0.006087394767693931   -0.00034688139135114854
-0.0014037745596639356   -0.004768037282711196   -0.0003364782062596193
-0.0008033595332319622   -0.006093326769414062   -0.0003292530798022999
-0.0014693349030219923   -0.006087394767693931   -0.00034688139135114854
-0.000732016510987854   -0.004751982552556513   -0.0003268219837880763
-0.0014037745596639356   -0.004768037282711196   -0.0003364782062596193
-0.0014645163421347107   -0.00609690746857046   -0.00034402182316445497
-0.0007281461912278706   -0.0047589839149156515   -0.0003198481000686726
-0.001400503065554744   -0.004779045395868954   -0.00033002572646661864
-0.0014645163421347107   -0.00609690746857046   -0.00034402182316445497
-0.0008033595332319622   -0.006093326769414062   -0.0003292530798022999
-0.0007281461912278706   -0.0047589839149156515   -0.0003198481000686726
-0.0007966366957780054   -0.006100008243486635   -0.00032516035850109785
-0.001400503065554744   -0.004779045395868954   -0.00033002572646661864
-0.0007237281947898588   -0.0047655200242441315   -0.00031415875620766114
-0.0007966366957780054   -0.006100008243486635   -0.00032516035850109785
-0.0007281461912278706   -0.0047589839149156515   -0.0003198481000686726
-0.001400503065554744   -0.004779045395868954   -0.00033002572646661864
-0.0007966366957780054   -0.006100008243486635   -0.00032516035850109785
-0.001457551305014815   -0.006107648235538276   -0.0003424510617642847
-0.0014645163421347107   -0.00609690746857046   -0.00034402182316445497
-0.001400503065554744   -0.004779045395868954   -0.00033002572646661864
-0.0007966366957780054   -0.006100008243486635   -0.00032516035850109785
-0.0014645163421347107   -0.00609690746857046   -0.00034402182316445497
-0.0007281461912278706   -0.0047589839149156515   -0.0003198481000686726
-0.001400503065554744   -0.004779045395868954   -0.00033002572646661864
-0.001457551305014815   -0.006107648235538276   -0.0003424510617642847
-0.0007237281947898588   -0.0047655200242441315   -0.00031415875620766114
-0.0013945426630850573   -0.004790156454540618   -0.0003247599051326154
-0.001457551305014815   -0.006107648235538276   -0.0003424510617642847
-0.0007966366957780054   -0.006100008243486635   -0.00032516035850109785
-0.0007237281947898588   -0.0047655200242441315   -0.00031415875620766114
-0.0007894503167181725   -0.006108051000351826   -0.00032240518538403007
-0.0013945426630850573   -0.004790156454540618   -0.0003247599051326154
-0.0007186711070261499   -0.0047716150852090584   -0.00030979183206050016
-0.0007894503167181725   -0.006108051000351826   -0.00032240518538403007
-0.0007237281947898588   -0.0047655200242441315   -0.00031415875620766114
-0.0013945426630850573   -0.004790156454540618   -0.0003247599051326154
-0.0007894503167181725   -0.006108051000351826   -0.00032240518538403007
-0.0014488591518253856   -0.006120370778829746   -0.0003421336059298742
-0.001457551305014815   -0.006107648235538276   -0.0003424510617642847
-0.0013945426630850573   -0.004790156454540618   -0.0003247599051326154
-0.0007894503167181725   -0.006108051000351826   -0.00032240518538403007
-0.001457551305014815   -0.006107648235538276   -0.0003424510617642847
-0.0007237281947898588   -0.0047655200242441315   -0.00031415875620766114
-0.000732016510987854   -0.004751982552556513   -0.0003268219837880763
-0.0008094358850485791   -0.006087985319102959   -0.0003346339155749918
-7.662615502493613e-05   -0.004749316974332938   -0.0003181901700459305
-0.0007281461912278706   -0.0047589839149156515   -0.0003198481000686726
-0.0008094358850485791   -0.006087985319102959   -0.0003346339155749918
-0.0001680164356108047   -0.006084228294241338   -0.0003300549664195183
-7.662615502493613e-05   -0.004749316974332938   -0.0003181901700459305
-0.00016096298933820834   -0.006085202521707375   -0.00032228106017057745
-0.0007281461912278706   -0.0047589839149156515   -0.0003198481000686726
-7.171269476448659e-05   -0.004751418560487845   -0.00031207183955818336
-0.00016096298933820834   -0.006085202521707375   -0.00032228106017057745
-7.662615502493613e-05   -0.004749316974332938   -0.0003181901700459305
-0.0007281461912278706   -0.0047589839149156515   -0.0003198481000686726
-0.00016096298933820834   -0.006085202521707375   -0.00032228106017057745
-0.0008033595332319622   -0.006093326769414062   -0.0003292530798022999
-0.0008094358850485791   -0.006087985319102959   -0.0003346339155749918
-0.0007281461912278706   -0.0047589839149156515   -0.0003198481000686726
-0.00016096298933820834   -0.006085202521707375   -0.00032228106017057745
-0.0008094358850485791   -0.006087985319102959   -0.0003346339155749918
-7.662615502493613e-05   -0.004749316974332938   -0.0003181901700459305
-0.0007281461912278706   -0.0047589839149156515   -0.0003198481000686726
-0.0008033595332319622   -0.006093326769414062   -0.0003292530798022999
-7.171269476448659e-05   -0.004751418560487845   -0.00031207183955818336
-0.0007237281947898588   -0.0047655200242441315   -0.00031415875620766114
-0.0008033595332319622   -0.006093326769414062   -0.0003292530798022999
-0.00016096298933820834   -0.006085202521707375   -0.00032228106017057745
-7.171269476448659e-05   -0.004751418560487845   -0.00031207183955818336
-0.00015424170820881752   -0.006087429629289227   -0.00031579247240465046
-0.0007237281947898588   -0.0047655200242441315   -0.00031415875620766114
-6.728449322019089e-05   -0.004753014427324038   -0.00030723297000522675
-0.00015424170820881752   -0.006087429629289227   -0.00031579247240465046
-7.171269476448659e-05   -0.004751418560487845   -0.00031207183955818336
-0.0007237281947898588   -0.0047655200242441315   -0.00031415875620766114
-0.00015424170820881752   -0.006087429629289227   -0.00031579247240465046
-0.0007966366957780054   -0.006100008243486635   -0.00032516035850109785
-0.0008033595332319622   -0.006093326769414062   -0.0003292530798022999
-0.0007237281947898588   -0.0047655200242441315   -0.00031415875620766114
-0.00015424170820881752   -0.006087429629289227   -0.00031579247240465046
-0.0008033595332319622   -0.006093326769414062   -0.0003292530798022999
-7.171269476448659e-05   -0.004751418560487845   -0.00031207183955818336
-0.0007237281947898588   -0.0047655200242441315   -0.00031415875620766114
-0.0007966366957780054   -0.006100008243486635   -0.00032516035850109785
-6.728449322019089e-05   -0.004753014427324038   -0.00030723297000522675
-0.0007186711070261499   -0.0047716150852090584   -0.00030979183206050016
-0.0007966366957780054   -0.006100008243486635   -0.00032516035850109785
-0.00015424170820881752   -0.006087429629289227   -0.00031579247240465046
-6.728449322019089e-05   -0.004753014427324038   -0.00030723297000522675
-0.00014836754430787722   -0.006090952074791978   -0.00031063066186167045
-0.0007186711070261499   -0.0047716150852090584   -0.00030979183206050016
-6.35619746182466e-05   -0.004754091838844089   -0.0003037163971205113
-0.00014836754430787722   -0.006090952074791978   -0.00031063066186167045
-6.728449322019089e-05   -0.004753014427324038   -0.00030723297000522675
-0.0007186711070261499   -0.0047716150852090584   -0.00030979183206050016
-0.00014836754430787722   -0.006090952074791978   -0.00031063066186167045
-0.0007894503167181725   -0.006108051000351826   -0.00032240518538403007
-0.0007966366957780054   -0.006100008243486635   -0.00032516035850109785
-0.0007186711070261499   -0.0047716150852090584   -0.00030979183206050016
-0.00014836754430787722   -0.006090952074791978   -0.00031063066186167045
-0.0007966366957780054   -0.006100008243486635   -0.00032516035850109785
-6.728449322019089e-05   -0.004753014427324038   -0.00030723297000522675
-7.662615502493613e-05   -0.004749316974332938   -0.0003181901700459305
-0.0001680164356108047   -0.006084228294241338   -0.0003300549664195183
0.0005984665273769944   -0.004747811174051605   -0.0003184624178829334
-7.171269476448659e-05   -0.004751418560487845   -0.00031207183955818336
-0.0001680164356108047   -0.006084228294241338   -0.0003300549664195183
0.0004919279681365656   -0.006075997331260974   -0.0003334299174076078
0.0005984665273769944   -0.004747811174051605   -0.0003184624178829334
0.0005007846601916883   -0.006072560032513576   -0.0003232802799265898
-7.171269476448659e-05   -0.004751418560487845   -0.00031207183955818336
0.000604651036688091   -0.004745125000481734   -0.0003132355189519738
0.0005007846601916883   -0.006072560032513576   -0.0003232802799265898
0.0005984665273769944   -0.004747811174051605   -0.0003184624178829334
-7.171269476448659e-05   -0.004751418560487845   -0.00031207183955818336
0.0005007846601916883   -0.006072560032513576   -0.0003232802799265898
-0.00016096298933820834   -0.006085202521707375   -0.00032228106017057745
-0.0001680164356108047   -0.006084228294241338   -0.0003300549664195183
-7.171269476448659e-05   -0.004751418560487845   -0.00031207183955818336
0.0005007846601916883   -0.006072560032513576   -0.0003232802799265898
-0.0001680164356108047   -0.006084228294241338   -0.0003300549664195183
0.0005984665273769944   -0.004747811174051605   -0.0003184624178829334
-7.171269476448659e-05   -0.004751418560487845   -0.00031207183955818336
-0.00016096298933820834   -0.006085202521707375   -0.00032228106017057745
0.000604651036688091   -0.004745125000481734   -0.0003132355189519738
-6.728449322019089e-05   -0.004753014427324038   -0.00030723297000522675
-0.00016096298933820834   -0.006085202521707375   -0.00032228106017057745
0.0005007846601916883   -0.006072560032513576   -0.0003232802799265898
0.000604651036688091   -0.004745125000481734   -0.0003132355189519738
0.0005091449365356535   -0.006070753257220566   -0.00031440809698795365
-6.728449322019089e-05   -0.004753014427324038   -0.00030723297000522675
0.0006093677898148984   -0.004742250272843862   -0.0003092466909411983
0.0005091449365356535   -0.006070753257220566   -0.00031440809698795365
0.000604651036688091   -0.004745125000481734   -0.0003132355189519738
-6.728449322019089e-05   -0.004753014427324038   -0.00030723297000522675
0.0005091449365356535   -0.006070753257220566   -0.00031440809698795365
-0.00015424170820881752   -0.006087429629289227   -0.00031579247240465046
-0.00016096298933820834   -0.006085202521707375   -0.00032228106017057745
-6.728449322019089e-05   -0.004753014427324038   -0.00030723297000522675
0.0005091449365356535   -0.006070753257220566   -0.00031440809698795365
-0.00016096298933820834   -0.006085202521707375   -0.00032228106017057745
0.000604651036688091   -0.004745125000481734   -0.0003132355189519738
-6.728449322019089e-05   -0.004753014427324038   -0.00030723297000522675
-0.00015424170820881752   -0.006087429629289227   -0.00031579247240465046
0.0006093677898148984   -0.004742250272843862   -0.0003092466909411983
-6.35619746182466e-05   -0.004754091838844089   -0.0003037163971205113
-0.00015424170820881752   -0.006087429629289227   -0.00031579247240465046
0.0005091449365356535   -0.006070753257220566   -0.00031440809698795365
0.0006093677898148984   -0.004742250272843862   -0.0003092466909411983
0.0005141388225533881   -0.006069811290009641   -0.0003067298862406529
-6.35619746182466e-05   -0.004754091838844089   -0.0003037163971205113
0.000611547562428539   -0.004738325061951219   -0.0003064740466657777
0.0005141388225533881   -0.006069811290009641   -0.0003067298862406529
0.0006093677898148984   -0.004742250272843862   -0.0003092466909411983
-6.35619746182466e-05   -0.004754091838844089   -0.0003037163971205113
0.0005141388225533881   -0.006069811290009641   -0.0003067298862406529
-0.00014836754430787722   -0.006090952074791978   -0.00031063066186167045
-0.00015424170820881752   -0.006087429629289227   -0.00031579247240465046
-6.35619746182466e-05   -0.004754091838844089   -0.0003037163971205113
0.0005141388225533881   -0.006069811290009641   -0.0003067298862406529
-0.00015424170820881752   -0.006087429629289227   -0.00031579247240465046
0.0006093677898148984   -0.004742250272843862   -0.0003092466909411983
0.0005984665273769944   -0.004747811174051605   -0.0003184624178829334
0.0004919279681365656   -0.006075997331260974   -0.0003334299174076078
0.0013288334841643232   -0.004745313704638615   -0.0003269842994363672
0.000604651036688091   -0.004745125000481734   -0.0003132355189519738
0.0004919279681365656   -0.006075997331260974   -0.0003334299174076078
0.0011962564004160835   -0.00606194486097238   -0.00034534407120542104
0.0013288334841643232   -0.004745313704638615   -0.0003269842994363672
0.0012185292185831048   -0.006054458516224155   -0.0003317724355491782
0.000604651036688091   -0.004745125000481734   -0.0003132355189519738
0.001340393110605552   -0.0047387915664110405   -0.0003221588858055229
0.0012185292185831048   -0.006054458516224155   -0.0003317724355491782
0.0013288334841643232   -0.004745313704638615   -0.0003269842994363672
0.000604651036688091   -0.004745125000481734   -0.0003132355189519738
0.0012185292185831048   -0.006054458516224155   -0.0003317724355491782
0.0005007846601916883   -0.006072560032513576   -0.0003232802799265898
0.0004919279681365656   -0.006075997331260974   -0.0003334299174076078
0.000604651036688091   -0.004745125000481734   -0.0003132355189519738
0.0012185292185831048   -0.006054458516224155   -0.0003317724355491782
0.0004919279681365656   -0.006075997331260974   -0.0003334299174076078
0.0013288334841643232   -0.004745313704638615   -0.0003269842994363672
0.000604651036688091   -0.004745125000481734   -0.0003132355189519738
0.0005007846601916883   -0.006072560032513576   -0.0003232802799265898
0.001340393110605552   -0.0047387915664110405   -0.0003221588858055229
0.0006093677898148984   -0.004742250272843862   -0.0003092466909411983
0.0005007846601916883   -0.006072560032513576   -0.0003232802799265898
0.0012185292185831048   -0.006054458516224155   -0.0003317724355491782
0.001340393110605552   -0.0047387915664110405   -0.0003221588858055229
0.0012342719678478482   -0.006050802321751431   -0.0003200382070509789
0.0006093677898148984   -0.004742250272843862   -0.0003092466909411983
0.0013474223101787898   -0.004733786312619173   -0.00031923127943966483
0.0012342719678478482   -0.006050802321751431   -0.0003200382070509789
0.001340393110605552   -0.0047387915664110405   -0.0003221588858055229
0.0006093677898148984   -0.004742250272843862   -0.0003092466909411983
0.0012342719678478482   -0.006050802321751431   -0.0003200382070509789
0.0005091449365356535   -0.006070753257220566   -0.00031440809698795365
0.0005007846601916883   -0.006072560032513576   -0.0003232802799265898
0.0006093677898148984   -0.004742250272843862   -0.0003092466909411983
0.0012342719678478482   -0.006050802321751431   -0.0003200382070509789
0.0005007846601916883   -0.006072560032513576   -0.0003232802799265898
0.001340393110605552   -0.0047387915664110405   -0.0003221588858055229
0.0006093677898148984   -0.004742250272843862   -0.0003092466909411983
0.0005091449365356535   -0.006070753257220566   -0.00031440809698795365
0.0013474223101787898   -0.004733786312619173   -0.00031923127943966483
0.000611547562428539   -0.004738325061951219   -0.0003064740466657777
0.0005091449365356535   -0.006070753257220566   -0.00031440809698795365
0.0012342719678478482   -0.006050802321751431   -0.0003200382070509789
0.0013474223101787898   -0.004733786312619173   -0.00031923127943966483
0.0012488280796065937   -0.006047132235401172   -0.00031022214778039987
0.000611547562428539   -0.004738325061951219   -0.0003064740466657777
0.0013511151519023056   -0.004726208067001911   -0.0003182345538839442
0.0012488280796065937   -0.006047132235401172   -0.00031022214778039987
0.0013474223101787898   -0.004733786312619173   -0.00031923127943966483
0.000611547562428539   -0.004738325061951219   -0.0003064740466657777
0.0012488280796065937   -0.006047132235401172   -0.00031022214778039987
0.0005141388225533881   -0.006069811290009641   -0.0003067298862406529
0.0005091449365356535   -0.006070753257220566   -0.00031440809698795365
0.000611547562428539   -0.004738325061951219   -0.0003064740466657777
0.0012488280796065937   -0.006047132235401172   -0.00031022214778039987
0.0005091449365356535   -0.006070753257220566   -0.00031440809698795365
0.0013474223101787898   -0.004733786312619173   -0.00031923127943966483
-0.0021888384390999385   -0.006083678627627495   -0.00036539152801294057
-0.0021251109548916848   -0.007334171010898373   -0.0003508357887543045
-0.0014693349030219923   -0.006087394767693931   -0.00034688139135114854
-0.0021849113813429293   -0.006096463379989392   -0.0003653070540798056
-0.0021251109548916848   -0.007334171010898373   -0.0003508357887543045
-0.0014618161755557467   -0.007348445165144114   -0.0003400235839156126
-0.0014693349030219923   -0.006087394767693931   -0.00034688139135114854
-0.0014531268513811152   -0.007355428635383368   -0.0003418131620817682
-0.0021849113813429293   -0.006096463379989392   -0.0003653070540798056
-0.0014645163421347107   -0.00609690746857046   -0.00034402182316445497
-0.0014531268513811152   -0.007355428635383368   -0.0003418131620817682
-0.0014693349030219923   -0.006087394767693931   -0.00034688139135114854
-0.0021849113813429293   -0.006096463379989392   -0.0003653070540798056
-0.0014531268513811152   -0.007355428635383368   -0.0003418131620817682
-0.0021093585866460867   -0.007343619747418016   -0.00035946935358446527
-0.0021251109548916848   -0.007334171010898373   -0.0003508357887543045
-0.0021849113813429293   -0.006096463379989392   -0.0003653070540798056
-0.0014531268513811152   -0.007355428635383368   -0.0003418131620817682
-0.0021251109548916848   -0.007334171010898373   -0.0003508357887543045
-0.0014693349030219923   -0.006087394767693931   -0.00034688139135114854
-0.0021849113813429293   -0.006096463379989392   -0.0003653070540798056
-0.0021093585866460867   -0.007343619747418016   -0.00035946935358446527
-0.0014645163421347107   -0.00609690746857046   -0.00034402182316445497
-0.0021771197881585986   -0.0061091207727619785   -0.0003671436460595255
-0.0021093585866460867   -0.007343619747418016   -0.00035946935358446527
-0.0014531268513811152   -0.007355428635383368   -0.0003418131620817682
-0.0014645163421347107   -0.00609690746857046   -0.00034402182316445497
-0.0014415419871012351   -0.007365623496429615   -0.0003448856908427315
-0.0021771197881585986   -0.0061091207727619785   -0.0003671436460595255
-0.001457551305014815   -0.006107648235538276   -0.0003424510617642847
-0.0014415419871012351   -0.007365623496429615   -0.0003448856908427315
-0.0014645163421347107   -0.00609690746857046   -0.00034402182316445497
-0.0021771197881585986   -0.0061091207727619785   -0.0003671436460595255
-0.0014415419871012351   -0.007365623496429615   -0.0003448856908427315
-0.0020917610385602515   -0.007355534415459675   -0.00037011389715674656
-0.0021093585866460867   -0.007343619747418016   -0.00035946935358446527
-0.0021771197881585986   -0.0061091207727619785   -0.0003671436460595255
-0.0014415419871012351   -0.007365623496429615   -0.0003448856908427315
-0.0021093585866460867   -0.007343619747418016   -0.00035946935358446527
-0.0014645163421347107   -0.00609690746857046   -0.00034402182316445497
-0.0021771197881585986   -0.0061091207727619785   -0.0003671436460595255
-0.0020917610385602515   -0.007355534415459675   -0.00037011389715674656
-0.001457551305014815   -0.006107648235538276   -0.0003424510617642847
-0.0021652291015607427   -0.006125643126939913   -0.00037101688542557905
-0.0020917610385602515   -0.007355534415459675   -0.00037011389715674656
-0.0014415419871012351   -0.007365623496429615   -0.0003448856908427315
-0.001457551305014815   -0.006107648235538276   -0.0003424510617642847
-0.0014291928305699276   -0.007379663915189067   -0.00034926639295576335
-0.0021652291015607427   -0.006125643126939913   -0.00037101688542557905
-0.0014488591518253856   -0.006120370778829746   -0.0003421336059298742
-0.0014291928305699276   -0.007379663915189067   -0.00034926639295576335
-0.001457551305014815   -0.006107648235538276   -0.0003424510617642847
-0.0021652291015607427   -0.006125643126939913   -0.00037101688542557905
-0.0014291928305699276   -0.007379663915189067   -0.00034926639295576335
-0.002068074552405076   -0.007373833885313414   -0.0003828259618763805
-0.0020917610385602515   -0.007355534415459675   -0.00037011389715674656
-0.0021652291015607427   -0.006125643126939913   -0.00037101688542557905
-0.0014291928305699276   -0.007379663915189067   -0.00034926639295576335
-0.0020917610385602515   -0.007355534415459675   -0.00037011389715674656
-0.001457551305014815   -0.006107648235538276   -0.0003424510617642847
-0.0014693349030219923   -0.006087394767693931   -0.00034688139135114854
-0.0014618161755557467   -0.007348445165144114   -0.0003400235839156126
-0.0008094358850485791   -0.006087985319102959   -0.0003346339155749918
-0.0014645163421347107   -0.00609690746857046   -0.00034402182316445497
-0.0014618161755557467   -0.007348445165144114   -0.0003400235839156126
-0.0008651583346922917   -0.007353777716871519   -0.0003331812781002441
-0.0008094358850485791   -0.006087985319102959   -0.0003346339155749918
-0.0008557963379094084   -0.007357298039826167   -0.00032924824496992073
-0.0014645163421347107   -0.00609690746857046   -0.00034402182316445497
-0.0008033595332319622   -0.006093326769414062   -0.0003292530798022999
-0.0008557963379094084   -0.007357298039826167   -0.00032924824496992073
-0.0008094358850485791   -0.006087985319102959   -0.0003346339155749918
-0.0014645163421347107   -0.00609690746857046   -0.00034402182316445497
-0.0008557963379094084   -0.007357298039826167   -0.00032924824496992073
-0.0014531268513811152   -0.007355428635383368   -0.0003418131620817682
-0.0014618161755557467   -0.007348445165144114   -0.0003400235839156126
-0.0014645163421347107   -0.00609690746857046   -0.00034402182316445497
-0.0008557963379094084   -0.007357298039826167   -0.00032924824496992073
-0.0014618161755557467   -0.007348445165144114   -0.0003400235839156126
-0.0008094358850485791   -0.006087985319102959   -0.0003346339155749918
-0.0014645163421347107   -0.00609690746857046   -0.00034402182316445497
-0.0014531268513811152   -0.007355428635383368   -0.0003418131620817682
-0.0008033595332319622   -0.006093326769414062   -0.0003292530798022999
-0.001457551305014815   -0.006107648235538276   -0.0003424510617642847
-0.0014531268513811152   -0.007355428635383368   -0.0003418131620817682
-0.0008557963379094084   -0.007357298039826167   -0.00032924824496992073
-0.0008033595332319622   -0.006093326769414062   -0.0003292530798022999
-0.0008457645045136353   -0.007363885130595316   -0.00032658015007476276
-0.001457551305014815   -0.006107648235538276   -0.0003424510617642847
-0.0007966366957780054   -0.006100008243486635   -0.00032516035850109785
-0.0008457645045136353   -0.007363885130595316   -0.00032658015007476276
-0.0008033595332319622   -0.006093326769414062   -0.0003292530798022999
-0.001457551305014815   -0.006107648235538276   -0.0003424510617642847
-0.0008457645045136353   -0.007363885130595316   -0.00032658015007476276
-0.0014415419871012351   -0.007365623496429615   -0.0003448856908427315
-0.0014531268513811152   -0.007355428635383368   -0.0003418131620817682
-0.001457551305014815   -0.006107648235538276   -0.0003424510617642847
-0.0008457645045136353   -0.007363885130595316   -0.00032658015007476276
-0.0014531268513811152   -0.007355428635383368   -0.0003418131620817682
-0.0008033595332319622   -0.006093326769414062   -0.0003292530798022999
-0.001457551305014815   -0.006107648235538276   -0.0003424510617642847
-0.0014415419871012351   -0.007365623496429615   -0.0003448856908427315
-0.0007966366957780054   -0.006100008243486635   -0.00032516035850109785
-0.0014488591518253856   -0.006120370778829746   -0.0003421336059298742
-0.0014415419871012351   -0.007365623496429615   -0.0003448856908427315
-0.0008457645045136353   -0.007363885130595316   -0.00032658015007476276
-0.0007966366957780054   -0.006100008243486635   -0.00032516035850109785
-0.0008354550299946537   -0.007373611830950662   -0.0003252468719470046
-0.0014488591518253856   -0.006120370778829746   -0.0003421336059298742
-0.0007894503167181725   -0.006108051000351826   -0.00032240518538403007
-0.0008354550299946537   -0.007373611830950662   -0.0003252468719470046
-0.0007966366957780054   -0.006100008243486635   -0.00032516035850109785
-0.0014488591518253856   -0.006120370778829746   -0.0003421336059298742
-0.0008354550299946537   -0.007373611830950662   -0.0003252468719470046
-0.0014291928305699276   -0.007379663915189067   -0.00034926639295576335
-0.0014415419871012351   -0.007365623496429615   -0.0003448856908427315
-0.0014488591518253856   -0.006120370778829746   -0.0003421336059298742
-0.0008354550299946537   -0.007373611830950662   -0.0003252468719470046
-0.0014415419871012351   -0.007365623496429615   -0.0003448856908427315
-0.0007966366957780054   -0.006100008243486635   -0.00032516035850109785
-0.0008094358850485791   -0.006087985319102959   -0.0003346339155749918
-0.0008651583346922917   -0.007353777716871519   -0.0003331812781002441
-0.0001680164356108047   -0.006084228294241338   -0.0003300549664195183
-0.0008033595332319622   -0.006093326769414062   -0.0003292530798022999
-0.0008651583346922917   -0.007353777716871519   -0.0003331812781002441
-0.0002862287129624112   -0.007349060939169968   -0.0003325957912275659
-0.0001680164356108047   -0.006084228294241338   -0.0003300549664195183
-0.0002758908976521185   -0.007348863589462288   -0.0003231363980032709
-0.0008033595332319622   -0.006093326769414062   -0.0003292530798022999
-0.00016096298933820834   -0.006085202521707375   -0.00032228106017057745
-0.0002758908976521185   -0.007348863589462288   -0.0003231363980032709
-0.0001680164356108047   -0.006084228294241338   -0.0003300549664195183
-0.0008033595332319622   -0.006093326769414062   -0.0003292530798022999
-0.0002758908976521185   -0.007348863589462288   -0.0003231363980032709
-0.0008557963379094084   -0.007357298039826167   -0.00032924824496992073
-0.0008651583346922917   -0.007353777716871519   -0.0003331812781002441
-0.0008033595332319622   -0.006093326769414062   -0.0003292530798022999
-0.0002758908976521185   -0.007348863589462288   -0.0003231363980032709
-0.0008651583346922917   -0.007353777716871519   -0.0003331812781002441
-0.0001680164356108047   -0.006084228294241338   -0.0003300549664195183
-0.0008033595332319622   -0.006093326769414062   -0.0003292530798022999
-0.0008557963379094084   -0.007357298039826167   -0.00032924824496992073
-0.00016096298933820834   -0.006085202521707375   -0.00032228106017057745
-0.0007966366957780054   -0.006100008243486635   -0.00032516035850109785
-0.0008557963379094084   -0.007357298039826167   -0.00032924824496992073
-0.0002758908976521185   -0.007348863589462288   -0.0003231363980032709
-0.00016096298933820834   -0.006085202521707375   -0.00032228106017057745
-0.0002657974790516797   -0.007351539113982622   -0.0003149504851882199
-0.0007966366957780054   -0.006100008243486635   -0.00032516035850109785
-0.00015424170820881752   -0.006087429629289227   -0.00031579247240465046
-0.0002657974790516797   -0.007351539113982622   -0.0003149504851882199
-0.00016096298933820834   -0.006085202521707375   -0.00032228106017057745
-0.0007966366957780054   -0.006100008243486635   -0.00032516035850109785
-0.0002657974790516797   -0.007351539113982622   -0.0003149504851882199
-0.0008457645045136353   -0.007363885130595316   -0.00032658015007476276
-0.0008557963379094084   -0.007357298039826167   -0.00032924824496992073
-0.0007966366957780054   -0.006100008243486635   -0.00032516035850109785
-0.0002657974790516797   -0.007351539113982622   -0.0003149504851882199
-0.0008557963379094084   -0.007357298039826167   -0.00032924824496992073
-0.00016096298933820834   -0.006085202521707375   -0.00032228106017057745
-0.0007966366957780054   -0.006100008243486635   -0.00032516035850109785
-0.0008457645045136353   -0.007363885130595316   -0.00032658015007476276
-0.00015424170820881752   -0.006087429629289227   -0.00031579247240465046
-0.0007894503167181725   -0.006108051000351826   -0.00032240518538403007
-0.0008457645045136353   -0.007363885130595316   -0.00032658015007476276
-0.0002657974790516797   -0.007351539113982622   -0.0003149504851882199
-0.00015424170820881752   -0.006087429629289227   -0.00031579247240465046
-0.0002567144499928192   -0.0073572838999386835   -0.00030807986938209046
-0.0007894503167181725   -0.006108051000351826   -0.00032240518538403007
-0.00014836754430787722   -0.006090952074791978   -0.00031063066186167045
-0.0002567144499928192   -0.0073572838999386835   -0.00030807986938209046
-0.00015424170820881752   -0.006087429629289227   -0.00031579247240465046
-0.0007894503167181725   -0.006108051000351826   -0.00032240518538403007
-0.0002567144499928192   -0.0073572838999386835   -0.00030807986938209046
-0.0008354550299946537   -0.007373611830950662   -0.0003252468719470046
-0.0008457645045136353   -0.007363885130595316   -0.00032658015007476276
-0.0007894503167181725   -0.006108051000351826   -0.00032240518538403007
-0.0002567144499928192   -0.0073572838999386835   -0.00030807986938209046
-0.0008457645045136353   -0.007363885130595316   -0.00032658015007476276
-0.00015424170820881752   -0.006087429629289227   -0.00031579247240465046
-0.0001680164356108047   -0.006084228294241338   -0.0003300549664195183
-0.0002862287129624112   -0.007349060939169968   -0.0003325957912275659
0.0004919279681365656   -0.006075997331260974   -0.0003334299174076078
-0.00016096298933820834   -0.006085202521707375   -0.00032228106017057745
-0.0002862287129624112   -0.007349060939169968   -0.0003325957912275659
0.00031118692865957255   -0.007334454327786299   -0.000338747948386955
0.0004919279681365656   -0.006075997331260974   -0.0003334299174076078
0.0003238578364074996   -0.007330284444132007   -0.0003237860828772064
-0.00016096298933820834   -0.006085202521707375   -0.00032228106017057745
0.0005007846601916883   -0.006072560032513576   -0.0003232802799265898
0.0003238578364074996   -0.007330284444132007   -0.0003237860828772064
0.0004919279681365656   -0.006075997331260974   -0.0003334299174076078
-0.00016096298933820834   -0.006085202521707375   -0.00032228106017057745
0.0003238578364074996   -0.007330284444132007   -0.0003237860828772064
-0.0002758908976521185   -0.007348863589462288   -0.0003231363980032709
-0.0002862287129624112   -0.007349060939169968   -0.0003325957912275659
-0.00016096298933820834   -0.006085202521707375   -0.00032228106017057745
0.0003238578364074996   -0.007330284444132007   -0.0003237860828772064
-0.0002862287129624112   -0.007349060939169968   -0.0003325957912275659
0.0004919279681365656   -0.006075997331260974   -0.0003334299174076078
-0.00016096298933820834   -0.006085202521707375   -0.00032228106017057745
-0.0002758908976521185   -0.007348863589462288   -0.0003231363980032709
0.0005007846601916883   -0.006072560032513576   -0.0003232802799265898
-0.00015424170820881752   -0.006087429629289227   -0.00031579247240465046
-0.0002758908976521185   -0.007348863589462288   -0.0003231363980032709
0.0003238578364074996   -0.007330284444132007   -0.0003237860828772064
0.0005007846601916883   -0.006072560032513576   -0.0003232802799265898
0.0003369571734967378   -0.007329410515533537   -0.00031017178235715533
-0.00015424170820881752   -0.006087429629289227   -0.00031579247240465046
0.0005091449365356535   -0.006070753257220566   -0.00031440809698795365
0.0003369571734967378   -0.007329410515533537   -0.00031017178235715533
0.0005007846601916883   -0.006072560032513576   -0.0003232802799265898
-0.00015424170820881752   -0.006087429629289227   -0.00031579247240465046
0.0003369571734967378   -0.007329410515533537   -0.00031017178235715533
-0.0002657974790516797   -0.007351539113982622   -0.0003149504851882199
-0.0002758908976521185   -0.007348863589462288   -0.0003231363980032709
-0.00015424170820881752   -0.006087429629289227   -0.00031579247240465046
0.0003369571734967378   -0.007329410515533537   -0.00031017178235715533
-0.0002758908976521185   -0.007348863589462288   -0.0003231363980032709
0.0005007846601916883   -0.006072560032513576   -0.0003232802799265898
-0.00015424170820881752   -0.006087429629289227   -0.00031579247240465046
-0.0002657974790516797   -0.007351539113982622   -0.0003149504851882199
0.0005091449365356535   -0.006070753257220566   -0.00031440809698795365
-0.00014836754430787722   -0.006090952074791978   -0.00031063066186167045
-0.0002657974790516797   -0.007351539113982622   -0.0003149504851882199
0.0003369571734967378   -0.007329410515533537   -0.00031017178235715533
0.0005091449365356535   -0.006070753257220566   -0.00031440809698795365
0.00034585495918843835   -0.0073312468147852   -0.0002977249862775031
-0.00014836754430787722   -0.006090952074791978   -0.00031063066186167045
0.0005141388225533881   -0.006069811290009641   -0.0003067298862406529
0.00034585495918843835   -0.0073312468147852   -0.0002977249862775031
0.0005091449365356535   -0.006070753257220566   -0.00031440809698795365
-0.00014836754430787722   -0.006090952074791978   -0.00031063066186167045
0.00034585495918843835   -0.0073312468147852   -0.0002977249862775031
-0.0002567144499928192   -0.0073572838999386835   -0.00030807986938209046
-0.0002657974790516797   -0.007351539113982622   -0.0003149504851882199
-0.00014836754430787722   -0.006090952074791978   -0.00031063066186167045
0.00034585495918843835   -0.0073312468147852   -0.0002977249862775031
-0.0002657974790516797   -0.007351539113982622   -0.0003149504851882199
0.0005091449365356535   -0.006070753257220566   -0.00031440809698795365
0.0004919279681365656   -0.006075997331260974   -0.0003334299174076078
0.00031118692865957255   -0.007334454327786299   -0.000338747948386955
0.0011962564004160835   -0.00606194486097238   -0.00034534407120542104
0.0005007846601916883   -0.006072560032513576   -0.0003232802799265898
0.00031118692865957255   -0.007334454327786299   -0.000338747948386955
0.0009433981307186264   -0.007309252452583696   -0.00035362982684092873
0.0011962564004160835   -0.00606194486097238   -0.00034534407120542104
0.0009772287370866507   -0.007300907033273194   -0.0003316973150898447
0.0005007846601916883   -0.006072560032513576   -0.0003232802799265898
0.0012185292185831048   -0.006054458516224155   -0.0003317724355491782
0.0009772287370866507   -0.007300907033273194   -0.0003316973150898447
0.0011962564004160835   -0.00606194486097238   -0.00034534407120542104
0.0005007846601916883   -0.006072560032513576   -0.0003232802799265898
0.0009772287370866507   -0.007300907033273194   -0.0003316973150898447
0.0003238578364074996   -0.007330284444132007   -0.0003237860828772064
0.00031118692865957255   -0.007334454327786299   -0.000338747948386955
0.0005007846601916883   -0.006072560032513576   -0.0003232802799265898
0.0009772287370866507   -0.007300907033273194   -0.0003316973150898447
0.00031118692865957255   -0.007334454327786299   -0.000338747948386955
0.0011962564004160835   -0.00606194486097238   -0.00034534407120542104
0.0005007846601916883   -0.006072560032513576   -0.0003232802799265898
0.0003238578364074996   -0.007330284444132007   -0.0003237860828772064
0.0012185292185831048   -0.006054458516224155   -0.0003317724355491782
0.0005091449365356535   -0.006070753257220566   -0.00031440809698795365
0.0003238578364074996   -0.007330284444132007   -0.0003237860828772064
0.0009772287370866507   -0.007300907033273194   -0.0003316973150898447
0.0012185292185831048   -0.006054458516224155   -0.0003317724355491782
0.0010025169782284453   -0.007298520131401415   -0.0003115729220117007
0.0005091449365356535   -0.006070753257220566   -0.00031440809698795365
0.0012342719678478482   -0.006050802321751431   -0.0003200382070509789
0.0010025169782284453   -0.007298520131401415   -0.0003115729220117007
0.0012185292185831048   -0.006054458516224155   -0.0003317724355491782
0.0005091449365356535   -0.006070753257220566   -0.00031440809698795365
0.0010025169782284453   -0.007298520131401415   -0.0003115729220117007
0.0003369571734967378   -0.007329410515533537   -0.00031017178235715533
0.0003238578364074996   -0.007330284444132007   -0.0003237860828772064
0.0005091449365356535   -0.006070753257220566   -0.00031440809698795365
0.0010025169782284453   -0.007298520131401415   -0.0003115729220117007
0.0003238578364074996   -0.007330284444132007   -0.0003237860828772064
0.0012185292185831048   -0.006054458516224155   -0.0003317724355491782
0.0005091449365356535   -0.006070753257220566   -0.00031440809698795365
0.0003369571734967378   -0.007329410515533537   -0.00031017178235715533
0.0012342719678478482   -0.006050802321751431   -0.0003200382070509789
0.0005141388225533881   -0.006069811290009641   -0.0003067298862406529
0.0003369571734967378   -0.007329410515533537   -0.00031017178235715533
0.0010025169782284453   -0.007298520131401415   -0.0003115729220117007
0.0012342719678478482   -0.006050802321751431   -0.0003200382070509789
0.001028585208072754   -0.007298586603102248   -0.0002933508192012509
0.0005141388225533881   -0.006069811290009641   -0.0003067298862406529
0.0012488280796065937   -0.006047132235401172   -0.00031022214778039987
0.001028585208072754   -0.007298586603102248   -0.0002933508192012509
0.0012342719678478482   -0.006050802321751431   -0.0003200382070509789
0.0005141388225533881   -0.006069811290009641   -0.0003067298862406529
0.001028585208072754   -0.007298586603102248   -0.0002933508192012509
0.00034585495918843835   -0.0073312468147852   -0.0002977249862775031
0.0003369571734967378   -0.007329410515533537   -0.00031017178235715533
0.0005141388225533881   -0.006069811290009641   -0.0003067298862406529
0.001028585208072754   -0.007298586603102248   -0.0002933508192012509
0.0003369571734967378   -0.007329410515533537   -0.00031017178235715533
0.0012342719678478482   -0.006050802321751431   -0.0003200382070509789
-0.0021251109548916848   -0.007334171010898373   -0.0003508357887543045
-0.0019410626465598457   -0.008432540137202927   -0.0003282932442370653
-0.0014618161755557467   -0.007348445165144114   -0.0003400235839156126
-0.0021093585866460867   -0.007343619747418016   -0.00035946935358446527
-0.0019410626465598457   -0.008432540137202927   -0.0003282932442370653
-0.0013848624562989922   -0.008457610828243936   -0.0003267882264259476
-0.0014618161755557467   -0.007348445165144114   -0.0003400235839156126
-0.0013715064084380637   -0.00846119185578581   -0.0003328142246084418
-0.0021093585866460867   -0.007343619747418016   -0.00035946935358446527
-0.0014531268513811152   -0.007355428635383368   -0.0003418131620817682
-0.0013715064084380637   -0.00846119185578581   -0.0003328142246084418
-0.0014618161755557467   -0.007348445165144114   -0.0003400235839156126
-0.0021093585866460867   -0.007343619747418016   -0.00035946935358446527
-0.0013715064084380637   -0.00846119185578581   -0.0003328142246084418
-0.001912734158886497   -0.008437798115922077   -0.00034539833353003016
-0.0019410626465598457   -0.008432540137202927   -0.0003282932442370653
-0.0021093585866460867   -0.007343619747418016   -0.00035946935358446527
-0.0013715064084380637   -0.00846119185578581   -0.0003328142246084418
-0.0019410626465598457   -0.008432540137202927   -0.0003282932442370653
-0.0014618161755557467   -0.007348445165144114   -0.0003400235839156126
-0.0021093585866460867   -0.007343619747418016   -0.00035946935358446527
-0.001912734158886497   -0.008437798115922077   -0.00034539833353003016
-0.0014531268513811152   -0.007355428635383368   -0.0003418131620817682
-0.0020917610385602515   -0.007355534415459675   -0.00037011389715674656
-0.001912734158886497   -0.008437798115922077   -0.00034539833353003016
-0.0013715064084380637   -0.00846119185578581   -0.0003328142246084418
-0.0014531268513811152   -0.007355428635383368   -0.0003418131620817682
-0.001354709369151439   -0.008469998539194   -0.00034010558371207065
-0.0020917610385602515   -0.007355534415459675   -0.00037011389715674656
-0.0014415419871012351   -0.007365623496429615   -0.0003448856908427315
-0.001354709369151439   -0.008469998539194   -0.00034010558371207065
-0.0014531268513811152   -0.007355428635383368   -0.0003418131620817682
-0.0020917610385602515   -0.007355534415459675   -0.00037011389715674656
-0.001354709369151439   -0.008469998539194   -0.00034010558371207065
-0.0018847435901692931   -0.008448143397487725   -0.00036456044853816765
-0.001912734158886497   -0.008437798115922077   -0.00034539833353003016
-0.0020917610385602515   -0.007355534415459675   -0.00037011389715674656
-0.001354709369151439   -0.008469998539194   -0.00034010558371207065
-0.001912734158886497   -0.008437798115922077   -0.00034539833353003016
-0.0014531268513811152   -0.007355428635383368   -0.0003418131620817682
-0.0020917610385602515   -0.007355534415459675   -0.00037011389715674656
-0.0018847435901692931   -0.008448143397487725   -0.00036456044853816765
-0.0014415419871012351   -0.007365623496429615   -0.0003448856908427315
-0.002068074552405076   -0.007373833885313414   -0.0003828259618763805
-0.0018847435901692931   -0.008448143397487725   -0.00036456044853816765
-0.001354709369151439   -0.008469998539194   -0.00034010558371207065
-0.0014415419871012351   -0.007365623496429615   -0.0003448856908427315
-0.001338186707679106   -0.008484535684038993   -0.0003486496238326737
-0.002068074552405076   -0.007373833885313414   -0.0003828259618763805
-0.0014291928305699276   -0.007379663915189067   -0.00034926639295576335
-0.001338186707679106   -0.008484535684038993   -0.0003486496238326737
-0.0014415419871012351   -0.007365623496429615   -0.0003448856908427315
-0.002068074552405076   -0.007373833885313414   -0.0003828259618763805
-0.001338186707679106   -0.008484535684038993   -0.0003486496238326737
-0.0018489652465989432   -0.008467436753987352   -0.00038576274095181856
-0.0018847435901692931   -0.008448143397487725   -0.00036456044853816765
-0.002068074552405076   -0.007373833885313414   -0.0003828259618763805
-0.001338186707679106   -0.008484535684038993   -0.0003486496238326737
-0.0018847435901692931   -0.008448143397487725   -0.00036456044853816765
-0.0014415419871012351   -0.007365623496429615   -0.0003448856908427315
-0.0014618161755557467   -0.007348445165144114   -0.0003400235839156126
-0.0013848624562989922   -0.008457610828243936   -0.0003267882264259476
-0.0008651583346922917   -0.007353777716871519   -0.0003331812781002441
-0.0014531268513811152   -0.007355428635383368   -0.0003418131620817682
-0.0013848624562989922   -0.008457610828243936   -0.0003267882264259476
-0.0008999820769054768   -0.008468845398856823   -0.00032634648766232636
-0.0008651583346922917   -0.007353777716871519   -0.0003331812781002441
-0.0008863742331361627   -0.008469940851435771   -0.0003235248122585331
-0.0014531268513811152   -0.007355428635383368   -0.0003418131620817682
-0.0008557963379094084   -0.007357298039826167   -0.00032924824496992073
-0.0008863742331361627   -0.008469940851435771   -0.0003235248122585331
-0.0008651583346922917   -0.007353777716871519   -0.0003331812781002441
-0.0014531268513811152   -0.007355428635383368   -0.0003418131620817682
-0.0008863742331361627   -0.008469940851435771   -0.0003235248122585331
-0.0013715064084380637   -0.00846119185578581   -0.0003328142246084418
-0.0013848624562989922   -0.008457610828243936   -0.0003267882264259476
-0.0014531268513811152   -0.007355428635383368   -0.0003418131620817682
-0.0008863742331361627   -0.008469940851435771   -0.0003235248122585331
-0.0013848624562989922   -0.008457610828243936   -0.0003267882264259476
-0.0008651583346922917   -0.007353777716871519   -0.0003331812781002441
-0.0014531268513811152   -0.007355428635383368   -0.0003418131620817682
-0.0013715064084380637   -0.00846119185578581   -0.0003328142246084418
-0.0008557963379094084   -0.007357298039826167   -0.00032924824496992073
-0.0014415419871012351   -0.007365623496429615   -0.0003448856908427315
-0.0013715064084380637   -0.00846119185578581   -0.0003328142246084418
-0.0008863742331361627   -0.008469940851435771   -0.0003235248122585331
-0.0008557963379094084   -0.007357298039826167   -0.00032924824496992073
-0.0008722919783784051   -0.008475723831909325   -0.00032193049805512584
-0.0014415419871012351   -0.007365623496429615   -0.0003448856908427315
-0.0008457645045136353   -0.007363885130595316   -0.00032658015007476276
-0.0008722919783784051   -0.008475723831909325   -0.00032193049805512584
-0.0008557963379094084   -0.007357298039826167   -0.00032924824496992073
-0.0014415419871012351   -0.007365623496429615   -0.0003448856908427315
-0.0008722919783784051   -0.008475723831909325   -0.00032193049805512584
-0.001354709369151439   -0.008469998539194   -0.00034010558371207065
-0.0013715064084380637   -0.00846119185578581   -0.0003328142246084418
-0.0014415419871012351   -0.007365623496429615   -0.0003448856908427315
-0.0008722919783784051   -0.008475723831909325   -0.00032193049805512584
-0.0013715064084380637   -0.00846119185578581   -0.0003328142246084418
-0.0008557963379094084   -0.007357298039826167   -0.00032924824496992073
-0.0014415419871012351   -0.007365623496429615   -0.0003448856908427315
-0.001354709369151439   -0.008469998539194   -0.00034010558371207065
-0.0008457645045136353   -0.007363885130595316   -0.00032658015007476276
-0.0014291928305699276   -0.007379663915189067   -0.00034926639295576335
-0.001354709369151439   -0.008469998539194   -0.00034010558371207065
-0.0008722919783784051   -0.008475723831909325   -0.00032193049805512584
-0.0008457645045136353   -0.007363885130595316   -0.00032658015007476276
-0.0008582128060023355   -0.008486422872101156   -0.0003215631567343063
-0.0014291928305699276   -0.007379663915189067   -0.00034926639295576335
-0.0008354550299946537   -0.007373611830950662   -0.0003252468719470046
-0.0008582128060023355   -0.008486422872101156   -0.0003215631567343063
-0.0008457645045136353   -0.007363885130595316   -0.00032658015007476276
-0.0014291928305699276   -0.007379663915189067   -0.00034926639295576335
-0.0008582128060023355   -0.008486422872101156   -0.0003215631567343063
-0.001338186707679106   -0.008484535684038993   -0.0003486496238326737
-0.001354709369151439   -0.008469998539194   -0.00034010558371207065
-0.0014291928305699276   -0.007379663915189067   -0.00034926639295576335
-0.0008582128060023355   -0.008486422872101156   -0.0003215631567343063
-0.001354709369151439   -0.008469998539194   -0.00034010558371207065
-0.0008457645045136353   -0.007363885130595316   -0.00032658015007476276
-0.0008651583346922917   -0.007353777716871519   -0.0003331812781002441
-0.0008999820769054768   -0.008468845398856823   -0.00032634648766232636
-0.0002862287129624112   -0.007349060939169968   -0.0003325957912275659
-0.0008557963379094084   -0.007357298039826167   -0.00032924824496992073
-0.0008999820769054768   -0.008468845398856823   -0.00032634648766232636
-0.0004308545914047632   -0.008465800649875435   -0.00033022604185071525
-0.0002862287129624112   -0.007349060939169968   -0.0003325957912275659
-0.0004159592921320897   -0.008464066572358191   -0.00031885679434495625
-0.0008557963379094084   -0.007357298039826167   -0.00032924824496992073
-0.0002758908976521185   -0.007348863589462288   -0.0003231363980032709
-0.0004159592921320897   -0.008464066572358191   -0.00031885679434495625
-0.0002862287129624112   -0.007349060939169968   -0.0003325957912275659
-0.0008557963379094084   -0.007357298039826167   -0.00032924824496992073
-0.0004159592921320897   -0.008464066572358191   -0.00031885679434495625
-0.0008863742331361627   -0.008469940851435771   -0.0003235248122585331
-0.0008999820769054768   -0.008468845398856823   -0.00032634648766232636
-0.0008557963379094084   -0.007357298039826167   -0.00032924824496992073
-0.0004159592921320897   -0.008464066572358191   -0.00031885679434495625
-0.0008999820769054768   -0.008468845398856823   -0.00032634648766232636
-0.0002862287129624112   -0.007349060939169968   -0.0003325957912275659
-0.0008557963379094084   -0.007357298039826167   -0.00032924824496992073
-0.0008863742331361627   -0.008469940851435771   -0.0003235248122585331
-0.0002758908976521185   -0.007348863589462288   -0.0003231363980032709
-0.0008457645045136353   -0.007363885130595316   -0.00032658015007476276
-0.0008863742331361627   -0.008469940851435771   -0.0003235248122585331
-0.0004159592921320897   -0.008464066572358191   -0.00031885679434495625
-0.0002758908976521185   -0.007348863589462288   -0.0003231363980032709
-0.00040144801769416086   -0.008466628218720627   -0.00030879804808683404
-0.0008457645045136353   -0.007363885130595316   -0.00032658015007476276
-0.0002657974790516797   -0.007351539113982622   -0.0003149504851882199
-0.00040144801769416086   -0.008466628218720627   -0.00030879804808683404
-0.0002758908976521185   -0.007348863589462288   -0.0003231363980032709
-0.0008457645045136353   -0.007363885130595316   -0.00032658015007476276
-0.00040144801769416086   -0.008466628218720627   -0.00030879804808683404
-0.0008722919783784051   -0.008475723831909325   -0.00032193049805512584
-0.0008863742331361627   -0.008469940851435771   -0.0003235248122585331
-0.0008457645045136353   -0.007363885130595316   -0.00032658015007476276
-0.00040144801769416086   -0.008466628218720627   -0.00030879804808683404
-0.0008863742331361627   -0.008469940851435771   -0.0003235248122585331
-0.0002758908976521185   -0.007348863589462288   -0.0003231363980032709
-0.0008457645045136353   -0.007363885130595316   -0.00032658015007476276
-0.0008722919783784051   -0.008475723831909325   -0.00032193049805512584
-0.0002657974790516797   -0.007351539113982622   -0.0003149504851882199
-0.0008354550299946537   -0.007373611830950662   -0.0003252468719470046
-0.0008722919783784051   -0.008475723831909325   -0.00032193049805512584
-0.00040144801769416086   -0.008466628218720627   -0.00030879804808683404
-0.0002657974790516797   -0.007351539113982622   -0.0003149504851882199
-0.00038828643856942595   -0.008474008591666379   -0.0002999443991834457
-0.0008354550299946537   -0.007373611830950662   -0.0003252468719470046
-0.0002567144499928192   -0.0073572838999386835   -0.00030807986938209046
-0.00038828643856942595   -0.008474008591666379   -0.0002999443991834457
-0.0002657974790516797   -0.007351539113982622   -0.0003149504851882199
-0.0008354550299946537   -0.007373611830950662   -0.0003252468719470046
-0.00038828643856942595   -0.008474008591666379   -0.0002999443991834457
-0.0008582128060023355   -0.008486422872101156   -0.0003215631567343063
-0.0008722919783784051   -0.008475723831909325   -0.00032193049805512584
-0.0008354550299946537   -0.007373611830950662   -0.0003252468719470046
-0.00038828643856942595   -0.008474008591666379   -0.0002999443991834457
-0.0008722919783784051   -0.008475723831909325   -0.00032193049805512584
-0.0002657974790516797   -0.007351539113982622   -0.0003149504851882199
-0.0002862287129624112   -0.007349060939169968   -0.0003325957912275659
-0.0004308545914047632   -0.008465800649875435   -0.00033022604185071525
0.00031118692865957255   -0.007334454327786299   -0.000338747948386955
-0.0002758908976521185   -0.007348863589462288   -0.0003231363980032709
-0.0004308545914047632   -0.008465800649875435   -0.00033022604185071525
5.783225228184026e-05   -0.008447945615723726   -0.0003391216357943781
0.00031118692865957255   -0.007334454327786299   -0.000338747948386955
7.605704368469533e-05   -0.008442687667400962   -0.0003192042514607657
-0.0002758908976521185   -0.007348863589462288   -0.0003231363980032709
0.0003238578364074996   -0.007330284444132007   -0.0003237860828772064
7.605704368469533e-05   -0.008442687667400962   -0.0003192042514607657
0.00031118692865957255   -0.007334454327786299   -0.000338747948386955
-0.0002758908976521185   -0.007348863589462288   -0.0003231363980032709
7.605704368469533e-05   -0.008442687667400962   -0.0003192042514607657
-0.0004159592921320897   -0.008464066572358191   -0.00031885679434495625
-0.0004308545914047632   -0.008465800649875435   -0.00033022604185071525
-0.0002758908976521185   -0.007348863589462288   -0.0003231363980032709
7.605704368469533e-05   -0.008442687667400962   -0.0003192042514607657
-0.0004308545914047632   -0.008465800649875435   -0.00033022604185071525
0.00031118692865957255   -0.007334454327786299   -0.000338747948386955
-0.0002758908976521185   -0.007348863589462288   -0.0003231363980032709
-0.0004159592921320897   -0.008464066572358191   -0.00031885679434495625
0.0003238578364074996   -0.007330284444132007   -0.0003237860828772064
-0.0002657974790516797   -0.007351539113982622   -0.0003149504851882199
-0.0004159592921320897   -0.008464066572358191   -0.00031885679434495625
7.605704368469533e-05   -0.008442687667400962   -0.0003192042514607657
0.0003238578364074996   -0.007330284444132007   -0.0003237860828772064
9.543587553323304e-05   -0.008442225080498881   -0.000300933910980685
-0.0002657974790516797   -0.007351539113982622   -0.0003149504851882199
0.0003369571734967378   -0.007329410515533537   -0.00031017178235715533
9.543587553323304e-05   -0.008442225080498881   -0.000300933910980685
0.0003238578364074996   -0.007330284444132007   -0.0003237860828772064
-0.0002657974790516797   -0.007351539113982622   -0.0003149504851882199
9.543587553323304e-05   -0.008442225080498881   -0.000300933910980685
-0.00040144801769416086   -0.008466628218720627   -0.00030879804808683404
-0.0004159592921320897   -0.008464066572358191   -0.00031885679434495625
-0.0002657974790516797   -0.007351539113982622   -0.0003149504851882199
9.543587553323304e-05   -0.008442225080498881   -0.000300933910980685
-0.0004159592921320897   -0.008464066572358191   -0.00031885679434495625
0.0003238578364074996   -0.007330284444132007   -0.0003237860828772064
-0.0002657974790516797   -0.007351539113982622   -0.0003149504851882199
-0.00040144801769416086   -0.008466628218720627   -0.00030879804808683404
0.0003369571734967378   -0.007329410515533537   -0.00031017178235715533
-0.0002567144499928192   -0.0073572838999386835   -0.00030807986938209046
-0.00040144801769416086   -0.008466628218720627   -0.00030879804808683404
9.543587553323304e-05   -0.008442225080498881   -0.000300933910980685
0.0003369571734967378   -0.007329410515533537   -0.00031017178235715533
0.00010960462878715242   -0.008446314589407483   -0.0002837910080205118
-0.0002567144499928192   -0.0073572838999386835   -0.00030807986938209046
0.00034585495918843835   -0.0073312468147852   -0.0002977249862775031
0.00010960462878715242   -0.008446314589407483   -0.0002837910080205118
0.0003369571734967378   -0.007329410515533537   -0.00031017178235715533
-0.0002567144499928192   -0.0073572838999386835   -0.00030807986938209046
0.00010960462878715242   -0.008446314589407483   -0.0002837910080205118
-0.00038828643856942595   -0.008474008591666379   -0.0002999443991834457
-0.00040144801769416086   -0.008466628218720627   -0.00030879804808683404
-0.0002567144499928192   -0.0073572838999386835   -0.00030807986938209046
0.00010960462878715242   -0.008446314589407483   -0.0002837910080205118
-0.00040144801769416086   -0.008466628218720627   -0.00030879804808683404
0.0003369571734967378   -0.007329410515533537   -0.00031017178235715533
0.00031118692865957255   -0.007334454327786299   -0.000338747948386955
5.783225228184026e-05   -0.008447945615723726   -0.0003391216357943781
0.0009433981307186264   -0.007309252452583696   -0.00035362982684092873
0.0003238578364074996   -0.007330284444132007   -0.0003237860828772064
5.783225228184026e-05   -0.008447945615723726   -0.0003391216357943781
0.0005742026462681428   -0.008413661013944963   -0.0003573088505420512
0.0009433981307186264   -0.007309252452583696   -0.00035362982684092873
0.0006217250509322662   -0.008403710647426746   -0.00032674772736519277
0.0003238578364074996   -0.007330284444132007   -0.0003237860828772064
0.0009772287370866507   -0.007300907033273194   -0.0003316973150898447
0.0006217250509322662   -0.008403710647426746   -0.00032674772736519277
0.0009433981307186264   -0.007309252452583696   -0.00035362982684092873
0.0003238578364074996   -0.007330284444132007   -0.0003237860828772064
0.0006217250509322662   -0.008403710647426746   -0.00032674772736519277
7.605704368469533e-05   -0.008442687667400962   -0.0003192042514607657
5.783225228184026e-05   -0.008447945615723726   -0.0003391216357943781
0.0003238578364074996   -0.007330284444132007   -0.0003237860828772064
0.0006217250509322662   -0.008403710647426746   -0.00032674772736519277
5.783225228184026e-05   -0.008447945615723726   -0.0003391216357943781
0.0009433981307186264   -0.007309252452583696   -0.00035362982684092873
0.0003238578364074996   -0.007330284444132007   -0.0003237860828772064
7.605704368469533e-05   -0.008442687667400962   -0.0003192042514607657
0.0009772287370866507   -0.007300907033273194   -0.0003316973150898447
0.0003369571734967378   -0.007329410515533537   -0.00031017178235715533
7.605704368469533e-05   -0.008442687667400962   -0.0003192042514607657
0.0006217250509322662   -0.008403710647426746   -0.00032674772736519277
0.0009772287370866507   -0.007300907033273194   -0.0003316973150898447
0.0006582613770875411   -0.008401982365146294   -0.00029823473842503724
0.0003369571734967378   -0.007329410515533537   -0.00031017178235715533
0.0010025169782284453   -0.007298520131401415   -0.0003115729220117007
0.0006582613770875411   -0.008401982365146294   -0.00029823473842503724
0.0009772287370866507   -0.007300907033273194   -0.0003316973150898447
0.0003369571734967378   -0.007329410515533537   -0.00031017178235715533
0.0006582613770875411   -0.008401982365146294   -0.00029823473842503724
9.543587553323304e-05   -0.008442225080498881   -0.000300933910980685
7.605704368469533e-05   -0.008442687667400962   -0.0003192042514607657
0.0003369571734967378   -0.007329410515533537   -0.00031017178235715533
0.0006582613770875411   -0.008401982365146294   -0.00029823473842503724
7.605704368469533e-05   -0.008442687667400962   -0.0003192042514607657
0.0009772287370866507   -0.007300907033273194   -0.0003316973150898447
0.0003369571734967378   -0.007329410515533537   -0.00031017178235715533
9.543587553323304e-05   -0.008442225080498881   -0.000300933910980685
0.0010025169782284453   -0.007298520131401415   -0.0003115729220117007
0.00034585495918843835   -0.0073312468147852   -0.0002977249862775031
9.543587553323304e-05   -0.008442225080498881   -0.000300933910980685
0.0006582613770875411   -0.008401982365146294   -0.00029823473842503724
0.0010025169782284453   -0.007298520131401415   -0.0003115729220117007
0.0006967008478521459   -0.008405150160915151   -0.0002719923067765144
0.00034585495918843835   -0.0073312468147852   -0.0002977249862775031
0.001028585208072754   -0.007298586603102248   -0.0002933508192012509
0.0006967008478521459   -0.008405150160915151   -0.0002719923067765144
0.0010025169782284453   -0.007298520131401415   -0.0003115729220117007
0.00034585495918843835   -0.0073312468147852   -0.0002977249862775031
0.0006967008478521459   -0.008405150160915151   -0.0002719923067765144
0.00010960462878715242   -0.008446314589407483   -0.0002837910080205118
9.543587553323304e-05   -0.008442225080498881   -0.000300933910980685
0.00034585495918843835   -0.0073312468147852   -0.0002977249862775031
0.0006967008478521459   -0.008405150160915151   -0.0002719923067765144
9.543587553323304e-05   -0.008442225080498881   -0.000300933910980685
0.0010025169782284453   -0.007298520131401415   -0.0003115729220117007
-0.0019410626465598457   -0.008432540137202927   -0.0003282932442370653
-0.0016378832419622214   -0.009291003452879204   -0.0002988196389434012
-0.0013848624562989922   -0.008457610828243936   -0.0003267882264259476
-0.001912734158886497   -0.008437798115922077   -0.00034539833353003016
-0.0016378832419622214   -0.009291003452879204   -0.0002988196389434012
-0.0012406429325197948   -0.009327360583148168   -0.0003095632943827561
-0.0013848624562989922   -0.008457610828243936   -0.0003267882264259476
-0.0012221671879337442   -0.009325749537175312   -0.000318795203328341
-0.001912734158886497   -0.008437798115922077   -0.00034539833353003016
-0.0013715064084380637   -0.00846119185578581   -0.0003328142246084418
-0.0012221671879337442   -0.009325749537175312   -0.000318795203328341
-0.0013848624562989922   -0.008457610828243936   -0.0003267882264259476
-0.001912734158886497   -0.008437798115922077   -0.00034539833353003016
-0.0012221671879337442   -0.009325749537175312   -0.000318795203328341
-0.001596921523941091   -0.009290151299602352   -0.0003236617555086254
-0.0016378832419622214   -0.009291003452879204   -0.0002988196389434012
-0.001912734158886497   -0.008437798115922077   -0.00034539833353003016
-0.0012221671879337442   -0.009325749537175312   -0.000318795203328341
-0.0016378832419622214   -0.009291003452879204   -0.0002988196389434012
-0.0013848624562989922   -0.008457610828243936   -0.0003267882264259476
-0.001912734158886497   -0.008437798115922077   -0.00034539833353003016
-0.001596921523941091   -0.009290151299602352   -0.0003236617555086254
-0.0013715064084380637   -0.00846119185578581   -0.0003328142246084418
-0.0018847435901692931   -0.008448143397487725   -0.00036456044853816765
-0.001596921523941091   -0.009290151299602352   -0.0003236617555086254
-0.0012221671879337442   -0.009325749537175312   -0.000318795203328341
-0.0013715064084380637   -0.00846119185578581   -0.0003328142246084418
-0.0012002568386270543   -0.009331442282673515   -0.00032928619757876284
-0.0018847435901692931   -0.008448143397487725   -0.00036456044853816765
-0.001354709369151439   -0.008469998539194   -0.00034010558371207065
-0.0012002568386270543   -0.009331442282673515   -0.00032928619757876284
-0.0013715064084380637   -0.00846119185578581   -0.0003328142246084418
-0.0018847435901692931   -0.008448143397487725   -0.00036456044853816765
-0.0012002568386270543   -0.009331442282673515   -0.00032928619757876284
-0.001559348529916366   -0.009297110275648545   -0.0003502904619736423
-0.001596921523941091   -0.009290151299602352   -0.0003236617555086254
-0.0018847435901692931   -0.008448143397487725   -0.00036456044853816765
-0.0012002568386270543   -0.009331442282673515   -0.00032928619757876284
-0.001596921523941091   -0.009290151299602352   -0.0003236617555086254
-0.0013715064084380637   -0.00846119185578581   -0.0003328142246084418
-0.0018847435901692931   -0.008448143397487725   -0.00036456044853816765
-0.001559348529916366   -0.009297110275648545   -0.0003502904619736423
-0.001354709369151439   -0.008469998539194   -0.00034010558371207065
-0.0018489652465989432   -0.008467436753987352   -0.00038576274095181856
-0.001559348529916366   -0.009297110275648545   -0.0003502904619736423
-0.0012002568386270543   -0.009331442282673515   -0.00032928619757876284
-0.001354709369151439   -0.008469998539194   -0.00034010558371207065
-0.001180389788239007   -0.00934459583332541   -0.0003409594892155746
-0.0018489652465989432   -0.008467436753987352   -0.00038576274095181856
-0.001338186707679106   -0.008484535684038993   -0.0003486496238326737
-0.001180389788239007   -0.00934459583332541   -0.0003409594892155746
-0.001354709369151439   -0.008469998539194   -0.00034010558371207065
-0.0018489652465989432   -0.008467436753987352   -0.00038576274095181856
-0.001180389788239007   -0.00934459583332541   -0.0003409594892155746
-0.0015133950578522988   -0.0093150925698318   -0.00037862120138305226
-0.001559348529916366   -0.009297110275648545   -0.0003502904619736423
-0.0018489652465989432   -0.008467436753987352   -0.00038576274095181856
-0.001180389788239007   -0.00934459583332541   -0.0003409594892155746
-0.001559348529916366   -0.009297110275648545   -0.0003502904619736423
-0.001354709369151439   -0.008469998539194   -0.00034010558371207065
-0.0013848624562989922   -0.008457610828243936   -0.0003267882264259476
-0.0012406429325197948   -0.009327360583148168   -0.0003095632943827561
-0.0008999820769054768   -0.008468845398856823   -0.00032634648766232636
-0.0013715064084380637   -0.00846119185578581   -0.0003328142246084418
-0.0012406429325197948   -0.009327360583148168   -0.0003095632943827561
-0.0009121032452364639   -0.009349696247988431   -0.0003180136062387394
-0.0008999820769054768   -0.008468845398856823   -0.00032634648766232636
-0.0008933140890923991   -0.009346845249492922   -0.0003152202095697452
-0.0013715064084380637   -0.00846119185578581   -0.0003328142246084418
-0.0008863742331361627   -0.008469940851435771   -0.0003235248122585331
-0.0008933140890923991   -0.009346845249492922   -0.0003152202095697452
-0.0008999820769054768   -0.008468845398856823   -0.00032634648766232636
-0.0013715064084380637   -0.00846119185578581   -0.0003328142246084418
-0.0008933140890923991   -0.009346845249492922   -0.0003152202095697452
-0.0012221671879337442   -0.009325749537175312   -0.000318795203328341
-0.0012406429325197948   -0.009327360583148168   -0.0003095632943827561
-0.0013715064084380637   -0.00846119185578581   -0.0003328142246084418
-0.0008933140890923991   -0.009346845249492922   -0.0003152202095697452
-0.0012406429325197948   -0.009327360583148168   -0.0003095632943827561
-0.0008999820769054768   -0.008468845398856823   -0.00032634648766232636
-0.0013715064084380637   -0.00846119185578581   -0.0003328142246084418
-0.0012221671879337442   -0.009325749537175312   -0.000318795203328341
-0.0008863742331361627   -0.008469940851435771   -0.0003235248122585331
-0.001354709369151439   -0.008469998539194   -0.00034010558371207065
-0.0012221671879337442   -0.009325749537175312   -0.000318795203328341
-0.0008933140890923991   -0.009346845249492922   -0.0003152202095697452
-0.0008863742331361627   -0.008469940851435771   -0.0003235248122585331
-0.0008746855429828683   -0.00935035471893029   -0.00031366205346682275
-0.001354709369151439   -0.008469998539194   -0.00034010558371207065
-0.0008722919783784051   -0.008475723831909325   -0.00032193049805512584
-0.0008746855429828683   -0.00935035471893029   -0.00031366205346682275
-0.0008863742331361627   -0.008469940851435771   -0.0003235248122585331
-0.001354709369151439   -0.008469998539194   -0.00034010558371207065
-0.0008746855429828683   -0.00935035471893029   -0.00031366205346682275
-0.0012002568386270543   -0.009331442282673515   -0.00032928619757876284
-0.0012221671879337442   -0.009325749537175312   -0.000318795203328341
-0.001354709369151439   -0.008469998539194   -0.00034010558371207065
-0.0008746855429828683   -0.00935035471893029   -0.00031366205346682275
-0.0012221671879337442   -0.009325749537175312   -0.000318795203328341
-0.0008863742331361627   -0.008469940851435771   -0.0003235248122585331
-0.001354709369151439   -0.008469998539194   -0.00034010558371207065
-0.0012002568386270543   -0.009331442282673515   -0.00032928619757876284
-0.0008722919783784051   -0.008475723831909325   -0.00032193049805512584
-0.001338186707679106   -0.008484535684038993   -0.0003486496238326737
-0.0012002568386270543   -0.009331442282673515   -0.00032928619757876284
-0.0008746855429828683   -0.00935035471893029   -0.00031366205346682275
-0.0008722919783784051   -0.008475723831909325   -0.00032193049805512584
-0.0008574342323579105   -0.009360392229304827   -0.0003135795818929287
-0.001338186707679106   -0.008484535684038993   -0.0003486496238326737
-0.0008582128060023355   -0.008486422872101156   -0.0003215631567343063
-0.0008574342323579105   -0.009360392229304827   -0.0003135795818929287
-0.0008722919783784051   -0.008475723831909325   -0.00032193049805512584
-0.001338186707679106   -0.008484535684038993   -0.0003486496238326737
-0.0008574342323579105   -0.009360392229304827   -0.0003135795818929287
-0.001180389788239007   -0.00934459583332541   -0.0003409594892155746
-0.0012002568386270543   -0.009331442282673515   -0.00032928619757876284
-0.001338186707679106   -0.008484535684038993   -0.0003486496238326737
-0.0008574342323579105   -0.009360392229304827   -0.0003135795818929287
-0.0012002568386270543   -0.009331442282673515   -0.00032928619757876284
-0.0008722919783784051   -0.008475723831909325   -0.00032193049805512584
-0.0008999820769054768   -0.008468845398856823   -0.00032634648766232636
-0.0009121032452364639   -0.009349696247988431   -0.0003180136062387394
-0.0004308545914047632   -0.008465800649875435   -0.00033022604185071525
-0.0008863742331361627   -0.008469940851435771   -0.0003235248122585331
-0.0009121032452364639   -0.009349696247988431   -0.0003180136062387394
-0.0005970168304874872   -0.009359522782163624   -0.0003284177521481437
-0.0004308545914047632   -0.008465800649875435   -0.00033022604185071525
-0.0005758773910427491   -0.009355157345950466   -0.0003142096734468836
-0.0008863742331361627   -0.008469940851435771   -0.0003235248122585331
-0.0004159592921320897   -0.008464066572358191   -0.00031885679434495625
-0.0005758773910427491   -0.009355157345950466   -0.0003142096734468836
-0.0004308545914047632   -0.008465800649875435   -0.00033022604185071525
-0.0008863742331361627   -0.008469940851435771   -0.0003235248122585331
-0.0005758773910427491   -0.009355157345950466   -0.0003142096734468836
-0.0008933140890923991   -0.009346845249492922   -0.0003152202095697452
-0.0009121032452364639   -0.009349696247988431   -0.0003180136062387394
-0.0008863742331361627   -0.008469940851435771   -0.0003235248122585331
-0.0005758773910427491   -0.009355157345950466   -0.0003142096734468836
-0.0009121032452364639   -0.009349696247988431   -0.0003180136062387394
-0.0004308545914047632   -0.008465800649875435   -0.00033022604185071525
-0.0008863742331361627   -0.008469940851435771   -0.0003235248122585331
-0.0008933140890923991   -0.009346845249492922   -0.0003152202095697452
-0.0004159592921320897   -0.008464066572358191   -0.00031885679434495625
-0.0008722919783784051   -0.008475723831909325   -0.00032193049805512584
-0.0008933140890923991   -0.009346845249492922   -0.0003152202095697452
-0.0005758773910427491   -0.009355157345950466   -0.0003142096734468836
-0.0004159592921320897   -0.008464066572358191   -0.00031885679434495625
-0.0005556407738619285   -0.009356489529871271   -0.00030113834448597035
-0.0008722919783784051   -0.008475723831909325   -0.00032193049805512584
-0.00040144801769416086   -0.008466628218720627   -0.00030879804808683404
-0.0005556407738619285   -0.009356489529871271   -0.00030113834448597035
-0.0004159592921320897   -0.008464066572358191   -0.00031885679434495625
-0.0008722919783784051   -0.008475723831909325   -0.00032193049805512584
-0.0005556407738619285   -0.009356489529871271   -0.00030113834448597035
-0.0008746855429828683   -0.00935035471893029   -0.00031366205346682275
-0.0008933140890923991   -0.009346845249492922   -0.0003152202095697452
-0.0008722919783784051   -0.008475723831909325   -0.00032193049805512584
-0.0005556407738619285   -0.009356489529871271   -0.00030113834448597035
-0.0008933140890923991   -0.009346845249492922   -0.0003152202095697452
-0.0004159592921320897   -0.008464066572358191   -0.00031885679434495625
-0.0008722919783784051   -0.008475723831909325   -0.00032193049805512584
-0.0008746855429828683   -0.00935035471893029   -0.00031366205346682275
-0.00040144801769416086   -0.008466628218720627   -0.00030879804808683404
-0.0008582128060023355   -0.008486422872101156   -0.0003215631567343063
-0.0008746855429828683   -0.00935035471893029   -0.00031366205346682275
-0.0005556407738619285   -0.009356489529871271   -0.00030113834448597035
-0.00040144801769416086   -0.008466628218720627   -0.00030879804808683404
-0.0005386442968333647   -0.00936443687755816   -0.00028981057123943216
-0.0008582128060023355   -0.008486422872101156   -0.0003215631567343063
-0.00038828643856942595   -0.008474008591666379   -0.0002999443991834457
-0.0005386442968333647   -0.00936443687755816   -0.00028981057123943216
-0.00040144801769416086   -0.008466628218720627   -0.00030879804808683404
-0.0008582128060023355   -0.008486422872101156   -0.0003215631567343063
-0.0005386442968333647   -0.00936443687755816   -0.00028981057123943216
-0.0008574342323579105   -0.009360392229304827   -0.0003135795818929287
-0.0008746855429828683   -0.00935035471893029   -0.00031366205346682275
-0.0008582128060023355   -0.008486422872101156   -0.0003215631567343063
-0.0005386442968333647   -0.00936443687755816   -0.00028981057123943216
-0.0008746855429828683   -0.00935035471893029   -0.00031366205346682275
-0.00040144801769416086   -0.008466628218720627   -0.00030879804808683404
-0.0004308545914047632   -0.008465800649875435   -0.00033022604185071525
-0.0005970168304874872   -0.009359522782163624   -0.0003284177521481437
5.783225228184026e-05   -0.008447945615723726   -0.0003391216357943781
-0.0004159592921320897   -0.008464066572358191   -0.00031885679434495625
-0.0005970168304874872   -0.009359522782163624   -0.0003284177521481437
-0.00026493826499545634   -0.009352949190077718   -0.00034102918234073953
5.783225228184026e-05   -0.008447945615723726   -0.0003391216357943781
-0.00023779057494474975   -0.009346036578524551   -0.0003157964270022337
-0.0004159592921320897   -0.008464066572358191   -0.00031885679434495625
7.605704368469533e-05   -0.008442687667400962   -0.0003192042514607657
-0.00023779057494474975   -0.009346036578524551   -0.0003157964270022337
5.783225228184026e-05   -0.008447945615723726   -0.0003391216357943781
-0.0004159592921320897   -0.008464066572358191   -0.00031885679434495625
-0.00023779057494474975   -0.009346036578524551   -0.0003157964270022337
-0.0005758773910427491   -0.009355157345950466   -0.0003142096734468836
-0.0005970168304874872   -0.009359522782163624   -0.0003284177521481437
-0.0004159592921320897   -0.008464066572358191   -0.00031885679434495625
-0.00023779057494474975   -0.009346036578524551   -0.0003157964270022337
-0.0005970168304874872   -0.009359522782163624   -0.0003284177521481437
5.783225228184026e-05   -0.008447945615723726   -0.0003391216357943781
-0.0004159592921320897   -0.008464066572358191   -0.00031885679434495625
-0.0005758773910427491   -0.009355157345950466   -0.0003142096734468836
7.605704368469533e-05   -0.008442687667400962   -0.0003192042514607657
-0.00040144801769416086   -0.008466628218720627   -0.00030879804808683404
-0.0005758773910427491   -0.009355157345950466   -0.0003142096734468836
-0.00023779057494474975   -0.009346036578524551   -0.0003157964270022337
7.605704368469533e-05   -0.008442687667400962   -0.0003192042514607657
-0.00020964418745857583   -0.0093450503612719   -0.00029175292655513356
-0.00040144801769416086   -0.008466628218720627   -0.00030879804808683404
9.543587553323304e-05   -0.008442225080498881   -0.000300933910980685
-0.00020964418745857583   -0.0093450503612719   -0.00029175292655513356
7.605704368469533e-05   -0.008442687667400962   -0.0003192042514607657
-0.00040144801769416086   -0.008466628218720627   -0.00030879804808683404
-0.00020964418745857583   -0.0093450503612719   -0.00029175292655513356
-0.0005556407738619285   -0.009356489529871271   -0.00030113834448597035
-0.0005758773910427491   -0.009355157345950466   -0.0003142096734468836
-0.00040144801769416086   -0.008466628218720627   -0.00030879804808683404
-0.00020964418745857583   -0.0093450503612719   -0.00029175292655513356
-0.0005758773910427491   -0.009355157345950466   -0.0003142096734468836
7.605704368469533e-05   -0.008442687667400962   -0.0003192042514607657
-0.00040144801769416086   -0.008466628218720627   -0.00030879804808683404
-0.0005556407738619285   -0.009356489529871271   -0.00030113834448597035
9.543587553323304e-05   -0.008442225080498881   -0.000300933910980685
-0.00038828643856942595   -0.008474008591666379   -0.0002999443991834457
-0.0005556407738619285   -0.009356489529871271   -0.00030113834448597035
-0.00020964418745857583   -0.0093450503612719   -0.00029175292655513356
9.543587553323304e-05   -0.008442225080498881   -0.000300933910980685
-0.00018903082862845003   -0.009351093224921997   -0.00026971670431052736
-0.00038828643856942595   -0.008474008591666379   -0.0002999443991834457
0.00010960462878715242   -0.008446314589407483   -0.0002837910080205118
-0.00018903082862845003   -0.009351093224921997   -0.00026971670431052736
9.543587553323304e-05   -0.008442225080498881   -0.000300933910980685
-0.00038828643856942595   -0.008474008591666379   -0.0002999443991834457
-0.00018903082862845003   -0.009351093224921997   -0.00026971670431052736
-0.0005386442968333647   -0.00936443687755816   -0.00028981057123943216
-0.0005556407738619285   -0.009356489529871271   -0.00030113834448597035
-0.00038828643856942595   -0.008474008591666379   -0.0002999443991834457
-0.00018903082862845003   -0.009351093224921997   -0.00026971670431052736
-0.0005556407738619285   -0.009356489529871271   -0.00030113834448597035
9.543587553323304e-05   -0.008442225080498881   -0.000300933910980685
5.783225228184026e-05   -0.008447945615723726   -0.0003391216357943781
-0.00026493826499545634   -0.009352949190077718   -0.00034102918234073953
0.0005742026462681428   -0.008413661013944963   -0.0003573088505420512
7.605704368469533e-05   -0.008442687667400962   -0.0003192042514607657
-0.00026493826499545634   -0.009352949190077718   -0.00034102918234073953
8.658744736081608e-05   -0.009319790296515747   -0.00036563973878764983
0.0005742026462681428   -0.008413661013944963   -0.0003573088505420512
0.00015284544024222053   -0.009305141844730627   -0.0003245733773225619
7.605704368469533e-05   -0.008442687667400962   -0.0003192042514607657
0.0006217250509322662   -0.008403710647426746   -0.00032674772736519277
0.00015284544024222053   -0.009305141844730627   -0.0003245733773225619
0.0005742026462681428   -0.008413661013944963   -0.0003573088505420512
7.605704368469533e-05   -0.008442687667400962   -0.0003192042514607657
0.00015284544024222053   -0.009305141844730627   -0.0003245733773225619
-0.00023779057494474975   -0.009346036578524551   -0.0003157964270022337
-0.00026493826499545634   -0.009352949190077718   -0.00034102918234073953
7.605704368469533e-05   -0.008442687667400962   -0.0003192042514607657
0.00015284544024222053   -0.009305141844730627   -0.0003245733773225619
-0.00026493826499545634   -0.009352949190077718   -0.00034102918234073953
0.0005742026462681428   -0.008413661013944963   -0.0003573088505420512
7.605704368469533e-05   -0.008442687667400962   -0.0003192042514607657
-0.00023779057494474975   -0.009346036578524551   -0.0003157964270022337
0.0006217250509322662   -0.008403710647426746   -0.00032674772736519277
9.543587553323304e-05   -0.008442225080498881   -0.000300933910980685
-0.00023779057494474975   -0.009346036578524551   -0.0003157964270022337
0.00015284544024222053   -0.009305141844730627   -0.0003245733773225619
0.0006217250509322662   -0.008403710647426746   -0.00032674772736519277
0.00020474973691742004   -0.009302368033531513   -0.0002857639258179199
9.543587553323304e-05   -0.008442225080498881   -0.000300933910980685
0.0006582613770875411   -0.008401982365146294   -0.00029823473842503724
0.00020474973691742004   -0.009302368033531513   -0.0002857639258179199
0.0006217250509322662   -0.008403710647426746   -0.00032674772736519277
9.543587553323304e-05   -0.008442225080498881   -0.000300933910980685
0.00020474973691742004   -0.009302368033531513   -0.0002857639258179199
-0.00020964418745857583   -0.0093450503612719   -0.00029175292655513356
-0.00023779057494474975   -0.009346036578524551   -0.0003157964270022337
9.543587553323304e-05   -0.008442225080498881   -0.000300933910980685
0.00020474973691742004   -0.009302368033531513   -0.0002857639258179199
-0.00023779057494474975   -0.009346036578524551   -0.0003157964270022337
0.0006217250509322662   -0.008403710647426746   -0.00032674772736519277
9.543587553323304e-05   -0.008442225080498881   -0.000300933910980685
-0.00020964418745857583   -0.0093450503612719   -0.00029175292655513356
0.0006582613770875411   -0.008401982365146294   -0.00029823473842503724
0.00010960462878715242   -0.008446314589407483   -0.0002837910080205118
-0.00020964418745857583   -0.0093450503612719   -0.00029175292655513356
0.00020474973691742004   -0.009302368033531513   -0.0002857639258179199
0.0006582613770875411   -0.008401982365146294   -0.00029823473842503724
0.0002594436102966726   -0.009305664969045089   -0.0002500179480799624
0.00010960462878715242   -0.008446314589407483   -0.0002837910080205118
0.0006967008478521459   -0.008405150160915151   -0.0002719923067765144
0.0002594436102966726   -0.009305664969045089   -0.0002500179480799624
0.0006582613770875411   -0.008401982365146294   -0.00029823473842503724
0.00010960462878715242   -0.008446314589407483   -0.0002837910080205118
0.0002594436102966726   -0.009305664969045089   -0.0002500179480799624
-0.00018903082862845003   -0.009351093224921997   -0.00026971670431052736
-0.00020964418745857583   -0.0093450503612719   -0.00029175292655513356
0.00010960462878715242   -0.008446314589407483   -0.0002837910080205118
0.0002594436102966726   -0.009305664969045089   -0.0002500179480799624
-0.00020964418745857583   -0.0093450503612719   -0.00029175292655513356
0.0006582613770875411   -0.008401982365146294   -0.00029823473842503724
-0.0016378832419622214   -0.009291003452879204   -0.0002988196389434012
-0.0012282272965984374   -0.009806657188465797   -0.00026384360096625293
-0.0012406429325197948   -0.009327360583148168   -0.0003095632943827561
-0.001596921523941091   -0.009290151299602352   -0.0003236617555086254
-0.0012282272965984374   -0.009806657188465797   -0.00026384360096625293
-0.0010367494855010562   -0.009852038692300136   -0.00029027245365416957
-0.0012406429325197948   -0.009327360583148168   -0.0003095632943827561
-0.0010139651065575815   -0.009843682368789852   -0.00030031179618436604
-0.001596921523941091   -0.009290151299602352   -0.0003236617555086254
-0.0012221671879337442   -0.009325749537175312   -0.000318795203328341
-0.0010139651065575815   -0.009843682368789852   -0.00030031179618436604
-0.0012406429325197948   -0.009327360583148168   -0.0003095632943827561
-0.001596921523941091   -0.009290151299602352   -0.0003236617555086254
-0.0010139651065575815   -0.009843682368789852   -0.00030031179618436604
-0.0011779301862315482   -0.009797161471020615   -0.000293497149782084
-0.0012282272965984374   -0.009806657188465797   -0.00026384360096625293
-0.001596921523941091   -0.009290151299602352   -0.0003236617555086254
-0.0010139651065575815   -0.009843682368789852   -0.00030031179618436604
-0.0012282272965984374   -0.009806657188465797   -0.00026384360096625293
-0.0012406429325197948   -0.009327360583148168   -0.0003095632943827561
-0.001596921523941091   -0.009290151299602352   -0.0003236617555086254
-0.0011779301862315482   -0.009797161471020615   -0.000293497149782084
-0.0012221671879337442   -0.009325749537175312   -0.000318795203328341
-0.001559348529916366   -0.009297110275648545   -0.0003502904619736423
-0.0011779301862315482   -0.009797161471020615   -0.000293497149782084
-0.0010139651065575815   -0.009843682368789852   -0.00030031179618436604
-0.0012221671879337442   -0.009325749537175312   -0.000318795203328341
-0.000988428701373507   -0.009844907702133912   -0.00031046700611575046
-0.001559348529916366   -0.009297110275648545   -0.0003502904619736423
-0.0012002568386270543   -0.009331442282673515   -0.00032928619757876284
-0.000988428701373507   -0.009844907702133912   -0.00031046700611575046
-0.0012221671879337442   -0.009325749537175312   -0.000318795203328341
-0.001559348529916366   -0.009297110275648545   -0.0003502904619736423
-0.000988428701373507   -0.009844907702133912   -0.00031046700611575046
-0.0011346077943701763   -0.009798887062407599   -0.0003231081090130597
-0.0011779301862315482   -0.009797161471020615   -0.000293497149782084
-0.001559348529916366   -0.009297110275648545   -0.0003502904619736423
-0.000988428701373507   -0.009844907702133912   -0.00031046700611575046
-0.0011779301862315482   -0.009797161471020615   -0.000293497149782084
-0.0012221671879337442   -0.009325749537175312   -0.000318795203328341
-0.001559348529916366   -0.009297110275648545   -0.0003502904619736423
-0.0011346077943701763   -0.009798887062407599   -0.0003231081090130597
-0.0012002568386270543   -0.009331442282673515   -0.00032928619757876284
-0.0015133950578522988   -0.0093150925698318   -0.00037862120138305226
-0.0011346077943701763   -0.009798887062407599   -0.0003231081090130597
-0.000988428701373507   -0.009844907702133912   -0.00031046700611575046
-0.0012002568386270543   -0.009331442282673515   -0.00032928619757876284
-0.0009648721950449325   -0.00985579720205482   -0.000320778691566577
-0.0015133950578522988   -0.0093150925698318   -0.00037862120138305226
-0.001180389788239007   -0.00934459583332541   -0.0003409594892155746
-0.0009648721950449325   -0.00985579720205482   -0.000320778691566577
-0.0012002568386270543   -0.009331442282673515   -0.00032928619757876284
-0.0015133950578522988   -0.0093150925698318   -0.00037862120138305226
-0.0009648721950449325   -0.00985579720205482   -0.000320778691566577
-0.0010829850748652434   -0.009812565753406262   -0.0003533341186838802
-0.0011346077943701763   -0.009798887062407599   -0.0003231081090130597
-0.0015133950578522988   -0.0093150925698318   -0.00037862120138305226
-0.0009648721950449325   -0.00985579720205482   -0.000320778691566577
-0.0011346077943701763   -0.009798887062407599   -0.0003231081090130597
-0.0012002568386270543   -0.009331442282673515   -0.00032928619757876284
-0.0012406429325197948   -0.009327360583148168   -0.0003095632943827561
-0.0010367494855010562   -0.009852038692300136   -0.00029027245365416957
-0.0009121032452364639   -0.009349696247988431   -0.0003180136062387394
-0.0012221671879337442   -0.009325749537175312   -0.000318795203328341
-0.0010367494855010562   -0.009852038692300136   -0.00029027245365416957
-0.0008933343287805557   -0.009894624006560887   -0.00031342385736295224
-0.0009121032452364639   -0.009349696247988431   -0.0003180136062387394
-0.00086958776106338   -0.009885892969262348   -0.000307245344850818
-0.0012221671879337442   -0.009325749537175312   -0.000318795203328341
-0.0008933140890923991   -0.009346845249492922   -0.0003152202095697452
-0.00086958776106338   -0.009885892969262348   -0.000307245344850818
-0.0009121032452364639   -0.009349696247988431   -0.0003180136062387394
-0.0012221671879337442   -0.009325749537175312   -0.000318795203328341
-0.00086958776106338   -0.009885892969262348   -0.000307245344850818
-0.0010139651065575815   -0.009843682368789852   -0.00030031179618436604
-0.0010367494855010562   -0.009852038692300136   -0.00029027245365416957
-0.0012221671879337442   -0.009325749537175312   -0.000318795203328341
-0.00086958776106338   -0.009885892969262348   -0.000307245344850818
-0.0010367494855010562   -0.009852038692300136   -0.00029027245365416957
-0.0009121032452364639   -0.009349696247988431   -0.0003180136062387394
-0.0012221671879337442   -0.009325749537175312   -0.000318795203328341
-0.0010139651065575815   -0.009843682368789852   -0.00030031179618436604
-0.0008933140890923991   -0.009346845249492922   -0.0003152202095697452
-0.0012002568386270543   -0.009331442282673515   -0.00032928619757876284
-0.0010139651065575815   -0.009843682368789852   -0.00030031179618436604
-0.00086958776106338   -0.009885892969262348   -0.000307245344850818
-0.0008933140890923991   -0.009346845249492922   -0.0003152202095697452
-0.0008464924177640962   -0.009886341189447374   -0.0003010106298759517
-0.0012002568386270543   -0.009331442282673515   -0.00032928619757876284
-0.0008746855429828683   -0.00935035471893029   -0.00031366205346682275
-0.0008464924177640962   -0.009886341189447374   -0.0003010106298759517
-0.0008933140890923991   -0.009346845249492922   -0.0003152202095697452
-0.0012002568386270543   -0.009331442282673515   -0.00032928619757876284
-0.0008464924177640962   -0.009886341189447374   -0.0003010106298759517
-0.000988428701373507   -0.009844907702133912   -0.00031046700611575046
-0.0010139651065575815   -0.009843682368789852   -0.00030031179618436604
-0.0012002568386270543   -0.009331442282673515   -0.00032928619757876284
-0.0008464924177640962   -0.009886341189447374   -0.0003010106298759517
-0.0010139651065575815   -0.009843682368789852   -0.00030031179618436604
-0.0008933140890923991   -0.009346845249492922   -0.0003152202095697452
-0.0012002568386270543   -0.009331442282673515   -0.00032928619757876284
-0.000988428701373507   -0.009844907702133912   -0.00031046700611575046
-0.0008746855429828683   -0.00935035471893029   -0.00031366205346682275
-0.001180389788239007   -0.00934459583332541   -0.0003409594892155746
-0.000988428701373507   -0.009844907702133912   -0.00031046700611575046
-0.0008464924177640962   -0.009886341189447374   -0.0003010106298759517
-0.0008746855429828683   -0.00935035471893029   -0.00031366205346682275
-0.0008225202210025814   -0.009895814594937973   -0.00029507262386953547
-0.001180389788239007   -0.00934459583332541   -0.0003409594892155746
-0.0008574342323579105   -0.009360392229304827   -0.0003135795818929287
-0.0008225202210025814   -0.009895814594937973   -0.00029507262386953547
-0.0008746855429828683   -0.00935035471893029   -0.00031366205346682275
-0.001180389788239007   -0.00934459583332541   -0.0003409594892155746
-0.0008225202210025814   -0.009895814594937973   -0.00029507262386953547
-0.0009648721950449325   -0.00985579720205482   -0.000320778691566577
-0.000988428701373507   -0.009844907702133912   -0.00031046700611575046
-0.001180389788239007   -0.00934459583332541   -0.0003409594892155746
-0.0008225202210025814   -0.009895814594937973   -0.00029507262386953547
-0.000988428701373507   -0.009844907702133912   -0.00031046700611575046
-0.0008746855429828683   -0.00935035471893029   -0.00031366205346682275
-0.0009121032452364639   -0.009349696247988431   -0.0003180136062387394
-0.0008933343287805557   -0.009894624006560887   -0.00031342385736295224
-0.0005970168304874872   -0.009359522782163624   -0.0003284177521481437
-0.0008933140890923991   -0.009346845249492922   -0.0003152202095697452
-0.0008933343287805557   -0.009894624006560887   -0.00031342385736295224
-0.0007612321487878663   -0.009942878619153574   -0.00033934432734662067
-0.0005970168304874872   -0.009359522782163624   -0.0003284177521481437
-0.000732311589996515   -0.009934975236177994   -0.0003161016522738399
-0.0008933140890923991   -0.009346845249492922   -0.0003152202095697452
-0.0005758773910427491   -0.009355157345950466   -0.0003142096734468836
-0.000732311589996515   -0.009934975236177994   -0.0003161016522738399
-0.0005970168304874872   -0.009359522782163624   -0.0003284177521481437
-0.0008933140890923991   -0.009346845249492922   -0.0003152202095697452
-0.000732311589996515   -0.009934975236177994   -0.0003161016522738399
-0.00086958776106338   -0.009885892969262348   -0.000307245344850818
-0.0008933343287805557   -0.009894624006560887   -0.00031342385736295224
-0.0008933140890923991   -0.009346845249492922   -0.0003152202095697452
-0.000732311589996515   -0.009934975236177994   -0.0003161016522738399
-0.0008933343287805557   -0.009894624006560887   -0.00031342385736295224
-0.0005970168304874872   -0.009359522782163624   -0.0003284177521481437
-0.0008933140890923991   -0.009346845249492922   -0.0003152202095697452
-0.00086958776106338   -0.009885892969262348   -0.000307245344850818
-0.0005758773910427491   -0.009355157345950466   -0.0003142096734468836
-0.0008746855429828683   -0.00935035471893029   -0.00031366205346682275
-0.00086958776106338   -0.009885892969262348   -0.000307245344850818
-0.000732311589996515   -0.009934975236177994   -0.0003161016522738399
-0.0005758773910427491   -0.009355157345950466   -0.0003142096734468836
-0.0007053021313478566   -0.009934904890565942   -0.0002928108118842059
-0.0008746855429828683   -0.00935035471893029   -0.00031366205346682275
-0.0005556407738619285   -0.009356489529871271   -0.00030113834448597035
-0.0007053021313478566   -0.009934904890565942   -0.0002928108118842059
-0.0005758773910427491   -0.009355157345950466   -0.0003142096734468836
-0.0008746855429828683   -0.00935035471893029   -0.00031366205346682275
-0.0007053021313478566   -0.009934904890565942   -0.0002928108118842059
-0.0008464924177640962   -0.009886341189447374   -0.0003010106298759517
-0.00086958776106338   -0.009885892969262348   -0.000307245344850818
-0.0008746855429828683   -0.00935035471893029   -0.00031366205346682275
-0.0007053021313478566   -0.009934904890565942   -0.0002928108118842059
-0.00086958776106338   -0.009885892969262348   -0.000307245344850818
-0.0005758773910427491   -0.009355157345950466   -0.0003142096734468836
-0.0008746855429828683   -0.00935035471893029   -0.00031366205346682275
-0.0008464924177640962   -0.009886341189447374   -0.0003010106298759517
-0.0005556407738619285   -0.009356489529871271   -0.00030113834448597035
-0.0008574342323579105   -0.009360392229304827   -0.0003135795818929287
-0.0008464924177640962   -0.009886341189447374   -0.0003010106298759517
-0.0007053021313478566   -0.009934904890565942   -0.0002928108118842059
-0.0005556407738619285   -0.009356489529871271   -0.00030113834448597035
-0.0006765776410234319   -0.00994233694644466   -0.0002696832529104126
-0.0008574342323579105   -0.009360392229304827   -0.0003135795818929287
-0.0005386442968333647   -0.00936443687755816   -0.00028981057123943216
-0.0006765776410234319   -0.00994233694644466   -0.0002696832529104126
-0.0005556407738619285   -0.009356489529871271   -0.00030113834448597035
-0.0008574342323579105   -0.009360392229304827   -0.0003135795818929287
-0.0006765776410234319   -0.00994233694644466   -0.0002696832529104126
-0.0008225202210025814   -0.009895814594937973   -0.00029507262386953547
-0.0008464924177640962   -0.009886341189447374   -0.0003010106298759517
-0.0008574342323579105   -0.009360392229304827   -0.0003135795818929287
-0.0006765776410234319   -0.00994233694644466   -0.0002696832529104126
-0.0008464924177640962   -0.009886341189447374   -0.0003010106298759517
-0.0005556407738619285   -0.009356489529871271   -0.00030113834448597035
-0.0005970168304874872   -0.009359522782163624   -0.0003284177521481437
-0.0007612321487878663   -0.009942878619153574   -0.00033934432734662067
-0.00026493826499545634   -0.009352949190077718   -0.00034102918234073953
-0.0005758773910427491   -0.009355157345950466   -0.0003142096734468836
-0.0007612321487878663   -0.009942878619153574   -0.00033934432734662067
-0.0006312127902451161   -0.01   -0.00036090235798931714
-0.00026493826499545634   -0.009352949190077718   -0.00034102918234073953
-0.0005943720969585938   -0.01   -0.00032430347997868247
-0.0005758773910427491   -0.009355157345950466   -0.0003142096734468836
-0.00023779057494474975   -0.009346036578524551   -0.0003157964270022337
-0.0005943720969585938   -0.01   -0.00032430347997868247
-0.00026493826499545634   -0.009352949190077718   -0.00034102918234073953
-0.0005758773910427491   -0.009355157345950466   -0.0003142096734468836
-0.0005943720969585938   -0.01   -0.00032430347997868247
-0.000732311589996515   -0.009934975236177994   -0.0003161016522738399
-0.0007612321487878663   -0.009942878619153574   -0.00033934432734662067
-0.0005758773910427491   -0.009355157345950466   -0.0003142096734468836
-0.0005943720969585938   -0.01   -0.00032430347997868247
-0.0007612321487878663   -0.009942878619153574   -0.00033934432734662067
-0.00026493826499545634   -0.009352949190077718   -0.00034102918234073953
-0.0005758773910427491   -0.009355157345950466   -0.0003142096734468836
-0.000732311589996515   -0.009934975236177994   -0.0003161016522738399
-0.00023779057494474975   -0.009346036578524551   -0.0003157964270022337
-0.0005556407738619285   -0.009356489529871271   -0.00030113834448597035
-0.000732311589996515   -0.009934975236177994   -0.0003161016522738399
-0.0005943720969585938   -0.01   -0.00032430347997868247
-0.00023779057494474975   -0.009346036578524551   -0.0003157964270022337
-0.0005569787059891479   -0.01   -0.0002872834022119181
-0.0005556407738619285   -0.009356489529871271   -0.00030113834448597035
-0.00020964418745857583   -0.0093450503612719   -0.00029175292655513356
-0.0005569787059891479   -0.01   -0.0002872834022119181
-0.00023779057494474975   -0.009346036578524551   -0.0003157964270022337
-0.0005556407738619285   -0.009356489529871271   -0.00030113834448597035
-0.0005569787059891479   -0.01   -0.0002872834022119181
-0.0007053021313478566   -0.009934904890565942   -0.0002928108118842059
-0.000732311589996515   -0.009934975236177994   -0.0003161016522738399
-0.0005556407738619285   -0.009356489529871271   -0.00030113834448597035
-0.0005569787059891479   -0.01   -0.0002872834022119181
-0.000732311589996515   -0.009934975236177994   -0.0003161016522738399
-0.00023779057494474975   -0.009346036578524551   -0.0003157964270022337
-0.0005556407738619285   -0.009356489529871271   -0.00030113834448597035
-0.0007053021313478566   -0.009934904890565942   -0.0002928108118842059
-0.00020964418745857583   -0.0093450503612719   -0.00029175292655513356
-0.0005386442968333647   -0.00936443687755816   -0.00028981057123943216
-0.0007053021313478566   -0.009934904890565942   -0.0002928108118842059
-0.0005569787059891479   -0.01   -0.0002872834022119181
-0.00020964418745857583   -0.0093450503612719   -0.00029175292655513356
-0.0005208993696719169   -0.01   -0.00025078523548726197
-0.0005386442968333647   -0.00936443687755816   -0.00028981057123943216
-0.00018903082862845003   -0.009351093224921997   -0.00026971670431052736
-0.0005208993696719169   -0.01   -0.00025078523548726197
-0.00020964418745857583   -0.0093450503612719   -0.00029175292655513356
-0.0005386442968333647   -0.00936443687755816   -0.00028981057123943216
-0.0005208993696719169   -0.01   -0.00025078523548726197
-0.0006765776410234319   -0.00994233694644466   -0.0002696832529104126
-0.0007053021313478566   -0.009934904890565942   -0.0002928108118842059
-0.0005386442968333647   -0.00936443687755816   -0.00028981057123943216
-0.0005208993696719169   -0.01   -0.00025078523548726197
-0.0007053021313478566   -0.009934904890565942   -0.0002928108118842059
-0.00020964418745857583   -0.0093450503612719   -0.00029175292655513356
-0.00026493826499545634   -0.009352949190077718   -0.00034102918234073953
-0.0006312127902451161   -0.01   -0.00036090235798931714
8.658744736081608e-05   -0.009319790296515747   -0.00036563973878764983
-0.00023779057494474975   -0.009346036578524551   -0.0003157964270022337
-0.0006312127902451161   -0.01   -0.00036090235798931714
-0.0005327729907871223   -0.01   -0.00038699934029160345
8.658744736081608e-05   -0.009319790296515747   -0.00036563973878764983
-0.00045269873999987385   -0.01   -0.00033336861386951426
-0.00023779057494474975   -0.009346036578524551   -0.0003157964270022337
0.00015284544024222053   -0.009305141844730627   -0.0003245733773225619
-0.00045269873999987385   -0.01   -0.00033336861386951426
8.658744736081608e-05   -0.009319790296515747   -0.00036563973878764983
-0.00023779057494474975   -0.009346036578524551   -0.0003157964270022337
-0.00045269873999987385   -0.01   -0.00033336861386951426
-0.0005943720969585938   -0.01   -0.00032430347997868247
-0.0006312127902451161   -0.01   -0.00036090235798931714
-0.00023779057494474975   -0.009346036578524551   -0.0003157964270022337
-0.00045269873999987385   -0.01   -0.00033336861386951426
-0.0006312127902451161   -0.01   -0.00036090235798931714
8.658744736081608e-05   -0.009319790296515747   -0.00036563973878764983
-0.00023779057494474975   -0.009346036578524551   -0.0003157964270022337
-0.0005943720969585938   -0.01   -0.00032430347997868247
0.00015284544024222053   -0.009305141844730627   -0.0003245733773225619
-0.00020964418745857583   -0.0093450503612719   -0.00029175292655513356
-0.0005943720969585938   -0.01   -0.00032430347997868247
-0.00045269873999987385   -0.01   -0.00033336861386951426
0.00015284544024222053   -0.009305141844730627   -0.0003245733773225619
-0.00038887155533308605   -0.01   -0.00028210276159740467
-0.00020964418745857583   -0.0093450503612719   -0.00029175292655513356
0.00020474973691742004   -0.009302368033531513   -0.0002857639258179199
-0.00038887155533308605   -0.01   -0.00028210276159740467
0.00015284544024222053   -0.009305141844730627   -0.0003245733773225619
-0.00020964418745857583   -0.0093450503612719   -0.00029175292655513356
-0.00038887155533308605   -0.01   -0.00028210276159740467
-0.0005569787059891479   -0.01   -0.0002872834022119181
-0.0005943720969585938   -0.01   -0.00032430347997868247
-0.00020964418745857583   -0.0093450503612719   -0.00029175292655513356
-0.00038887155533308605   -0.01   -0.00028210276159740467
-0.0005943720969585938   -0.01   -0.00032430347997868247
0.00015284544024222053   -0.009305141844730627   -0.0003245733773225619
-0.00020964418745857583   -0.0093450503612719   -0.00029175292655513356
-0.0005569787059891479   -0.01   -0.0002872834022119181
0.00020474973691742004   -0.009302368033531513   -0.0002857639258179199
-0.00018903082862845003   -0.009351093224921997   -0.00026971670431052736
-0.0005569787059891479   -0.01   -0.0002872834022119181
-0.00038887155533308605   -0.01   -0.00028210276159740467
0.00020474973691742004   -0.009302368033531513   -0.0002857639258179199
-0.00031014917746899514   -0.01   -0.00022884951194615728
-0.00018903082862845003   -0.009351093224921997   -0.00026971670431052736
0.0002594436102966726   -0.009305664969045089   -0.0002500179480799624
-0.00031014917746899514   -0.01   -0.00022884951194615728
0.00020474973691742004   -0.009302368033531513   -0.0002857639258179199
-0.00018903082862845003   -0.009351093224921997   -0.00026971670431052736
-0.00031014917746899514   -0.01   -0.00022884951194615728
-0.0005208993696719169   -0.01   -0.00025078523548726197
-0.0005569787059891479   -0.01   -0.0002872834022119181
-0.00018903082862845003   -0.009351093224921997   -0.00026971670431052736
-0.00031014917746899514   -0.01   -0.00022884951194615728
-0.0005569787059891479   -0.01   -0.0002872834022119181
0.00020474973691742004   -0.009302368033531513   -0.0002857639258179199
-0.0012282272965984374   -0.009806657188465797   -0.00026384360096625293
-0.0007751788961180675   -0.009859315507469008   -0.00022640380932162154
-0.0010367494855010562   -0.009852038692300136   -0.00029027245365416957
-0.0011779301862315482   -0.009797161471020615   -0.000293497149782084
-0.0007751788961180675   -0.009859315507469008   -0.00022640380932162154
-0.0008042601157530291   -0.009895474915529424   -0.00026051584992329034
-0.0010367494855010562   -0.009852038692300136   -0.00029027245365416957
-0.0007868007997981586   -0.00988392634718898   -0.00027380188468383753
-0.0011779301862315482   -0.009797161471020615   -0.000293497149782084
-0.0010139651065575815   -0.009843682368789852   -0.00030031179618436604
-0.0007868007997981586   -0.00988392634718898   -0.00027380188468383753
-0.0010367494855010562   -0.009852038692300136   -0.00029027245365416957
-0.0011779301862315482   -0.009797161471020615   -0.000293497149782084
-0.0007868007997981586   -0.00988392634718898   -0.00027380188468383753
-0.0007290015544042811   -0.00984439278571936   -0.00025764595600565894
-0.0007751788961180675   -0.009859315507469008   -0.00022640380932162154
-0.0011779301862315482   -0.009797161471020615   -0.000293497149782084
-0.0007868007997981586   -0.00988392634718898   -0.00027380188468383753
-0.0007751788961180675   -0.009859315507469008   -0.00022640380932162154
-0.0010367494855010562   -0.009852038692300136   -0.00029027245365416957
-0.0011779301862315482   -0.009797161471020615   -0.000293497149782084
-0.0007290015544042811   -0.00984439278571936   -0.00025764595600565894
-0.0010139651065575815   -0.009843682368789852   -0.00030031179618436604
-0.0011346077943701763   -0.009798887062407599   -0.0003231081090130597
-0.0007290015544042811   -0.00984439278571936   -0.00025764595600565894
-0.0007868007997981586   -0.00988392634718898   -0.00027380188468383753
-0.0010139651065575815   -0.009843682368789852   -0.00030031179618436604
-0.000766130663008489   -0.009880485873950502   -0.00028619123035547513
-0.0011346077943701763   -0.009798887062407599   -0.0003231081090130597
-0.000988428701373507   -0.009844907702133912   -0.00031046700611575046
-0.000766130663008489   -0.009880485873950502   -0.00028619123035547513
-0.0010139651065575815   -0.009843682368789852   -0.00030031179618436604
-0.0011346077943701763   -0.009798887062407599   -0.0003231081090130597
-0.000766130663008489   -0.009880485873950502   -0.00028619123035547513
-0.0006906324653101328   -0.009840731889687255   -0.0002877827406515599
-0.0007290015544042811   -0.00984439278571936   -0.00025764595600565894
-0.0011346077943701763   -0.009798887062407599   -0.0003231081090130597
-0.000766130663008489   -0.009880485873950502   -0.00028619123035547513
-0.0007290015544042811   -0.00984439278571936   -0.00025764595600565894
-0.0010139651065575815   -0.009843682368789852   -0.00030031179618436604
-0.0011346077943701763   -0.009798887062407599   -0.0003231081090130597
-0.0006906324653101328   -0.009840731889687255   -0.0002877827406515599
-0.000988428701373507   -0.009844907702133912   -0.00031046700611575046
-0.0010829850748652434   -0.009812565753406262   -0.0003533341186838802
-0.0006906324653101328   -0.009840731889687255   -0.0002877827406515599
-0.000766130663008489   -0.009880485873950502   -0.00028619123035547513
-0.000988428701373507   -0.009844907702133912   -0.00031046700611575046
-0.0007485376497812419   -0.009885240605540238   -0.0002976329925591709
-0.0010829850748652434   -0.009812565753406262   -0.0003533341186838802
-0.0009648721950449325   -0.00985579720205482   -0.000320778691566577
-0.0007485376497812419   -0.009885240605540238   -0.0002976329925591709
-0.000988428701373507   -0.009844907702133912   -0.00031046700611575046
-0.0010829850748652434   -0.009812565753406262   -0.0003533341186838802
-0.0007485376497812419   -0.009885240605540238   -0.0002976329925591709
-0.0006467880292463343   -0.009846622392049906   -0.0003167088618867405
-0.0006906324653101328   -0.009840731889687255   -0.0002877827406515599
-0.0010829850748652434   -0.009812565753406262   -0.0003533341186838802
-0.0007485376497812419   -0.009885240605540238   -0.0002976329925591709
-0.0006906324653101328   -0.009840731889687255   -0.0002877827406515599
-0.000988428701373507   -0.009844907702133912   -0.00031046700611575046
-0.0010367494855010562   -0.009852038692300136   -0.00029027245365416957
-0.0008042601157530291   -0.009895474915529424   -0.00026051584992329034
-0.0008933343287805557   -0.009894624006560887   -0.00031342385736295224
-0.0010139651065575815   -0.009843682368789852   -0.00030031179618436604
-0.0008042601157530291   -0.009895474915529424   -0.00026051584992329034
-0.0008510737997001999   -0.009916469301601722   -0.00028758501069523916
-0.0008933343287805557   -0.009894624006560887   -0.00031342385736295224
-0.0008357432071779546   -0.009906098748501341   -0.0002877404145063088
-0.0010139651065575815   -0.009843682368789852   -0.00030031179618436604
-0.00086958776106338   -0.009885892969262348   -0.000307245344850818
-0.0008357432071779546   -0.009906098748501341   -0.0002877404145063088
-0.0008933343287805557   -0.009894624006560887   -0.00031342385736295224
-0.0010139651065575815   -0.009843682368789852   -0.00030031179618436604
-0.0008357432071779546   -0.009906098748501341   -0.0002877404145063088
-0.0007868007997981586   -0.00988392634718898   -0.00027380188468383753
-0.0008042601157530291   -0.009895474915529424   -0.00026051584992329034
-0.0010139651065575815   -0.009843682368789852   -0.00030031179618436604
-0.0008357432071779546   -0.009906098748501341   -0.0002877404145063088
-0.0008042601157530291   -0.009895474915529424   -0.00026051584992329034
-0.0008933343287805557   -0.009894624006560887   -0.00031342385736295224
-0.0010139651065575815   -0.009843682368789852   -0.00030031179618436604
-0.0007868007997981586   -0.00988392634718898   -0.00027380188468383753
-0.00086958776106338   -0.009885892969262348   -0.000307245344850818
-0.000988428701373507   -0.009844907702133912   -0.00031046700611575046
-0.0007868007997981586   -0.00988392634718898   -0.00027380188468383753
-0.0008357432071779546   -0.009906098748501341   -0.0002877404145063088
-0.00086958776106338   -0.009885892969262348   -0.000307245344850818
-0.0008187293742733437   -0.00990306201024208   -0.00028673506496116745
-0.000988428701373507   -0.009844907702133912   -0.00031046700611575046
-0.0008464924177640962   -0.009886341189447374   -0.0003010106298759517
-0.0008187293742733437   -0.00990306201024208   -0.00028673506496116745
-0.00086958776106338   -0.009885892969262348   -0.000307245344850818
-0.000988428701373507   -0.009844907702133912   -0.00031046700611575046
-0.0008187293742733437   -0.00990306201024208   -0.00028673506496116745
-0.000766130663008489   -0.009880485873950502   -0.00028619123035547513
-0.0007868007997981586   -0.00988392634718898   -0.00027380188468383753
-0.000988428701373507   -0.009844907702133912   -0.00031046700611575046
-0.0008187293742733437   -0.00990306201024208   -0.00028673506496116745
-0.0007868007997981586   -0.00988392634718898   -0.00027380188468383753
-0.00086958776106338   -0.009885892969262348   -0.000307245344850818
-0.000988428701373507   -0.009844907702133912   -0.00031046700611575046
-0.000766130663008489   -0.009880485873950502   -0.00028619123035547513
-0.0008464924177640962   -0.009886341189447374   -0.0003010106298759517
-0.0009648721950449325   -0.00985579720205482   -0.000320778691566577
-0.000766130663008489   -0.009880485873950502   -0.00028619123035547513
-0.0008187293742733437   -0.00990306201024208   -0.00028673506496116745
-0.0008464924177640962   -0.009886341189447374   -0.0003010106298759517
-0.0008014893148036939   -0.009907093889882082   -0.00028481576989051744
-0.0009648721950449325   -0.00985579720205482   -0.000320778691566577
-0.0008225202210025814   -0.009895814594937973   -0.00029507262386953547
-0.0008014893148036939   -0.009907093889882082   -0.00028481576989051744
-0.0008464924177640962   -0.009886341189447374   -0.0003010106298759517
-0.0009648721950449325   -0.00985579720205482   -0.000320778691566577
-0.0008014893148036939   -0.009907093889882082   -0.00028481576989051744
-0.0007485376497812419   -0.009885240605540238   -0.0002976329925591709
-0.000766130663008489   -0.009880485873950502   -0.00028619123035547513
-0.0009648721950449325   -0.00985579720205482   -0.000320778691566577
-0.0008014893148036939   -0.009907093889882082   -0.00028481576989051744
-0.000766130663008489   -0.009880485873950502   -0.00028619123035547513
-0.0008464924177640962   -0.009886341189447374   -0.0003010106298759517
-0.0008933343287805557   -0.009894624006560887   -0.00031342385736295224
-0.0008510737997001999   -0.009916469301601722   -0.00028758501069523916
-0.0007612321487878663   -0.009942878619153574   -0.00033934432734662067
-0.00086958776106338   -0.009885892969262348   -0.000307245344850818
-0.0008510737997001999   -0.009916469301601722   -0.00028758501069523916
-0.0009022303786187444   -0.00992319232427682   -0.0003144460568874797
-0.0007612321487878663   -0.009942878619153574   -0.00033934432734662067
-0.0008863417765479974   -0.009913131010524972   -0.0003019569875054318
-0.00086958776106338   -0.009885892969262348   -0.000307245344850818
-0.000732311589996515   -0.009934975236177994   -0.0003161016522738399
-0.0008863417765479974   -0.009913131010524972   -0.0003019569875054318
-0.0007612321487878663   -0.009942878619153574   -0.00033934432734662067
-0.00086958776106338   -0.009885892969262348   -0.000307245344850818
-0.0008863417765479974   -0.009913131010524972   -0.0003019569875054318
-0.0008357432071779546   -0.009906098748501341   -0.0002877404145063088
-0.0008510737997001999   -0.009916469301601722   -0.00028758501069523916
-0.00086958776106338   -0.009885892969262348   -0.000307245344850818
-0.0008863417765479974   -0.009913131010524972   -0.0003019569875054318
-0.0008510737997001999   -0.009916469301601722   -0.00028758501069523916
-0.0007612321487878663   -0.009942878619153574   -0.00033934432734662067
-0.00086958776106338   -0.009885892969262348   -0.000307245344850818
-0.0008357432071779546   -0.009906098748501341   -0.0002877404145063088
-0.000732311589996515   -0.009934975236177994   -0.0003161016522738399
-0.0008464924177640962   -0.009886341189447374   -0.0003010106298759517
-0.0008357432071779546   -0.009906098748501341   -0.0002877404145063088
-0.0008863417765479974   -0.009913131010524972   -0.0003019569875054318
-0.000732311589996515   -0.009934975236177994   -0.0003161016522738399
-0.0008674302281869232   -0.009910505448787243   -0.00028804930967192305
-0.0008464924177640962   -0.009886341189447374   -0.0003010106298759517
-0.0007053021313478566   -0.009934904890565942   -0.0002928108118842059
-0.0008674302281869232   -0.009910505448787243   -0.00028804930967192305
-0.000732311589996515   -0.009934975236177994   -0.0003161016522738399
-0.0008464924177640962   -0.009886341189447374   -0.0003010106298759517
-0.0008674302281869232   -0.009910505448787243   -0.00028804930967192305
-0.0008187293742733437   -0.00990306201024208   -0.00028673506496116745
-0.0008357432071779546   -0.009906098748501341   -0.0002877404145063088
-0.0008464924177640962   -0.009886341189447374   -0.0003010106298759517
-0.0008674302281869232   -0.009910505448787243   -0.00028804930967192305
-0.0008357432071779546   -0.009906098748501341   -0.0002877404145063088
-0.000732311589996515   -0.009934975236177994   -0.0003161016522738399
-0.0008464924177640962   -0.009886341189447374   -0.0003010106298759517
-0.0008187293742733437   -0.00990306201024208   -0.00028673506496116745
-0.0007053021313478566   -0.009934904890565942   -0.0002928108118842059
-0.0008225202210025814   -0.009895814594937973   -0.00029507262386953547
-0.0008187293742733437   -0.00990306201024208   -0.00028673506496116745
-0.0008674302281869232   -0.009910505448787243   -0.00028804930967192305
-0.0007053021313478566   -0.009934904890565942   -0.0002928108118842059
-0.0008480722893262842   -0.009914321193829474   -0.00027332383604538577
-0.0008225202210025814   -0.009895814594937973   -0.00029507262386953547
-0.0006765776410234319   -0.00994233694644466   -0.0002696832529104126
-0.0008480722893262842   -0.009914321193829474   -0.00027332383604538577
-0.0007053021313478566   -0.009934904890565942   -0.0002928108118842059
-0.0008225202210025814   -0.009895814594937973   -0.00029507262386953547
-0.0008480722893262842   -0.009914321193829474   -0.00027332383604538577
-0.0008014893148036939   -0.009907093889882082   -0.00028481576989051744
-0.0008187293742733437   -0.00990306201024208   -0.00028673506496116745
-0.0008225202210025814   -0.009895814594937973   -0.00029507262386953547
-0.0008480722893262842   -0.009914321193829474   -0.00027332383604538577
-0.0008187293742733437   -0.00990306201024208   -0.00028673506496116745
-0.0007053021313478566   -0.009934904890565942   -0.0002928108118842059
-0.0007612321487878663   -0.009942878619153574   -0.00033934432734662067
-0.0009022303786187444   -0.00992319232427682   -0.0003144460568874797
-0.0006312127902451161   -0.01   -0.00036090235798931714
-0.000732311589996515   -0.009934975236177994   -0.0003161016522738399
-0.0009022303786187444   -0.00992319232427682   -0.0003144460568874797
-0.0009769556587001748   -0.009909947056141106   -0.0003405386542843089
-0.0006312127902451161   -0.01   -0.00036090235798931714
-0.0009562693632497422   -0.009900130027678143   -0.0003158793134533073
-0.000732311589996515   -0.009934975236177994   -0.0003161016522738399
-0.0005943720969585938   -0.01   -0.00032430347997868247
-0.0009562693632497422   -0.009900130027678143   -0.0003158793134533073
-0.0006312127902451161   -0.01   -0.00036090235798931714
-0.000732311589996515   -0.009934975236177994   -0.0003161016522738399
-0.0009562693632497422   -0.009900130027678143   -0.0003158793134533073
-0.0008863417765479974   -0.009913131010524972   -0.0003019569875054318
-0.0009022303786187444   -0.00992319232427682   -0.0003144460568874797
-0.000732311589996515   -0.009934975236177994   -0.0003161016522738399
-0.0009562693632497422   -0.009900130027678143   -0.0003158793134533073
-0.0009022303786187444   -0.00992319232427682   -0.0003144460568874797
-0.0006312127902451161   -0.01   -0.00036090235798931714
-0.000732311589996515   -0.009934975236177994   -0.0003161016522738399
-0.0008863417765479974   -0.009913131010524972   -0.0003019569875054318
-0.0005943720969585938   -0.01   -0.00032430347997868247
-0.0007053021313478566   -0.009934904890565942   -0.0002928108118842059
-0.0008863417765479974   -0.009913131010524972   -0.0003019569875054318
-0.0009562693632497422   -0.009900130027678143   -0.0003158793134533073
-0.0005943720969585938   -0.01   -0.00032430347997868247
-0.0009286239162508973   -0.009898333997730938   -0.00028958655567699903
-0.0007053021313478566   -0.009934904890565942   -0.0002928108118842059
-0.0005569787059891479   -0.01   -0.0002872834022119181
-0.0009286239162508973   -0.009898333997730938   -0.00028958655567699903
-0.0005943720969585938   -0.01   -0.00032430347997868247
-0.0007053021313478566   -0.009934904890565942   -0.0002928108118842059
-0.0009286239162508973   -0.009898333997730938   -0.00028958655567699903
-0.0008674302281869232   -0.009910505448787243   -0.00028804930967192305
-0.0008863417765479974   -0.009913131010524972   -0.0003019569875054318
-0.0007053021313478566   -0.009934904890565942   -0.0002928108118842059
-0.0009286239162508973   -0.009898333997730938   -0.00028958655567699903
-0.0008863417765479974   -0.009913131010524972   -0.0003019569875054318
-0.0005943720969585938   -0.01   -0.00032430347997868247
-0.0007053021313478566   -0.009934904890565942   -0.0002928108118842059
-0.0008674302281869232   -0.009910505448787243   -0.00028804930967192305
-0.0005569787059891479   -0.01   -0.0002872834022119181
-0.0006765776410234319   -0.00994233694644466   -0.0002696832529104126
-0.0008674302281869232   -0.009910505448787243   -0.00028804930967192305
-0.0009286239162508973   -0.009898333997730938   -0.00028958655567699903
-0.0005569787059891479   -0.01   -0.0002872834022119181
-0.0009031610403346905   -0.009903138210168909   -0.0002623978601360738
-0.0006765776410234319   -0.00994233694644466   -0.0002696832529104126
-0.0005208993696719169   -0.01   -0.00025078523548726197
-0.0009031610403346905   -0.009903138210168909   -0.0002623978601360738
-0.0005569787059891479   -0.01   -0.0002872834022119181
-0.0006765776410234319   -0.00994233694644466   -0.0002696832529104126
-0.0009031610403346905   -0.009903138210168909   -0.0002623978601360738
-0.0008480722893262842   -0.009914321193829474   -0.00027332383604538577
-0.0008674302281869232   -0.009910505448787243   -0.00028804930967192305
-0.0006765776410234319   -0.00994233694644466   -0.0002696832529104126
-0.0009031610403346905   -0.009903138210168909   -0.0002623978601360738
-0.0008674302281869232   -0.009910505448787243   -0.00028804930967192305
-0.0005569787059891479   -0.01   -0.0002872834022119181
-0.0006312127902451161   -0.01   -0.00036090235798931714
-0.0009769556587001748   -0.009909947056141106   -0.0003405386542843089
-0.0005327729907871223   -0.01   -0.00038699934029160345
-0.0005943720969585938   -0.01   -0.00032430347997868247
-0.0009769556587001748   -0.009909947056141106   -0.0003405386542843089
-0.001129990350669113   -0.00986215509548722   -0.00036929700573597987
-0.0005327729907871223   -0.01   -0.00038699934029160345
-0.0010712622316144788   -0.00985333482231799   -0.00032891661815830423
-0.0005943720969585938   -0.01   -0.00032430347997868247
-0.00045269873999987385   -0.01   -0.00033336861386951426
-0.0010712622316144788   -0.00985333482231799   -0.00032891661815830423
-0.0005327729907871223   -0.01   -0.00038699934029160345
-0.0005943720969585938   -0.01   -0.00032430347997868247
-0.0010712622316144788   -0.00985333482231799   -0.00032891661815830423
-0.0009562693632497422   -0.009900130027678143   -0.0003158793134533073
-0.0009769556587001748   -0.009909947056141106   -0.0003405386542843089
-0.0005943720969585938   -0.01   -0.00032430347997868247
-0.0010712622316144788   -0.00985333482231799   -0.00032891661815830423
-0.0009769556587001748   -0.009909947056141106   -0.0003405386542843089
-0.0005327729907871223   -0.01   -0.00038699934029160345
-0.0005943720969585938   -0.01   -0.00032430347997868247
-0.0009562693632497422   -0.009900130027678143   -0.0003158793134533073
-0.00045269873999987385   -0.01   -0.00033336861386951426
-0.0005569787059891479   -0.01   -0.0002872834022119181
-0.0009562693632497422   -0.009900130027678143   -0.0003158793134533073
-0.0010712622316144788   -0.00985333482231799   -0.00032891661815830423
-0.00045269873999987385   -0.01   -0.00033336861386951426
-0.0010180710230061358   -0.009852490683921751   -0.00028616597280485187
-0.0005569787059891479   -0.01   -0.0002872834022119181
-0.00038887155533308605   -0.01   -0.00028210276159740467
-0.0010180710230061358   -0.009852490683921751   -0.00028616597280485187
-0.00045269873999987385   -0.01   -0.00033336861386951426
-0.0005569787059891479   -0.01   -0.0002872834022119181
-0.0010180710230061358   -0.009852490683921751   -0.00028616597280485187
-0.0009286239162508973   -0.009898333997730938   -0.00028958655567699903
-0.0009562693632497422   -0.009900130027678143   -0.0003158793134533073
-0.0005569787059891479   -0.01   -0.0002872834022119181
-0.0010180710230061358   -0.009852490683921751   -0.00028616597280485187
-0.0009562693632497422   -0.009900130027678143   -0.0003158793134533073
-0.00045269873999987385   -0.01   -0.00033336861386951426
-0.0005569787059891479   -0.01   -0.0002872834022119181
-0.0009286239162508973   -0.009898333997730938   -0.00028958655567699903
-0.00038887155533308605   -0.01   -0.00028210276159740467
-0.0005208993696719169   -0.01   -0.00025078523548726197
-0.0009286239162508973   -0.009898333997730938   -0.00028958655567699903
-0.0010180710230061358   -0.009852490683921751   -0.00028616597280485187
-0.00038887155533308605   -0.01   -0.00028210276159740467
-0.0009507535263746789   -0.009863918176697645   -0.00024175685844128866
-0.0005208993696719169   -0.01   -0.00025078523548726197
-0.00031014917746899514   -0.01   -0.00022884951194615728
-0.0009507535263746789   -0.009863918176697645   -0.00024175685844128866
-0.00038887155533308605   -0.01   -0.00028210276159740467
-0.0005208993696719169   -0.01   -0.00025078523548726197
-0.0009507535263746789   -0.009863918176697645   -0.00024175685844128866
-0.0009031610403346905   -0.009903138210168909   -0.0002623978601360738
-0.0009286239162508973   -0.009898333997730938   -0.00028958655567699903
-0.0005208993696719169   -0.01   -0.00025078523548726197
-0.0009507535263746789   -0.009863918176697645   -0.00024175685844128866
-0.0009286239162508973   -0.009898333997730938   -0.00028958655567699903
-0.00038887155533308605   -0.01   -0.00028210276159740467
-0.0007751788961180675   -0.009859315507469008   -0.00022640380932162154
-0.000368054493516169   -0.009529384528249854   -0.0001941055615484712
-0.0008042601157530291   -0.009895474915529424   -0.00026051584992329034
-0.0007290015544042811   -0.00984439278571936   -0.00025764595600565894
-0.000368054493516169   -0.009529384528249854   -0.0001941055615484712
-0.0006001559535653592   -0.009557632606315238   -0.00023059300034349253
-0.0008042601157530291   -0.009895474915529424   -0.00026051584992329034
-0.0005875783646540158   -0.00954359316591985   -0.00024266498022277818
-0.0007290015544042811   -0.00984439278571936   -0.00025764595600565894
-0.0007868007997981586   -0.00988392634718898   -0.00027380188468383753
-0.0005875783646540158   -0.00954359316591985   -0.00024266498022277818
-0.0008042601157530291   -0.009895474915529424   -0.00026051584992329034
-0.0007290015544042811   -0.00984439278571936   -0.00025764595600565894
-0.0005875783646540158   -0.00954359316591985   -0.00024266498022277818
-0.00033037193505464665   -0.009511838616276334   -0.00022172880782238695
-0.000368054493516169   -0.009529384528249854   -0.0001941055615484712
-0.0007290015544042811   -0.00984439278571936   -0.00025764595600565894
-0.0005875783646540158   -0.00954359316591985   -0.00024266498022277818
-0.000368054493516169   -0.009529384528249854   -0.0001941055615484712
-0.0008042601157530291   -0.009895474915529424   -0.00026051584992329034
-0.0007290015544042811   -0.00984439278571936   -0.00025764595600565894
-0.00033037193505464665   -0.009511838616276334   -0.00022172880782238695
-0.0007868007997981586   -0.00988392634718898   -0.00027380188468383753
-0.0006906324653101328   -0.009840731889687255   -0.0002877827406515599
-0.00033037193505464665   -0.009511838616276334   -0.00022172880782238695
-0.0005875783646540158   -0.00954359316591985   -0.00024266498022277818
-0.0007868007997981586   -0.00988392634718898   -0.00027380188468383753
-0.0005731887820910357   -0.009536663275413367   -0.00025377233075495715
-0.0006906324653101328   -0.009840731889687255   -0.0002877827406515599
-0.000766130663008489   -0.009880485873950502   -0.00028619123035547513
-0.0005731887820910357   -0.009536663275413367   -0.00025377233075495715
-0.0007868007997981586   -0.00988392634718898   -0.00027380188468383753
-0.0006906324653101328   -0.009840731889687255   -0.0002877827406515599
-0.0005731887820910357   -0.009536663275413367   -0.00025377233075495715
-0.00030069746414680465   -0.009504450465422273   -0.0002479296556971115
-0.00033037193505464665   -0.009511838616276334   -0.00022172880782238695
-0.0006906324653101328   -0.009840731889687255   -0.0002877827406515599
-0.0005731887820910357   -0.009536663275413367   -0.00025377233075495715
-0.00033037193505464665   -0.009511838616276334   -0.00022172880782238695
-0.0007868007997981586   -0.00988392634718898   -0.00027380188468383753
-0.0006906324653101328   -0.009840731889687255   -0.0002877827406515599
-0.00030069746414680465   -0.009504450465422273   -0.0002479296556971115
-0.000766130663008489   -0.009880485873950502   -0.00028619123035547513
-0.0006467880292463343   -0.009846622392049906   -0.0003167088618867405
-0.00030069746414680465   -0.009504450465422273   -0.0002479296556971115
-0.0005731887820910357   -0.009536663275413367   -0.00025377233075495715
-0.000766130663008489   -0.009880485873950502   -0.00028619123035547513
-0.0005622234141986733   -0.009536638576697301   -0.0002639536584980386
-0.0006467880292463343   -0.009846622392049906   -0.0003167088618867405
-0.0007485376497812419   -0.009885240605540238   -0.0002976329925591709
-0.0005622234141986733   -0.009536638576697301   -0.0002639536584980386
-0.000766130663008489   -0.009880485873950502   -0.00028619123035547513
-0.0006467880292463343   -0.009846622392049906   -0.0003167088618867405
-0.0005622234141986733   -0.009536638576697301   -0.0002639536584980386
-0.0002677685883188545   -0.009504909188752823   -0.00027265785910192387
-0.00030069746414680465   -0.009504450465422273   -0.0002479296556971115
-0.0006467880292463343   -0.009846622392049906   -0.0003167088618867405
-0.0005622234141986733   -0.009536638576697301   -0.0002639536584980386
-0.00030069746414680465   -0.009504450465422273   -0.0002479296556971115
-0.000766130663008489   -0.009880485873950502   -0.00028619123035547513
-0.0008042601157530291   -0.009895474915529424   -0.00026051584992329034
-0.0006001559535653592   -0.009557632606315238   -0.00023059300034349253
-0.0008510737997001999   -0.009916469301601722   -0.00028758501069523916
-0.0007868007997981586   -0.00988392634718898   -0.00027380188468383753
-0.0006001559535653592   -0.009557632606315238   -0.00023059300034349253
-0.0008330600673441904   -0.009567259103208464   -0.00025998474559013634
-0.0008510737997001999   -0.009916469301601722   -0.00028758501069523916
-0.0008226301279784109   -0.009555042620487566   -0.0002604429558623654
-0.0007868007997981586   -0.00988392634718898   -0.00027380188468383753
-0.0008357432071779546   -0.009906098748501341   -0.0002877404145063088
-0.0008226301279784109   -0.009555042620487566   -0.0002604429558623654
-0.0008510737997001999   -0.009916469301601722   -0.00028758501069523916
-0.0007868007997981586   -0.00988392634718898   -0.00027380188468383753
-0.0008226301279784109   -0.009555042620487566   -0.0002604429558623654
-0.0005875783646540158   -0.00954359316591985   -0.00024266498022277818
-0.0006001559535653592   -0.009557632606315238   -0.00023059300034349253
-0.0007868007997981586   -0.00988392634718898   -0.00027380188468383753
-0.0008226301279784109   -0.009555042620487566   -0.0002604429558623654
-0.0006001559535653592   -0.009557632606315238   -0.00023059300034349253
-0.0008510737997001999   -0.009916469301601722   -0.00028758501069523916
-0.0007868007997981586   -0.00988392634718898   -0.00027380188468383753
-0.0005875783646540158   -0.00954359316591985   -0.00024266498022277818
-0.0008357432071779546   -0.009906098748501341   -0.0002877404145063088
-0.000766130663008489   -0.009880485873950502   -0.00028619123035547513
-0.0005875783646540158   -0.00954359316591985   -0.00024266498022277818
-0.0008226301279784109   -0.009555042620487566   -0.0002604429558623654
-0.0008357432071779546   -0.009906098748501341   -0.0002877404145063088
-0.0008118170279531006   -0.00954922373109937   -0.00026000443653199424
-0.000766130663008489   -0.009880485873950502   -0.00028619123035547513
-0.0008187293742733437   -0.00990306201024208   -0.00028673506496116745
-0.0008118170279531006   -0.00954922373109937   -0.00026000443653199424
-0.0008357432071779546   -0.009906098748501341   -0.0002877404145063088
-0.000766130663008489   -0.009880485873950502   -0.00028619123035547513
-0.0008118170279531006   -0.00954922373109937   -0.00026000443653199424
-0.0005731887820910357   -0.009536663275413367   -0.00025377233075495715
-0.0005875783646540158   -0.00954359316591985   -0.00024266498022277818
-0.000766130663008489   -0.009880485873950502   -0.00028619123035547513
-0.0008118170279531006   -0.00954922373109937   -0.00026000443653199424
-0.0005875783646540158   -0.00954359316591985   -0.00024266498022277818
-0.0008357432071779546   -0.009906098748501341   -0.0002877404145063088
-0.000766130663008489   -0.009880485873950502   -0.00028619123035547513
-0.0005731887820910357   -0.009536663275413367   -0.00025377233075495715
-0.0008187293742733437   -0.00990306201024208   -0.00028673506496116745
-0.0007485376497812419   -0.009885240605540238   -0.0002976329925591709
-0.0005731887820910357   -0.009536663275413367   -0.00025377233075495715
-0.0008118170279531006   -0.00954922373109937   -0.00026000443653199424
-0.0008187293742733437   -0.00990306201024208   -0.00028673506496116745
-0.000801420578538457   -0.009549552073244956   -0.00025867620066495823
-0.0007485376497812419   -0.009885240605540238   -0.0002976329925591709
-0.0008014893148036939   -0.009907093889882082   -0.00028481576989051744
-0.000801420578538457   -0.009549552073244956   -0.00025867620066495823
-0.0008187293742733437   -0.00990306201024208   -0.00028673506496116745
-0.0007485376497812419   -0.009885240605540238   -0.0002976329925591709
-0.000801420578538457   -0.009549552073244956   -0.00025867620066495823
-0.0005622234141986733   -0.009536638576697301   -0.0002639536584980386
-0.0005731887820910357   -0.009536663275413367   -0.00025377233075495715
-0.0007485376497812419   -0.009885240605540238   -0.0002976329925591709
-0.000801420578538457   -0.009549552073244956   -0.00025867620066495823
-0.0005731887820910357   -0.009536663275413367   -0.00025377233075495715
-0.0008187293742733437   -0.00990306201024208   -0.00028673506496116745
-0.0008510737997001999   -0.009916469301601722   -0.00028758501069523916
-0.0008330600673441904   -0.009567259103208464   -0.00025998474559013634
-0.0009022303786187444   -0.00992319232427682   -0.0003144460568874797
-0.0008357432071779546   -0.009906098748501341   -0.0002877404145063088
-0.0008330600673441904   -0.009567259103208464   -0.00025998474559013634
-0.001064918648434781   -0.009557964285114092   -0.0002875852931402649
-0.0009022303786187444   -0.00992319232427682   -0.0003144460568874797
-0.001054572580065833   -0.009547031792469683   -0.0002768736066718271
-0.0008357432071779546   -0.009906098748501341   -0.0002877404145063088
-0.0008863417765479974   -0.009913131010524972   -0.0003019569875054318
-0.001054572580065833   -0.009547031792469683   -0.0002768736066718271
-0.0009022303786187444   -0.00992319232427682   -0.0003144460568874797
-0.0008357432071779546   -0.009906098748501341   -0.0002877404145063088
-0.001054572580065833   -0.009547031792469683   -0.0002768736066718271
-0.0008226301279784109   -0.009555042620487566   -0.0002604429558623654
-0.0008330600673441904   -0.009567259103208464   -0.00025998474559013634
-0.0008357432071779546   -0.009906098748501341   -0.0002877404145063088
-0.001054572580065833   -0.009547031792469683   -0.0002768736066718271
-0.0008330600673441904   -0.009567259103208464   -0.00025998474559013634
-0.0009022303786187444   -0.00992319232427682   -0.0003144460568874797
-0.0008357432071779546   -0.009906098748501341   -0.0002877404145063088
-0.0008226301279784109   -0.009555042620487566   -0.0002604429558623654
-0.0008863417765479974   -0.009913131010524972   -0.0003019569875054318
-0.0008187293742733437   -0.00990306201024208   -0.00028673506496116745
-0.0008226301279784109   -0.009555042620487566   -0.0002604429558623654
-0.001054572580065833   -0.009547031792469683   -0.0002768736066718271
-0.0008863417765479974   -0.009913131010524972   -0.0003019569875054318
-0.001042967137923967   -0.009542407244167701   -0.00026528546435813135
-0.0008187293742733437   -0.00990306201024208   -0.00028673506496116745
-0.0008674302281869232   -0.009910505448787243   -0.00028804930967192305
-0.001042967137923967   -0.009542407244167701   -0.00026528546435813135
-0.0008863417765479974   -0.009913131010524972   -0.0003019569875054318
-0.0008187293742733437   -0.00990306201024208   -0.00028673506496116745
-0.001042967137923967   -0.009542407244167701   -0.00026528546435813135
-0.0008118170279531006   -0.00954922373109937   -0.00026000443653199424
-0.0008226301279784109   -0.009555042620487566   -0.0002604429558623654
-0.0008187293742733437   -0.00990306201024208   -0.00028673506496116745
-0.001042967137923967   -0.009542407244167701   -0.00026528546435813135
-0.0008226301279784109   -0.009555042620487566   -0.0002604429558623654
-0.0008863417765479974   -0.009913131010524972   -0.0003019569875054318
-0.0008187293742733437   -0.00990306201024208   -0.00028673506496116745
-0.0008118170279531006   -0.00954922373109937   -0.00026000443653199424
-0.0008674302281869232   -0.009910505448787243   -0.00028804930967192305
-0.0008014893148036939   -0.009907093889882082   -0.00028481576989051744
-0.0008118170279531006   -0.00954922373109937   -0.00026000443653199424
-0.001042967137923967   -0.009542407244167701   -0.00026528546435813135
-0.0008674302281869232   -0.009910505448787243   -0.00028804930967192305
-0.0010313901712314729   -0.009543568231195877   -0.0002527153579949403
-0.0008014893148036939   -0.009907093889882082   -0.00028481576989051744
-0.0008480722893262842   -0.009914321193829474   -0.00027332383604538577
-0.0010313901712314729   -0.009543568231195877   -0.0002527153579949403
-0.0008674302281869232   -0.009910505448787243   -0.00028804930967192305
-0.0008014893148036939   -0.009907093889882082   -0.00028481576989051744
-0.0010313901712314729   -0.009543568231195877   -0.0002527153579949403
-0.000801420578538457   -0.009549552073244956   -0.00025867620066495823
-0.0008118170279531006   -0.00954922373109937   -0.00026000443653199424
-0.0008014893148036939   -0.009907093889882082   -0.00028481576989051744
-0.0010313901712314729   -0.009543568231195877   -0.0002527153579949403
-0.0008118170279531006   -0.00954922373109937   -0.00026000443653199424
-0.0008674302281869232   -0.009910505448787243   -0.00028804930967192305
-0.0009022303786187444   -0.00992319232427682   -0.0003144460568874797
-0.001064918648434781   -0.009557964285114092   -0.0002875852931402649
-0.0009769556587001748   -0.009909947056141106   -0.0003405386542843089
-0.0008863417765479974   -0.009913131010524972   -0.0003019569875054318
-0.001064918648434781   -0.009557964285114092   -0.0002875852931402649
-0.0013181091181596828   -0.009528649188091005   -0.00031323651110308194
-0.0009769556587001748   -0.009909947056141106   -0.0003405386542843089
-0.0013052305860995115   -0.009518942033782788   -0.00029152215942220125
-0.0008863417765479974   -0.009913131010524972   -0.0003019569875054318
-0.0009562693632497422   -0.009900130027678143   -0.0003158793134533073
-0.0013052305860995115   -0.009518942033782788   -0.00029152215942220125
-0.0009769556587001748   -0.009909947056141106   -0.0003405386542843089
-0.0008863417765479974   -0.009913131010524972   -0.0003019569875054318
-0.0013052305860995115   -0.009518942033782788   -0.00029152215942220125
-0.001054572580065833   -0.009547031792469683   -0.0002768736066718271
-0.001064918648434781   -0.009557964285114092   -0.0002875852931402649
-0.0008863417765479974   -0.009913131010524972   -0.0003019569875054318
-0.0013052305860995115   -0.009518942033782788   -0.00029152215942220125
-0.001064918648434781   -0.009557964285114092   -0.0002875852931402649
-0.0009769556587001748   -0.009909947056141106   -0.0003405386542843089
-0.0008863417765479974   -0.009913131010524972   -0.0003019569875054318
-0.001054572580065833   -0.009547031792469683   -0.0002768736066718271
-0.0009562693632497422   -0.009900130027678143   -0.0003158793134533073
-0.0008674302281869232   -0.009910505448787243   -0.00028804930967192305
-0.001054572580065833   -0.009547031792469683   -0.0002768736066718271
-0.0013052305860995115   -0.009518942033782788   -0.00029152215942220125
-0.0009562693632497422   -0.009900130027678143   -0.0003158793134533073
-0.0012872444236776326   -0.009515507601346796   -0.0002690172055297149
-0.0008674302281869232   -0.009910505448787243   -0.00028804930967192305
-0.0009286239162508973   -0.009898333997730938   -0.00028958655567699903
-0.0012872444236776326   -0.009515507601346796   -0.0002690172055297149
-0.0009562693632497422   -0.009900130027678143   -0.0003158793134533073
-0.0008674302281869232   -0.009910505448787243   -0.00028804930967192305
-0.0012872444236776326   -0.009515507601346796   -0.0002690172055297149
-0.001042967137923967   -0.009542407244167701   -0.00026528546435813135
-0.001054572580065833   -0.009547031792469683   -0.0002768736066718271
-0.0008674302281869232   -0.009910505448787243   -0.00028804930967192305
-0.0012872444236776326   -0.009515507601346796   -0.0002690172055297149
-0.001054572580065833   -0.009547031792469683   -0.0002768736066718271
-0.0009562693632497422   -0.009900130027678143   -0.0003158793134533073
-0.0008674302281869232   -0.009910505448787243   -0.00028804930967192305
-0.001042967137923967   -0.009542407244167701   -0.00026528546435813135
-0.0009286239162508973   -0.009898333997730938   -0.00028958655567699903
-0.0008480722893262842   -0.009914321193829474   -0.00027332383604538577
-0.001042967137923967   -0.009542407244167701   -0.00026528546435813135
-0.0012872444236776326   -0.009515507601346796   -0.0002690172055297149
-0.0009286239162508973   -0.009898333997730938   -0.00028958655567699903
-0.001271899733280624   -0.009518333353344802   -0.00024515151962361257
-0.0008480722893262842   -0.009914321193829474   -0.00027332383604538577
-0.0009031610403346905   -0.009903138210168909   -0.0002623978601360738
-0.001271899733280624   -0.009518333353344802   -0.00024515151962361257
-0.0009286239162508973   -0.009898333997730938   -0.00028958655567699903
-0.0008480722893262842   -0.009914321193829474   -0.00027332383604538577
-0.001271899733280624   -0.009518333353344802   -0.00024515151962361257
-0.0010313901712314729   -0.009543568231195877   -0.0002527153579949403
-0.001042967137923967   -0.009542407244167701   -0.00026528546435813135
-0.0008480722893262842   -0.009914321193829474   -0.00027332383604538577
-0.001271899733280624   -0.009518333353344802   -0.00024515151962361257
-0.001042967137923967   -0.009542407244167701   -0.00026528546435813135
-0.0009286239162508973   -0.009898333997730938   -0.00028958655567699903
-0.0009769556587001748   -0.009909947056141106   -0.0003405386542843089
-0.0013181091181596828   -0.009528649188091005   -0.00031323651110308194
-0.001129990350669113   -0.00986215509548722   -0.00036929700573597987
-0.0009562693632497422   -0.009900130027678143   -0.0003158793134533073
-0.0013181091181596828   -0.009528649188091005   -0.00031323651110308194
-0.00164383730382979   -0.00948097067836615   -0.0003387658398305001
-0.001129990350669113   -0.00986215509548722   -0.00036929700573597987
-0.0015992771020673841   -0.009470061561204165   -0.00030438554595278174
-0.0009562693632497422   -0.009900130027678143   -0.0003158793134533073
-0.0010712622316144788   -0.00985333482231799   -0.00032891661815830423
-0.0015992771020673841   -0.009470061561204165   -0.00030438554595278174
-0.001129990350669113   -0.00986215509548722   -0.00036929700573597987
-0.0009562693632497422   -0.009900130027678143   -0.0003158793134533073
-0.0015992771020673841   -0.009470061561204165   -0.00030438554595278174
-0.0013052305860995115   -0.009518942033782788   -0.00029152215942220125
-0.0013181091181596828   -0.009528649188091005   -0.00031323651110308194
-0.0009562693632497422   -0.009900130027678143   -0.0003158793134533073
-0.0015992771020673841   -0.009470061561204165   -0.00030438554595278174
-0.0013181091181596828   -0.009528649188091005   -0.00031323651110308194
-0.001129990350669113   -0.00986215509548722   -0.00036929700573597987
-0.0009562693632497422   -0.009900130027678143   -0.0003158793134533073
-0.0013052305860995115   -0.009518942033782788   -0.00029152215942220125
-0.0010712622316144788   -0.00985333482231799   -0.00032891661815830423
-0.0009286239162508973   -0.009898333997730938   -0.00028958655567699903
-0.0013052305860995115   -0.009518942033782788   -0.00029152215942220125
-0.0015992771020673841   -0.009470061561204165   -0.00030438554595278174
-0.0010712622316144788   -0.00985333482231799   -0.00032891661815830423
-0.0015599688883388846   -0.009466884970756734   -0.0002682997276083318
-0.0009286239162508973   -0.009898333997730938   -0.00028958655567699903
-0.0010180710230061358   -0.009852490683921751   -0.00028616597280485187
-0.0015599688883388846   -0.009466884970756734   -0.0002682997276083318
-0.0010712622316144788   -0.00985333482231799   -0.00032891661815830423
-0.0009286239162508973   -0.009898333997730938   -0.00028958655567699903
-0.0015599688883388846   -0.009466884970756734   -0.0002682997276083318
-0.0012872444236776326   -0.009515507601346796   -0.0002690172055297149
-0.0013052305860995115   -0.009518942033782788   -0.00029152215942220125
-0.0009286239162508973   -0.009898333997730938   -0.00028958655567699903
-0.0015599688883388846   -0.009466884970756734   -0.0002682997276083318
-0.0013052305860995115   -0.009518942033782788   -0.00029152215942220125
-0.0010712622316144788   -0.00985333482231799   -0.00032891661815830423
-0.0009286239162508973   -0.009898333997730938   -0.00028958655567699903
-0.0012872444236776326   -0.009515507601346796   -0.0002690172055297149
-0.0010180710230061358   -0.009852490683921751   -0.00028616597280485187
-0.0009031610403346905   -0.009903138210168909   -0.0002623978601360738
-0.0012872444236776326   -0.009515507601346796   -0.0002690172055297149
-0.0015599688883388846   -0.009466884970756734   -0.0002682997276083318
-0.0010180710230061358   -0.009852490683921751   -0.00028616597280485187
-0.0015091048483474485   -0.009473285832316592   -0.00023082631194387102
-0.0009031610403346905   -0.009903138210168909   -0.0002623978601360738
-0.0009507535263746789   -0.009863918176697645   -0.00024175685844128866
-0.0015091048483474485   -0.009473285832316592   -0.00023082631194387102
-0.0010180710230061358   -0.009852490683921751   -0.00028616597280485187
-0.0009031610403346905   -0.009903138210168909   -0.0002623978601360738
-0.0015091048483474485   -0.009473285832316592   -0.00023082631194387102
-0.001271899733280624   -0.009518333353344802   -0.00024515151962361257
-0.0012872444236776326   -0.009515507601346796   -0.0002690172055297149
-0.0009031610403346905   -0.009903138210168909   -0.0002623978601360738
-0.0015091048483474485   -0.009473285832316592   -0.00023082631194387102
-0.0012872444236776326   -0.009515507601346796   -0.0002690172055297149
-0.0010180710230061358   -0.009852490683921751   -0.00028616597280485187
-0.000368054493516169   -0.009529384528249854   -0.0001941055615484712
-2.835870720726326e-05   -0.008888232168605485   -0.00015926099493663898
-0.0006001559535653592   -0.009557632606315238   -0.00023059300034349253
-0.00033037193505464665   -0.009511838616276334   -0.00022172880782238695
-2.835870720726326e-05   -0.008888232168605485   -0.00015926099493663898
-0.0004334437528865095   -0.00890969962415094   -0.00019531508515595208
-0.0006001559535653592   -0.009557632606315238   -0.00023059300034349253
-0.00042651689002376074   -0.008894932671268115   -0.00020516863459807305
-0.00033037193505464665   -0.009511838616276334   -0.00022172880782238695
-0.0005875783646540158   -0.00954359316591985   -0.00024266498022277818
-0.00042651689002376074   -0.008894932671268115   -0.00020516863459807305
-0.0006001559535653592   -0.009557632606315238   -0.00023059300034349253
-0.00033037193505464665   -0.009511838616276334   -0.00022172880782238695
-0.00042651689002376074   -0.008894932671268115   -0.00020516863459807305
-9.982553684791514e-07   -0.008870259393835232   -0.00018194081722911466
-2.835870720726326e-05   -0.008888232168605485   -0.00015926099493663898
-0.00033037193505464665   -0.009511838616276334   -0.00022172880782238695
-0.00042651689002376074   -0.008894932671268115   -0.00020516863459807305
-2.835870720726326e-05   -0.008888232168605485   -0.00015926099493663898
-0.0006001559535653592   -0.009557632606315238   -0.00023059300034349253
-0.00033037193505464665   -0.009511838616276334   -0.00022172880782238695
-9.982553684791514e-07   -0.008870259393835232   -0.00018194081722911466
-0.0005875783646540158   -0.00954359316591985   -0.00024266498022277818
-0.00030069746414680465   -0.009504450465422273   -0.0002479296556971115
-9.982553684791514e-07   -0.008870259393835232   -0.00018194081722911466
-0.00042651689002376074   -0.008894932671268115   -0.00020516863459807305
-0.0005875783646540158   -0.00954359316591985   -0.00024266498022277818
-0.0004184490225814345   -0.008886135211671956   -0.00021400456207671927
-0.00030069746414680465   -0.009504450465422273   -0.0002479296556971115
-0.0005731887820910357   -0.009536663275413367   -0.00025377233075495715
-0.0004184490225814345   -0.008886135211671956   -0.00021400456207671927
-0.0005875783646540158   -0.00954359316591985   -0.00024266498022277818
-0.00030069746414680465   -0.009504450465422273   -0.0002479296556971115
-0.0004184490225814345   -0.008886135211671956   -0.00021400456207671927
1.9240136686487675e-05   -0.008860860720653849   -0.00020319530943213344
-9.982553684791514e-07   -0.008870259393835232   -0.00018194081722911466
-0.00030069746414680465   -0.009504450465422273   -0.0002479296556971115
-0.0004184490225814345   -0.008886135211671956   -0.00021400456207671927
-9.982553684791514e-07   -0.008870259393835232   -0.00018194081722911466
-0.0005875783646540158   -0.00954359316591985   -0.00024266498022277818
-0.00030069746414680465   -0.009504450465422273   -0.0002479296556971115
1.9240136686487675e-05   -0.008860860720653849   -0.00020319530943213344
-0.0005731887820910357   -0.009536663275413367   -0.00025377233075495715
-0.0002677685883188545   -0.009504909188752823   -0.00027265785910192387
1.9240136686487675e-05   -0.008860860720653849   -0.00020319530943213344
-0.0004184490225814345   -0.008886135211671956   -0.00021400456207671927
-0.0005731887820910357   -0.009536663275413367   -0.00025377233075495715
-0.00041360373697501505   -0.008883017352110542   -0.00022192457759017122
-0.0002677685883188545   -0.009504909188752823   -0.00027265785910192387
-0.0005622234141986733   -0.009536638576697301   -0.0002639536584980386
-0.00041360373697501505   -0.008883017352110542   -0.00022192457759017122
-0.0005731887820910357   -0.009536663275413367   -0.00025377233075495715
-0.0002677685883188545   -0.009504909188752823   -0.00027265785910192387
-0.00041360373697501505   -0.008883017352110542   -0.00022192457759017122
4.139787473746278e-05   -0.008857718055869185   -0.00022302561206395287
1.9240136686487675e-05   -0.008860860720653849   -0.00020319530943213344
-0.0002677685883188545   -0.009504909188752823   -0.00027265785910192387
-0.00041360373697501505   -0.008883017352110542   -0.00022192457759017122
1.9240136686487675e-05   -0.008860860720653849   -0.00020319530943213344
-0.0005731887820910357   -0.009536663275413367   -0.00025377233075495715
-0.0006001559535653592   -0.009557632606315238   -0.00023059300034349253
-0.0004334437528865095   -0.00890969962415094   -0.00019531508515595208
-0.0008330600673441904   -0.009567259103208464   -0.00025998474559013634
-0.0005875783646540158   -0.00954359316591985   -0.00024266498022277818
-0.0004334437528865095   -0.00890969962415094   -0.00019531508515595208
-0.0008287921438669528   -0.008913891833976008   -0.00022448673923596997
-0.0008330600673441904   -0.009567259103208464   -0.00025998474559013634
-0.0008238318256095629   -0.008901343326638231   -0.00022458835134206957
-0.0005875783646540158   -0.00954359316591985   -0.00024266498022277818
-0.0008226301279784109   -0.009555042620487566   -0.0002604429558623654
-0.0008238318256095629   -0.008901343326638231   -0.00022458835134206957
-0.0008330600673441904   -0.009567259103208464   -0.00025998474559013634
-0.0005875783646540158   -0.00954359316591985   -0.00024266498022277818
-0.0008238318256095629   -0.008901343326638231   -0.00022458835134206957
-0.00042651689002376074   -0.008894932671268115   -0.00020516863459807305
-0.0004334437528865095   -0.00890969962415094   -0.00019531508515595208
-0.0005875783646540158   -0.00954359316591985   -0.00024266498022277818
-0.0008238318256095629   -0.008901343326638231   -0.00022458835134206957
-0.0004334437528865095   -0.00890969962415094   -0.00019531508515595208
-0.0008330600673441904   -0.009567259103208464   -0.00025998474559013634
-0.0005875783646540158   -0.00954359316591985   -0.00024266498022277818
-0.00042651689002376074   -0.008894932671268115   -0.00020516863459807305
-0.0008226301279784109   -0.009555042620487566   -0.0002604429558623654
-0.0005731887820910357   -0.009536663275413367   -0.00025377233075495715
-0.00042651689002376074   -0.008894932671268115   -0.00020516863459807305
-0.0008238318256095629   -0.008901343326638231   -0.00022458835134206957
-0.0008226301279784109   -0.009555042620487566   -0.0002604429558623654
-0.0008187073900359622   -0.00889412467677402   -0.000223707603044577
-0.0005731887820910357   -0.009536663275413367   -0.00025377233075495715
-0.0008118170279531006   -0.00954922373109937   -0.00026000443653199424
-0.0008187073900359622   -0.00889412467677402   -0.000223707603044577
-0.0008226301279784109   -0.009555042620487566   -0.0002604429558623654
-0.0005731887820910357   -0.009536663275413367   -0.00025377233075495715
-0.0008187073900359622   -0.00889412467677402   -0.000223707603044577
-0.0004184490225814345   -0.008886135211671956   -0.00021400456207671927
-0.00042651689002376074   -0.008894932671268115   -0.00020516863459807305
-0.0005731887820910357   -0.009536663275413367   -0.00025377233075495715
-0.0008187073900359622   -0.00889412467677402   -0.000223707603044577
-0.00042651689002376074   -0.008894932671268115   -0.00020516863459807305
-0.0008226301279784109   -0.009555042620487566   -0.0002604429558623654
-0.0005731887820910357   -0.009536663275413367   -0.00025377233075495715
-0.0004184490225814345   -0.008886135211671956   -0.00021400456207671927
-0.0008118170279531006   -0.00954922373109937   -0.00026000443653199424
-0.0005622234141986733   -0.009536638576697301   -0.0002639536584980386
-0.0004184490225814345   -0.008886135211671956   -0.00021400456207671927
-0.0008187073900359622   -0.00889412467677402   -0.000223707603044577
-0.0008118170279531006   -0.00954922373109937   -0.00026000443653199424
-0.0008142345092037646   -0.008892169094470456   -0.00022192137539638716
-0.0005622234141986733   -0.009536638576697301   -0.0002639536584980386
-0.000801420578538457   -0.009549552073244956   -0.00025867620066495823
-0.0008142345092037646   -0.008892169094470456   -0.00022192137539638716
-0.0008118170279531006   -0.00954922373109937   -0.00026000443653199424
-0.0005622234141986733   -0.009536638576697301   -0.0002639536584980386
-0.0008142345092037646   -0.008892169094470456   -0.00022192137539638716
-0.00041360373697501505   -0.008883017352110542   -0.00022192457759017122
-0.0004184490225814345   -0.008886135211671956   -0.00021400456207671927
-0.0005622234141986733   -0.009536638576697301   -0.0002639536584980386
-0.0008142345092037646   -0.008892169094470456   -0.00022192137539638716
-0.0004184490225814345   -0.008886135211671956   -0.00021400456207671927
-0.0008118170279531006   -0.00954922373109937   -0.00026000443653199424
-0.0008330600673441904   -0.009567259103208464   -0.00025998474559013634
-0.0008287921438669528   -0.008913891833976008   -0.00022448673923596997
-0.001064918648434781   -0.009557964285114092   -0.0002875852931402649
-0.0008226301279784109   -0.009555042620487566   -0.0002604429558623654
-0.0008287921438669528   -0.008913891833976008   -0.00022448673923596997
-0.0012186629490859961   -0.00890095720339937   -0.0002507648613017399
-0.001064918648434781   -0.009557964285114092   -0.0002875852931402649
-0.0012140582251591063   -0.008890174918598694   -0.0002413402943766568
-0.0008226301279784109   -0.009555042620487566   -0.0002604429558623654
-0.001054572580065833   -0.009547031792469683   -0.0002768736066718271
-0.0012140582251591063   -0.008890174918598694   -0.0002413402943766568
-0.001064918648434781   -0.009557964285114092   -0.0002875852931402649
-0.0008226301279784109   -0.009555042620487566   -0.0002604429558623654
-0.0012140582251591063   -0.008890174918598694   -0.0002413402943766568
-0.0008238318256095629   -0.008901343326638231   -0.00022458835134206957
-0.0008287921438669528   -0.008913891833976008   -0.00022448673923596997
-0.0008226301279784109   -0.009555042620487566   -0.0002604429558623654
-0.0012140582251591063   -0.008890174918598694   -0.0002413402943766568
-0.0008287921438669528   -0.008913891833976008   -0.00022448673923596997
-0.001064918648434781   -0.009557964285114092   -0.0002875852931402649
-0.0008226301279784109   -0.009555042620487566   -0.0002604429558623654
-0.0008238318256095629   -0.008901343326638231   -0.00022458835134206957
-0.001054572580065833   -0.009547031792469683   -0.0002768736066718271
-0.0008118170279531006   -0.00954922373109937   -0.00026000443653199424
-0.0008238318256095629   -0.008901343326638231   -0.00022458835134206957
-0.0012140582251591063   -0.008890174918598694   -0.0002413402943766568
-0.001054572580065833   -0.009547031792469683   -0.0002768736066718271
-0.0012084802468671613   -0.00888466765979163   -0.00023096105744888532
-0.0008118170279531006   -0.00954922373109937   -0.00026000443653199424
-0.001042967137923967   -0.009542407244167701   -0.00026528546435813135
-0.0012084802468671613   -0.00888466765979163   -0.00023096105744888532
-0.001054572580065833   -0.009547031792469683   -0.0002768736066718271
-0.0008118170279531006   -0.00954922373109937   -0.00026000443653199424
-0.0012084802468671613   -0.00888466765979163   -0.00023096105744888532
-0.0008187073900359622   -0.00889412467677402   -0.000223707603044577
-0.0008238318256095629   -0.008901343326638231   -0.00022458835134206957
-0.0008118170279531006   -0.00954922373109937   -0.00026000443653199424
-0.0012084802468671613   -0.00888466765979163   -0.00023096105744888532
-0.0008238318256095629   -0.008901343326638231   -0.00022458835134206957
-0.001054572580065833   -0.009547031792469683   -0.0002768736066718271
-0.0008118170279531006   -0.00954922373109937   -0.00026000443653199424
-0.0008187073900359622   -0.00889412467677402   -0.000223707603044577
-0.001042967137923967   -0.009542407244167701   -0.00026528546435813135
-0.000801420578538457   -0.009549552073244956   -0.00025867620066495823
-0.0008187073900359622   -0.00889412467677402   -0.000223707603044577
-0.0012084802468671613   -0.00888466765979163   -0.00023096105744888532
-0.001042967137923967   -0.009542407244167701   -0.00026528546435813135
-0.0012031030208035061   -0.008884230403596514   -0.0002196549951218809
-0.000801420578538457   -0.009549552073244956   -0.00025867620066495823
-0.0010313901712314729   -0.009543568231195877   -0.0002527153579949403
-0.0012031030208035061   -0.008884230403596514   -0.0002196549951218809
-0.001042967137923967   -0.009542407244167701   -0.00026528546435813135
-0.000801420578538457   -0.009549552073244956   -0.00025867620066495823
-0.0012031030208035061   -0.008884230403596514   -0.0002196549951218809
-0.0008142345092037646   -0.008892169094470456   -0.00022192137539638716
-0.0008187073900359622   -0.00889412467677402   -0.000223707603044577
-0.000801420578538457   -0.009549552073244956   -0.00025867620066495823
-0.0012031030208035061   -0.008884230403596514   -0.0002196549951218809
-0.0008187073900359622   -0.00889412467677402   -0.000223707603044577
-0.001042967137923967   -0.009542407244167701   -0.00026528546435813135
-0.001064918648434781   -0.009557964285114092   -0.0002875852931402649
-0.0012186629490859961   -0.00890095720339937   -0.0002507648613017399
-0.0013181091181596828   -0.009528649188091005   -0.00031323651110308194
-0.001054572580065833   -0.009547031792469683   -0.0002768736066718271
-0.0012186629490859961   -0.00890095720339937   -0.0002507648613017399
-0.0016262472350133178   -0.008871251992625877   -0.00027418143513828665
-0.0013181091181596828   -0.009528649188091005   -0.00031323651110308194
-0.0016200166686661027   -0.008862085234951416   -0.00025518385005029705
-0.001054572580065833   -0.009547031792469683   -0.0002768736066718271
-0.0013052305860995115   -0.009518942033782788   -0.00029152215942220125
-0.0016200166686661027   -0.008862085234951416   -0.00025518385005029705
-0.0013181091181596828   -0.009528649188091005   -0.00031323651110308194
-0.001054572580065833   -0.009547031792469683   -0.0002768736066718271
-0.0016200166686661027   -0.008862085234951416   -0.00025518385005029705
-0.0012140582251591063   -0.008890174918598694   -0.0002413402943766568
-0.0012186629490859961   -0.00890095720339937   -0.0002507648613017399
-0.001054572580065833   -0.009547031792469683   -0.0002768736066718271
-0.0016200166686661027   -0.008862085234951416   -0.00025518385005029705
-0.0012186629490859961   -0.00890095720339937   -0.0002507648613017399
-0.0013181091181596828   -0.009528649188091005   -0.00031323651110308194
-0.001054572580065833   -0.009547031792469683   -0.0002768736066718271
-0.0012140582251591063   -0.008890174918598694   -0.0002413402943766568
-0.0013052305860995115   -0.009518942033782788   -0.00029152215942220125
-0.001042967137923967   -0.009542407244167701   -0.00026528546435813135
-0.0012140582251591063   -0.008890174918598694   -0.0002413402943766568
-0.0016200166686661027   -0.008862085234951416   -0.00025518385005029705
-0.0013052305860995115   -0.009518942033782788   -0.00029152215942220125
-0.0016093328967000705   -0.008858128456268908   -0.00023538845054695524
-0.001042967137923967   -0.009542407244167701   -0.00026528546435813135
-0.0012872444236776326   -0.009515507601346796   -0.0002690172055297149
-0.0016093328967000705   -0.008858128456268908   -0.00023538845054695524
-0.0013052305860995115   -0.009518942033782788   -0.00029152215942220125
-0.001042967137923967   -0.009542407244167701   -0.00026528546435813135
-0.0016093328967000705   -0.008858128456268908   -0.00023538845054695524
-0.0012084802468671613   -0.00888466765979163   -0.00023096105744888532
-0.0012140582251591063   -0.008890174918598694   -0.0002413402943766568
-0.001042967137923967   -0.009542407244167701   -0.00026528546435813135
-0.0016093328967000705   -0.008858128456268908   -0.00023538845054695524
-0.0012140582251591063   -0.008890174918598694   -0.0002413402943766568
-0.0013052305860995115   -0.009518942033782788   -0.00029152215942220125
-0.001042967137923967   -0.009542407244167701   -0.00026528546435813135
-0.0012084802468671613   -0.00888466765979163   -0.00023096105744888532
-0.0012872444236776326   -0.009515507601346796   -0.0002690172055297149
-0.0010313901712314729   -0.009543568231195877   -0.0002527153579949403
-0.0012084802468671613   -0.00888466765979163   -0.00023096105744888532
-0.0016093328967000705   -0.008858128456268908   -0.00023538845054695524
-0.0012872444236776326   -0.009515507601346796   -0.0002690172055297149
-0.0016009084756334322   -0.008859640184618626   -0.00021452514846590783
-0.0010313901712314729   -0.009543568231195877   -0.0002527153579949403
-0.001271899733280624   -0.009518333353344802   -0.00024515151962361257
-0.0016009084756334322   -0.008859640184618626   -0.00021452514846590783
-0.0012872444236776326   -0.009515507601346796   -0.0002690172055297149
-0.0010313901712314729   -0.009543568231195877   -0.0002527153579949403
-0.0016009084756334322   -0.008859640184618626   -0.00021452514846590783
-0.0012031030208035061   -0.008884230403596514   -0.0002196549951218809
-0.0012084802468671613   -0.00888466765979163   -0.00023096105744888532
-0.0010313901712314729   -0.009543568231195877   -0.0002527153579949403
-0.0016009084756334322   -0.008859640184618626   -0.00021452514846590783
-0.0012084802468671613   -0.00888466765979163   -0.00023096105744888532
-0.0012872444236776326   -0.009515507601346796   -0.0002690172055297149
-0.0013181091181596828   -0.009528649188091005   -0.00031323651110308194
-0.0016262472350133178   -0.008871251992625877   -0.00027418143513828665
-0.00164383730382979   -0.00948097067836615   -0.0003387658398305001
-0.0013052305860995115   -0.009518942033782788   -0.00029152215942220125
-0.0016262472350133178   -0.008871251992625877   -0.00027418143513828665
-0.002101082897701718   -0.008827786470581966   -0.0002966511360958569
-0.00164383730382979   -0.00948097067836615   -0.0003387658398305001
-0.0020670201010457947   -0.008817934215088294   -0.00026676667971339753
-0.0013052305860995115   -0.009518942033782788   -0.00029152215942220125
-0.0015992771020673841   -0.009470061561204165   -0.00030438554595278174
-0.0020670201010457947   -0.008817934215088294   -0.00026676667971339753
-0.00164383730382979   -0.00948097067836615   -0.0003387658398305001
-0.0013052305860995115   -0.009518942033782788   -0.00029152215942220125
-0.0020670201010457947   -0.008817934215088294   -0.00026676667971339753
-0.0016200166686661027   -0.008862085234951416   -0.00025518385005029705
-0.0016262472350133178   -0.008871251992625877   -0.00027418143513828665
-0.0013052305860995115   -0.009518942033782788   -0.00029152215942220125
-0.0020670201010457947   -0.008817934215088294   -0.00026676667971339753
-0.0016262472350133178   -0.008871251992625877   -0.00027418143513828665
-0.00164383730382979   -0.00948097067836615   -0.0003387658398305001
-0.0013052305860995115   -0.009518942033782788   -0.00029152215942220125
-0.0016200166686661027   -0.008862085234951416   -0.00025518385005029705
-0.0015992771020673841   -0.009470061561204165   -0.00030438554595278174
-0.0012872444236776326   -0.009515507601346796   -0.0002690172055297149
-0.0016200166686661027   -0.008862085234951416   -0.00025518385005029705
-0.0020670201010457947   -0.008817934215088294   -0.00026676667971339753
-0.0015992771020673841   -0.009470061561204165   -0.00030438554595278174
-0.002037864344939872   -0.008814400439744663   -0.000235536883598505
-0.0012872444236776326   -0.009515507601346796   -0.0002690172055297149
-0.0015599688883388846   -0.009466884970756734   -0.0002682997276083318
-0.002037864344939872   -0.008814400439744663   -0.000235536883598505
-0.0015992771020673841   -0.009470061561204165   -0.00030438554595278174
-0.0012872444236776326   -0.009515507601346796   -0.0002690172055297149
-0.002037864344939872   -0.008814400439744663   -0.000235536883598505
-0.0016093328967000705   -0.008858128456268908   -0.00023538845054695524
-0.0016200166686661027   -0.008862085234951416   -0.00025518385005029705
-0.0012872444236776326   -0.009515507601346796   -0.0002690172055297149
-0.002037864344939872   -0.008814400439744663   -0.000235536883598505
-0.0016200166686661027   -0.008862085234951416   -0.00025518385005029705
-0.0015992771020673841   -0.009470061561204165   -0.00030438554595278174
-0.0012872444236776326   -0.009515507601346796   -0.0002690172055297149
-0.0016093328967000705   -0.008858128456268908   -0.00023538845054695524
-0.0015599688883388846   -0.009466884970756734   -0.0002682997276083318
-0.001271899733280624   -0.009518333353344802   -0.00024515151962361257
-0.0016093328967000705   -0.008858128456268908   -0.00023538845054695524
-0.002037864344939872   -0.008814400439744663   -0.000235536883598505
-0.0015599688883388846   -0.009466884970756734   -0.0002682997276083318
-0.001998758813741314   -0.008819124022379042   -0.00020315508001440965
-0.001271899733280624   -0.009518333353344802   -0.00024515151962361257
-0.0015091048483474485   -0.009473285832316592   -0.00023082631194387102
-0.001998758813741314   -0.008819124022379042   -0.00020315508001440965
-0.0015599688883388846   -0.009466884970756734   -0.0002682997276083318
-0.001271899733280624   -0.009518333353344802   -0.00024515151962361257
-0.001998758813741314   -0.008819124022379042   -0.00020315508001440965
-0.0016009084756334322   -0.008859640184618626   -0.00021452514846590783
-0.0016093328967000705   -0.008858128456268908   -0.00023538845054695524
-0.001271899733280624   -0.009518333353344802   -0.00024515151962361257
-0.001998758813741314   -0.008819124022379042   -0.00020315508001440965
-0.0016093328967000705   -0.008858128456268908   -0.00023538845054695524
-0.0015599688883388846   -0.009466884970756734   -0.0002682997276083318
-2.835870720726326e-05   -0.008888232168605485   -0.00015926099493663898
0.00023855441596774834   -0.007994263916538293   -0.00012090492890319483
-0.0004334437528865095   -0.00890969962415094   -0.00019531508515595208
-9.982553684791514e-07   -0.008870259393835232   -0.00018194081722911466
0.00023855441596774834   -0.007994263916538293   -0.00012090492890319483
-0.00030859721881518746   -0.008009119949031421   -0.0001554255550748519
-0.0004334437528865095   -0.00890969962415094   -0.00019531508515595208
-0.0003067937220921342   -0.007994420883639239   -0.00016255559222900953
-9.982553684791514e-07   -0.008870259393835232   -0.00018194081722911466
-0.00042651689002376074   -0.008894932671268115   -0.00020516863459807305
-0.0003067937220921342   -0.007994420883639239   -0.00016255559222900953
-0.0004334437528865095   -0.00890969962415094   -0.00019531508515595208
-9.982553684791514e-07   -0.008870259393835232   -0.00018194081722911466
-0.0003067937220921342   -0.007994420883639239   -0.00016255559222900953
0.00025593953572842923   -0.007976634283544538   -0.00013833546811123923
0.00023855441596774834   -0.007994263916538293   -0.00012090492890319483
-9.982553684791514e-07   -0.008870259393835232   -0.00018194081722911466
-0.0003067937220921342   -0.007994420883639239   -0.00016255559222900953
0.00023855441596774834   -0.007994263916538293   -0.00012090492890319483
-0.0004334437528865095   -0.00890969962415094   -0.00019531508515595208
-9.982553684791514e-07   -0.008870259393835232   -0.00018194081722911466
0.00025593953572842923   -0.007976634283544538   -0.00013833546811123923
-0.00042651689002376074   -0.008894932671268115   -0.00020516863459807305
1.9240136686487675e-05   -0.008860860720653849   -0.00020319530943213344
0.00025593953572842923   -0.007976634283544538   -0.00013833546811123923
-0.0003067937220921342   -0.007994420883639239   -0.00016255559222900953
-0.00042651689002376074   -0.008894932671268115   -0.00020516863459807305
-0.00030444173997566226   -0.007984578271231852   -0.00016872363801114816
1.9240136686487675e-05   -0.008860860720653849   -0.00020319530943213344
-0.0004184490225814345   -0.008886135211671956   -0.00021400456207671927
-0.00030444173997566226   -0.007984578271231852   -0.00016872363801114816
-0.00042651689002376074   -0.008894932671268115   -0.00020516863459807305
1.9240136686487675e-05   -0.008860860720653849   -0.00020319530943213344
-0.00030444173997566226   -0.007984578271231852   -0.00016872363801114816
0.00026735824314847893   -0.00796604522946209   -0.0001543991479309976
0.00025593953572842923   -0.007976634283544538   -0.00013833546811123923
1.9240136686487675e-05   -0.008860860720653849   -0.00020319530943213344
-0.00030444173997566226   -0.007984578271231852   -0.00016872363801114816
0.00025593953572842923   -0.007976634283544538   -0.00013833546811123923
-0.00042651689002376074   -0.008894932671268115   -0.00020516863459807305
1.9240136686487675e-05   -0.008860860720653849   -0.00020319530943213344
0.00026735824314847893   -0.00796604522946209   -0.0001543991479309976
-0.0004184490225814345   -0.008886135211671956   -0.00021400456207671927
4.139787473746278e-05   -0.008857718055869185   -0.00022302561206395287
0.00026735824314847893   -0.00796604522946209   -0.0001543991479309976
-0.00030444173997566226   -0.007984578271231852   -0.00016872363801114816
-0.0004184490225814345   -0.008886135211671956   -0.00021400456207671927
-0.00030490867071355436   -0.007979231573340736   -0.00017399862205045796
4.139787473746278e-05   -0.008857718055869185   -0.00022302561206395287
-0.00041360373697501505   -0.008883017352110542   -0.00022192457759017122
-0.00030490867071355436   -0.007979231573340736   -0.00017399862205045796
-0.0004184490225814345   -0.008886135211671956   -0.00021400456207671927
4.139787473746278e-05   -0.008857718055869185   -0.00022302561206395287
-0.00030490867071355436   -0.007979231573340736   -0.00017399862205045796
0.0002795487365460997   -0.007960170066986995   -0.00016913147561273612
0.00026735824314847893   -0.00796604522946209   -0.0001543991479309976
4.139787473746278e-05   -0.008857718055869185   -0.00022302561206395287
-0.00030490867071355436   -0.007979231573340736   -0.00017399862205045796
0.00026735824314847893   -0.00796604522946209   -0.0001543991479309976
-0.0004184490225814345   -0.008886135211671956   -0.00021400456207671927
-0.0004334437528865095   -0.00890969962415094   -0.00019531508515595208
-0.00030859721881518746   -0.008009119949031421   -0.0001554255550748519
-0.0008287921438669528   -0.008913891833976008   -0.00022448673923596997
-0.00042651689002376074   -0.008894932671268115   -0.00020516863459807305
-0.00030859721881518746   -0.008009119949031421   -0.0001554255550748519
-0.0008379546404489386   -0.00800954796933123   -0.00018321516499313282
-0.0008287921438669528   -0.008913891833976008   -0.00022448673923596997
-0.000837845078421873   -0.007997334047447738   -0.00018252309276989162
-0.00042651689002376074   -0.008894932671268115   -0.00020516863459807305
-0.0008238318256095629   -0.008901343326638231   -0.00022458835134206957
-0.000837845078421873   -0.007997334047447738   -0.00018252309276989162
-0.0008287921438669528   -0.008913891833976008   -0.00022448673923596997
-0.00042651689002376074   -0.008894932671268115   -0.00020516863459807305
-0.000837845078421873   -0.007997334047447738   -0.00018252309276989162
-0.0003067937220921342   -0.007994420883639239   -0.00016255559222900953
-0.00030859721881518746   -0.008009119949031421   -0.0001554255550748519
-0.00042651689002376074   -0.008894932671268115   -0.00020516863459807305
-0.000837845078421873   -0.007997334047447738   -0.00018252309276989162
-0.00030859721881518746   -0.008009119949031421   -0.0001554255550748519
-0.0008287921438669528   -0.008913891833976008   -0.00022448673923596997
-0.00042651689002376074   -0.008894932671268115   -0.00020516863459807305
-0.0003067937220921342   -0.007994420883639239   -0.00016255559222900953
-0.0008238318256095629   -0.008901343326638231   -0.00022458835134206957
-0.0004184490225814345   -0.008886135211671956   -0.00021400456207671927
-0.0003067937220921342   -0.007994420883639239   -0.00016255559222900953
-0.000837845078421873   -0.007997334047447738   -0.00018252309276989162
-0.0008238318256095629   -0.008901343326638231   -0.00022458835134206957
-0.0008376885392585993   -0.007989389221124396   -0.00018086468911103238
-0.0004184490225814345   -0.008886135211671956   -0.00021400456207671927
-0.0008187073900359622   -0.00889412467677402   -0.000223707603044577
-0.0008376885392585993   -0.007989389221124396   -0.00018086468911103238
-0.0008238318256095629   -0.008901343326638231   -0.00022458835134206957
-0.0004184490225814345   -0.008886135211671956   -0.00021400456207671927
-0.0008376885392585993   -0.007989389221124396   -0.00018086468911103238
-0.00030444173997566226   -0.007984578271231852   -0.00016872363801114816
-0.0003067937220921342   -0.007994420883639239   -0.00016255559222900953
-0.0004184490225814345   -0.008886135211671956   -0.00021400456207671927
-0.0008376885392585993   -0.007989389221124396   -0.00018086468911103238
-0.0003067937220921342   -0.007994420883639239   -0.00016255559222900953
-0.0008238318256095629   -0.008901343326638231   -0.00022458835134206957
-0.0004184490225814345   -0.008886135211671956   -0.00021400456207671927
-0.00030444173997566226   -0.007984578271231852   -0.00016872363801114816
-0.0008187073900359622   -0.00889412467677402   -0.000223707603044577
-0.00041360373697501505   -0.008883017352110542   -0.00022192457759017122
-0.00030444173997566226   -0.007984578271231852   -0.00016872363801114816
-0.0008376885392585993   -0.007989389221124396   -0.00018086468911103238
-0.0008187073900359622   -0.00889412467677402   -0.000223707603044577
-0.0008382190387850633   -0.007985724440614999   -0.00017830063581530372
-0.00041360373697501505   -0.008883017352110542   -0.00022192457759017122
-0.0008142345092037646   -0.008892169094470456   -0.00022192137539638716
-0.0008382190387850633   -0.007985724440614999   -0.00017830063581530372
-0.0008187073900359622   -0.00889412467677402   -0.000223707603044577
-0.00041360373697501505   -0.008883017352110542   -0.00022192457759017122
-0.0008382190387850633   -0.007985724440614999   -0.00017830063581530372
-0.00030490867071355436   -0.007979231573340736   -0.00017399862205045796
-0.00030444173997566226   -0.007984578271231852   -0.00016872363801114816
-0.00041360373697501505   -0.008883017352110542   -0.00022192457759017122
-0.0008382190387850633   -0.007985724440614999   -0.00017830063581530372
-0.00030444173997566226   -0.007984578271231852   -0.00016872363801114816
-0.0008187073900359622   -0.00889412467677402   -0.000223707603044577
-0.0008287921438669528   -0.008913891833976008   -0.00022448673923596997
-0.0008379546404489386   -0.00800954796933123   -0.00018321516499313282
-0.0012186629490859961   -0.00890095720339937   -0.0002507648613017399
-0.0008238318256095629   -0.008901343326638231   -0.00022458835134206957
-0.0008379546404489386   -0.00800954796933123   -0.00018321516499313282
-0.0013590091120035926   -0.007996097365889417   -0.0002073441222902172
-0.0012186629490859961   -0.00890095720339937   -0.0002507648613017399
-0.0013593155901740937   -0.007985998648376083   -0.00019893336473718998
-0.0008238318256095629   -0.008901343326638231   -0.00022458835134206957
-0.0012140582251591063   -0.008890174918598694   -0.0002413402943766568
-0.0013593155901740937   -0.007985998648376083   -0.00019893336473718998
-0.0012186629490859961   -0.00890095720339937   -0.0002507648613017399
-0.0008238318256095629   -0.008901343326638231   -0.00022458835134206957
-0.0013593155901740937   -0.007985998648376083   -0.00019893336473718998
-0.000837845078421873   -0.007997334047447738   -0.00018252309276989162
-0.0008379546404489386   -0.00800954796933123   -0.00018321516499313282
-0.0008238318256095629   -0.008901343326638231   -0.00022458835134206957
-0.0013593155901740937   -0.007985998648376083   -0.00019893336473718998
-0.0008379546404489386   -0.00800954796933123   -0.00018321516499313282
-0.0012186629490859961   -0.00890095720339937   -0.0002507648613017399
-0.0008238318256095629   -0.008901343326638231   -0.00022458835134206957
-0.000837845078421873   -0.007997334047447738   -0.00018252309276989162
-0.0012140582251591063   -0.008890174918598694   -0.0002413402943766568
-0.0008187073900359622   -0.00889412467677402   -0.000223707603044577
-0.000837845078421873   -0.007997334047447738   -0.00018252309276989162
-0.0013593155901740937   -0.007985998648376083   -0.00019893336473718998
-0.0012140582251591063   -0.008890174918598694   -0.0002413402943766568
-0.001358752784790046   -0.007980132258546418   -0.00018958059972172406
-0.0008187073900359622   -0.00889412467677402   -0.000223707603044577
-0.0012084802468671613   -0.00888466765979163   -0.00023096105744888532
-0.001358752784790046   -0.007980132258546418   -0.00018958059972172406
-0.0012140582251591063   -0.008890174918598694   -0.0002413402943766568
-0.0008187073900359622   -0.00889412467677402   -0.000223707603044577
-0.001358752784790046   -0.007980132258546418   -0.00018958059972172406
-0.0008376885392585993   -0.007989389221124396   -0.00018086468911103238
-0.000837845078421873   -0.007997334047447738   -0.00018252309276989162
-0.0008187073900359622   -0.00889412467677402   -0.000223707603044577
-0.001358752784790046   -0.007980132258546418   -0.00018958059972172406
-0.000837845078421873   -0.007997334047447738   -0.00018252309276989162
-0.0012140582251591063   -0.008890174918598694   -0.0002413402943766568
-0.0008187073900359622   -0.00889412467677402   -0.000223707603044577
-0.0008376885392585993   -0.007989389221124396   -0.00018086468911103238
-0.0012084802468671613   -0.00888466765979163   -0.00023096105744888532
-0.0008142345092037646   -0.008892169094470456   -0.00022192137539638716
-0.0008376885392585993   -0.007989389221124396   -0.00018086468911103238
-0.001358752784790046   -0.007980132258546418   -0.00018958059972172406
-0.0012084802468671613   -0.00888466765979163   -0.00023096105744888532
-0.0013583716653049892   -0.007978434453870106   -0.00017931057137862518
-0.0008142345092037646   -0.008892169094470456   -0.00022192137539638716
-0.0012031030208035061   -0.008884230403596514   -0.0002196549951218809
-0.0013583716653049892   -0.007978434453870106   -0.00017931057137862518
-0.0012084802468671613   -0.00888466765979163   -0.00023096105744888532
-0.0008142345092037646   -0.008892169094470456   -0.00022192137539638716
-0.0013583716653049892   -0.007978434453870106   -0.00017931057137862518
-0.0008382190387850633   -0.007985724440614999   -0.00017830063581530372
-0.0008376885392585993   -0.007989389221124396   -0.00018086468911103238
-0.0008142345092037646   -0.008892169094470456   -0.00022192137539638716
-0.0013583716653049892   -0.007978434453870106   -0.00017931057137862518
-0.0008376885392585993   -0.007989389221124396   -0.00018086468911103238
-0.0012084802468671613   -0.00888466765979163   -0.00023096105744888532
-0.0012186629490859961   -0.00890095720339937   -0.0002507648613017399
-0.0013590091120035926   -0.007996097365889417   -0.0002073441222902172
-0.0016262472350133178   -0.008871251992625877   -0.00027418143513828665
-0.0012140582251591063   -0.008890174918598694   -0.0002413402943766568
-0.0013590091120035926   -0.007996097365889417   -0.0002073441222902172
-0.0018958518027408628   -0.007969193531678959   -0.00022795892781550908
-0.0016262472350133178   -0.008871251992625877   -0.00027418143513828665
-0.001894934869976679   -0.007961061289864546   -0.00021172220319947465
-0.0012140582251591063   -0.008890174918598694   -0.0002413402943766568
-0.0016200166686661027   -0.008862085234951416   -0.00025518385005029705
-0.001894934869976679   -0.007961061289864546   -0.00021172220319947465
-0.0016262472350133178   -0.008871251992625877   -0.00027418143513828665
-0.0012140582251591063   -0.008890174918598694   -0.0002413402943766568
-0.001894934869976679   -0.007961061289864546   -0.00021172220319947465
-0.0013593155901740937   -0.007985998648376083   -0.00019893336473718998
-0.0013590091120035926   -0.007996097365889417   -0.0002073441222902172
-0.0012140582251591063   -0.008890174918598694   -0.0002413402943766568
-0.001894934869976679   -0.007961061289864546   -0.00021172220319947465
-0.0013590091120035926   -0.007996097365889417   -0.0002073441222902172
-0.0016262472350133178   -0.008871251992625877   -0.00027418143513828665
-0.0012140582251591063   -0.008890174918598694   -0.0002413402943766568
-0.0013593155901740937   -0.007985998648376083   -0.00019893336473718998
-0.0016200166686661027   -0.008862085234951416   -0.00025518385005029705
-0.0012084802468671613   -0.00888466765979163   -0.00023096105744888532
-0.0013593155901740937   -0.007985998648376083   -0.00019893336473718998
-0.001894934869976679   -0.007961061289864546   -0.00021172220319947465
-0.0016200166686661027   -0.008862085234951416   -0.00025518385005029705
-0.001890053949940144   -0.0079570825482338   -0.00019468917625655292
-0.0012084802468671613   -0.00888466765979163   -0.00023096105744888532
-0.0016093328967000705   -0.008858128456268908   -0.00023538845054695524
-0.001890053949940144   -0.0079570825482338   -0.00019468917625655292
-0.0016200166686661027   -0.008862085234951416   -0.00025518385005029705
-0.0012084802468671613   -0.00888466765979163   -0.00023096105744888532
-0.001890053949940144   -0.0079570825482338   -0.00019468917625655292
-0.001358752784790046   -0.007980132258546418   -0.00018958059972172406
-0.0013593155901740937   -0.007985998648376083   -0.00019893336473718998
-0.0012084802468671613   -0.00888466765979163   -0.00023096105744888532
-0.001890053949940144   -0.0079570825482338   -0.00019468917625655292
-0.0013593155901740937   -0.007985998648376083   -0.00019893336473718998
-0.0016200166686661027   -0.008862085234951416   -0.00025518385005029705
-0.0012084802468671613   -0.00888466765979163   -0.00023096105744888532
-0.001358752784790046   -0.007980132258546418   -0.00018958059972172406
-0.0016093328967000705   -0.008858128456268908   -0.00023538845054695524
-0.0012031030208035061   -0.008884230403596514   -0.0002196549951218809
-0.001358752784790046   -0.007980132258546418   -0.00018958059972172406
-0.001890053949940144   -0.0079570825482338   -0.00019468917625655292
-0.0016093328967000705   -0.008858128456268908   -0.00023538845054695524
-0.0018868801548435094   -0.007957633810497558   -0.00017665922194071314
-0.0012031030208035061   -0.008884230403596514   -0.0002196549951218809
-0.0016009084756334322   -0.008859640184618626   -0.00021452514846590783
-0.0018868801548435094   -0.007957633810497558   -0.00017665922194071314
-0.0016093328967000705   -0.008858128456268908   -0.00023538845054695524
-0.0012031030208035061   -0.008884230403596514   -0.0002196549951218809
-0.0018868801548435094   -0.007957633810497558   -0.00017665922194071314
-0.0013583716653049892   -0.007978434453870106   -0.00017931057137862518
-0.001358752784790046   -0.007980132258546418   -0.00018958059972172406
-0.0012031030208035061   -0.008884230403596514   -0.0002196549951218809
-0.0018868801548435094   -0.007957633810497558   -0.00017665922194071314
-0.001358752784790046   -0.007980132258546418   -0.00018958059972172406
-0.0016093328967000705   -0.008858128456268908   -0.00023538845054695524
-0.0016262472350133178   -0.008871251992625877   -0.00027418143513828665
-0.0018958518027408628   -0.007969193531678959   -0.00022795892781550908
-0.002101082897701718   -0.008827786470581966   -0.0002966511360958569
-0.0016200166686661027   -0.008862085234951416   -0.00025518385005029705
-0.0018958518027408628   -0.007969193531678959   -0.00022795892781550908
-0.0024956686305941172   -0.007931388780718746   -0.00024690395502516255
-0.002101082897701718   -0.008827786470581966   -0.0002966511360958569
-0.002471265571341016   -0.007923231762327693   -0.0002218521727841662
-0.0016200166686661027   -0.008862085234951416   -0.00025518385005029705
-0.0020670201010457947   -0.008817934215088294   -0.00026676667971339753
-0.002471265571341016   -0.007923231762327693   -0.0002218521727841662
-0.002101082897701718   -0.008827786470581966   -0.0002966511360958569
-0.0016200166686661027   -0.008862085234951416   -0.00025518385005029705
-0.002471265571341016   -0.007923231762327693   -0.0002218521727841662
-0.001894934869976679   -0.007961061289864546   -0.00021172220319947465
-0.0018958518027408628   -0.007969193531678959   -0.00022795892781550908
-0.0016200166686661027   -0.008862085234951416   -0.00025518385005029705
-0.002471265571341016   -0.007923231762327693   -0.0002218521727841662
-0.0018958518027408628   -0.007969193531678959   -0.00022795892781550908
-0.002101082897701718   -0.008827786470581966   -0.0002966511360958569
-0.0016200166686661027   -0.008862085234951416   -0.00025518385005029705
-0.001894934869976679   -0.007961061289864546   -0.00021172220319947465
-0.0020670201010457947   -0.008817934215088294   -0.00026676667971339753
-0.0016093328967000705   -0.008858128456268908   -0.00023538845054695524
-0.001894934869976679   -0.007961061289864546   -0.00021172220319947465
-0.002471265571341016   -0.007923231762327693   -0.0002218521727841662
-0.0020670201010457947   -0.008817934215088294   -0.00026676667971339753
-0.002450656211871183   -0.007919952828980423   -0.0001954375419880301
-0.0016093328967000705   -0.008858128456268908   -0.00023538845054695524
-0.002037864344939872   -0.008814400439744663   -0.000235536883598505
-0.002450656211871183   -0.007919952828980423   -0.0001954375419880301
-0.0020670201010457947   -0.008817934215088294   -0.00026676667971339753
-0.0016093328967000705   -0.008858128456268908   -0.00023538845054695524
-0.002450656211871183   -0.007919952828980423   -0.0001954375419880301
-0.001890053949940144   -0.0079570825482338   -0.00019468917625655292
-0.001894934869976679   -0.007961061289864546   -0.00021172220319947465
-0.0016093328967000705   -0.008858128456268908   -0.00023538845054695524
-0.002450656211871183   -0.007919952828980423   -0.0001954375419880301
-0.001894934869976679   -0.007961061289864546   -0.00021172220319947465
-0.0020670201010457947   -0.008817934215088294   -0.00026676667971339753
-0.0016093328967000705   -0.008858128456268908   -0.00023538845054695524
-0.001890053949940144   -0.0079570825482338   -0.00019468917625655292
-0.002037864344939872   -0.008814400439744663   -0.000235536883598505
-0.0016009084756334322   -0.008859640184618626   -0.00021452514846590783
-0.001890053949940144   -0.0079570825482338   -0.00019468917625655292
-0.002450656211871183   -0.007919952828980423   -0.0001954375419880301
-0.002037864344939872   -0.008814400439744663   -0.000235536883598505
-0.002421272731610982   -0.00792376183156841   -0.00016785840491903656
-0.0016009084756334322   -0.008859640184618626   -0.00021452514846590783
-0.001998758813741314   -0.008819124022379042   -0.00020315508001440965
-0.002421272731610982   -0.00792376183156841   -0.00016785840491903656
-0.002037864344939872   -0.008814400439744663   -0.000235536883598505
-0.0016009084756334322   -0.008859640184618626   -0.00021452514846590783
-0.002421272731610982   -0.00792376183156841   -0.00016785840491903656
-0.0018868801548435094   -0.007957633810497558   -0.00017665922194071314
-0.001890053949940144   -0.0079570825482338   -0.00019468917625655292
-0.0016009084756334322   -0.008859640184618626   -0.00021452514846590783
-0.002421272731610982   -0.00792376183156841   -0.00016785840491903656
-0.001890053949940144   -0.0079570825482338   -0.00019468917625655292
-0.002037864344939872   -0.008814400439744663   -0.000235536883598505
0.00023855441596774834   -0.007994263916538293   -0.00012090492890319483
0.00043102373913623214   -0.0068983486266299835   -8.095621421750309e-05
-0.00030859721881518746   -0.008009119949031421   -0.0001554255550748519
0.00025593953572842923   -0.007976634283544538   -0.00013833546811123923
0.00043102373913623214   -0.0068983486266299835   -8.095621421750309e-05
-0.00022819597110833488   -0.006906389457142645   -0.00011336937750126876
-0.00030859721881518746   -0.008009119949031421   -0.0001554255550748519
-0.00023062199962185393   -0.006892097186127369   -0.0001175481900291245
0.00025593953572842923   -0.007976634283544538   -0.00013833546811123923
-0.0003067937220921342   -0.007994420883639239   -0.00016255559222900953
-0.00023062199962185393   -0.006892097186127369   -0.0001175481900291245
-0.00030859721881518746   -0.008009119949031421   -0.0001554255550748519
0.00025593953572842923   -0.007976634283544538   -0.00013833546811123923
-0.00023062199962185393   -0.006892097186127369   -0.0001175481900291245
0.0004392656380654244   -0.00688135383112558   -9.30254583718028e-05
0.00043102373913623214   -0.0068983486266299835   -8.095621421750309e-05
0.00025593953572842923   -0.007976634283544538   -0.00013833546811123923
-0.00023062199962185393   -0.006892097186127369   -0.0001175481900291245
0.00043102373913623214   -0.0068983486266299835   -8.095621421750309e-05
-0.00030859721881518746   -0.008009119949031421   -0.0001554255550748519
0.00025593953572842923   -0.007976634283544538   -0.00013833546811123923
0.0004392656380654244   -0.00688135383112558   -9.30254583718028e-05
-0.0003067937220921342   -0.007994420883639239   -0.00016255559222900953
0.00026735824314847893   -0.00796604522946209   -0.0001543991479309976
0.0004392656380654244   -0.00688135383112558   -9.30254583718028e-05
-0.00023062199962185393   -0.006892097186127369   -0.0001175481900291245
-0.0003067937220921342   -0.007994420883639239   -0.00016255559222900953
-0.00023308961348624468   -0.00688153599491767   -0.00012083494706639669
0.00026735824314847893   -0.00796604522946209   -0.0001543991479309976
-0.00030444173997566226   -0.007984578271231852   -0.00016872363801114816
-0.00023308961348624468   -0.00688153599491767   -0.00012083494706639669
-0.0003067937220921342   -0.007994420883639239   -0.00016255559222900953
0.00026735824314847893   -0.00796604522946209   -0.0001543991479309976
-0.00023308961348624468   -0.00688153599491767   -0.00012083494706639669
0.0004427645162248033   -0.006869905847747774   -0.00010377049255321172
0.0004392656380654244   -0.00688135383112558   -9.30254583718028e-05
0.00026735824314847893   -0.00796604522946209   -0.0001543991479309976
-0.00023308961348624468   -0.00688153599491767   -0.00012083494706639669
0.0004392656380654244   -0.00688135383112558   -9.30254583718028e-05
-0.0003067937220921342   -0.007994420883639239   -0.00016255559222900953
0.00026735824314847893   -0.00796604522946209   -0.0001543991479309976
0.0004427645162248033   -0.006869905847747774   -0.00010377049255321172
-0.00030444173997566226   -0.007984578271231852   -0.00016872363801114816
0.0002795487365460997   -0.007960170066986995   -0.00016913147561273612
0.0004427645162248033   -0.006869905847747774   -0.00010377049255321172
-0.00023308961348624468   -0.00688153599491767   -0.00012083494706639669
-0.00030444173997566226   -0.007984578271231852   -0.00016872363801114816
-0.00023790609027703107   -0.006874319168542957   -0.0001232579586297271
0.0002795487365460997   -0.007960170066986995   -0.00016913147561273612
-0.00030490867071355436   -0.007979231573340736   -0.00017399862205045796
-0.00023790609027703107   -0.006874319168542957   -0.0001232579586297271
-0.00030444173997566226   -0.007984578271231852   -0.00016872363801114816
0.0002795487365460997   -0.007960170066986995   -0.00016913147561273612
-0.00023790609027703107   -0.006874319168542957   -0.0001232579586297271
0.000445851561983188   -0.006861656698892728   -0.00011325816571651553
0.0004427645162248033   -0.006869905847747774   -0.00010377049255321172
0.0002795487365460997   -0.007960170066986995   -0.00016913147561273612
-0.00023790609027703107   -0.006874319168542957   -0.0001232579586297271
0.0004427645162248033   -0.006869905847747774   -0.00010377049255321172
-0.00030444173997566226   -0.007984578271231852   -0.00016872363801114816
-0.00030859721881518746   -0.008009119949031421   -0.0001554255550748519
-0.00022819597110833488   -0.006906389457142645   -0.00011336937750126876
-0.0008379546404489386   -0.00800954796933123   -0.00018321516499313282
-0.0003067937220921342   -0.007994420883639239   -0.00016255559222900953
-0.00022819597110833488   -0.006906389457142645   -0.00011336937750126876
-0.0008620743252943527   -0.006903237908836844   -0.000139249009660294
-0.0008379546404489386   -0.00800954796933123   -0.00018321516499313282
-0.0008658813507844622   -0.006891604446467105   -0.00013756761233258604
-0.0003067937220921342   -0.007994420883639239   -0.00016255559222900953
-0.000837845078421873   -0.007997334047447738   -0.00018252309276989162
-0.0008658813507844622   -0.006891604446467105   -0.00013756761233258604
-0.0008379546404489386   -0.00800954796933123   -0.00018321516499313282
-0.0003067937220921342   -0.007994420883639239   -0.00016255559222900953
-0.0008658813507844622   -0.006891604446467105   -0.00013756761233258604
-0.00023062199962185393   -0.006892097186127369   -0.0001175481900291245
-0.00022819597110833488   -0.006906389457142645   -0.00011336937750126876
-0.0003067937220921342   -0.007994420883639239   -0.00016255559222900953
-0.0008658813507844622   -0.006891604446467105   -0.00013756761233258604
-0.00022819597110833488   -0.006906389457142645   -0.00011336937750126876
-0.0008379546404489386   -0.00800954796933123   -0.00018321516499313282
-0.0003067937220921342   -0.007994420883639239   -0.00016255559222900953
-0.00023062199962185393   -0.006892097186127369   -0.0001175481900291245
-0.000837845078421873   -0.007997334047447738   -0.00018252309276989162
-0.00030444173997566226   -0.007984578271231852   -0.00016872363801114816
-0.00023062199962185393   -0.006892097186127369   -0.0001175481900291245
-0.0008658813507844622   -0.006891604446467105   -0.00013756761233258604
-0.000837845078421873   -0.007997334047447738   -0.00018252309276989162
-0.0008697448107332322   -0.006883161041598111   -0.0001349600845653183
-0.00030444173997566226   -0.007984578271231852   -0.00016872363801114816
-0.0008376885392585993   -0.007989389221124396   -0.00018086468911103238
-0.0008697448107332322   -0.006883161041598111   -0.0001349600845653183
-0.000837845078421873   -0.007997334047447738   -0.00018252309276989162
-0.00030444173997566226   -0.007984578271231852   -0.00016872363801114816
-0.0008697448107332322   -0.006883161041598111   -0.0001349600845653183
-0.00023308961348624468   -0.00688153599491767   -0.00012083494706639669
-0.00023062199962185393   -0.006892097186127369   -0.0001175481900291245
-0.00030444173997566226   -0.007984578271231852   -0.00016872363801114816
-0.0008697448107332322   -0.006883161041598111   -0.0001349600845653183
-0.00023062199962185393   -0.006892097186127369   -0.0001175481900291245
-0.000837845078421873   -0.007997334047447738   -0.00018252309276989162
-0.00030444173997566226   -0.007984578271231852   -0.00016872363801114816
-0.00023308961348624468   -0.00688153599491767   -0.00012083494706639669
-0.0008376885392585993   -0.007989389221124396   -0.00018086468911103238
-0.00030490867071355436   -0.007979231573340736   -0.00017399862205045796
-0.00023308961348624468   -0.00688153599491767   -0.00012083494706639669
-0.0008697448107332322   -0.006883161041598111   -0.0001349600845653183
-0.0008376885392585993   -0.007989389221124396   -0.00018086468911103238
-0.0008742733779469157   -0.006877957828213883   -0.00013148090753660257
-0.00030490867071355436   -0.007979231573340736   -0.00017399862205045796
-0.0008382190387850633   -0.007985724440614999   -0.00017830063581530372
-0.0008742733779469157   -0.006877957828213883   -0.00013148090753660257
-0.0008376885392585993   -0.007989389221124396   -0.00018086468911103238
-0.00030490867071355436   -0.007979231573340736   -0.00017399862205045796
-0.0008742733779469157   -0.006877957828213883   -0.00013148090753660257
-0.00023790609027703107   -0.006874319168542957   -0.0001232579586297271
-0.00023308961348624468   -0.00688153599491767   -0.00012083494706639669
-0.00030490867071355436   -0.007979231573340736   -0.00017399862205045796
-0.0008742733779469157   -0.006877957828213883   -0.00013148090753660257
-0.00023308961348624468   -0.00688153599491767   -0.00012083494706639669
-0.0008376885392585993   -0.007989389221124396   -0.00018086468911103238
-0.0008379546404489386   -0.00800954796933123   -0.00018321516499313282
-0.0008620743252943527   -0.006903237908836844   -0.000139249009660294
-0.0013590091120035926   -0.007996097365889417   -0.0002073441222902172
-0.000837845078421873   -0.007997334047447738   -0.00018252309276989162
-0.0008620743252943527   -0.006903237908836844   -0.000139249009660294
-0.0014856851075705918   -0.006889804282645335   -0.00016101769184566087
-0.0013590091120035926   -0.007996097365889417   -0.0002073441222902172
-0.001489889585570287   -0.006880522440903179   -0.0001535241111520716
-0.000837845078421873   -0.007997334047447738   -0.00018252309276989162
-0.0013593155901740937   -0.007985998648376083   -0.00019893336473718998
-0.001489889585570287   -0.006880522440903179   -0.0001535241111520716
-0.0013590091120035926   -0.007996097365889417   -0.0002073441222902172
-0.000837845078421873   -0.007997334047447738   -0.00018252309276989162
-0.001489889585570287   -0.006880522440903179   -0.0001535241111520716
-0.0008658813507844622   -0.006891604446467105   -0.00013756761233258604
-0.0008620743252943527   -0.006903237908836844   -0.000139249009660294
-0.000837845078421873   -0.007997334047447738   -0.00018252309276989162
-0.001489889585570287   -0.006880522440903179   -0.0001535241111520716
-0.0008620743252943527   -0.006903237908836844   -0.000139249009660294
-0.0013590091120035926   -0.007996097365889417   -0.0002073441222902172
-0.000837845078421873   -0.007997334047447738   -0.00018252309276989162
-0.0008658813507844622   -0.006891604446467105   -0.00013756761233258604
-0.0013593155901740937   -0.007985998648376083   -0.00019893336473718998
-0.0008376885392585993   -0.007989389221124396   -0.00018086468911103238
-0.0008658813507844622   -0.006891604446467105   -0.00013756761233258604
-0.001489889585570287   -0.006880522440903179   -0.0001535241111520716
-0.0013593155901740937   -0.007985998648376083   -0.00019893336473718998
-0.0014933047837364672   -0.006874401643644998   -0.00014512546985015582
-0.0008376885392585993   -0.007989389221124396   -0.00018086468911103238
-0.001358752784790046   -0.007980132258546418   -0.00018958059972172406
-0.0014933047837364672   -0.006874401643644998   -0.00014512546985015582
-0.0013593155901740937   -0.007985998648376083   -0.00019893336473718998
-0.0008376885392585993   -0.007989389221124396   -0.00018086468911103238
-0.0014933047837364672   -0.006874401643644998   -0.00014512546985015582
-0.0008697448107332322   -0.006883161041598111   -0.0001349600845653183
-0.0008658813507844622   -0.006891604446467105   -0.00013756761233258604
-0.0008376885392585993   -0.007989389221124396   -0.00018086468911103238
-0.0014933047837364672   -0.006874401643644998   -0.00014512546985015582
-0.0008658813507844622   -0.006891604446467105   -0.00013756761233258604
-0.0013593155901740937   -0.007985998648376083   -0.00019893336473718998
-0.0008376885392585993   -0.007989389221124396   -0.00018086468911103238
-0.0008697448107332322   -0.006883161041598111   -0.0001349600845653183
-0.001358752784790046   -0.007980132258546418   -0.00018958059972172406
-0.0008382190387850633   -0.007985724440614999   -0.00017830063581530372
-0.0008697448107332322   -0.006883161041598111   -0.0001349600845653183
-0.0014933047837364672   -0.006874401643644998   -0.00014512546985015582
-0.001358752784790046   -0.007980132258546418   -0.00018958059972172406
-0.001496841635618279   -0.00687142519361036   -0.0001358452927287886
-0.0008382190387850633   -0.007985724440614999   -0.00017830063581530372
-0.0013583716653049892   -0.007978434453870106   -0.00017931057137862518
-0.001496841635618279   -0.00687142519361036   -0.0001358452927287886
-0.001358752784790046   -0.007980132258546418   -0.00018958059972172406
-0.0008382190387850633   -0.007985724440614999   -0.00017830063581530372
-0.001496841635618279   -0.00687142519361036   -0.0001358452927287886
-0.0008742733779469157   -0.006877957828213883   -0.00013148090753660257
-0.0008697448107332322   -0.006883161041598111   -0.0001349600845653183
-0.0008382190387850633   -0.007985724440614999   -0.00017830063581530372
-0.001496841635618279   -0.00687142519361036   -0.0001358452927287886
-0.0008697448107332322   -0.006883161041598111   -0.0001349600845653183
-0.001358752784790046   -0.007980132258546418   -0.00018958059972172406
-0.0013590091120035926   -0.007996097365889417   -0.0002073441222902172
-0.0014856851075705918   -0.006889804282645335   -0.00016101769184566087
-0.0018958518027408628   -0.007969193531678959   -0.00022795892781550908
-0.0013593155901740937   -0.007985998648376083   -0.00019893336473718998
-0.0014856851075705918   -0.006889804282645335   -0.00016101769184566087
-0.0021240747173729606   -0.006866318360733321   -0.00017884134095392417
-0.0018958518027408628   -0.007969193531678959   -0.00022795892781550908
-0.002127379473108987   -0.0068592887366775365   -0.0001654469983113997
-0.0013593155901740937   -0.007985998648376083   -0.00019893336473718998
-0.001894934869976679   -0.007961061289864546   -0.00021172220319947465
-0.002127379473108987   -0.0068592887366775365   -0.0001654469983113997
-0.0018958518027408628   -0.007969193531678959   -0.00022795892781550908
-0.0013593155901740937   -0.007985998648376083   -0.00019893336473718998
-0.002127379473108987   -0.0068592887366775365   -0.0001654469983113997
-0.001489889585570287   -0.006880522440903179   -0.0001535241111520716
-0.0014856851075705918   -0.006889804282645335   -0.00016101769184566087
-0.0013593155901740937   -0.007985998648376083   -0.00019893336473718998
-0.002127379473108987   -0.0068592887366775365   -0.0001654469983113997
-0.0014856851075705918   -0.006889804282645335   -0.00016101769184566087
-0.0018958518027408628   -0.007969193531678959   -0.00022795892781550908
-0.0013593155901740937   -0.007985998648376083   -0.00019893336473718998
-0.001489889585570287   -0.006880522440903179   -0.0001535241111520716
-0.001894934869976679   -0.007961061289864546   -0.00021172220319947465
-0.001358752784790046   -0.007980132258546418   -0.00018958059972172406
-0.001489889585570287   -0.006880522440903179   -0.0001535241111520716
-0.002127379473108987   -0.0068592887366775365   -0.0001654469983113997
-0.001894934869976679   -0.007961061289864546   -0.00021172220319947465
-0.0021272125144336015   -0.006855299781970195   -0.000151271223386406
-0.001358752784790046   -0.007980132258546418   -0.00018958059972172406
-0.001890053949940144   -0.0079570825482338   -0.00019468917625655292
-0.0021272125144336015   -0.006855299781970195   -0.000151271223386406
-0.001894934869976679   -0.007961061289864546   -0.00021172220319947465
-0.001358752784790046   -0.007980132258546418   -0.00018958059972172406
-0.0021272125144336015   -0.006855299781970195   -0.000151271223386406
-0.0014933047837364672   -0.006874401643644998   -0.00014512546985015582
-0.001489889585570287   -0.006880522440903179   -0.0001535241111520716
-0.001358752784790046   -0.007980132258546418   -0.00018958059972172406
-0.0021272125144336015   -0.006855299781970195   -0.000151271223386406
-0.001489889585570287   -0.006880522440903179   -0.0001535241111520716
-0.001894934869976679   -0.007961061289864546   -0.00021172220319947465
-0.001358752784790046   -0.007980132258546418   -0.00018958059972172406
-0.0014933047837364672   -0.006874401643644998   -0.00014512546985015582
-0.001890053949940144   -0.0079570825482338   -0.00019468917625655292
-0.0013583716653049892   -0.007978434453870106   -0.00017931057137862518
-0.0014933047837364672   -0.006874401643644998   -0.00014512546985015582
-0.0021272125144336015   -0.006855299781970195   -0.000151271223386406
-0.001890053949940144   -0.0079570825482338   -0.00019468917625655292
-0.002128170438649871   -0.00685475367142033   -0.00013614348662225034
-0.0013583716653049892   -0.007978434453870106   -0.00017931057137862518
-0.0018868801548435094   -0.007957633810497558   -0.00017665922194071314
-0.002128170438649871   -0.00685475367142033   -0.00013614348662225034
-0.001890053949940144   -0.0079570825482338   -0.00019468917625655292
-0.0013583716653049892   -0.007978434453870106   -0.00017931057137862518
-0.002128170438649871   -0.00685475367142033   -0.00013614348662225034
-0.001496841635618279   -0.00687142519361036   -0.0001358452927287886
-0.0014933047837364672   -0.006874401643644998   -0.00014512546985015582
-0.0013583716653049892   -0.007978434453870106   -0.00017931057137862518
-0.002128170438649871   -0.00685475367142033   -0.00013614348662225034
-0.0014933047837364672   -0.006874401643644998   -0.00014512546985015582
-0.001890053949940144   -0.0079570825482338   -0.00019468917625655292
-0.0018958518027408628   -0.007969193531678959   -0.00022795892781550908
-0.0021240747173729606   -0.006866318360733321   -0.00017884134095392417
-0.0024956686305941172   -0.007931388780718746   -0.00024690395502516255
-0.001894934869976679   -0.007961061289864546   -0.00021172220319947465
-0.0021240747173729606   -0.006866318360733321   -0.00017884134095392417
-0.0028212290913676953   -0.0068348121370182735   -0.00019410571828449793
-0.0024956686305941172   -0.007931388780718746   -0.00024690395502516255
-0.002805806415567911   -0.0068283827861025746   -0.00017425355962325437
-0.001894934869976679   -0.007961061289864546   -0.00021172220319947465
-0.002471265571341016   -0.007923231762327693   -0.0002218521727841662
-0.002805806415567911   -0.0068283827861025746   -0.00017425355962325437
-0.0024956686305941172   -0.007931388780718746   -0.00024690395502516255
-0.001894934869976679   -0.007961061289864546   -0.00021172220319947465
-0.002805806415567911   -0.0068283827861025746   -0.00017425355962325437
-0.002127379473108987   -0.0068592887366775365   -0.0001654469983113997
-0.0021240747173729606   -0.006866318360733321   -0.00017884134095392417
-0.001894934869976679   -0.007961061289864546   -0.00021172220319947465
-0.002805806415567911   -0.0068283827861025746   -0.00017425355962325437
-0.0021240747173729606   -0.006866318360733321   -0.00017884134095392417
-0.0024956686305941172   -0.007931388780718746   -0.00024690395502516255
-0.001894934869976679   -0.007961061289864546   -0.00021172220319947465
-0.002127379473108987   -0.0068592887366775365   -0.0001654469983113997
-0.002471265571341016   -0.007923231762327693   -0.0002218521727841662
-0.001890053949940144   -0.0079570825482338   -0.00019468917625655292
-0.002127379473108987   -0.0068592887366775365   -0.0001654469983113997
-0.002805806415567911   -0.0068283827861025746   -0.00017425355962325437
-0.002471265571341016   -0.007923231762327693   -0.0002218521727841662
-0.0027929301701951326   -0.0068253082558334495   -0.00015302265490350995
-0.001890053949940144   -0.0079570825482338   -0.00019468917625655292
-0.002450656211871183   -0.007919952828980423   -0.0001954375419880301
-0.0027929301701951326   -0.0068253082558334495   -0.00015302265490350995
-0.002471265571341016   -0.007923231762327693   -0.0002218521727841662
-0.001890053949940144   -0.0079570825482338   -0.00019468917625655292
-0.0027929301701951326   -0.0068253082558334495   -0.00015302265490350995
-0.0021272125144336015   -0.006855299781970195   -0.000151271223386406
-0.002127379473108987   -0.0068592887366775365   -0.0001654469983113997
-0.001890053949940144   -0.0079570825482338   -0.00019468917625655292
-0.0027929301701951326   -0.0068253082558334495   -0.00015302265490350995
-0.002127379473108987   -0.0068592887366775365   -0.0001654469983113997
-0.002471265571341016   -0.007923231762327693   -0.0002218521727841662
-0.001890053949940144   -0.0079570825482338   -0.00019468917625655292
-0.0021272125144336015   -0.006855299781970195   -0.000151271223386406
-0.002450656211871183   -0.007919952828980423   -0.0001954375419880301
-0.0018868801548435094   -0.007957633810497558   -0.00017665922194071314
-0.0021272125144336015   -0.006855299781970195   -0.000151271223386406
-0.0027929301701951326   -0.0068253082558334495   -0.00015302265490350995
-0.002450656211871183   -0.007919952828980423   -0.0001954375419880301
-0.0027724280155349934   -0.006827971596549858   -0.00013058926815842685
-0.0018868801548435094   -0.007957633810497558   -0.00017665922194071314
-0.002421272731610982   -0.00792376183156841   -0.00016785840491903656
-0.0027724280155349934   -0.006827971596549858   -0.00013058926815842685
-0.002450656211871183   -0.007919952828980423   -0.0001954375419880301
-0.0018868801548435094   -0.007957633810497558   -0.00017665922194071314
-0.0027724280155349934   -0.006827971596549858   -0.00013058926815842685
-0.002128170438649871   -0.00685475367142033   -0.00013614348662225034
-0.0021272125144336015   -0.006855299781970195   -0.000151271223386406
-0.0018868801548435094   -0.007957633810497558   -0.00017665922194071314
-0.0027724280155349934   -0.006827971596549858   -0.00013058926815842685
-0.0021272125144336015   -0.006855299781970195   -0.000151271223386406
-0.002450656211871183   -0.007919952828980423   -0.0001954375419880301
0.00043102373913623214   -0.0068983486266299835   -8.095621421750309e-05
0.0005471244695432323   -0.005649650102280701   -4.2488594070757496e-05
-0.00022819597110833488   -0.006906389457142645   -0.00011336937750126876
0.0004392656380654244   -0.00688135383112558   -9.30254583718028e-05
0.0005471244695432323   -0.005649650102280701   -4.2488594070757496e-05
-0.0001942598713752597   -0.00565070199004542   -7.227439346437334e-05
-0.00022819597110833488   -0.006906389457142645   -0.00011336937750126876
-0.00019999709186499653   -0.005636994034356462   -7.334631582702314e-05
0.0004392656380654244   -0.00688135383112558   -9.30254583718028e-05
-0.00023062199962185393   -0.006892097186127369   -0.0001175481900291245
-0.00019999709186499653   -0.005636994034356462   -7.334631582702314e-05
-0.00022819597110833488   -0.006906389457142645   -0.00011336937750126876
0.0004392656380654244   -0.00688135383112558   -9.30254583718028e-05
-0.00019999709186499653   -0.005636994034356462   -7.334631582702314e-05
0.000547076056621043   -0.005633467129034809   -4.904904935964599e-05
0.0005471244695432323   -0.005649650102280701   -4.2488594070757496e-05
0.0004392656380654244   -0.00688135383112558   -9.30254583718028e-05
-0.00019999709186499653   -0.005636994034356462   -7.334631582702314e-05
0.0005471244695432323   -0.005649650102280701   -4.2488594070757496e-05
-0.00022819597110833488   -0.006906389457142645   -0.00011336937750126876
0.0004392656380654244   -0.00688135383112558   -9.30254583718028e-05
0.000547076056621043   -0.005633467129034809   -4.904904935964599e-05
-0.00023062199962185393   -0.006892097186127369   -0.0001175481900291245
0.0004427645162248033   -0.006869905847747774   -0.00010377049255321172
0.000547076056621043   -0.005633467129034809   -4.904904935964599e-05
-0.00019999709186499653   -0.005636994034356462   -7.334631582702314e-05
-0.00023062199962185393   -0.006892097186127369   -0.0001175481900291245
-0.000206388816476532   -0.00562582823612589   -7.359430943034791e-05
0.0004427645162248033   -0.006869905847747774   -0.00010377049255321172
-0.00023308961348624468   -0.00688153599491767   -0.00012083494706639669
-0.000206388816476532   -0.00562582823612589   -7.359430943034791e-05
-0.00023062199962185393   -0.006892097186127369   -0.0001175481900291245
0.0004427645162248033   -0.006869905847747774   -0.00010377049255321172
-0.000206388816476532   -0.00562582823612589   -7.359430943034791e-05
0.0005434805188569387   -0.005621296065097627   -5.4288655883903496e-05
0.000547076056621043   -0.005633467129034809   -4.904904935964599e-05
0.0004427645162248033   -0.006869905847747774   -0.00010377049255321172
-0.000206388816476532   -0.00562582823612589   -7.359430943034791e-05
0.000547076056621043   -0.005633467129034809   -4.904904935964599e-05
-0.00023062199962185393   -0.006892097186127369   -0.0001175481900291245
0.0004427645162248033   -0.006869905847747774   -0.00010377049255321172
0.0005434805188569387   -0.005621296065097627   -5.4288655883903496e-05
-0.00023308961348624468   -0.00688153599491767   -0.00012083494706639669
0.000445851561983188   -0.006861656698892728   -0.00011325816571651553
0.0005434805188569387   -0.005621296065097627   -5.4288655883903496e-05
-0.000206388816476532   -0.00562582823612589   -7.359430943034791e-05
-0.00023308961348624468   -0.00688153599491767   -0.00012083494706639669
-0.0002146391652958548   -0.005616864060931701   -7.298588774247592e-05
0.000445851561983188   -0.006861656698892728   -0.00011325816571651553
-0.00023790609027703107   -0.006874319168542957   -0.0001232579586297271
-0.0002146391652958548   -0.005616864060931701   -7.298588774247592e-05
-0.00023308961348624468   -0.00688153599491767   -0.00012083494706639669
0.000445851561983188   -0.006861656698892728   -0.00011325816571651553
-0.0002146391652958548   -0.005616864060931701   -7.298588774247592e-05
0.0005381522457349319   -0.005610774427714937   -5.82999898455606e-05
0.0005434805188569387   -0.005621296065097627   -5.4288655883903496e-05
0.000445851561983188   -0.006861656698892728   -0.00011325816571651553
-0.0002146391652958548   -0.005616864060931701   -7.298588774247592e-05
0.0005434805188569387   -0.005621296065097627   -5.4288655883903496e-05
-0.00023308961348624468   -0.00688153599491767   -0.00012083494706639669
-0.00022819597110833488   -0.006906389457142645   -0.00011336937750126876
-0.0001942598713752597   -0.00565070199004542   -7.227439346437334e-05
-0.0008620743252943527   -0.006903237908836844   -0.000139249009660294
-0.00023062199962185393   -0.006892097186127369   -0.0001175481900291245
-0.0001942598713752597   -0.00565070199004542   -7.227439346437334e-05
-0.0009023908677521285   -0.005644259118632627   -9.593338739405542e-05
-0.0008620743252943527   -0.006903237908836844   -0.000139249009660294
-0.0009091423396935275   -0.005633265614749086   -9.313433087042018e-05
-0.00023062199962185393   -0.006892097186127369   -0.0001175481900291245
-0.0008658813507844622   -0.006891604446467105   -0.00013756761233258604
-0.0009091423396935275   -0.005633265614749086   -9.313433087042018e-05
-0.0008620743252943527   -0.006903237908836844   -0.000139249009660294
-0.00023062199962185393   -0.006892097186127369   -0.0001175481900291245
-0.0009091423396935275   -0.005633265614749086   -9.313433087042018e-05
-0.00019999709186499653   -0.005636994034356462   -7.334631582702314e-05
-0.0001942598713752597   -0.00565070199004542   -7.227439346437334e-05
-0.00023062199962185393   -0.006892097186127369   -0.0001175481900291245
-0.0009091423396935275   -0.005633265614749086   -9.313433087042018e-05
-0.0001942598713752597   -0.00565070199004542   -7.227439346437334e-05
-0.0008620743252943527   -0.006903237908836844   -0.000139249009660294
-0.00023062199962185393   -0.006892097186127369   -0.0001175481900291245
-0.00019999709186499653   -0.005636994034356462   -7.334631582702314e-05
-0.0008658813507844622   -0.006891604446467105   -0.00013756761233258604
-0.00023308961348624468   -0.00688153599491767   -0.00012083494706639669
-0.00019999709186499653   -0.005636994034356462   -7.334631582702314e-05
-0.0009091423396935275   -0.005633265614749086   -9.313433087042018e-05
-0.0008658813507844622   -0.006891604446467105   -0.00013756761233258604
-0.0009160511971171412   -0.0056243393115243704   -8.946868341995041e-05
-0.00023308961348624468   -0.00688153599491767   -0.00012083494706639669
-0.0008697448107332322   -0.006883161041598111   -0.0001349600845653183
-0.0009160511971171412   -0.0056243393115243704   -8.946868341995041e-05
-0.0008658813507844622   -0.006891604446467105   -0.00013756761233258604
-0.00023308961348624468   -0.00688153599491767   -0.00012083494706639669
-0.0009160511971171412   -0.0056243393115243704   -8.946868341995041e-05
-0.000206388816476532   -0.00562582823612589   -7.359430943034791e-05
-0.00019999709186499653   -0.005636994034356462   -7.334631582702314e-05
-0.00023308961348624468   -0.00688153599491767   -0.00012083494706639669
-0.0009160511971171412   -0.0056243393115243704   -8.946868341995041e-05
-0.00019999709186499653   -0.005636994034356462   -7.334631582702314e-05
-0.0008658813507844622   -0.006891604446467105   -0.00013756761233258604
-0.00023308961348624468   -0.00688153599491767   -0.00012083494706639669
-0.000206388816476532   -0.00562582823612589   -7.359430943034791e-05
-0.0008697448107332322   -0.006883161041598111   -0.0001349600845653183
-0.00023790609027703107   -0.006874319168542957   -0.0001232579586297271
-0.000206388816476532   -0.00562582823612589   -7.359430943034791e-05
-0.0009160511971171412   -0.0056243393115243704   -8.946868341995041e-05
-0.0008697448107332322   -0.006883161041598111   -0.0001349600845653183
-0.0009235968240237124   -0.005617589095309286   -8.498663376184668e-05
-0.00023790609027703107   -0.006874319168542957   -0.0001232579586297271
-0.0008742733779469157   -0.006877957828213883   -0.00013148090753660257
-0.0009235968240237124   -0.005617589095309286   -8.498663376184668e-05
-0.0008697448107332322   -0.006883161041598111   -0.0001349600845653183
-0.00023790609027703107   -0.006874319168542957   -0.0001232579586297271
-0.0009235968240237124   -0.005617589095309286   -8.498663376184668e-05
-0.0002146391652958548   -0.005616864060931701   -7.298588774247592e-05
-0.000206388816476532   -0.00562582823612589   -7.359430943034791e-05
-0.00023790609027703107   -0.006874319168542957   -0.0001232579586297271
-0.0009235968240237124   -0.005617589095309286   -8.498663376184668e-05
-0.000206388816476532   -0.00562582823612589   -7.359430943034791e-05
-0.0008697448107332322   -0.006883161041598111   -0.0001349600845653183
-0.0008620743252943527   -0.006903237908836844   -0.000139249009660294
-0.0009023908677521285   -0.005644259118632627   -9.593338739405542e-05
-0.0014856851075705918   -0.006889804282645335   -0.00016101769184566087
-0.0008658813507844622   -0.006891604446467105   -0.00013756761233258604
-0.0009023908677521285   -0.005644259118632627   -9.593338739405542e-05
-0.0015985975933656233   -0.005631401447625017   -0.00011537773985268288
-0.0014856851075705918   -0.006889804282645335   -0.00016101769184566087
-0.0016056590553677334   -0.005622848172382856   -0.00010874324530423611
-0.0008658813507844622   -0.006891604446467105   -0.00013756761233258604
-0.001489889585570287   -0.006880522440903179   -0.0001535241111520716
-0.0016056590553677334   -0.005622848172382856   -0.00010874324530423611
-0.0014856851075705918   -0.006889804282645335   -0.00016101769184566087
-0.0008658813507844622   -0.006891604446467105   -0.00013756761233258604
-0.0016056590553677334   -0.005622848172382856   -0.00010874324530423611
-0.0009091423396935275   -0.005633265614749086   -9.313433087042018e-05
-0.0009023908677521285   -0.005644259118632627   -9.593338739405542e-05
-0.0008658813507844622   -0.006891604446467105   -0.00013756761233258604
-0.0016056590553677334   -0.005622848172382856   -0.00010874324530423611
-0.0009023908677521285   -0.005644259118632627   -9.593338739405542e-05
-0.0014856851075705918   -0.006889804282645335   -0.00016101769184566087
-0.0008658813507844622   -0.006891604446467105   -0.00013756761233258604
-0.0009091423396935275   -0.005633265614749086   -9.313433087042018e-05
-0.001489889585570287   -0.006880522440903179   -0.0001535241111520716
-0.0008697448107332322   -0.006883161041598111   -0.0001349600845653183
-0.0009091423396935275   -0.005633265614749086   -9.313433087042018e-05
-0.0016056590553677334   -0.005622848172382856   -0.00010874324530423611
-0.001489889585570287   -0.006880522440903179   -0.0001535241111520716
-0.0016120126117335572   -0.005616347767122492   -0.00010126541299017855
-0.0008697448107332322   -0.006883161041598111   -0.0001349600845653183
-0.0014933047837364672   -0.006874401643644998   -0.00014512546985015582
-0.0016120126117335572   -0.005616347767122492   -0.00010126541299017855
-0.001489889585570287   -0.006880522440903179   -0.0001535241111520716
-0.0008697448107332322   -0.006883161041598111   -0.0001349600845653183
-0.0016120126117335572   -0.005616347767122492   -0.00010126541299017855
-0.0009160511971171412   -0.0056243393115243704   -8.946868341995041e-05
-0.0009091423396935275   -0.005633265614749086   -9.313433087042018e-05
-0.0008697448107332322   -0.006883161041598111   -0.0001349600845653183
-0.0016120126117335572   -0.005616347767122492   -0.00010126541299017855
-0.0009091423396935275   -0.005633265614749086   -9.313433087042018e-05
-0.001489889585570287   -0.006880522440903179   -0.0001535241111520716
-0.0008697448107332322   -0.006883161041598111   -0.0001349600845653183
-0.0009160511971171412   -0.0056243393115243704   -8.946868341995041e-05
-0.0014933047837364672   -0.006874401643644998   -0.00014512546985015582
-0.0008742733779469157   -0.006877957828213883   -0.00013148090753660257
-0.0009160511971171412   -0.0056243393115243704   -8.946868341995041e-05
-0.0016120126117335572   -0.005616347767122492   -0.00010126541299017855
-0.0014933047837364672   -0.006874401643644998   -0.00014512546985015582
-0.0016184335467449755   -0.005611904143480365   -9.297275717328683e-05
-0.0008742733779469157   -0.006877957828213883   -0.00013148090753660257
-0.001496841635618279   -0.00687142519361036   -0.0001358452927287886
-0.0016184335467449755   -0.005611904143480365   -9.297275717328683e-05
-0.0014933047837364672   -0.006874401643644998   -0.00014512546985015582
-0.0008742733779469157   -0.006877957828213883   -0.00013148090753660257
-0.0016184335467449755   -0.005611904143480365   -9.297275717328683e-05
-0.0009235968240237124   -0.005617589095309286   -8.498663376184668e-05
-0.0009160511971171412   -0.0056243393115243704   -8.946868341995041e-05
-0.0008742733779469157   -0.006877957828213883   -0.00013148090753660257
-0.0016184335467449755   -0.005611904143480365   -9.297275717328683e-05
-0.0009160511971171412   -0.0056243393115243704   -8.946868341995041e-05
-0.0014933047837364672   -0.006874401643644998   -0.00014512546985015582
-0.0014856851075705918   -0.006889804282645335   -0.00016101769184566087
-0.0015985975933656233   -0.005631401447625017   -0.00011537773985268288
-0.0021240747173729606   -0.006866318360733321   -0.00017884134095392417
-0.001489889585570287   -0.006880522440903179   -0.0001535241111520716
-0.0015985975933656233   -0.005631401447625017   -0.00011537773985268288
-0.0023088247985082813   -0.0056118724565684605   -0.00013071144231382802
-0.0021240747173729606   -0.006866318360733321   -0.00017884134095392417
-0.002315278712352498   -0.00560575158623348   -0.00012020701457151214
-0.001489889585570287   -0.006880522440903179   -0.0001535241111520716
-0.002127379473108987   -0.0068592887366775365   -0.0001654469983113997
-0.002315278712352498   -0.00560575158623348   -0.00012020701457151214
-0.0021240747173729606   -0.006866318360733321   -0.00017884134095392417
-0.001489889585570287   -0.006880522440903179   -0.0001535241111520716
-0.002315278712352498   -0.00560575158623348   -0.00012020701457151214
-0.0016056590553677334   -0.005622848172382856   -0.00010874324530423611
-0.0015985975933656233   -0.005631401447625017   -0.00011537773985268288
-0.001489889585570287   -0.006880522440903179   -0.0001535241111520716
-0.002315278712352498   -0.00560575158623348   -0.00012020701457151214
-0.0015985975933656233   -0.005631401447625017   -0.00011537773985268288
-0.0021240747173729606   -0.006866318360733321   -0.00017884134095392417
-0.001489889585570287   -0.006880522440903179   -0.0001535241111520716
-0.0016056590553677334   -0.005622848172382856   -0.00010874324530423611
-0.002127379473108987   -0.0068592887366775365   -0.0001654469983113997
-0.0014933047837364672   -0.006874401643644998   -0.00014512546985015582
-0.0016056590553677334   -0.005622848172382856   -0.00010874324530423611
-0.002315278712352498   -0.00560575158623348   -0.00012020701457151214
-0.002127379473108987   -0.0068592887366775365   -0.0001654469983113997
-0.0023187991627807705   -0.005601503332420443   -0.00010896490322148047
-0.0014933047837364672   -0.006874401643644998   -0.00014512546985015582
-0.0021272125144336015   -0.006855299781970195   -0.000151271223386406
-0.0023187991627807705   -0.005601503332420443   -0.00010896490322148047
-0.002127379473108987   -0.0068592887366775365   -0.0001654469983113997
-0.0014933047837364672   -0.006874401643644998   -0.00014512546985015582
-0.0023187991627807705   -0.005601503332420443   -0.00010896490322148047
-0.0016120126117335572   -0.005616347767122492   -0.00010126541299017855
-0.0016056590553677334   -0.005622848172382856   -0.00010874324530423611
-0.0014933047837364672   -0.006874401643644998   -0.00014512546985015582
-0.0023187991627807705   -0.005601503332420443   -0.00010896490322148047
-0.0016056590553677334   -0.005622848172382856   -0.00010874324530423611
-0.002127379473108987   -0.0068592887366775365   -0.0001654469983113997
-0.0014933047837364672   -0.006874401643644998   -0.00014512546985015582
-0.0016120126117335572   -0.005616347767122492   -0.00010126541299017855
-0.0021272125144336015   -0.006855299781970195   -0.000151271223386406
-0.001496841635618279   -0.00687142519361036   -0.0001358452927287886
-0.0016120126117335572   -0.005616347767122492   -0.00010126541299017855
-0.0023187991627807705   -0.005601503332420443   -0.00010896490322148047
-0.0021272125144336015   -0.006855299781970195   -0.000151271223386406
-0.002322868243268405   -0.005599509504142047   -9.683649650537907e-05
-0.001496841635618279   -0.00687142519361036   -0.0001358452927287886
-0.002128170438649871   -0.00685475367142033   -0.00013614348662225034
-0.002322868243268405   -0.005599509504142047   -9.683649650537907e-05
-0.0021272125144336015   -0.006855299781970195   -0.000151271223386406
-0.001496841635618279   -0.00687142519361036   -0.0001358452927287886
-0.002322868243268405   -0.005599509504142047   -9.683649650537907e-05
-0.0016184335467449755   -0.005611904143480365   -9.297275717328683e-05
-0.0016120126117335572   -0.005616347767122492   -0.00010126541299017855
-0.001496841635618279   -0.00687142519361036   -0.0001358452927287886
-0.002322868243268405   -0.005599509504142047   -9.683649650537907e-05
-0.0016120126117335572   -0.005616347767122492   -0.00010126541299017855
-0.0021272125144336015   -0.006855299781970195   -0.000151271223386406
-0.0021240747173729606   -0.006866318360733321   -0.00017884134095392417
-0.0023088247985082813   -0.0056118724565684605   -0.00013071144231382802
-0.0028212290913676953   -0.0068348121370182735   -0.00019410571828449793
-0.002127379473108987   -0.0068592887366775365   -0.0001654469983113997
-0.0023088247985082813   -0.0056118724565684605   -0.00013071144231382802
-0.003072935114717627   -0.00558717792137339   -0.00014255075089452331
-0.0028212290913676953   -0.0068348121370182735   -0.00019410571828449793
-0.003065679758712836   -0.005582236682453098   -0.0001281461959640236
-0.002127379473108987   -0.0068592887366775365   -0.0001654469983113997
-0.002805806415567911   -0.0068283827861025746   -0.00017425355962325437
-0.003065679758712836   -0.005582236682453098   -0.0001281461959640236
-0.0028212290913676953   -0.0068348121370182735   -0.00019410571828449793
-0.002127379473108987   -0.0068592887366775365   -0.0001654469983113997
-0.003065679758712836   -0.005582236682453098   -0.0001281461959640236
-0.002315278712352498   -0.00560575158623348   -0.00012020701457151214
-0.0023088247985082813   -0.0056118724565684605   -0.00013071144231382802
-0.002127379473108987   -0.0068592887366775365   -0.0001654469983113997
-0.003065679758712836   -0.005582236682453098   -0.0001281461959640236
-0.0023088247985082813   -0.0056118724565684605   -0.00013071144231382802
-0.0028212290913676953   -0.0068348121370182735   -0.00019410571828449793
-0.002127379473108987   -0.0068592887366775365   -0.0001654469983113997
-0.002315278712352498   -0.00560575158623348   -0.00012020701457151214
-0.002805806415567911   -0.0068283827861025746   -0.00017425355962325437
-0.0021272125144336015   -0.006855299781970195   -0.000151271223386406
-0.002315278712352498   -0.00560575158623348   -0.00012020701457151214
-0.003065679758712836   -0.005582236682453098   -0.0001281461959640236
-0.002805806415567911   -0.0068283827861025746   -0.00017425355962325437
-0.0030597393640434036   -0.005579057269669568   -0.00011238662671659795
-0.0021272125144336015   -0.006855299781970195   -0.000151271223386406
-0.0027929301701951326   -0.0068253082558334495   -0.00015302265490350995
-0.0030597393640434036   -0.005579057269669568   -0.00011238662671659795
-0.002805806415567911   -0.0068283827861025746   -0.00017425355962325437
-0.0021272125144336015   -0.006855299781970195   -0.000151271223386406
-0.0030597393640434036   -0.005579057269669568   -0.00011238662671659795
-0.0023187991627807705   -0.005601503332420443   -0.00010896490322148047
-0.002315278712352498   -0.00560575158623348   -0.00012020701457151214
-0.0021272125144336015   -0.006855299781970195   -0.000151271223386406
-0.0030597393640434036   -0.005579057269669568   -0.00011238662671659795
-0.002315278712352498   -0.00560575158623348   -0.00012020701457151214
-0.002805806415567911   -0.0068283827861025746   -0.00017425355962325437
-0.0021272125144336015   -0.006855299781970195   -0.000151271223386406
-0.0023187991627807705   -0.005601503332420443   -0.00010896490322148047
-0.0027929301701951326   -0.0068253082558334495   -0.00015302265490350995
-0.002128170438649871   -0.00685475367142033   -0.00013614348662225034
-0.0023187991627807705   -0.005601503332420443   -0.00010896490322148047
-0.0030597393640434036   -0.005579057269669568   -0.00011238662671659795
-0.0027929301701951326   -0.0068253082558334495   -0.00015302265490350995
-0.003047431596506713   -0.005580106094655538   -9.542404512104052e-05
-0.002128170438649871   -0.00685475367142033   -0.00013614348662225034
-0.0027724280155349934   -0.006827971596549858   -0.00013058926815842685
-0.003047431596506713   -0.005580106094655538   -9.542404512104052e-05
-0.0027929301701951326   -0.0068253082558334495   -0.00015302265490350995
-0.002128170438649871   -0.00685475367142033   -0.00013614348662225034
-0.003047431596506713   -0.005580106094655538   -9.542404512104052e-05
-0.002322868243268405   -0.005599509504142047   -9.683649650537907e-05
-0.0023187991627807705   -0.005601503332420443   -0.00010896490322148047
-0.002128170438649871   -0.00685475367142033   -0.00013614348662225034
-0.003047431596506713   -0.005580106094655538   -9.542404512104052e-05
-0.0023187991627807705   -0.005601503332420443   -0.00010896490322148047
-0.0027929301701951326   -0.0068253082558334495   -0.00015302265490350995
0.0005471244695432323   -0.005649650102280701   -4.2488594070757496e-05
0.0005840666846790365   -0.004297230410236087   -9.054082117601009e-06
-0.0001942598713752597   -0.00565070199004542   -7.227439346437334e-05
0.000547076056621043   -0.005633467129034809   -4.904904935964599e-05
0.0005840666846790365   -0.004297230410236087   -9.054082117601009e-06
-0.00020842834782110428   -0.0042913673694027245   -3.528515865001549e-05
-0.0001942598713752597   -0.00565070199004542   -7.227439346437334e-05
-0.0002167198361163315   -0.004278435173322902   -3.312616885611285e-05
0.000547076056621043   -0.005633467129034809   -4.904904935964599e-05
-0.00019999709186499653   -0.005636994034356462   -7.334631582702314e-05
-0.0002167198361163315   -0.004278435173322902   -3.312616885611285e-05
-0.0001942598713752597   -0.00565070199004542   -7.227439346437334e-05
0.000547076056621043   -0.005633467129034809   -4.904904935964599e-05
-0.0002167198361163315   -0.004278435173322902   -3.312616885611285e-05
0.0005764162705475514   -0.004281980770157418   -9.825517831793343e-06
0.0005840666846790365   -0.004297230410236087   -9.054082117601009e-06
0.000547076056621043   -0.005633467129034809   -4.904904935964599e-05
-0.0002167198361163315   -0.004278435173322902   -3.312616885611285e-05
0.0005840666846790365   -0.004297230410236087   -9.054082117601009e-06
-0.0001942598713752597   -0.00565070199004542   -7.227439346437334e-05
0.000547076056621043   -0.005633467129034809   -4.904904935964599e-05
0.0005764162705475514   -0.004281980770157418   -9.825517831793343e-06
-0.00019999709186499653   -0.005636994034356462   -7.334631582702314e-05
0.0005434805188569387   -0.005621296065097627   -5.4288655883903496e-05
0.0005764162705475514   -0.004281980770157418   -9.825517831793343e-06
-0.0002167198361163315   -0.004278435173322902   -3.312616885611285e-05
-0.00019999709186499653   -0.005636994034356462   -7.334631582702314e-05
-0.00022630199151010792   -0.004266683990114156   -3.0190905243865325e-05
0.0005434805188569387   -0.005621296065097627   -5.4288655883903496e-05
-0.000206388816476532   -0.00562582823612589   -7.359430943034791e-05
-0.00022630199151010792   -0.004266683990114156   -3.0190905243865325e-05
-0.00019999709186499653   -0.005636994034356462   -7.334631582702314e-05
0.0005434805188569387   -0.005621296065097627   -5.4288655883903496e-05
-0.00022630199151010792   -0.004266683990114156   -3.0190905243865325e-05
0.0005661324047522925   -0.004269041737291264   -9.030596750824011e-06
0.0005764162705475514   -0.004281980770157418   -9.825517831793343e-06
0.0005434805188569387   -0.005621296065097627   -5.4288655883903496e-05
-0.00022630199151010792   -0.004266683990114156   -3.0190905243865325e-05
0.0005764162705475514   -0.004281980770157418   -9.825517831793343e-06
-0.00019999709186499653   -0.005636994034356462   -7.334631582702314e-05
0.0005434805188569387   -0.005621296065097627   -5.4288655883903496e-05
0.0005661324047522925   -0.004269041737291264   -9.030596750824011e-06
-0.000206388816476532   -0.00562582823612589   -7.359430943034791e-05
0.0005381522457349319   -0.005610774427714937   -5.82999898455606e-05
0.0005661324047522925   -0.004269041737291264   -9.030596750824011e-06
-0.00022630199151010792   -0.004266683990114156   -3.0190905243865325e-05
-0.000206388816476532   -0.00562582823612589   -7.359430943034791e-05
-0.00023727814411908662   -0.004255929698557931   -2.628864521460888e-05
0.0005381522457349319   -0.005610774427714937   -5.82999898455606e-05
-0.0002146391652958548   -0.005616864060931701   -7.298588774247592e-05
-0.00023727814411908662   -0.004255929698557931   -2.628864521460888e-05
-0.000206388816476532   -0.00562582823612589   -7.359430943034791e-05
0.0005381522457349319   -0.005610774427714937   -5.82999898455606e-05
-0.00023727814411908662   -0.004255929698557931   -2.628864521460888e-05
0.0005523408351679053   -0.0042558530870992   -6.734063043352179e-06
0.0005661324047522925   -0.004269041737291264   -9.030596750824011e-06
0.0005381522457349319   -0.005610774427714937   -5.82999898455606e-05
-0.00023727814411908662   -0.004255929698557931   -2.628864521460888e-05
0.0005661324047522925   -0.004269041737291264   -9.030596750824011e-06
-0.000206388816476532   -0.00562582823612589   -7.359430943034791e-05
-0.0001942598713752597   -0.00565070199004542   -7.227439346437334e-05
-0.00020842834782110428   -0.0042913673694027245   -3.528515865001549e-05
-0.0009023908677521285   -0.005644259118632627   -9.593338739405542e-05
-0.00019999709186499653   -0.005636994034356462   -7.334631582702314e-05
-0.00020842834782110428   -0.0042913673694027245   -3.528515865001549e-05
-0.0009590499686248535   -0.004283392746606318   -5.652873110600519e-05
-0.0009023908677521285   -0.005644259118632627   -9.593338739405542e-05
-0.0009678014260404372   -0.0042730011537756366   -5.248128058446321e-05
-0.00019999709186499653   -0.005636994034356462   -7.334631582702314e-05
-0.0009091423396935275   -0.005633265614749086   -9.313433087042018e-05
-0.0009678014260404372   -0.0042730011537756366   -5.248128058446321e-05
-0.0009023908677521285   -0.005644259118632627   -9.593338739405542e-05
-0.00019999709186499653   -0.005636994034356462   -7.334631582702314e-05
-0.0009678014260404372   -0.0042730011537756366   -5.248128058446321e-05
-0.0002167198361163315   -0.004278435173322902   -3.312616885611285e-05
-0.00020842834782110428   -0.0042913673694027245   -3.528515865001549e-05
-0.00019999709186499653   -0.005636994034356462   -7.334631582702314e-05
-0.0009678014260404372   -0.0042730011537756366   -5.248128058446321e-05
-0.00020842834782110428   -0.0042913673694027245   -3.528515865001549e-05
-0.0009023908677521285   -0.005644259118632627   -9.593338739405542e-05
-0.00019999709186499653   -0.005636994034356462   -7.334631582702314e-05
-0.0002167198361163315   -0.004278435173322902   -3.312616885611285e-05
-0.0009091423396935275   -0.005633265614749086   -9.313433087042018e-05
-0.000206388816476532   -0.00562582823612589   -7.359430943034791e-05
-0.0002167198361163315   -0.004278435173322902   -3.312616885611285e-05
-0.0009678014260404372   -0.0042730011537756366   -5.248128058446321e-05
-0.0009091423396935275   -0.005633265614749086   -9.313433087042018e-05
-0.0009767837215762449   -0.004263516145114904   -4.767829078601889e-05
-0.000206388816476532   -0.00562582823612589   -7.359430943034791e-05
-0.0009160511971171412   -0.0056243393115243704   -8.946868341995041e-05
-0.0009767837215762449   -0.004263516145114904   -4.767829078601889e-05
-0.0009091423396935275   -0.005633265614749086   -9.313433087042018e-05
-0.000206388816476532   -0.00562582823612589   -7.359430943034791e-05
-0.0009767837215762449   -0.004263516145114904   -4.767829078601889e-05
-0.00022630199151010792   -0.004266683990114156   -3.0190905243865325e-05
-0.0002167198361163315   -0.004278435173322902   -3.312616885611285e-05
-0.000206388816476532   -0.00562582823612589   -7.359430943034791e-05
-0.0009767837215762449   -0.004263516145114904   -4.767829078601889e-05
-0.0002167198361163315   -0.004278435173322902   -3.312616885611285e-05
-0.0009091423396935275   -0.005633265614749086   -9.313433087042018e-05
-0.000206388816476532   -0.00562582823612589   -7.359430943034791e-05
-0.00022630199151010792   -0.004266683990114156   -3.0190905243865325e-05
-0.0009160511971171412   -0.0056243393115243704   -8.946868341995041e-05
-0.0002146391652958548   -0.005616864060931701   -7.298588774247592e-05
-0.00022630199151010792   -0.004266683990114156   -3.0190905243865325e-05
-0.0009767837215762449   -0.004263516145114904   -4.767829078601889e-05
-0.0009160511971171412   -0.0056243393115243704   -8.946868341995041e-05
-0.0009863911555661176   -0.004255133050180021   -4.2123815011079705e-05
-0.0002146391652958548   -0.005616864060931701   -7.298588774247592e-05
-0.0009235968240237124   -0.005617589095309286   -8.498663376184668e-05
-0.0009863911555661176   -0.004255133050180021   -4.2123815011079705e-05
-0.0009160511971171412   -0.0056243393115243704   -8.946868341995041e-05
-0.0002146391652958548   -0.005616864060931701   -7.298588774247592e-05
-0.0009863911555661176   -0.004255133050180021   -4.2123815011079705e-05
-0.00023727814411908662   -0.004255929698557931   -2.628864521460888e-05
-0.00022630199151010792   -0.004266683990114156   -3.0190905243865325e-05
-0.0002146391652958548   -0.005616864060931701   -7.298588774247592e-05
-0.0009863911555661176   -0.004255133050180021   -4.2123815011079705e-05
-0.00022630199151010792   -0.004266683990114156   -3.0190905243865325e-05
-0.0009160511971171412   -0.0056243393115243704   -8.946868341995041e-05
-0.0009023908677521285   -0.005644259118632627   -9.593338739405542e-05
-0.0009590499686248535   -0.004283392746606318   -5.652873110600519e-05
-0.0015985975933656233   -0.005631401447625017   -0.00011537773985268288
-0.0009091423396935275   -0.005633265614749086   -9.313433087042018e-05
-0.0009590499686248535   -0.004283392746606318   -5.652873110600519e-05
-0.0016968658419769331   -0.004273307129662538   -7.40018026606894e-05
-0.0015985975933656233   -0.005631401447625017   -0.00011537773985268288
-0.0017056686276526753   -0.004265207259273235   -6.811237954933277e-05
-0.0009091423396935275   -0.005633265614749086   -9.313433087042018e-05
-0.0016056590553677334   -0.005622848172382856   -0.00010874324530423611
-0.0017056686276526753   -0.004265207259273235   -6.811237954933277e-05
-0.0015985975933656233   -0.005631401447625017   -0.00011537773985268288
-0.0009091423396935275   -0.005633265614749086   -9.313433087042018e-05
-0.0017056686276526753   -0.004265207259273235   -6.811237954933277e-05
-0.0009678014260404372   -0.0042730011537756366   -5.248128058446321e-05
-0.0009590499686248535   -0.004283392746606318   -5.652873110600519e-05
-0.0009091423396935275   -0.005633265614749086   -9.313433087042018e-05
-0.0017056686276526753   -0.004265207259273235   -6.811237954933277e-05
-0.0009590499686248535   -0.004283392746606318   -5.652873110600519e-05
-0.0015985975933656233   -0.005631401447625017   -0.00011537773985268288
-0.0009091423396935275   -0.005633265614749086   -9.313433087042018e-05
-0.0009678014260404372   -0.0042730011537756366   -5.248128058446321e-05
-0.0016056590553677334   -0.005622848172382856   -0.00010874324530423611
-0.0009160511971171412   -0.0056243393115243704   -8.946868341995041e-05
-0.0009678014260404372   -0.0042730011537756366   -5.248128058446321e-05
-0.0017056686276526753   -0.004265207259273235   -6.811237954933277e-05
-0.0016056590553677334   -0.005622848172382856   -0.00010874324530423611
-0.0017138692787120335   -0.004258044900886947   -6.149250413940512e-05
-0.0009160511971171412   -0.0056243393115243704   -8.946868341995041e-05
-0.0016120126117335572   -0.005616347767122492   -0.00010126541299017855
-0.0017138692787120335   -0.004258044900886947   -6.149250413940512e-05
-0.0016056590553677334   -0.005622848172382856   -0.00010874324530423611
-0.0009160511971171412   -0.0056243393115243704   -8.946868341995041e-05
-0.0017138692787120335   -0.004258044900886947   -6.149250413940512e-05
-0.0009767837215762449   -0.004263516145114904   -4.767829078601889e-05
-0.0009678014260404372   -0.0042730011537756366   -5.248128058446321e-05
-0.0009160511971171412   -0.0056243393115243704   -8.946868341995041e-05
-0.0017138692787120335   -0.004258044900886947   -6.149250413940512e-05
-0.0009678014260404372   -0.0042730011537756366   -5.248128058446321e-05
-0.0016056590553677334   -0.005622848172382856   -0.00010874324530423611
-0.0009160511971171412   -0.0056243393115243704   -8.946868341995041e-05
-0.0009767837215762449   -0.004263516145114904   -4.767829078601889e-05
-0.0016120126117335572   -0.005616347767122492   -0.00010126541299017855
-0.0009235968240237124   -0.005617589095309286   -8.498663376184668e-05
-0.0009767837215762449   -0.004263516145114904   -4.767829078601889e-05
-0.0017138692787120335   -0.004258044900886947   -6.149250413940512e-05
-0.0016120126117335572   -0.005616347767122492   -0.00010126541299017855
-0.0017221003370078754   -0.004251832425935626   -5.417471789305229e-05
-0.0009235968240237124   -0.005617589095309286   -8.498663376184668e-05
-0.0016184335467449755   -0.005611904143480365   -9.297275717328683e-05
-0.0017221003370078754   -0.004251832425935626   -5.417471789305229e-05
-0.0016120126117335572   -0.005616347767122492   -0.00010126541299017855
-0.0009235968240237124   -0.005617589095309286   -8.498663376184668e-05
-0.0017221003370078754   -0.004251832425935626   -5.417471789305229e-05
-0.0009863911555661176   -0.004255133050180021   -4.2123815011079705e-05
-0.0009767837215762449   -0.004263516145114904   -4.767829078601889e-05
-0.0009235968240237124   -0.005617589095309286   -8.498663376184668e-05
-0.0017221003370078754   -0.004251832425935626   -5.417471789305229e-05
-0.0009767837215762449   -0.004263516145114904   -4.767829078601889e-05
-0.0016120126117335572   -0.005616347767122492   -0.00010126541299017855
-0.0015985975933656233   -0.005631401447625017   -0.00011537773985268288
-0.0016968658419769331   -0.004273307129662538   -7.40018026606894e-05
-0.0023088247985082813   -0.0056118724565684605   -0.00013071144231382802
-0.0016056590553677334   -0.005622848172382856   -0.00010874324530423611
-0.0016968658419769331   -0.004273307129662538   -7.40018026606894e-05
-0.002448365067359425   -0.004259333579590296   -8.754626666515104e-05
-0.0023088247985082813   -0.0056118724565684605   -0.00013071144231382802
-0.0024567489246817373   -0.004253637170824266   -7.983924461853194e-05
-0.0016056590553677334   -0.005622848172382856   -0.00010874324530423611
-0.002315278712352498   -0.00560575158623348   -0.00012020701457151214
-0.0024567489246817373   -0.004253637170824266   -7.983924461853194e-05
-0.0023088247985082813   -0.0056118724565684605   -0.00013071144231382802
-0.0016056590553677334   -0.005622848172382856   -0.00010874324530423611
-0.0024567489246817373   -0.004253637170824266   -7.983924461853194e-05
-0.0017056686276526753   -0.004265207259273235   -6.811237954933277e-05
-0.0016968658419769331   -0.004273307129662538   -7.40018026606894e-05
-0.0016056590553677334   -0.005622848172382856   -0.00010874324530423611
-0.0024567489246817373   -0.004253637170824266   -7.983924461853194e-05
-0.0016968658419769331   -0.004273307129662538   -7.40018026606894e-05
-0.0023088247985082813   -0.0056118724565684605   -0.00013071144231382802
-0.0016056590553677334   -0.005622848172382856   -0.00010874324530423611
-0.0017056686276526753   -0.004265207259273235   -6.811237954933277e-05
-0.002315278712352498   -0.00560575158623348   -0.00012020701457151214
-0.0016120126117335572   -0.005616347767122492   -0.00010126541299017855
-0.0017056686276526753   -0.004265207259273235   -6.811237954933277e-05
-0.0024567489246817373   -0.004253637170824266   -7.983924461853194e-05
-0.002315278712352498   -0.00560575158623348   -0.00012020701457151214
-0.002462836728867146   -0.004248644491462668   -7.150519539043358e-05
-0.0016120126117335572   -0.005616347767122492   -0.00010126541299017855
-0.0023187991627807705   -0.005601503332420443   -0.00010896490322148047
-0.002462836728867146   -0.004248644491462668   -7.150519539043358e-05
-0.002315278712352498   -0.00560575158623348   -0.00012020701457151214
-0.0016120126117335572   -0.005616347767122492   -0.00010126541299017855
-0.002462836728867146   -0.004248644491462668   -7.150519539043358e-05
-0.0017138692787120335   -0.004258044900886947   -6.149250413940512e-05
-0.0017056686276526753   -0.004265207259273235   -6.811237954933277e-05
-0.0016120126117335572   -0.005616347767122492   -0.00010126541299017855
-0.002462836728867146   -0.004248644491462668   -7.150519539043358e-05
-0.0017056686276526753   -0.004265207259273235   -6.811237954933277e-05
-0.002315278712352498   -0.00560575158623348   -0.00012020701457151214
-0.0016120126117335572   -0.005616347767122492   -0.00010126541299017855
-0.0017138692787120335   -0.004258044900886947   -6.149250413940512e-05
-0.0023187991627807705   -0.005601503332420443   -0.00010896490322148047
-0.0016184335467449755   -0.005611904143480365   -9.297275717328683e-05
-0.0017138692787120335   -0.004258044900886947   -6.149250413940512e-05
-0.002462836728867146   -0.004248644491462668   -7.150519539043358e-05
-0.0023187991627807705   -0.005601503332420443   -0.00010896490322148047
-0.002468940789758403   -0.004244675911891077   -6.239555290396053e-05
-0.0016184335467449755   -0.005611904143480365   -9.297275717328683e-05
-0.002322868243268405   -0.005599509504142047   -9.683649650537907e-05
-0.002468940789758403   -0.004244675911891077   -6.239555290396053e-05
-0.0023187991627807705   -0.005601503332420443   -0.00010896490322148047
-0.0016184335467449755   -0.005611904143480365   -9.297275717328683e-05
-0.002468940789758403   -0.004244675911891077   -6.239555290396053e-05
-0.0017221003370078754   -0.004251832425935626   -5.417471789305229e-05
-0.0017138692787120335   -0.004258044900886947   -6.149250413940512e-05
-0.0016184335467449755   -0.005611904143480365   -9.297275717328683e-05
-0.002468940789758403   -0.004244675911891077   -6.239555290396053e-05
-0.0017138692787120335   -0.004258044900886947   -6.149250413940512e-05
-0.0023187991627807705   -0.005601503332420443   -0.00010896490322148047
-0.0023088247985082813   -0.0056118724565684605   -0.00013071144231382802
-0.002448365067359425   -0.004259333579590296   -8.754626666515104e-05
-0.003072935114717627   -0.00558717792137339   -0.00014255075089452331
-0.002315278712352498   -0.00560575158623348   -0.00012020701457151214
-0.002448365067359425   -0.004259333579590296   -8.754626666515104e-05
-0.0032474678229107296   -0.004242236235349899   -9.681323017777376e-05
-0.003072935114717627   -0.00558717792137339   -0.00014255075089452331
-0.00324720289181813   -0.0042381302994409726   -8.780889984856832e-05
-0.002315278712352498   -0.00560575158623348   -0.00012020701457151214
-0.003065679758712836   -0.005582236682453098   -0.0001281461959640236
-0.00324720289181813   -0.0042381302994409726   -8.780889984856832e-05
-0.003072935114717627   -0.00558717792137339   -0.00014255075089452331
-0.002315278712352498   -0.00560575158623348   -0.00012020701457151214
-0.00324720289181813   -0.0042381302994409726   -8.780889984856832e-05
-0.0024567489246817373   -0.004253637170824266   -7.983924461853194e-05
-0.002448365067359425   -0.004259333579590296   -8.754626666515104e-05
-0.002315278712352498   -0.00560575158623348   -0.00012020701457151214
-0.00324720289181813   -0.0042381302994409726   -8.780889984856832e-05
-0.002448365067359425   -0.004259333579590296   -8.754626666515104e-05
-0.003072935114717627   -0.00558717792137339   -0.00014255075089452331
-0.002315278712352498   -0.00560575158623348   -0.00012020701457151214
-0.0024567489246817373   -0.004253637170824266   -7.983924461853194e-05
-0.003065679758712836   -0.005582236682453098   -0.0001281461959640236
-0.0023187991627807705   -0.005601503332420443   -0.00010896490322148047
-0.0024567489246817373   -0.004253637170824266   -7.983924461853194e-05
-0.00324720289181813   -0.0042381302994409726   -8.780889984856832e-05
-0.003065679758712836   -0.005582236682453098   -0.0001281461959640236
-0.003247188711945316   -0.004234258823916825   -7.756142424058674e-05
-0.0023187991627807705   -0.005601503332420443   -0.00010896490322148047
-0.0030597393640434036   -0.005579057269669568   -0.00011238662671659795
-0.003247188711945316   -0.004234258823916825   -7.756142424058674e-05
-0.003065679758712836   -0.005582236682453098   -0.0001281461959640236
-0.0023187991627807705   -0.005601503332420443   -0.00010896490322148047
-0.003247188711945316   -0.004234258823916825   -7.756142424058674e-05
-0.002462836728867146   -0.004248644491462668   -7.150519539043358e-05
-0.0024567489246817373   -0.004253637170824266   -7.983924461853194e-05
-0.0023187991627807705   -0.005601503332420443   -0.00010896490322148047
-0.003247188711945316   -0.004234258823916825   -7.756142424058674e-05
-0.0024567489246817373   -0.004253637170824266   -7.983924461853194e-05
-0.003065679758712836   -0.005582236682453098   -0.0001281461959640236
-0.0023187991627807705   -0.005601503332420443   -0.00010896490322148047
-0.002462836728867146   -0.004248644491462668   -7.150519539043358e-05
-0.0030597393640434036   -0.005579057269669568   -0.00011238662671659795
-0.002322868243268405   -0.005599509504142047   -9.683649650537907e-05
-0.002462836728867146   -0.004248644491462668   -7.150519539043358e-05
-0.003247188711945316   -0.004234258823916825   -7.756142424058674e-05
-0.0030597393640434036   -0.005579057269669568   -0.00011238662671659795
-0.0032422605006311596   -0.004233007382435152   -6.620725211125268e-05
-0.002322868243268405   -0.005599509504142047   -9.683649650537907e-05
-0.003047431596506713   -0.005580106094655538   -9.542404512104052e-05
-0.0032422605006311596   -0.004233007382435152   -6.620725211125268e-05
-0.0030597393640434036   -0.005579057269669568   -0.00011238662671659795
-0.002322868243268405   -0.005599509504142047   -9.683649650537907e-05
-0.0032422605006311596   -0.004233007382435152   -6.620725211125268e-05
-0.002468940789758403   -0.004244675911891077   -6.239555290396053e-05
-0.002462836728867146   -0.004248644491462668   -7.150519539043358e-05
-0.002322868243268405   -0.005599509504142047   -9.683649650537907e-05
-0.0032422605006311596   -0.004233007382435152   -6.620725211125268e-05
-0.002462836728867146   -0.004248644491462668   -7.150519539043358e-05
-0.0030597393640434036   -0.005579057269669568   -0.00011238662671659795
0.0005840666846790365   -0.004297230410236087   -9.054082117601009e-06
0.0005359866156232514   -0.002888483910569757   1.419291448145583e-05
-0.00020842834782110428   -0.0042913673694027245   -3.528515865001549e-05
0.0005764162705475514   -0.004281980770157418   -9.825517831793343e-06
0.0005359866156232514   -0.002888483910569757   1.419291448145583e-05
-0.0002712082369339421   -0.002876295913438761   -5.494284550278513e-06
-0.00020842834782110428   -0.0042913673694027245   -3.528515865001549e-05
-0.00028162725480832126   -0.0028648873367077233   -2.15603588727918e-07
0.0005764162705475514   -0.004281980770157418   -9.825517831793343e-06
-0.0002167198361163315   -0.004278435173322902   -3.312616885611285e-05
-0.00028162725480832126   -0.0028648873367077233   -2.15603588727918e-07
-0.00020842834782110428   -0.0042913673694027245   -3.528515865001549e-05
0.0005764162705475514   -0.004281980770157418   -9.825517831793343e-06
-0.00028162725480832126   -0.0028648873367077233   -2.15603588727918e-07
0.0005203918554143108   -0.0028741872870077143   2.0066612341841055e-05
0.0005359866156232514   -0.002888483910569757   1.419291448145583e-05
0.0005764162705475514   -0.004281980770157418   -9.825517831793343e-06
-0.00028162725480832126   -0.0028648873367077233   -2.15603588727918e-07
0.0005359866156232514   -0.002888483910569757   1.419291448145583e-05
-0.00020842834782110428   -0.0042913673694027245   -3.528515865001549e-05
0.0005764162705475514   -0.004281980770157418   -9.825517831793343e-06
0.0005203918554143108   -0.0028741872870077143   2.0066612341841055e-05
-0.0002167198361163315   -0.004278435173322902   -3.312616885611285e-05
0.0005661324047522925   -0.004269041737291264   -9.030596750824011e-06
0.0005203918554143108   -0.0028741872870077143   2.0066612341841055e-05
-0.00028162725480832126   -0.0028648873367077233   -2.15603588727918e-07
-0.0002167198361163315   -0.004278435173322902   -3.312616885611285e-05
-0.00029395101985295026   -0.0028530228426348536   6.109622282398267e-06
0.0005661324047522925   -0.004269041737291264   -9.030596750824011e-06
-0.00022630199151010792   -0.004266683990114156   -3.0190905243865325e-05
-0.00029395101985295026   -0.0028530228426348536   6.109622282398267e-06
-0.0002167198361163315   -0.004278435173322902   -3.312616885611285e-05
0.0005661324047522925   -0.004269041737291264   -9.030596750824011e-06
-0.00029395101985295026   -0.0028530228426348536   6.109622282398267e-06
0.0005022629266020673   -0.0028604140071824477   2.9133862229478768e-05
0.0005203918554143108   -0.0028741872870077143   2.0066612341841055e-05
0.0005661324047522925   -0.004269041737291264   -9.030596750824011e-06
-0.00029395101985295026   -0.0028530228426348536   6.109622282398267e-06
0.0005203918554143108   -0.0028741872870077143   2.0066612341841055e-05
-0.0002167198361163315   -0.004278435173322902   -3.312616885611285e-05
0.0005661324047522925   -0.004269041737291264   -9.030596750824011e-06
0.0005022629266020673   -0.0028604140071824477   2.9133862229478768e-05
-0.00022630199151010792   -0.004266683990114156   -3.0190905243865325e-05
0.0005523408351679053   -0.0042558530870992   -6.734063043352179e-06
0.0005022629266020673   -0.0028604140071824477   2.9133862229478768e-05
-0.00029395101985295026   -0.0028530228426348536   6.109622282398267e-06
-0.00022630199151010792   -0.004266683990114156   -3.0190905243865325e-05
-0.00030685820848749324   -0.002840584563164241   1.3489044384355946e-05
0.0005523408351679053   -0.0042558530870992   -6.734063043352179e-06
-0.00023727814411908662   -0.004255929698557931   -2.628864521460888e-05
-0.00030685820848749324   -0.002840584563164241   1.3489044384355946e-05
-0.00022630199151010792   -0.004266683990114156   -3.0190905243865325e-05
0.0005523408351679053   -0.0042558530870992   -6.734063043352179e-06
-0.00030685820848749324   -0.002840584563164241   1.3489044384355946e-05
0.00048004364650104957   -0.0028433294192768232   3.922073425601542e-05
0.0005022629266020673   -0.0028604140071824477   2.9133862229478768e-05
0.0005523408351679053   -0.0042558530870992   -6.734063043352179e-06
-0.00030685820848749324   -0.002840584563164241   1.3489044384355946e-05
0.0005022629266020673   -0.0028604140071824477   2.9133862229478768e-05
-0.00022630199151010792   -0.004266683990114156   -3.0190905243865325e-05
-0.00020842834782110428   -0.0042913673694027245   -3.528515865001549e-05
-0.0002712082369339421   -0.002876295913438761   -5.494284550278513e-06
-0.0009590499686248535   -0.004283392746606318   -5.652873110600519e-05
-0.0002167198361163315   -0.004278435173322902   -3.312616885611285e-05
-0.0002712082369339421   -0.002876295913438761   -5.494284550278513e-06
-0.0010289265033300396   -0.0028730844573455158   -2.3959988672831743e-05
-0.0009590499686248535   -0.004283392746606318   -5.652873110600519e-05
-0.0010386112479600514   -0.0028635170021164744   -1.8710086577057747e-05
-0.0002167198361163315   -0.004278435173322902   -3.312616885611285e-05
-0.0009678014260404372   -0.0042730011537756366   -5.248128058446321e-05
-0.0010386112479600514   -0.0028635170021164744   -1.8710086577057747e-05
-0.0009590499686248535   -0.004283392746606318   -5.652873110600519e-05
-0.0002167198361163315   -0.004278435173322902   -3.312616885611285e-05
-0.0010386112479600514   -0.0028635170021164744   -1.8710086577057747e-05
-0.00028162725480832126   -0.0028648873367077233   -2.15603588727918e-07
-0.0002712082369339421   -0.002876295913438761   -5.494284550278513e-06
-0.0002167198361163315   -0.004278435173322902   -3.312616885611285e-05
-0.0010386112479600514   -0.0028635170021164744   -1.8710086577057747e-05
-0.0002712082369339421   -0.002876295913438761   -5.494284550278513e-06
-0.0009590499686248535   -0.004283392746606318   -5.652873110600519e-05
-0.0002167198361163315   -0.004278435173322902   -3.312616885611285e-05
-0.00028162725480832126   -0.0028648873367077233   -2.15603588727918e-07
-0.0009678014260404372   -0.0042730011537756366   -5.248128058446321e-05
-0.00022630199151010792   -0.004266683990114156   -3.0190905243865325e-05
-0.00028162725480832126   -0.0028648873367077233   -2.15603588727918e-07
-0.0010386112479600514   -0.0028635170021164744   -1.8710086577057747e-05
-0.0009678014260404372   -0.0042730011537756366   -5.248128058446321e-05
-0.0010486961856255078   -0.0028536336012686516   -1.2874632057934188e-05
-0.00022630199151010792   -0.004266683990114156   -3.0190905243865325e-05
-0.0009767837215762449   -0.004263516145114904   -4.767829078601889e-05
-0.0010486961856255078   -0.0028536336012686516   -1.2874632057934188e-05
-0.0009678014260404372   -0.0042730011537756366   -5.248128058446321e-05
-0.00022630199151010792   -0.004266683990114156   -3.0190905243865325e-05
-0.0010486961856255078   -0.0028536336012686516   -1.2874632057934188e-05
-0.00029395101985295026   -0.0028530228426348536   6.109622282398267e-06
-0.00028162725480832126   -0.0028648873367077233   -2.15603588727918e-07
-0.00022630199151010792   -0.004266683990114156   -3.0190905243865325e-05
-0.0010486961856255078   -0.0028536336012686516   -1.2874632057934188e-05
-0.00028162725480832126   -0.0028648873367077233   -2.15603588727918e-07
-0.0009678014260404372   -0.0042730011537756366   -5.248128058446321e-05
-0.00022630199151010792   -0.004266683990114156   -3.0190905243865325e-05
-0.00029395101985295026   -0.0028530228426348536   6.109622282398267e-06
-0.0009767837215762449   -0.004263516145114904   -4.767829078601889e-05
-0.00023727814411908662   -0.004255929698557931   -2.628864521460888e-05
-0.00029395101985295026   -0.0028530228426348536   6.109622282398267e-06
-0.0010486961856255078   -0.0028536336012686516   -1.2874632057934188e-05
-0.0009767837215762449   -0.004263516145114904   -4.767829078601889e-05
-0.001059262217145651   -0.0028437040038215284   -6.351420901810453e-06
-0.00023727814411908662   -0.004255929698557931   -2.628864521460888e-05
-0.0009863911555661176   -0.004255133050180021   -4.2123815011079705e-05
-0.001059262217145651   -0.0028437040038215284   -6.351420901810453e-06
-0.0009767837215762449   -0.004263516145114904   -4.767829078601889e-05
-0.00023727814411908662   -0.004255929698557931   -2.628864521460888e-05
-0.001059262217145651   -0.0028437040038215284   -6.351420901810453e-06
-0.00030685820848749324   -0.002840584563164241   1.3489044384355946e-05
-0.00029395101985295026   -0.0028530228426348536   6.109622282398267e-06
-0.00023727814411908662   -0.004255929698557931   -2.628864521460888e-05
-0.001059262217145651   -0.0028437040038215284   -6.351420901810453e-06
-0.00029395101985295026   -0.0028530228426348536   6.109622282398267e-06
-0.0009767837215762449   -0.004263516145114904   -4.767829078601889e-05
-0.0009590499686248535   -0.004283392746606318   -5.652873110600519e-05
-0.0010289265033300396   -0.0028730844573455158   -2.3959988672831743e-05
-0.0016968658419769331   -0.004273307129662538   -7.40018026606894e-05
-0.0009678014260404372   -0.0042730011537756366   -5.248128058446321e-05
-0.0010289265033300396   -0.0028730844573455158   -2.3959988672831743e-05
-0.0017771519938924016   -0.002872110137699664   -4.0332759041030536e-05
-0.0016968658419769331   -0.004273307129662538   -7.40018026606894e-05
-0.0017865414952977833   -0.0028640026497428754   -3.503488768615797e-05
-0.0009678014260404372   -0.0042730011537756366   -5.248128058446321e-05
-0.0017056686276526753   -0.004265207259273235   -6.811237954933277e-05
-0.0017865414952977833   -0.0028640026497428754   -3.503488768615797e-05
-0.0016968658419769331   -0.004273307129662538   -7.40018026606894e-05
-0.0009678014260404372   -0.0042730011537756366   -5.248128058446321e-05
-0.0017865414952977833   -0.0028640026497428754   -3.503488768615797e-05
-0.0010386112479600514   -0.0028635170021164744   -1.8710086577057747e-05
-0.0010289265033300396   -0.0028730844573455158   -2.3959988672831743e-05
-0.0009678014260404372   -0.0042730011537756366   -5.248128058446321e-05
-0.0017865414952977833   -0.0028640026497428754   -3.503488768615797e-05
-0.0010289265033300396   -0.0028730844573455158   -2.3959988672831743e-05
-0.0016968658419769331   -0.004273307129662538   -7.40018026606894e-05
-0.0009678014260404372   -0.0042730011537756366   -5.248128058446321e-05
-0.0010386112479600514   -0.0028635170021164744   -1.8710086577057747e-05
-0.0017056686276526753   -0.004265207259273235   -6.811237954933277e-05
-0.0009767837215762449   -0.004263516145114904   -4.767829078601889e-05
-0.0010386112479600514   -0.0028635170021164744   -1.8710086577057747e-05
-0.0017865414952977833   -0.0028640026497428754   -3.503488768615797e-05
-0.0017056686276526753   -0.004265207259273235   -6.811237954933277e-05
-0.0017954936982468425   -0.0028558603209108964   -2.9214086066644224e-05
-0.0009767837215762449   -0.004263516145114904   -4.767829078601889e-05
-0.0017138692787120335   -0.004258044900886947   -6.149250413940512e-05
-0.0017954936982468425   -0.0028558603209108964   -2.9214086066644224e-05
-0.0017056686276526753   -0.004265207259273235   -6.811237954933277e-05
-0.0009767837215762449   -0.004263516145114904   -4.767829078601889e-05
-0.0017954936982468425   -0.0028558603209108964   -2.9214086066644224e-05
-0.0010486961856255078   -0.0028536336012686516   -1.2874632057934188e-05
-0.0010386112479600514   -0.0028635170021164744   -1.8710086577057747e-05
-0.0009767837215762449   -0.004263516145114904   -4.767829078601889e-05
-0.0017954936982468425   -0.0028558603209108964   -2.9214086066644224e-05
-0.0010386112479600514   -0.0028635170021164744   -1.8710086577057747e-05
-0.0017056686276526753   -0.004265207259273235   -6.811237954933277e-05
-0.0009767837215762449   -0.004263516145114904   -4.767829078601889e-05
-0.0010486961856255078   -0.0028536336012686516   -1.2874632057934188e-05
-0.0017138692787120335   -0.004258044900886947   -6.149250413940512e-05
-0.0009863911555661176   -0.004255133050180021   -4.2123815011079705e-05
-0.0010486961856255078   -0.0028536336012686516   -1.2874632057934188e-05
-0.0017954936982468425   -0.0028558603209108964   -2.9214086066644224e-05
-0.0017138692787120335   -0.004258044900886947   -6.149250413940512e-05
-0.001804363111470766   -0.0028476192886724362   -2.288979262794679e-05
-0.0009863911555661176   -0.004255133050180021   -4.2123815011079705e-05
-0.0017221003370078754   -0.004251832425935626   -5.417471789305229e-05
-0.001804363111470766   -0.0028476192886724362   -2.288979262794679e-05
-0.0017138692787120335   -0.004258044900886947   -6.149250413940512e-05
-0.0009863911555661176   -0.004255133050180021   -4.2123815011079705e-05
-0.001804363111470766   -0.0028476192886724362   -2.288979262794679e-05
-0.001059262217145651   -0.0028437040038215284   -6.351420901810453e-06
-0.0010486961856255078   -0.0028536336012686516   -1.2874632057934188e-05
-0.0009863911555661176   -0.004255133050180021   -4.2123815011079705e-05
-0.001804363111470766   -0.0028476192886724362   -2.288979262794679e-05
-0.0010486961856255078   -0.0028536336012686516   -1.2874632057934188e-05
-0.0017138692787120335   -0.004258044900886947   -6.149250413940512e-05
-0.0016968658419769331   -0.004273307129662538   -7.40018026606894e-05
-0.0017771519938924016   -0.002872110137699664   -4.0332759041030536e-05
-0.002448365067359425   -0.004259333579590296   -8.754626666515104e-05
-0.0017056686276526753   -0.004265207259273235   -6.811237954933277e-05
-0.0017771519938924016   -0.002872110137699664   -4.0332759041030536e-05
-0.0025414838031484793   -0.0028673581635809678   -5.3451984660877385e-05
-0.002448365067359425   -0.004259333579590296   -8.754626666515104e-05
-0.002550430319772428   -0.0028612066685184253   -4.816955937464428e-05
-0.0017056686276526753   -0.004265207259273235   -6.811237954933277e-05
-0.0024567489246817373   -0.004253637170824266   -7.983924461853194e-05
-0.002550430319772428   -0.0028612066685184253   -4.816955937464428e-05
-0.002448365067359425   -0.004259333579590296   -8.754626666515104e-05
-0.0017056686276526753   -0.004265207259273235   -6.811237954933277e-05
-0.002550430319772428   -0.0028612066685184253   -4.816955937464428e-05
-0.0017865414952977833   -0.0028640026497428754   -3.503488768615797e-05
-0.0017771519938924016   -0.002872110137699664   -4.0332759041030536e-05
-0.0017056686276526753   -0.004265207259273235   -6.811237954933277e-05
-0.002550430319772428   -0.0028612066685184253   -4.816955937464428e-05
-0.0017771519938924016   -0.002872110137699664   -4.0332759041030536e-05
-0.002448365067359425   -0.004259333579590296   -8.754626666515104e-05
-0.0017056686276526753   -0.004265207259273235   -6.811237954933277e-05
-0.0017865414952977833   -0.0028640026497428754   -3.503488768615797e-05
-0.0024567489246817373   -0.004253637170824266   -7.983924461853194e-05
-0.0017138692787120335   -0.004258044900886947   -6.149250413940512e-05
-0.0017865414952977833   -0.0028640026497428754   -3.503488768615797e-05
-0.002550430319772428   -0.0028612066685184253   -4.816955937464428e-05
-0.0024567489246817373   -0.004253637170824266   -7.983924461853194e-05
-0.0025578663414043694   -0.0028547574271221635   -4.24839177559456e-05
-0.0017138692787120335   -0.004258044900886947   -6.149250413940512e-05
-0.002462836728867146   -0.004248644491462668   -7.150519539043358e-05
-0.0025578663414043694   -0.0028547574271221635   -4.24839177559456e-05
-0.0024567489246817373   -0.004253637170824266   -7.983924461853194e-05
-0.0017138692787120335   -0.004258044900886947   -6.149250413940512e-05
-0.0025578663414043694   -0.0028547574271221635   -4.24839177559456e-05
-0.0017954936982468425   -0.0028558603209108964   -2.9214086066644224e-05
-0.0017865414952977833   -0.0028640026497428754   -3.503488768615797e-05
-0.0017138692787120335   -0.004258044900886947   -6.149250413940512e-05
-0.0025578663414043694   -0.0028547574271221635   -4.24839177559456e-05
-0.0017865414952977833   -0.0028640026497428754   -3.503488768615797e-05
-0.0024567489246817373   -0.004253637170824266   -7.983924461853194e-05
-0.0017138692787120335   -0.004258044900886947   -6.149250413940512e-05
-0.0017954936982468425   -0.0028558603209108964   -2.9214086066644224e-05
-0.002462836728867146   -0.004248644491462668   -7.150519539043358e-05
-0.0017221003370078754   -0.004251832425935626   -5.417471789305229e-05
-0.0017954936982468425   -0.0028558603209108964   -2.9214086066644224e-05
-0.0025578663414043694   -0.0028547574271221635   -4.24839177559456e-05
-0.002462836728867146   -0.004248644491462668   -7.150519539043358e-05
-0.002564886208810485   -0.0028482350667074882   -3.62498040369267e-05
-0.0017221003370078754   -0.004251832425935626   -5.417471789305229e-05
-0.002468940789758403   -0.004244675911891077   -6.239555290396053e-05
-0.002564886208810485   -0.0028482350667074882   -3.62498040369267e-05
-0.002462836728867146   -0.004248644491462668   -7.150519539043358e-05
-0.0017221003370078754   -0.004251832425935626   -5.417471789305229e-05
-0.002564886208810485   -0.0028482350667074882   -3.62498040369267e-05
-0.001804363111470766   -0.0028476192886724362   -2.288979262794679e-05
-0.0017954936982468425   -0.0028558603209108964   -2.9214086066644224e-05
-0.0017221003370078754   -0.004251832425935626   -5.417471789305229e-05
-0.002564886208810485   -0.0028482350667074882   -3.62498040369267e-05
-0.0017954936982468425   -0.0028558603209108964   -2.9214086066644224e-05
-0.002462836728867146   -0.004248644491462668   -7.150519539043358e-05
-0.002448365067359425   -0.004259333579590296   -8.754626666515104e-05
-0.0025414838031484793   -0.0028673581635809678   -5.3451984660877385e-05
-0.0032474678229107296   -0.004242236235349899   -9.681323017777376e-05
-0.0024567489246817373   -0.004253637170824266   -7.983924461853194e-05
-0.0025414838031484793   -0.0028673581635809678   -5.3451984660877385e-05
-0.0033452238768002444   -0.002859114366046072   -6.213256102496374e-05
-0.0032474678229107296   -0.004242236235349899   -9.681323017777376e-05
-0.003350014414419424   -0.0028543992575768454   -5.770818292617365e-05
-0.0024567489246817373   -0.004253637170824266   -7.983924461853194e-05
-0.00324720289181813   -0.0042381302994409726   -8.780889984856832e-05
-0.003350014414419424   -0.0028543992575768454   -5.770818292617365e-05
-0.0032474678229107296   -0.004242236235349899   -9.681323017777376e-05
-0.0024567489246817373   -0.004253637170824266   -7.983924461853194e-05
-0.003350014414419424   -0.0028543992575768454   -5.770818292617365e-05
-0.002550430319772428   -0.0028612066685184253   -4.816955937464428e-05
-0.0025414838031484793   -0.0028673581635809678   -5.3451984660877385e-05
-0.0024567489246817373   -0.004253637170824266   -7.983924461853194e-05
-0.003350014414419424   -0.0028543992575768454   -5.770818292617365e-05
-0.0025414838031484793   -0.0028673581635809678   -5.3451984660877385e-05
-0.0032474678229107296   -0.004242236235349899   -9.681323017777376e-05
-0.0024567489246817373   -0.004253637170824266   -7.983924461853194e-05
-0.002550430319772428   -0.0028612066685184253   -4.816955937464428e-05
-0.00324720289181813   -0.0042381302994409726   -8.780889984856832e-05
-0.002462836728867146   -0.004248644491462668   -7.150519539043358e-05
-0.002550430319772428   -0.0028612066685184253   -4.816955937464428e-05
-0.003350014414419424   -0.0028543992575768454   -5.770818292617365e-05
-0.00324720289181813   -0.0042381302994409726   -8.780889984856832e-05
-0.0033543953231118385   -0.002848876114381617   -5.235963841583659e-05
-0.002462836728867146   -0.004248644491462668   -7.150519539043358e-05
-0.003247188711945316   -0.004234258823916825   -7.756142424058674e-05
-0.0033543953231118385   -0.002848876114381617   -5.235963841583659e-05
-0.00324720289181813   -0.0042381302994409726   -8.780889984856832e-05
-0.002462836728867146   -0.004248644491462668   -7.150519539043358e-05
-0.0033543953231118385   -0.002848876114381617   -5.235963841583659e-05
-0.0025578663414043694   -0.0028547574271221635   -4.24839177559456e-05
-0.002550430319772428   -0.0028612066685184253   -4.816955937464428e-05
-0.002462836728867146   -0.004248644491462668   -7.150519539043358e-05
-0.0033543953231118385   -0.002848876114381617   -5.235963841583659e-05
-0.002550430319772428   -0.0028612066685184253   -4.816955937464428e-05
-0.00324720289181813   -0.0042381302994409726   -8.780889984856832e-05
-0.002462836728867146   -0.004248644491462668   -7.150519539043358e-05
-0.0025578663414043694   -0.0028547574271221635   -4.24839177559456e-05
-0.003247188711945316   -0.004234258823916825   -7.756142424058674e-05
-0.002468940789758403   -0.004244675911891077   -6.239555290396053e-05
-0.0025578663414043694   -0.0028547574271221635   -4.24839177559456e-05
-0.0033543953231118385   -0.002848876114381617   -5.235963841583659e-05
-0.003247188711945316   -0.004234258823916825   -7.756142424058674e-05
-0.0033556546906877206   -0.0028443685004912807   -4.6281717465297364e-05
-0.002468940789758403   -0.004244675911891077   -6.239555290396053e-05
-0.0032422605006311596   -0.004233007382435152   -6.620725211125268e-05
-0.0033556546906877206   -0.0028443685004912807   -4.6281717465297364e-05
-0.003247188711945316   -0.004234258823916825   -7.756142424058674e-05
-0.002468940789758403   -0.004244675911891077   -6.239555290396053e-05
-0.0033556546906877206   -0.0028443685004912807   -4.6281717465297364e-05
-0.002564886208810485   -0.0028482350667074882   -3.62498040369267e-05
-0.0025578663414043694   -0.0028547574271221635   -4.24839177559456e-05
-0.002468940789758403   -0.004244675911891077   -6.239555290396053e-05
-0.0033556546906877206   -0.0028443685004912807   -4.6281717465297364e-05
-0.0025578663414043694   -0.0028547574271221635   -4.24839177559456e-05
-0.003247188711945316   -0.004234258823916825   -7.756142424058674e-05
0.0005359866156232514   -0.002888483910569757   1.419291448145583e-05
0.00038351315611588285   -0.0014658857349448904   1.6188459979949222e-05
-0.0002712082369339421   -0.002876295913438761   -5.494284550278513e-06
0.0005203918554143108   -0.0028741872870077143   2.0066612341841055e-05
0.00038351315611588285   -0.0014658857349448904   1.6188459979949222e-05
-0.0003788733435002884   -0.0014493573616675159   1.2308322887414373e-05
-0.0002712082369339421   -0.002876295913438761   -5.494284550278513e-06
-0.0003895695377691273   -0.001444842804611764   2.015252713105528e-05
0.0005203918554143108   -0.0028741872870077143   2.0066612341841055e-05
-0.00028162725480832126   -0.0028648873367077233   -2.15603588727918e-07
-0.0003895695377691273   -0.001444842804611764   2.015252713105528e-05
-0.0002712082369339421   -0.002876295913438761   -5.494284550278513e-06
0.0005203918554143108   -0.0028741872870077143   2.0066612341841055e-05
-0.0003895695377691273   -0.001444842804611764   2.015252713105528e-05
0.0003498000397916418   -0.001450128804378753   3.511332894473364e-05
0.00038351315611588285   -0.0014658857349448904   1.6188459979949222e-05
0.0005203918554143108   -0.0028741872870077143   2.0066612341841055e-05
-0.0003895695377691273   -0.001444842804611764   2.015252713105528e-05
0.00038351315611588285   -0.0014658857349448904   1.6188459979949222e-05
-0.0002712082369339421   -0.002876295913438761   -5.494284550278513e-06
0.0005203918554143108   -0.0028741872870077143   2.0066612341841055e-05
0.0003498000397916418   -0.001450128804378753   3.511332894473364e-05
-0.00028162725480832126   -0.0028648873367077233   -2.15603588727918e-07
0.0005022629266020673   -0.0028604140071824477   2.9133862229478768e-05
0.0003498000397916418   -0.001450128804378753   3.511332894473364e-05
-0.0003895695377691273   -0.001444842804611764   2.015252713105528e-05
-0.00028162725480832126   -0.0028648873367077233   -2.15603588727918e-07
-0.00040419994953792235   -0.0014348638533772575   2.9842623721278842e-05
0.0005022629266020673   -0.0028604140071824477   2.9133862229478768e-05
-0.00029395101985295026   -0.0028530228426348536   6.109622282398267e-06
-0.00040419994953792235   -0.0014348638533772575   2.9842623721278842e-05
-0.00028162725480832126   -0.0028648873367077233   -2.15603588727918e-07
0.0005022629266020673   -0.0028604140071824477   2.9133862229478768e-05
-0.00040419994953792235   -0.0014348638533772575   2.9842623721278842e-05
0.00033031432600027133   -0.0014381565342973656   4.891715115696932e-05
0.0003498000397916418   -0.001450128804378753   3.511332894473364e-05
0.0005022629266020673   -0.0028604140071824477   2.9133862229478768e-05
-0.00040419994953792235   -0.0014348638533772575   2.9842623721278842e-05
0.0003498000397916418   -0.001450128804378753   3.511332894473364e-05
-0.00028162725480832126   -0.0028648873367077233   -2.15603588727918e-07
0.0005022629266020673   -0.0028604140071824477   2.9133862229478768e-05
0.00033031432600027133   -0.0014381565342973656   4.891715115696932e-05
-0.00029395101985295026   -0.0028530228426348536   6.109622282398267e-06
0.00048004364650104957   -0.0028433294192768232   3.922073425601542e-05
0.00033031432600027133   -0.0014381565342973656   4.891715115696932e-05
-0.00040419994953792235   -0.0014348638533772575   2.9842623721278842e-05
-0.00029395101985295026   -0.0028530228426348536   6.109622282398267e-06
-0.00041675209279555254   -0.0014244826353519775   3.8338089031667616e-05
0.00048004364650104957   -0.0028433294192768232   3.922073425601542e-05
-0.00030685820848749324   -0.002840584563164241   1.3489044384355946e-05
-0.00041675209279555254   -0.0014244826353519775   3.8338089031667616e-05
-0.00029395101985295026   -0.0028530228426348536   6.109622282398267e-06
0.00048004364650104957   -0.0028433294192768232   3.922073425601542e-05
-0.00041675209279555254   -0.0014244826353519775   3.8338089031667616e-05
0.0003049294498331401   -0.001419002741266918   6.487283891727206e-05
0.00033031432600027133   -0.0014381565342973656   4.891715115696932e-05
0.00048004364650104957   -0.0028433294192768232   3.922073425601542e-05
-0.00041675209279555254   -0.0014244826353519775   3.8338089031667616e-05
0.00033031432600027133   -0.0014381565342973656   4.891715115696932e-05
-0.00029395101985295026   -0.0028530228426348536   6.109622282398267e-06
-0.0002712082369339421   -0.002876295913438761   -5.494284550278513e-06
-0.0003788733435002884   -0.0014493573616675159   1.2308322887414373e-05
-0.0010289265033300396   -0.0028730844573455158   -2.3959988672831743e-05
-0.00028162725480832126   -0.0028648873367077233   -2.15603588727918e-07
-0.0003788733435002884   -0.0014493573616675159   1.2308322887414373e-05
-0.0010972612092018084   -0.0014725551090913165   -1.0787422647782341e-06
-0.0010289265033300396   -0.0028730844573455158   -2.3959988672831743e-05
-0.0011076182749918963   -0.001464286220801187   4.684804386026212e-06
-0.00028162725480832126   -0.0028648873367077233   -2.15603588727918e-07
-0.0010386112479600514   -0.0028635170021164744   -1.8710086577057747e-05
-0.0011076182749918963   -0.001464286220801187   4.684804386026212e-06
-0.0010289265033300396   -0.0028730844573455158   -2.3959988672831743e-05
-0.00028162725480832126   -0.0028648873367077233   -2.15603588727918e-07
-0.0011076182749918963   -0.001464286220801187   4.684804386026212e-06
-0.0003895695377691273   -0.001444842804611764   2.015252713105528e-05
-0.0003788733435002884   -0.0014493573616675159   1.2308322887414373e-05
-0.00028162725480832126   -0.0028648873367077233   -2.15603588727918e-07
-0.0011076182749918963   -0.001464286220801187   4.684804386026212e-06
-0.0003788733435002884   -0.0014493573616675159   1.2308322887414373e-05
-0.0010289265033300396   -0.0028730844573455158   -2.3959988672831743e-05
-0.00028162725480832126   -0.0028648873367077233   -2.15603588727918e-07
-0.0003895695377691273   -0.001444842804611764   2.015252713105528e-05
-0.0010386112479600514   -0.0028635170021164744   -1.8710086577057747e-05
-0.00029395101985295026   -0.0028530228426348536   6.109622282398267e-06
-0.0003895695377691273   -0.001444842804611764   2.015252713105528e-05
-0.0011076182749918963   -0.001464286220801187   4.684804386026212e-06
-0.0010386112479600514   -0.0028635170021164744   -1.8710086577057747e-05
-0.001118734916923229   -0.001454597790096896   1.0923079465596235e-05
-0.00029395101985295026   -0.0028530228426348536   6.109622282398267e-06
-0.0010486961856255078   -0.0028536336012686516   -1.2874632057934188e-05
-0.001118734916923229   -0.001454597790096896   1.0923079465596235e-05
-0.0010386112479600514   -0.0028635170021164744   -1.8710086577057747e-05
-0.00029395101985295026   -0.0028530228426348536   6.109622282398267e-06
-0.001118734916923229   -0.001454597790096896   1.0923079465596235e-05
-0.00040419994953792235   -0.0014348638533772575   2.9842623721278842e-05
-0.0003895695377691273   -0.001444842804611764   2.015252713105528e-05
-0.00029395101985295026   -0.0028530228426348536   6.109622282398267e-06
-0.001118734916923229   -0.001454597790096896   1.0923079465596235e-05
-0.0003895695377691273   -0.001444842804611764   2.015252713105528e-05
-0.0010386112479600514   -0.0028635170021164744   -1.8710086577057747e-05
-0.00029395101985295026   -0.0028530228426348536   6.109622282398267e-06
-0.00040419994953792235   -0.0014348638533772575   2.9842623721278842e-05
-0.0010486961856255078   -0.0028536336012686516   -1.2874632057934188e-05
-0.00030685820848749324   -0.002840584563164241   1.3489044384355946e-05
-0.00040419994953792235   -0.0014348638533772575   2.9842623721278842e-05
-0.001118734916923229   -0.001454597790096896   1.0923079465596235e-05
-0.0010486961856255078   -0.0028536336012686516   -1.2874632057934188e-05
-0.00112952983020872   -0.0014439751139943646   1.788538562039128e-05
-0.00030685820848749324   -0.002840584563164241   1.3489044384355946e-05
-0.001059262217145651   -0.0028437040038215284   -6.351420901810453e-06
-0.00112952983020872   -0.0014439751139943646   1.788538562039128e-05
-0.0010486961856255078   -0.0028536336012686516   -1.2874632057934188e-05
-0.00030685820848749324   -0.002840584563164241   1.3489044384355946e-05
-0.00112952983020872   -0.0014439751139943646   1.788538562039128e-05
-0.00041675209279555254   -0.0014244826353519775   3.8338089031667616e-05
-0.00040419994953792235   -0.0014348638533772575   2.9842623721278842e-05
-0.00030685820848749324   -0.002840584563164241   1.3489044384355946e-05
-0.00112952983020872   -0.0014439751139943646   1.788538562039128e-05
-0.00040419994953792235   -0.0014348638533772575   2.9842623721278842e-05
-0.0010486961856255078   -0.0028536336012686516   -1.2874632057934188e-05
-0.0010289265033300396   -0.0028730844573455158   -2.3959988672831743e-05
-0.0010972612092018084   -0.0014725551090913165   -1.0787422647782341e-06
-0.0017771519938924016   -0.002872110137699664   -4.0332759041030536e-05
-0.0010386112479600514   -0.0028635170021164744   -1.8710086577057747e-05
-0.0010972612092018084   -0.0014725551090913165   -1.0787422647782341e-06
-0.0018301361211160794   -0.001490726336054006   -1.6800491096217544e-05
-0.0017771519938924016   -0.002872110137699664   -4.0332759041030536e-05
-0.001839661312503705   -0.0014821345675992907   -1.216321024184916e-05
-0.0010386112479600514   -0.0028635170021164744   -1.8710086577057747e-05
-0.0017865414952977833   -0.0028640026497428754   -3.503488768615797e-05
-0.001839661312503705   -0.0014821345675992907   -1.216321024184916e-05
-0.0017771519938924016   -0.002872110137699664   -4.0332759041030536e-05
-0.0010386112479600514   -0.0028635170021164744   -1.8710086577057747e-05
-0.001839661312503705   -0.0014821345675992907   -1.216321024184916e-05
-0.0011076182749918963   -0.001464286220801187   4.684804386026212e-06
-0.0010972612092018084   -0.0014725551090913165   -1.0787422647782341e-06
-0.0010386112479600514   -0.0028635170021164744   -1.8710086577057747e-05
-0.001839661312503705   -0.0014821345675992907   -1.216321024184916e-05
-0.0010972612092018084   -0.0014725551090913165   -1.0787422647782341e-06
-0.0017771519938924016   -0.002872110137699664   -4.0332759041030536e-05
-0.0010386112479600514   -0.0028635170021164744   -1.8710086577057747e-05
-0.0011076182749918963   -0.001464286220801187   4.684804386026212e-06
-0.0017865414952977833   -0.0028640026497428754   -3.503488768615797e-05
-0.0010486961856255078   -0.0028536336012686516   -1.2874632057934188e-05
-0.0011076182749918963   -0.001464286220801187   4.684804386026212e-06
-0.001839661312503705   -0.0014821345675992907   -1.216321024184916e-05
-0.0017865414952977833   -0.0028640026497428754   -3.503488768615797e-05
-0.0018489351746828059   -0.001472904286457191   -7.441673988290042e-06
-0.0010486961856255078   -0.0028536336012686516   -1.2874632057934188e-05
-0.0017954936982468425   -0.0028558603209108964   -2.9214086066644224e-05
-0.0018489351746828059   -0.001472904286457191   -7.441673988290042e-06
-0.0017865414952977833   -0.0028640026497428754   -3.503488768615797e-05
-0.0010486961856255078   -0.0028536336012686516   -1.2874632057934188e-05
-0.0018489351746828059   -0.001472904286457191   -7.441673988290042e-06
-0.001118734916923229   -0.001454597790096896   1.0923079465596235e-05
-0.0011076182749918963   -0.001464286220801187   4.684804386026212e-06
-0.0010486961856255078   -0.0028536336012686516   -1.2874632057934188e-05
-0.0018489351746828059   -0.001472904286457191   -7.441673988290042e-06
-0.0011076182749918963   -0.001464286220801187   4.684804386026212e-06
-0.0017865414952977833   -0.0028640026497428754   -3.503488768615797e-05
-0.0010486961856255078   -0.0028536336012686516   -1.2874632057934188e-05
-0.001118734916923229   -0.001454597790096896   1.0923079465596235e-05
-0.0017954936982468425   -0.0028558603209108964   -2.9214086066644224e-05
-0.001059262217145651   -0.0028437040038215284   -6.351420901810453e-06
-0.001118734916923229   -0.001454597790096896   1.0923079465596235e-05
-0.0018489351746828059   -0.001472904286457191   -7.441673988290042e-06
-0.0017954936982468425   -0.0028558603209108964   -2.9214086066644224e-05
-0.0018576118514434113   -0.0014627886885550925   -2.1960880079120603e-06
-0.001059262217145651   -0.0028437040038215284   -6.351420901810453e-06
-0.001804363111470766   -0.0028476192886724362   -2.288979262794679e-05
-0.0018576118514434113   -0.0014627886885550925   -2.1960880079120603e-06
-0.0017954936982468425   -0.0028558603209108964   -2.9214086066644224e-05
-0.001059262217145651   -0.0028437040038215284   -6.351420901810453e-06
-0.0018576118514434113   -0.0014627886885550925   -2.1960880079120603e-06
-0.00112952983020872   -0.0014439751139943646   1.788538562039128e-05
-0.001118734916923229   -0.001454597790096896   1.0923079465596235e-05
-0.001059262217145651   -0.0028437040038215284   -6.351420901810453e-06
-0.0018576118514434113   -0.0014627886885550925   -2.1960880079120603e-06
-0.001118734916923229   -0.001454597790096896   1.0923079465596235e-05
-0.0017954936982468425   -0.0028558603209108964   -2.9214086066644224e-05
-0.0017771519938924016   -0.002872110137699664   -4.0332759041030536e-05
-0.0018301361211160794   -0.001490726336054006   -1.6800491096217544e-05
-0.0025414838031484793   -0.0028673581635809678   -5.3451984660877385e-05
-0.0017865414952977833   -0.0028640026497428754   -3.503488768615797e-05
-0.0018301361211160794   -0.001490726336054006   -1.6800491096217544e-05
-0.002588846599364011   -0.0014983467215397596   -3.1105307771882254e-05
-0.0025414838031484793   -0.0028673581635809678   -5.3451984660877385e-05
-0.0025974769829031855   -0.0014909013334780605   -2.758291010849349e-05
-0.0017865414952977833   -0.0028640026497428754   -3.503488768615797e-05
-0.002550430319772428   -0.0028612066685184253   -4.816955937464428e-05
-0.0025974769829031855   -0.0014909013334780605   -2.758291010849349e-05
-0.0025414838031484793   -0.0028673581635809678   -5.3451984660877385e-05
-0.0017865414952977833   -0.0028640026497428754   -3.503488768615797e-05
-0.0025974769829031855   -0.0014909013334780605   -2.758291010849349e-05
-0.001839661312503705   -0.0014821345675992907   -1.216321024184916e-05
-0.0018301361211160794   -0.001490726336054006   -1.6800491096217544e-05
-0.0017865414952977833   -0.0028640026497428754   -3.503488768615797e-05
-0.0025974769829031855   -0.0014909013334780605   -2.758291010849349e-05
-0.0018301361211160794   -0.001490726336054006   -1.6800491096217544e-05
-0.0025414838031484793   -0.0028673581635809678   -5.3451984660877385e-05
-0.0017865414952977833   -0.0028640026497428754   -3.503488768615797e-05
-0.001839661312503705   -0.0014821345675992907   -1.216321024184916e-05
-0.002550430319772428   -0.0028612066685184253   -4.816955937464428e-05
-0.0017954936982468425   -0.0028558603209108964   -2.9214086066644224e-05
-0.001839661312503705   -0.0014821345675992907   -1.216321024184916e-05
-0.0025974769829031855   -0.0014909013334780605   -2.758291010849349e-05
-0.002550430319772428   -0.0028612066685184253   -4.816955937464428e-05
-0.0026051774586237633   -0.0014825797694158476   -2.4069582711208197e-05
-0.0017954936982468425   -0.0028558603209108964   -2.9214086066644224e-05
-0.0025578663414043694   -0.0028547574271221635   -4.24839177559456e-05
-0.0026051774586237633   -0.0014825797694158476   -2.4069582711208197e-05
-0.002550430319772428   -0.0028612066685184253   -4.816955937464428e-05
-0.0017954936982468425   -0.0028558603209108964   -2.9214086066644224e-05
-0.0026051774586237633   -0.0014825797694158476   -2.4069582711208197e-05
-0.0018489351746828059   -0.001472904286457191   -7.441673988290042e-06
-0.001839661312503705   -0.0014821345675992907   -1.216321024184916e-05
-0.0017954936982468425   -0.0028558603209108964   -2.9214086066644224e-05
-0.0026051774586237633   -0.0014825797694158476   -2.4069582711208197e-05
-0.001839661312503705   -0.0014821345675992907   -1.216321024184916e-05
-0.002550430319772428   -0.0028612066685184253   -4.816955937464428e-05
-0.0017954936982468425   -0.0028558603209108964   -2.9214086066644224e-05
-0.0018489351746828059   -0.001472904286457191   -7.441673988290042e-06
-0.0025578663414043694   -0.0028547574271221635   -4.24839177559456e-05
-0.001804363111470766   -0.0028476192886724362   -2.288979262794679e-05
-0.0018489351746828059   -0.001472904286457191   -7.441673988290042e-06
-0.0026051774586237633   -0.0014825797694158476   -2.4069582711208197e-05
-0.0025578663414043694   -0.0028547574271221635   -4.24839177559456e-05
-0.002612189081606606   -0.001473617418896349   -2.034517891656642e-05
-0.001804363111470766   -0.0028476192886724362   -2.288979262794679e-05
-0.002564886208810485   -0.0028482350667074882   -3.62498040369267e-05
-0.002612189081606606   -0.001473617418896349   -2.034517891656642e-05
-0.0025578663414043694   -0.0028547574271221635   -4.24839177559456e-05
-0.001804363111470766   -0.0028476192886724362   -2.288979262794679e-05
-0.002612189081606606   -0.001473617418896349   -2.034517891656642e-05
-0.0018576118514434113   -0.0014627886885550925   -2.1960880079120603e-06
-0.0018489351746828059   -0.001472904286457191   -7.441673988290042e-06
-0.001804363111470766   -0.0028476192886724362   -2.288979262794679e-05
-0.002612189081606606   -0.001473617418896349   -2.034517891656642e-05
-0.0018489351746828059   -0.001472904286457191   -7.441673988290042e-06
-0.0025578663414043694   -0.0028547574271221635   -4.24839177559456e-05
-0.0025414838031484793   -0.0028673581635809678   -5.3451984660877385e-05
-0.002588846599364011   -0.0014983467215397596   -3.1105307771882254e-05
-0.0033452238768002444   -0.002859114366046072   -6.213256102496374e-05
-0.002550430319772428   -0.0028612066685184253   -4.816955937464428e-05
-0.002588846599364011   -0.0014983467215397596   -3.1105307771882254e-05
-0.003377548734079779   -0.0014989335174867442   -4.227455073668918e-05
-0.0033452238768002444   -0.002859114366046072   -6.213256102496374e-05
-0.0033847258226601747   -0.001491830821095848   -4.048799941768556e-05
-0.002550430319772428   -0.0028612066685184253   -4.816955937464428e-05
-0.003350014414419424   -0.0028543992575768454   -5.770818292617365e-05
-0.0033847258226601747   -0.001491830821095848   -4.048799941768556e-05
-0.0033452238768002444   -0.002859114366046072   -6.213256102496374e-05
-0.002550430319772428   -0.0028612066685184253   -4.816955937464428e-05
-0.0033847258226601747   -0.001491830821095848   -4.048799941768556e-05
-0.0025974769829031855   -0.0014909013334780605   -2.758291010849349e-05
-0.002588846599364011   -0.0014983467215397596   -3.1105307771882254e-05
-0.002550430319772428   -0.0028612066685184253   -4.816955937464428e-05
-0.0033847258226601747   -0.001491830821095848   -4.048799941768556e-05
-0.002588846599364011   -0.0014983467215397596   -3.1105307771882254e-05
-0.0033452238768002444   -0.002859114366046072   -6.213256102496374e-05
-0.002550430319772428   -0.0028612066685184253   -4.816955937464428e-05
-0.0025974769829031855   -0.0014909013334780605   -2.758291010849349e-05
-0.003350014414419424   -0.0028543992575768454   -5.770818292617365e-05
-0.0025578663414043694   -0.0028547574271221635   -4.24839177559456e-05
-0.0025974769829031855   -0.0014909013334780605   -2.758291010849349e-05
-0.0033847258226601747   -0.001491830821095848   -4.048799941768556e-05
-0.003350014414419424   -0.0028543992575768454   -5.770818292617365e-05
-0.0033911561644494816   -0.001483936184330916   -3.8347678134604295e-05
-0.0025578663414043694   -0.0028547574271221635   -4.24839177559456e-05
-0.0033543953231118385   -0.002848876114381617   -5.235963841583659e-05
-0.0033911561644494816   -0.001483936184330916   -3.8347678134604295e-05
-0.003350014414419424   -0.0028543992575768454   -5.770818292617365e-05
-0.0025578663414043694   -0.0028547574271221635   -4.24839177559456e-05
-0.0033911561644494816   -0.001483936184330916   -3.8347678134604295e-05
-0.0026051774586237633   -0.0014825797694158476   -2.4069582711208197e-05
-0.0025974769829031855   -0.0014909013334780605   -2.758291010849349e-05
-0.0025578663414043694   -0.0028547574271221635   -4.24839177559456e-05
-0.0033911561644494816   -0.001483936184330916   -3.8347678134604295e-05
-0.0025974769829031855   -0.0014909013334780605   -2.758291010849349e-05
-0.003350014414419424   -0.0028543992575768454   -5.770818292617365e-05
-0.0025578663414043694   -0.0028547574271221635   -4.24839177559456e-05
-0.0026051774586237633   -0.0014825797694158476   -2.4069582711208197e-05
-0.0033543953231118385   -0.002848876114381617   -5.235963841583659e-05
-0.002564886208810485   -0.0028482350667074882   -3.62498040369267e-05
-0.0026051774586237633   -0.0014825797694158476   -2.4069582711208197e-05
-0.0033911561644494816   -0.001483936184330916   -3.8347678134604295e-05
-0.0033543953231118385   -0.002848876114381617   -5.235963841583659e-05
-0.003396256778671342   -0.0014756173905828606   -3.61824747248554e-05
-0.002564886208810485   -0.0028482350667074882   -3.62498040369267e-05
-0.0033556546906877206   -0.0028443685004912807   -4.6281717465297364e-05
-0.003396256778671342   -0.0014756173905828606   -3.61824747248554e-05
-0.0033543953231118385   -0.002848876114381617   -5.235963841583659e-05
-0.002564886208810485   -0.0028482350667074882   -3.62498040369267e-05
-0.003396256778671342   -0.0014756173905828606   -3.61824747248554e-05
-0.002612189081606606   -0.001473617418896349   -2.034517891656642e-05
-0.0026051774586237633   -0.0014825797694158476   -2.4069582711208197e-05
-0.002564886208810485   -0.0028482350667074882   -3.62498040369267e-05
-0.003396256778671342   -0.0014756173905828606   -3.61824747248554e-05
-0.0026051774586237633   -0.0014825797694158476   -2.4069582711208197e-05
-0.0033543953231118385   -0.002848876114381617   -5.235963841583659e-05
0.00038351315611588285   -0.0014658857349448904   1.6188459979949222e-05
0.0   0.0   0.0
-0.0003788733435002884   -0.0014493573616675159   1.2308322887414373e-05
0.0003498000397916418   -0.001450128804378753   3.511332894473364e-05
0.0   0.0   0.0
-0.0004654742169399482   -0.0001351691263726469   1.3895875619798806e-07
-0.0003788733435002884   -0.0014493573616675159   1.2308322887414373e-05
-0.0004936517583107637   -0.00010849269604172169   1.7916901948991903e-05
0.0003498000397916418   -0.001450128804378753   3.511332894473364e-05
-0.0003895695377691273   -0.001444842804611764   2.015252713105528e-05
-0.0004936517583107637   -0.00010849269604172169   1.7916901948991903e-05
-0.0003788733435002884   -0.0014493573616675159   1.2308322887414373e-05
0.0003498000397916418   -0.001450128804378753   3.511332894473364e-05
-0.0004936517583107637   -0.00010849269604172169   1.7916901948991903e-05
0.0   0.0   0.0
0.0   0.0   0.0
0.0003498000397916418   -0.001450128804378753   3.511332894473364e-05
-0.0004936517583107637   -0.00010849269604172169   1.7916901948991903e-05
0.0   0.0   0.0
-0.0003788733435002884   -0.0014493573616675159   1.2308322887414373e-05
0.0003498000397916418   -0.001450128804378753   3.511332894473364e-05
0.0   0.0   0.0
-0.0003895695377691273   -0.001444842804611764   2.015252713105528e-05
0.00033031432600027133   -0.0014381565342973656   4.891715115696932e-05
0.0   0.0   0.0
-0.0004936517583107637   -0.00010849269604172169   1.7916901948991903e-05
-0.0003895695377691273   -0.001444842804611764   2.015252713105528e-05
-0.0005118527584940654   -9.609641358551428e-05   2.8753324761147994e-05
0.00033031432600027133   -0.0014381565342973656   4.891715115696932e-05
-0.00040419994953792235   -0.0014348638533772575   2.9842623721278842e-05
-0.0005118527584940654   -9.609641358551428e-05   2.8753324761147994e-05
-0.0003895695377691273   -0.001444842804611764   2.015252713105528e-05
0.00033031432600027133   -0.0014381565342973656   4.891715115696932e-05
-0.0005118527584940654   -9.609641358551428e-05   2.8753324761147994e-05
0.0   0.0   0.0
0.0   0.0   0.0
0.00033031432600027133   -0.0014381565342973656   4.891715115696932e-05
-0.0005118527584940654   -9.609641358551428e-05   2.8753324761147994e-05
0.0   0.0   0.0
-0.0003895695377691273   -0.001444842804611764   2.015252713105528e-05
0.00033031432600027133   -0.0014381565342973656   4.891715115696932e-05
0.0   0.0   0.0
-0.00040419994953792235   -0.0014348638533772575   2.9842623721278842e-05
0.0003049294498331401   -0.001419002741266918   6.487283891727206e-05
0.0   0.0   0.0
-0.0005118527584940654   -9.609641358551428e-05   2.8753324761147994e-05
-0.00040419994953792235   -0.0014348638533772575   2.9842623721278842e-05
-0.000537157352448814   -7.934057155077852e-05   4.130174802990297e-05
0.0003049294498331401   -0.001419002741266918   6.487283891727206e-05
-0.00041675209279555254   -0.0014244826353519775   3.8338089031667616e-05
-0.000537157352448814   -7.934057155077852e-05   4.130174802990297e-05
-0.00040419994953792235   -0.0014348638533772575   2.9842623721278842e-05
0.0003049294498331401   -0.001419002741266918   6.487283891727206e-05
-0.000537157352448814   -7.934057155077852e-05   4.130174802990297e-05
0.0   0.0   0.0
0.0   0.0   0.0
0.0003049294498331401   -0.001419002741266918   6.487283891727206e-05
-0.000537157352448814   -7.934057155077852e-05   4.130174802990297e-05
0.0   0.0   0.0
-0.00040419994953792235   -0.0014348638533772575   2.9842623721278842e-05
-0.0003788733435002884   -0.0014493573616675159   1.2308322887414373e-05
-0.0004654742169399482   -0.0001351691263726469   1.3895875619798806e-07
-0.0010972612092018084   -0.0014725551090913165   -1.0787422647782341e-06
-0.0003895695377691273   -0.001444842804611764   2.015252713105528e-05
-0.0004654742169399482   -0.0001351691263726469   1.3895875619798806e-07
-0.0011263867268196982   -0.00018334922979667338   6.05010170932161e-06
-0.0010972612092018084   -0.0014725551090913165   -1.0787422647782341e-06
-0.0011415859621079748   -0.00016974770477824896   1.139288696863819e-05
-0.0003895695377691273   -0.001444842804611764   2.015252713105528e-05
-0.0011076182749918963   -0.001464286220801187   4.684804386026212e-06
-0.0011415859621079748   -0.00016974770477824896   1.139288696863819e-05
-0.0010972612092018084   -0.0014725551090913165   -1.0787422647782341e-06
-0.0003895695377691273   -0.001444842804611764   2.015252713105528e-05
-0.0011415859621079748   -0.00016974770477824896   1.139288696863819e-05
-0.0004936517583107637   -0.00010849269604172169   1.7916901948991903e-05
-0.0004654742169399482   -0.0001351691263726469   1.3895875619798806e-07
-0.0003895695377691273   -0.001444842804611764   2.015252713105528e-05
-0.0011415859621079748   -0.00016974770477824896   1.139288696863819e-05
-0.0004654742169399482   -0.0001351691263726469   1.3895875619798806e-07
-0.0010972612092018084   -0.0014725551090913165   -1.0787422647782341e-06
-0.0003895695377691273   -0.001444842804611764   2.015252713105528e-05
-0.0004936517583107637   -0.00010849269604172169   1.7916901948991903e-05
-0.0011076182749918963   -0.001464286220801187   4.684804386026212e-06
-0.00040419994953792235   -0.0014348638533772575   2.9842623721278842e-05
-0.0004936517583107637   -0.00010849269604172169   1.7916901948991903e-05
-0.0011415859621079748   -0.00016974770477824896   1.139288696863819e-05
-0.0011076182749918963   -0.001464286220801187   4.684804386026212e-06
-0.001156961062871949   -0.0001535729042568463   2.0367439281732527e-05
-0.00040419994953792235   -0.0014348638533772575   2.9842623721278842e-05
-0.001118734916923229   -0.001454597790096896   1.0923079465596235e-05
-0.001156961062871949   -0.0001535729042568463   2.0367439281732527e-05
-0.0011076182749918963   -0.001464286220801187   4.684804386026212e-06
-0.00040419994953792235   -0.0014348638533772575   2.9842623721278842e-05
-0.001156961062871949   -0.0001535729042568463   2.0367439281732527e-05
-0.0005118527584940654   -9.609641358551428e-05   2.8753324761147994e-05
-0.0004936517583107637   -0.00010849269604172169   1.7916901948991903e-05
-0.00040419994953792235   -0.0014348638533772575   2.9842623721278842e-05
-0.001156961062871949   -0.0001535729042568463   2.0367439281732527e-05
-0.0004936517583107637   -0.00010849269604172169   1.7916901948991903e-05
-0.0011076182749918963   -0.001464286220801187   4.684804386026212e-06
-0.00040419994953792235   -0.0014348638533772575   2.9842623721278842e-05
-0.0005118527584940654   -9.609641358551428e-05   2.8753324761147994e-05
-0.001118734916923229   -0.001454597790096896   1.0923079465596235e-05
-0.00041675209279555254   -0.0014244826353519775   3.8338089031667616e-05
-0.0005118527584940654   -9.609641358551428e-05   2.8753324761147994e-05
-0.001156961062871949   -0.0001535729042568463   2.0367439281732527e-05
-0.001118734916923229   -0.001454597790096896   1.0923079465596235e-05
-0.001174922553296059   -0.00013427947244168645   2.9332599580617885e-05
-0.00041675209279555254   -0.0014244826353519775   3.8338089031667616e-05
-0.00112952983020872   -0.0014439751139943646   1.788538562039128e-05
-0.001174922553296059   -0.00013427947244168645   2.9332599580617885e-05
-0.001118734916923229   -0.001454597790096896   1.0923079465596235e-05
-0.00041675209279555254   -0.0014244826353519775   3.8338089031667616e-05
-0.001174922553296059   -0.00013427947244168645   2.9332599580617885e-05
-0.000537157352448814   -7.934057155077852e-05   4.130174802990297e-05
-0.0005118527584940654   -9.609641358551428e-05   2.8753324761147994e-05
-0.00041675209279555254   -0.0014244826353519775   3.8338089031667616e-05
-0.001174922553296059   -0.00013427947244168645   2.9332599580617885e-05
-0.0005118527584940654   -9.609641358551428e-05   2.8753324761147994e-05
-0.001118734916923229   -0.001454597790096896   1.0923079465596235e-05
-0.0010972612092018084   -0.0014725551090913165   -1.0787422647782341e-06
-0.0011263867268196982   -0.00018334922979667338   6.05010170932161e-06
-0.0018301361211160794   -0.001490726336054006   -1.6800491096217544e-05
-0.0011076182749918963   -0.001464286220801187   4.684804386026212e-06
-0.0011263867268196982   -0.00018334922979667338   6.05010170932161e-06
-0.0018470301338354153   -0.00020036006553218267   -1.7113100254458642e-06
-0.0018301361211160794   -0.001490726336054006   -1.6800491096217544e-05
-0.0018566433079653002   -0.00019084827214048785   1.295177905208535e-07
-0.0011076182749918963   -0.001464286220801187   4.684804386026212e-06
-0.001839661312503705   -0.0014821345675992907   -1.216321024184916e-05
-0.0018566433079653002   -0.00019084827214048785   1.295177905208535e-07
-0.0018301361211160794   -0.001490726336054006   -1.6800491096217544e-05
-0.0011076182749918963   -0.001464286220801187   4.684804386026212e-06
-0.0018566433079653002   -0.00019084827214048785   1.295177905208535e-07
-0.0011415859621079748   -0.00016974770477824896   1.139288696863819e-05
-0.0011263867268196982   -0.00018334922979667338   6.05010170932161e-06
-0.0011076182749918963   -0.001464286220801187   4.684804386026212e-06
-0.0018566433079653002   -0.00019084827214048785   1.295177905208535e-07
-0.0011263867268196982   -0.00018334922979667338   6.05010170932161e-06
-0.0018301361211160794   -0.001490726336054006   -1.6800491096217544e-05
-0.0011076182749918963   -0.001464286220801187   4.684804386026212e-06
-0.0011415859621079748   -0.00016974770477824896   1.139288696863819e-05
-0.001839661312503705   -0.0014821345675992907   -1.216321024184916e-05
-0.001118734916923229   -0.001454597790096896   1.0923079465596235e-05
-0.0011415859621079748   -0.00016974770477824896   1.139288696863819e-05
-0.0018566433079653002   -0.00019084827214048785   1.295177905208535e-07
-0.001839661312503705   -0.0014821345675992907   -1.216321024184916e-05
-0.0018667093493090507   -0.00017926340357946825   3.1531363492742853e-06
-0.001118734916923229   -0.001454597790096896   1.0923079465596235e-05
-0.0018489351746828059   -0.001472904286457191   -7.441673988290042e-06
-0.0018667093493090507   -0.00017926340357946825   3.1531363492742853e-06
-0.001839661312503705   -0.0014821345675992907   -1.216321024184916e-05
-0.001118734916923229   -0.001454597790096896   1.0923079465596235e-05
-0.0018667093493090507   -0.00017926340357946825   3.1531363492742853e-06
-0.001156961062871949   -0.0001535729042568463   2.0367439281732527e-05
-0.0011415859621079748   -0.00016974770477824896   1.139288696863819e-05
-0.001118734916923229   -0.001454597790096896   1.0923079465596235e-05
-0.0018667093493090507   -0.00017926340357946825   3.1531363492742853e-06
-0.0011415859621079748   -0.00016974770477824896   1.139288696863819e-05
-0.001839661312503705   -0.0014821345675992907   -1.216321024184916e-05
-0.001118734916923229   -0.001454597790096896   1.0923079465596235e-05
-0.001156961062871949   -0.0001535729042568463   2.0367439281732527e-05
-0.0018489351746828059   -0.001472904286457191   -7.441673988290042e-06
-0.00112952983020872   -0.0014439751139943646   1.788538562039128e-05
-0.001156961062871949   -0.0001535729042568463   2.0367439281732527e-05
-0.0018667093493090507   -0.00017926340357946825   3.1531363492742853e-06
-0.0018489351746828059   -0.001472904286457191   -7.441673988290042e-06
-0.0018770346851808288   -0.000164263034612991   7.1562908728280115e-06
-0.00112952983020872   -0.0014439751139943646   1.788538562039128e-05
-0.0018576118514434113   -0.0014627886885550925   -2.1960880079120603e-06
-0.0018770346851808288   -0.000164263034612991   7.1562908728280115e-06
-0.0018489351746828059   -0.001472904286457191   -7.441673988290042e-06
-0.00112952983020872   -0.0014439751139943646   1.788538562039128e-05
-0.0018770346851808288   -0.000164263034612991   7.1562908728280115e-06
-0.001174922553296059   -0.00013427947244168645   2.9332599580617885e-05
-0.001156961062871949   -0.0001535729042568463   2.0367439281732527e-05
-0.00112952983020872   -0.0014439751139943646   1.788538562039128e-05
-0.0018770346851808288   -0.000164263034612991   7.1562908728280115e-06
-0.001156961062871949   -0.0001535729042568463   2.0367439281732527e-05
-0.0018489351746828059   -0.001472904286457191   -7.441673988290042e-06
-0.0018301361211160794   -0.001490726336054006   -1.6800491096217544e-05
-0.0018470301338354153   -0.00020036006553218267   -1.7113100254458642e-06
-0.002588846599364011   -0.0014983467215397596   -3.1105307771882254e-05
-0.001839661312503705   -0.0014821345675992907   -1.216321024184916e-05
-0.0018470301338354153   -0.00020036006553218267   -1.7113100254458642e-06
-0.0026028431758494197   -0.00020148672850802874   -1.5685582604109575e-05
-0.002588846599364011   -0.0014983467215397596   -3.1105307771882254e-05
-0.0026094375453067425   -0.00019375664277834529   -1.4842944333527438e-05
-0.001839661312503705   -0.0014821345675992907   -1.216321024184916e-05
-0.0025974769829031855   -0.0014909013334780605   -2.758291010849349e-05
-0.0026094375453067425   -0.00019375664277834529   -1.4842944333527438e-05
-0.002588846599364011   -0.0014983467215397596   -3.1105307771882254e-05
-0.001839661312503705   -0.0014821345675992907   -1.216321024184916e-05
-0.0026094375453067425   -0.00019375664277834529   -1.4842944333527438e-05
-0.0018566433079653002   -0.00019084827214048785   1.295177905208535e-07
-0.0018470301338354153   -0.00020036006553218267   -1.7113100254458642e-06
-0.001839661312503705   -0.0014821345675992907   -1.216321024184916e-05
-0.0026094375453067425   -0.00019375664277834529   -1.4842944333527438e-05
-0.0018470301338354153   -0.00020036006553218267   -1.7113100254458642e-06
-0.002588846599364011   -0.0014983467215397596   -3.1105307771882254e-05
-0.001839661312503705   -0.0014821345675992907   -1.216321024184916e-05
-0.0018566433079653002   -0.00019084827214048785   1.295177905208535e-07
-0.0025974769829031855   -0.0014909013334780605   -2.758291010849349e-05
-0.0018489351746828059   -0.001472904286457191   -7.441673988290042e-06
-0.0018566433079653002   -0.00019084827214048785   1.295177905208535e-07
-0.0026094375453067425   -0.00019375664277834529   -1.4842944333527438e-05
-0.0025974769829031855   -0.0014909013334780605   -2.758291010849349e-05
-0.002616293529307942   -0.0001846273486738205   -1.3952236533547424e-05
-0.0018489351746828059   -0.001472904286457191   -7.441673988290042e-06
-0.0026051774586237633   -0.0014825797694158476   -2.4069582711208197e-05
-0.002616293529307942   -0.0001846273486738205   -1.3952236533547424e-05
-0.0025974769829031855   -0.0014909013334780605   -2.758291010849349e-05
-0.0018489351746828059   -0.001472904286457191   -7.441673988290042e-06
-0.002616293529307942   -0.0001846273486738205   -1.3952236533547424e-05
-0.0018667093493090507   -0.00017926340357946825   3.1531363492742853e-06
-0.0018566433079653002   -0.00019084827214048785   1.295177905208535e-07
-0.0018489351746828059   -0.001472904286457191   -7.441673988290042e-06
-0.002616293529307942   -0.0001846273486738205   -1.3952236533547424e-05
-0.0018566433079653002   -0.00019084827214048785   1.295177905208535e-07
-0.0025974769829031855   -0.0014909013334780605   -2.758291010849349e-05
-0.0018489351746828059   -0.001472904286457191   -7.441673988290042e-06
-0.0018667093493090507   -0.00017926340357946825   3.1531363492742853e-06
-0.0026051774586237633   -0.0014825797694158476   -2.4069582711208197e-05
-0.0018576118514434113   -0.0014627886885550925   -2.1960880079120603e-06
-0.0018667093493090507   -0.00017926340357946825   3.1531363492742853e-06
-0.002616293529307942   -0.0001846273486738205   -1.3952236533547424e-05
-0.0026051774586237633   -0.0014825797694158476   -2.4069582711208197e-05
-0.0026220491454022163   -0.00017420852740255966   -1.3013837601555659e-05
-0.0018576118514434113   -0.0014627886885550925   -2.1960880079120603e-06
-0.002612189081606606   -0.001473617418896349   -2.034517891656642e-05
-0.0026220491454022163   -0.00017420852740255966   -1.3013837601555659e-05
-0.0026051774586237633   -0.0014825797694158476   -2.4069582711208197e-05
-0.0018576118514434113   -0.0014627886885550925   -2.1960880079120603e-06
-0.0026220491454022163   -0.00017420852740255966   -1.3013837601555659e-05
-0.0018770346851808288   -0.000164263034612991   7.1562908728280115e-06
-0.0018667093493090507   -0.00017926340357946825   3.1531363492742853e-06
-0.0018576118514434113   -0.0014627886885550925   -2.1960880079120603e-06
-0.0026220491454022163   -0.00017420852740255966   -1.3013837601555659e-05
-0.0018667093493090507   -0.00017926340357946825   3.1531363492742853e-06
-0.0026051774586237633   -0.0014825797694158476   -2.4069582711208197e-05
-0.002588846599364011   -0.0014983467215397596   -3.1105307771882254e-05
-0.0026028431758494197   -0.00020148672850802874   -1.5685582604109575e-05
-0.003377548734079779   -0.0014989335174867442   -4.227455073668918e-05
-0.0025974769829031855   -0.0014909013334780605   -2.758291010849349e-05
-0.0026028431758494197   -0.00020148672850802874   -1.5685582604109575e-05
-0.0033816860686454774   -0.00020065431802365668   -2.970385964269458e-05
-0.003377548734079779   -0.0014989335174867442   -4.227455073668918e-05
-0.0033869203338879406   -0.0001924627782224898   -2.952111366566361e-05
-0.0025974769829031855   -0.0014909013334780605   -2.758291010849349e-05
-0.0033847258226601747   -0.001491830821095848   -4.048799941768556e-05
-0.0033869203338879406   -0.0001924627782224898   -2.952111366566361e-05
-0.003377548734079779   -0.0014989335174867442   -4.227455073668918e-05
-0.0025974769829031855   -0.0014909013334780605   -2.758291010849349e-05
-0.0033869203338879406   -0.0001924627782224898   -2.952111366566361e-05
-0.0026094375453067425   -0.00019375664277834529   -1.4842944333527438e-05
-0.0026028431758494197   -0.00020148672850802874   -1.5685582604109575e-05
-0.0025974769829031855   -0.0014909013334780605   -2.758291010849349e-05
-0.0033869203338879406   -0.0001924627782224898   -2.952111366566361e-05
-0.0026028431758494197   -0.00020148672850802874   -1.5685582604109575e-05
-0.003377548734079779   -0.0014989335174867442   -4.227455073668918e-05
-0.0025974769829031855   -0.0014909013334780605   -2.758291010849349e-05
-0.0026094375453067425   -0.00019375664277834529   -1.4842944333527438e-05
-0.0033847258226601747   -0.001491830821095848   -4.048799941768556e-05
-0.0026051774586237633   -0.0014825797694158476   -2.4069582711208197e-05
-0.0026094375453067425   -0.00019375664277834529   -1.4842944333527438e-05
-0.0033869203338879406   -0.0001924627782224898   -2.952111366566361e-05
-0.0033847258226601747   -0.001491830821095848   -4.048799941768556e-05
-0.0033926185372263676   -0.0001839238013534622   -2.9996326087483955e-05
-0.0026051774586237633   -0.0014825797694158476   -2.4069582711208197e-05
-0.0033911561644494816   -0.001483936184330916   -3.8347678134604295e-05
-0.0033926185372263676   -0.0001839238013534622   -2.9996326087483955e-05
-0.0033847258226601747   -0.001491830821095848   -4.048799941768556e-05
-0.0026051774586237633   -0.0014825797694158476   -2.4069582711208197e-05
-0.0033926185372263676   -0.0001839238013534622   -2.9996326087483955e-05
-0.002616293529307942   -0.0001846273486738205   -1.3952236533547424e-05
-0.0026094375453067425   -0.00019375664277834529   -1.4842944333527438e-05
-0.0026051774586237633   -0.0014825797694158476   -2.4069582711208197e-05
-0.0033926185372263676   -0.0001839238013534622   -2.9996326087483955e-05
-0.0026094375453067425   -0.00019375664277834529   -1.4842944333527438e-05
-0.0033847258226601747   -0.001491830821095848   -4.048799941768556e-05
-0.0026051774586237633   -0.0014825797694158476   -2.4069582711208197e-05
-0.002616293529307942   -0.0001846273486738205   -1.3952236533547424e-05
-0.0033911561644494816   -0.001483936184330916   -3.8347678134604295e-05
-0.002612189081606606   -0.001473617418896349   -2.034517891656642e-05
-0.002616293529307942   -0.0001846273486738205   -1.3952236533547424e-05
-0.0033926185372263676   -0.0001839238013534622   -2.9996326087483955e-05
-0.0033911561644494816   -0.001483936184330916   -3.8347678134604295e-05
-0.0033969963485467585   -0.00017437864182917405   -3.0417887520393424e-05
-0.002612189081606606   -0.001473617418896349   -2.034517891656642e-05
-0.003396256778671342   -0.0014756173905828606   -3.61824747248554e-05
-0.0033969963485467585   -0.00017437864182917405   -3.0417887520393424e-05
-0.0033911561644494816   -0.001483936184330916   -3.8347678134604295e-05
-0.002612189081606606   -0.001473617418896349   -2.034517891656642e-05
-0.0033969963485467585   -0.00017437864182917405   -3.0417887520393424e-05
-0.0026220491454022163   -0.00017420852740255966   -1.3013837601555659e-05
-0.002616293529307942   -0.0001846273486738205   -1.3952236533547424e-05
-0.002612189081606606   -0.001473617418896349   -2.034517891656642e-05
-0.0033969963485467585   -0.00017437864182917405   -3.0417887520393424e-05
-0.002616293529307942   -0.0001846273486738205   -1.3952236533547424e-05
-0.0033911561644494816   -0.001483936184330916   -3.8347678134604295e-05
              </DataArray>   
          </PointData>  
       </Piece>  
   </UnstructuredGrid> 
</VTKFile> 
