<?xml version="1.0"?> 
<VTKFile type="UnstructuredGrid"> 
   <UnstructuredGrid> 
      <Piece NumberOfPoints="6000"  NumberOfCells="1500">  
          <Points>  
             <DataArray type="Float64" NumberOfComponents="3" format="ascii">   
-500.0   0.0   0.0
-450.0   0.0   0.0
-500.0   30.0   0.0
-500.0   0.0   16.666666666666668
-450.0   0.0   0.0
-450.0   30.0   0.0
-500.0   30.0   0.0
-450.0   30.0   16.666666666666668
-500.0   0.0   16.666666666666668
-500.0   30.0   16.666666666666668
-450.0   30.0   16.666666666666668
-500.0   30.0   0.0
-500.0   0.0   16.666666666666668
-450.0   30.0   16.666666666666668
-450.0   0.0   16.666666666666668
-450.0   0.0   0.0
-500.0   0.0   16.666666666666668
-450.0   30.0   16.666666666666668
-450.0   0.0   0.0
-500.0   30.0   0.0
-500.0   0.0   16.666666666666668
-450.0   0.0   16.666666666666668
-500.0   30.0   16.666666666666668
-500.0   0.0   33.333333333333336
-450.0   0.0   16.666666666666668
-450.0   30.0   16.666666666666668
-500.0   30.0   16.666666666666668
-450.0   30.0   33.333333333333336
-500.0   0.0   33.333333333333336
-500.0   30.0   33.333333333333336
-450.0   30.0   33.333333333333336
-500.0   30.0   16.666666666666668
-500.0   0.0   33.333333333333336
-450.0   30.0   33.333333333333336
-450.0   0.0   33.333333333333336
-450.0   0.0   16.666666666666668
-500.0   0.0   33.333333333333336
-450.0   30.0   33.333333333333336
-450.0   0.0   16.666666666666668
-500.0   30.0   16.666666666666668
-500.0   0.0   33.333333333333336
-450.0   0.0   33.333333333333336
-500.0   30.0   33.333333333333336
-500.0   0.0   50.0
-450.0   0.0   33.333333333333336
-450.0   30.0   33.333333333333336
-500.0   30.0   33.333333333333336
-450.0   30.0   50.0
-500.0   0.0   50.0
-500.0   30.0   50.0
-450.0   30.0   50.0
-500.0   30.0   33.333333333333336
-500.0   0.0   50.0
-450.0   30.0   50.0
-450.0   0.0   50.0
-450.0   0.0   33.333333333333336
-500.0   0.0   50.0
-450.0   30.0   50.0
-450.0   0.0   33.333333333333336
-500.0   30.0   33.333333333333336
-500.0   30.0   0.0
-450.0   30.0   0.0
-500.0   60.0   0.0
-500.0   30.0   16.666666666666668
-450.0   30.0   0.0
-450.0   60.0   0.0
-500.0   60.0   0.0
-450.0   60.0   16.666666666666668
-500.0   30.0   16.666666666666668
-500.0   60.0   16.666666666666668
-450.0   60.0   16.666666666666668
-500.0   60.0   0.0
-500.0   30.0   16.666666666666668
-450.0   60.0   16.666666666666668
-450.0   30.0   16.666666666666668
-450.0   30.0   0.0
-500.0   30.0   16.666666666666668
-450.0   60.0   16.666666666666668
-450.0   30.0   0.0
-500.0   60.0   0.0
-500.0   30.0   16.666666666666668
-450.0   30.0   16.666666666666668
-500.0   60.0   16.666666666666668
-500.0   30.0   33.333333333333336
-450.0   30.0   16.666666666666668
-450.0   60.0   16.666666666666668
-500.0   60.0   16.666666666666668
-450.0   60.0   33.333333333333336
-500.0   30.0   33.333333333333336
-500.0   60.0   33.333333333333336
-450.0   60.0   33.333333333333336
-500.0   60.0   16.666666666666668
-500.0   30.0   33.333333333333336
-450.0   60.0   33.333333333333336
-450.0   30.0   33.333333333333336
-450.0   30.0   16.666666666666668
-500.0   30.0   33.333333333333336
-450.0   60.0   33.333333333333336
-450.0   30.0   16.666666666666668
-500.0   60.0   16.666666666666668
-500.0   30.0   33.333333333333336
-450.0   30.0   33.333333333333336
-500.0   60.0   33.333333333333336
-500.0   30.0   50.0
-450.0   30.0   33.333333333333336
-450.0   60.0   33.333333333333336
-500.0   60.0   33.333333333333336
-450.0   60.0   50.0
-500.0   30.0   50.0
-500.0   60.0   50.0
-450.0   60.0   50.0
-500.0   60.0   33.333333333333336
-500.0   30.0   50.0
-450.0   60.0   50.0
-450.0   30.0   50.0
-450.0   30.0   33.333333333333336
-500.0   30.0   50.0
-450.0   60.0   50.0
-450.0   30.0   33.333333333333336
-500.0   60.0   33.333333333333336
-500.0   60.0   0.0
-450.0   60.0   0.0
-500.0   90.0   0.0
-500.0   60.0   16.666666666666668
-450.0   60.0   0.0
-450.0   90.0   0.0
-500.0   90.0   0.0
-450.0   90.0   16.666666666666668
-500.0   60.0   16.666666666666668
-500.0   90.0   16.666666666666668
-450.0   90.0   16.666666666666668
-500.0   90.0   0.0
-500.0   60.0   16.666666666666668
-450.0   90.0   16.666666666666668
-450.0   60.0   16.666666666666668
-450.0   60.0   0.0
-500.0   60.0   16.666666666666668
-450.0   90.0   16.666666666666668
-450.0   60.0   0.0
-500.0   90.0   0.0
-500.0   60.0   16.666666666666668
-450.0   60.0   16.666666666666668
-500.0   90.0   16.666666666666668
-500.0   60.0   33.333333333333336
-450.0   60.0   16.666666666666668
-450.0   90.0   16.666666666666668
-500.0   90.0   16.666666666666668
-450.0   90.0   33.333333333333336
-500.0   60.0   33.333333333333336
-500.0   90.0   33.333333333333336
-450.0   90.0   33.333333333333336
-500.0   90.0   16.666666666666668
-500.0   60.0   33.333333333333336
-450.0   90.0   33.333333333333336
-450.0   60.0   33.333333333333336
-450.0   60.0   16.666666666666668
-500.0   60.0   33.333333333333336
-450.0   90.0   33.333333333333336
-450.0   60.0   16.666666666666668
-500.0   90.0   16.666666666666668
-500.0   60.0   33.333333333333336
-450.0   60.0   33.333333333333336
-500.0   90.0   33.333333333333336
-500.0   60.0   50.0
-450.0   60.0   33.333333333333336
-450.0   90.0   33.333333333333336
-500.0   90.0   33.333333333333336
-450.0   90.0   50.0
-500.0   60.0   50.0
-500.0   90.0   50.0
-450.0   90.0   50.0
-500.0   90.0   33.333333333333336
-500.0   60.0   50.0
-450.0   90.0   50.0
-450.0   60.0   50.0
-450.0   60.0   33.333333333333336
-500.0   60.0   50.0
-450.0   90.0   50.0
-450.0   60.0   33.333333333333336
-500.0   90.0   33.333333333333336
-500.0   90.0   0.0
-450.0   90.0   0.0
-500.0   120.0   0.0
-500.0   90.0   16.666666666666668
-450.0   90.0   0.0
-450.0   120.0   0.0
-500.0   120.0   0.0
-450.0   120.0   16.666666666666668
-500.0   90.0   16.666666666666668
-500.0   120.0   16.666666666666668
-450.0   120.0   16.666666666666668
-500.0   120.0   0.0
-500.0   90.0   16.666666666666668
-450.0   120.0   16.666666666666668
-450.0   90.0   16.666666666666668
-450.0   90.0   0.0
-500.0   90.0   16.666666666666668
-450.0   120.0   16.666666666666668
-450.0   90.0   0.0
-500.0   120.0   0.0
-500.0   90.0   16.666666666666668
-450.0   90.0   16.666666666666668
-500.0   120.0   16.666666666666668
-500.0   90.0   33.333333333333336
-450.0   90.0   16.666666666666668
-450.0   120.0   16.666666666666668
-500.0   120.0   16.666666666666668
-450.0   120.0   33.333333333333336
-500.0   90.0   33.333333333333336
-500.0   120.0   33.333333333333336
-450.0   120.0   33.333333333333336
-500.0   120.0   16.666666666666668
-500.0   90.0   33.333333333333336
-450.0   120.0   33.333333333333336
-450.0   90.0   33.333333333333336
-450.0   90.0   16.666666666666668
-500.0   90.0   33.333333333333336
-450.0   120.0   33.333333333333336
-450.0   90.0   16.666666666666668
-500.0   120.0   16.666666666666668
-500.0   90.0   33.333333333333336
-450.0   90.0   33.333333333333336
-500.0   120.0   33.333333333333336
-500.0   90.0   50.0
-450.0   90.0   33.333333333333336
-450.0   120.0   33.333333333333336
-500.0   120.0   33.333333333333336
-450.0   120.0   50.0
-500.0   90.0   50.0
-500.0   120.0   50.0
-450.0   120.0   50.0
-500.0   120.0   33.333333333333336
-500.0   90.0   50.0
-450.0   120.0   50.0
-450.0   90.0   50.0
-450.0   90.0   33.333333333333336
-500.0   90.0   50.0
-450.0   120.0   50.0
-450.0   90.0   33.333333333333336
-500.0   120.0   33.333333333333336
-500.0   120.0   0.0
-450.0   120.0   0.0
-500.0   150.0   0.0
-500.0   120.0   16.666666666666668
-450.0   120.0   0.0
-450.0   150.0   0.0
-500.0   150.0   0.0
-450.0   150.0   16.666666666666668
-500.0   120.0   16.666666666666668
-500.0   150.0   16.666666666666668
-450.0   150.0   16.666666666666668
-500.0   150.0   0.0
-500.0   120.0   16.666666666666668
-450.0   150.0   16.666666666666668
-450.0   120.0   16.666666666666668
-450.0   120.0   0.0
-500.0   120.0   16.666666666666668
-450.0   150.0   16.666666666666668
-450.0   120.0   0.0
-500.0   150.0   0.0
-500.0   120.0   16.666666666666668
-450.0   120.0   16.666666666666668
-500.0   150.0   16.666666666666668
-500.0   120.0   33.333333333333336
-450.0   120.0   16.666666666666668
-450.0   150.0   16.666666666666668
-500.0   150.0   16.666666666666668
-450.0   150.0   33.333333333333336
-500.0   120.0   33.333333333333336
-500.0   150.0   33.333333333333336
-450.0   150.0   33.333333333333336
-500.0   150.0   16.666666666666668
-500.0   120.0   33.333333333333336
-450.0   150.0   33.333333333333336
-450.0   120.0   33.333333333333336
-450.0   120.0   16.666666666666668
-500.0   120.0   33.333333333333336
-450.0   150.0   33.333333333333336
-450.0   120.0   16.666666666666668
-500.0   150.0   16.666666666666668
-500.0   120.0   33.333333333333336
-450.0   120.0   33.333333333333336
-500.0   150.0   33.333333333333336
-500.0   120.0   50.0
-450.0   120.0   33.333333333333336
-450.0   150.0   33.333333333333336
-500.0   150.0   33.333333333333336
-450.0   150.0   50.0
-500.0   120.0   50.0
-500.0   150.0   50.0
-450.0   150.0   50.0
-500.0   150.0   33.333333333333336
-500.0   120.0   50.0
-450.0   150.0   50.0
-450.0   120.0   50.0
-450.0   120.0   33.333333333333336
-500.0   120.0   50.0
-450.0   150.0   50.0
-450.0   120.0   33.333333333333336
-500.0   150.0   33.333333333333336
-450.0   0.0   0.0
-400.0   0.0   0.0
-450.0   30.0   0.0
-450.0   0.0   16.666666666666668
-400.0   0.0   0.0
-400.0   30.0   0.0
-450.0   30.0   0.0
-400.0   30.0   16.666666666666668
-450.0   0.0   16.666666666666668
-450.0   30.0   16.666666666666668
-400.0   30.0   16.666666666666668
-450.0   30.0   0.0
-450.0   0.0   16.666666666666668
-400.0   30.0   16.666666666666668
-400.0   0.0   16.666666666666668
-400.0   0.0   0.0
-450.0   0.0   16.666666666666668
-400.0   30.0   16.666666666666668
-400.0   0.0   0.0
-450.0   30.0   0.0
-450.0   0.0   16.666666666666668
-400.0   0.0   16.666666666666668
-450.0   30.0   16.666666666666668
-450.0   0.0   33.333333333333336
-400.0   0.0   16.666666666666668
-400.0   30.0   16.666666666666668
-450.0   30.0   16.666666666666668
-400.0   30.0   33.333333333333336
-450.0   0.0   33.333333333333336
-450.0   30.0   33.333333333333336
-400.0   30.0   33.333333333333336
-450.0   30.0   16.666666666666668
-450.0   0.0   33.333333333333336
-400.0   30.0   33.333333333333336
-400.0   0.0   33.333333333333336
-400.0   0.0   16.666666666666668
-450.0   0.0   33.333333333333336
-400.0   30.0   33.333333333333336
-400.0   0.0   16.666666666666668
-450.0   30.0   16.666666666666668
-450.0   0.0   33.333333333333336
-400.0   0.0   33.333333333333336
-450.0   30.0   33.333333333333336
-450.0   0.0   50.0
-400.0   0.0   33.333333333333336
-400.0   30.0   33.333333333333336
-450.0   30.0   33.333333333333336
-400.0   30.0   50.0
-450.0   0.0   50.0
-450.0   30.0   50.0
-400.0   30.0   50.0
-450.0   30.0   33.333333333333336
-450.0   0.0   50.0
-400.0   30.0   50.0
-400.0   0.0   50.0
-400.0   0.0   33.333333333333336
-450.0   0.0   50.0
-400.0   30.0   50.0
-400.0   0.0   33.333333333333336
-450.0   30.0   33.333333333333336
-450.0   30.0   0.0
-400.0   30.0   0.0
-450.0   60.0   0.0
-450.0   30.0   16.666666666666668
-400.0   30.0   0.0
-400.0   60.0   0.0
-450.0   60.0   0.0
-400.0   60.0   16.666666666666668
-450.0   30.0   16.666666666666668
-450.0   60.0   16.666666666666668
-400.0   60.0   16.666666666666668
-450.0   60.0   0.0
-450.0   30.0   16.666666666666668
-400.0   60.0   16.666666666666668
-400.0   30.0   16.666666666666668
-400.0   30.0   0.0
-450.0   30.0   16.666666666666668
-400.0   60.0   16.666666666666668
-400.0   30.0   0.0
-450.0   60.0   0.0
-450.0   30.0   16.666666666666668
-400.0   30.0   16.666666666666668
-450.0   60.0   16.666666666666668
-450.0   30.0   33.333333333333336
-400.0   30.0   16.666666666666668
-400.0   60.0   16.666666666666668
-450.0   60.0   16.666666666666668
-400.0   60.0   33.333333333333336
-450.0   30.0   33.333333333333336
-450.0   60.0   33.333333333333336
-400.0   60.0   33.333333333333336
-450.0   60.0   16.666666666666668
-450.0   30.0   33.333333333333336
-400.0   60.0   33.333333333333336
-400.0   30.0   33.333333333333336
-400.0   30.0   16.666666666666668
-450.0   30.0   33.333333333333336
-400.0   60.0   33.333333333333336
-400.0   30.0   16.666666666666668
-450.0   60.0   16.666666666666668
-450.0   30.0   33.333333333333336
-400.0   30.0   33.333333333333336
-450.0   60.0   33.333333333333336
-450.0   30.0   50.0
-400.0   30.0   33.333333333333336
-400.0   60.0   33.333333333333336
-450.0   60.0   33.333333333333336
-400.0   60.0   50.0
-450.0   30.0   50.0
-450.0   60.0   50.0
-400.0   60.0   50.0
-450.0   60.0   33.333333333333336
-450.0   30.0   50.0
-400.0   60.0   50.0
-400.0   30.0   50.0
-400.0   30.0   33.333333333333336
-450.0   30.0   50.0
-400.0   60.0   50.0
-400.0   30.0   33.333333333333336
-450.0   60.0   33.333333333333336
-450.0   60.0   0.0
-400.0   60.0   0.0
-450.0   90.0   0.0
-450.0   60.0   16.666666666666668
-400.0   60.0   0.0
-400.0   90.0   0.0
-450.0   90.0   0.0
-400.0   90.0   16.666666666666668
-450.0   60.0   16.666666666666668
-450.0   90.0   16.666666666666668
-400.0   90.0   16.666666666666668
-450.0   90.0   0.0
-450.0   60.0   16.666666666666668
-400.0   90.0   16.666666666666668
-400.0   60.0   16.666666666666668
-400.0   60.0   0.0
-450.0   60.0   16.666666666666668
-400.0   90.0   16.666666666666668
-400.0   60.0   0.0
-450.0   90.0   0.0
-450.0   60.0   16.666666666666668
-400.0   60.0   16.666666666666668
-450.0   90.0   16.666666666666668
-450.0   60.0   33.333333333333336
-400.0   60.0   16.666666666666668
-400.0   90.0   16.666666666666668
-450.0   90.0   16.666666666666668
-400.0   90.0   33.333333333333336
-450.0   60.0   33.333333333333336
-450.0   90.0   33.333333333333336
-400.0   90.0   33.333333333333336
-450.0   90.0   16.666666666666668
-450.0   60.0   33.333333333333336
-400.0   90.0   33.333333333333336
-400.0   60.0   33.333333333333336
-400.0   60.0   16.666666666666668
-450.0   60.0   33.333333333333336
-400.0   90.0   33.333333333333336
-400.0   60.0   16.666666666666668
-450.0   90.0   16.666666666666668
-450.0   60.0   33.333333333333336
-400.0   60.0   33.333333333333336
-450.0   90.0   33.333333333333336
-450.0   60.0   50.0
-400.0   60.0   33.333333333333336
-400.0   90.0   33.333333333333336
-450.0   90.0   33.333333333333336
-400.0   90.0   50.0
-450.0   60.0   50.0
-450.0   90.0   50.0
-400.0   90.0   50.0
-450.0   90.0   33.333333333333336
-450.0   60.0   50.0
-400.0   90.0   50.0
-400.0   60.0   50.0
-400.0   60.0   33.333333333333336
-450.0   60.0   50.0
-400.0   90.0   50.0
-400.0   60.0   33.333333333333336
-450.0   90.0   33.333333333333336
-450.0   90.0   0.0
-400.0   90.0   0.0
-450.0   120.0   0.0
-450.0   90.0   16.666666666666668
-400.0   90.0   0.0
-400.0   120.0   0.0
-450.0   120.0   0.0
-400.0   120.0   16.666666666666668
-450.0   90.0   16.666666666666668
-450.0   120.0   16.666666666666668
-400.0   120.0   16.666666666666668
-450.0   120.0   0.0
-450.0   90.0   16.666666666666668
-400.0   120.0   16.666666666666668
-400.0   90.0   16.666666666666668
-400.0   90.0   0.0
-450.0   90.0   16.666666666666668
-400.0   120.0   16.666666666666668
-400.0   90.0   0.0
-450.0   120.0   0.0
-450.0   90.0   16.666666666666668
-400.0   90.0   16.666666666666668
-450.0   120.0   16.666666666666668
-450.0   90.0   33.333333333333336
-400.0   90.0   16.666666666666668
-400.0   120.0   16.666666666666668
-450.0   120.0   16.666666666666668
-400.0   120.0   33.333333333333336
-450.0   90.0   33.333333333333336
-450.0   120.0   33.333333333333336
-400.0   120.0   33.333333333333336
-450.0   120.0   16.666666666666668
-450.0   90.0   33.333333333333336
-400.0   120.0   33.333333333333336
-400.0   90.0   33.333333333333336
-400.0   90.0   16.666666666666668
-450.0   90.0   33.333333333333336
-400.0   120.0   33.333333333333336
-400.0   90.0   16.666666666666668
-450.0   120.0   16.666666666666668
-450.0   90.0   33.333333333333336
-400.0   90.0   33.333333333333336
-450.0   120.0   33.333333333333336
-450.0   90.0   50.0
-400.0   90.0   33.333333333333336
-400.0   120.0   33.333333333333336
-450.0   120.0   33.333333333333336
-400.0   120.0   50.0
-450.0   90.0   50.0
-450.0   120.0   50.0
-400.0   120.0   50.0
-450.0   120.0   33.333333333333336
-450.0   90.0   50.0
-400.0   120.0   50.0
-400.0   90.0   50.0
-400.0   90.0   33.333333333333336
-450.0   90.0   50.0
-400.0   120.0   50.0
-400.0   90.0   33.333333333333336
-450.0   120.0   33.333333333333336
-450.0   120.0   0.0
-400.0   120.0   0.0
-450.0   150.0   0.0
-450.0   120.0   16.666666666666668
-400.0   120.0   0.0
-400.0   150.0   0.0
-450.0   150.0   0.0
-400.0   150.0   16.666666666666668
-450.0   120.0   16.666666666666668
-450.0   150.0   16.666666666666668
-400.0   150.0   16.666666666666668
-450.0   150.0   0.0
-450.0   120.0   16.666666666666668
-400.0   150.0   16.666666666666668
-400.0   120.0   16.666666666666668
-400.0   120.0   0.0
-450.0   120.0   16.666666666666668
-400.0   150.0   16.666666666666668
-400.0   120.0   0.0
-450.0   150.0   0.0
-450.0   120.0   16.666666666666668
-400.0   120.0   16.666666666666668
-450.0   150.0   16.666666666666668
-450.0   120.0   33.333333333333336
-400.0   120.0   16.666666666666668
-400.0   150.0   16.666666666666668
-450.0   150.0   16.666666666666668
-400.0   150.0   33.333333333333336
-450.0   120.0   33.333333333333336
-450.0   150.0   33.333333333333336
-400.0   150.0   33.333333333333336
-450.0   150.0   16.666666666666668
-450.0   120.0   33.333333333333336
-400.0   150.0   33.333333333333336
-400.0   120.0   33.333333333333336
-400.0   120.0   16.666666666666668
-450.0   120.0   33.333333333333336
-400.0   150.0   33.333333333333336
-400.0   120.0   16.666666666666668
-450.0   150.0   16.666666666666668
-450.0   120.0   33.333333333333336
-400.0   120.0   33.333333333333336
-450.0   150.0   33.333333333333336
-450.0   120.0   50.0
-400.0   120.0   33.333333333333336
-400.0   150.0   33.333333333333336
-450.0   150.0   33.333333333333336
-400.0   150.0   50.0
-450.0   120.0   50.0
-450.0   150.0   50.0
-400.0   150.0   50.0
-450.0   150.0   33.333333333333336
-450.0   120.0   50.0
-400.0   150.0   50.0
-400.0   120.0   50.0
-400.0   120.0   33.333333333333336
-450.0   120.0   50.0
-400.0   150.0   50.0
-400.0   120.0   33.333333333333336
-450.0   150.0   33.333333333333336
-400.0   0.0   0.0
-350.0   0.0   0.0
-400.0   30.0   0.0
-400.0   0.0   16.666666666666668
-350.0   0.0   0.0
-350.0   30.0   0.0
-400.0   30.0   0.0
-350.0   30.0   16.666666666666668
-400.0   0.0   16.666666666666668
-400.0   30.0   16.666666666666668
-350.0   30.0   16.666666666666668
-400.0   30.0   0.0
-400.0   0.0   16.666666666666668
-350.0   30.0   16.666666666666668
-350.0   0.0   16.666666666666668
-350.0   0.0   0.0
-400.0   0.0   16.666666666666668
-350.0   30.0   16.666666666666668
-350.0   0.0   0.0
-400.0   30.0   0.0
-400.0   0.0   16.666666666666668
-350.0   0.0   16.666666666666668
-400.0   30.0   16.666666666666668
-400.0   0.0   33.333333333333336
-350.0   0.0   16.666666666666668
-350.0   30.0   16.666666666666668
-400.0   30.0   16.666666666666668
-350.0   30.0   33.333333333333336
-400.0   0.0   33.333333333333336
-400.0   30.0   33.333333333333336
-350.0   30.0   33.333333333333336
-400.0   30.0   16.666666666666668
-400.0   0.0   33.333333333333336
-350.0   30.0   33.333333333333336
-350.0   0.0   33.333333333333336
-350.0   0.0   16.666666666666668
-400.0   0.0   33.333333333333336
-350.0   30.0   33.333333333333336
-350.0   0.0   16.666666666666668
-400.0   30.0   16.666666666666668
-400.0   0.0   33.333333333333336
-350.0   0.0   33.333333333333336
-400.0   30.0   33.333333333333336
-400.0   0.0   50.0
-350.0   0.0   33.333333333333336
-350.0   30.0   33.333333333333336
-400.0   30.0   33.333333333333336
-350.0   30.0   50.0
-400.0   0.0   50.0
-400.0   30.0   50.0
-350.0   30.0   50.0
-400.0   30.0   33.333333333333336
-400.0   0.0   50.0
-350.0   30.0   50.0
-350.0   0.0   50.0
-350.0   0.0   33.333333333333336
-400.0   0.0   50.0
-350.0   30.0   50.0
-350.0   0.0   33.333333333333336
-400.0   30.0   33.333333333333336
-400.0   30.0   0.0
-350.0   30.0   0.0
-400.0   60.0   0.0
-400.0   30.0   16.666666666666668
-350.0   30.0   0.0
-350.0   60.0   0.0
-400.0   60.0   0.0
-350.0   60.0   16.666666666666668
-400.0   30.0   16.666666666666668
-400.0   60.0   16.666666666666668
-350.0   60.0   16.666666666666668
-400.0   60.0   0.0
-400.0   30.0   16.666666666666668
-350.0   60.0   16.666666666666668
-350.0   30.0   16.666666666666668
-350.0   30.0   0.0
-400.0   30.0   16.666666666666668
-350.0   60.0   16.666666666666668
-350.0   30.0   0.0
-400.0   60.0   0.0
-400.0   30.0   16.666666666666668
-350.0   30.0   16.666666666666668
-400.0   60.0   16.666666666666668
-400.0   30.0   33.333333333333336
-350.0   30.0   16.666666666666668
-350.0   60.0   16.666666666666668
-400.0   60.0   16.666666666666668
-350.0   60.0   33.333333333333336
-400.0   30.0   33.333333333333336
-400.0   60.0   33.333333333333336
-350.0   60.0   33.333333333333336
-400.0   60.0   16.666666666666668
-400.0   30.0   33.333333333333336
-350.0   60.0   33.333333333333336
-350.0   30.0   33.333333333333336
-350.0   30.0   16.666666666666668
-400.0   30.0   33.333333333333336
-350.0   60.0   33.333333333333336
-350.0   30.0   16.666666666666668
-400.0   60.0   16.666666666666668
-400.0   30.0   33.333333333333336
-350.0   30.0   33.333333333333336
-400.0   60.0   33.333333333333336
-400.0   30.0   50.0
-350.0   30.0   33.333333333333336
-350.0   60.0   33.333333333333336
-400.0   60.0   33.333333333333336
-350.0   60.0   50.0
-400.0   30.0   50.0
-400.0   60.0   50.0
-350.0   60.0   50.0
-400.0   60.0   33.333333333333336
-400.0   30.0   50.0
-350.0   60.0   50.0
-350.0   30.0   50.0
-350.0   30.0   33.333333333333336
-400.0   30.0   50.0
-350.0   60.0   50.0
-350.0   30.0   33.333333333333336
-400.0   60.0   33.333333333333336
-400.0   60.0   0.0
-350.0   60.0   0.0
-400.0   90.0   0.0
-400.0   60.0   16.666666666666668
-350.0   60.0   0.0
-350.0   90.0   0.0
-400.0   90.0   0.0
-350.0   90.0   16.666666666666668
-400.0   60.0   16.666666666666668
-400.0   90.0   16.666666666666668
-350.0   90.0   16.666666666666668
-400.0   90.0   0.0
-400.0   60.0   16.666666666666668
-350.0   90.0   16.666666666666668
-350.0   60.0   16.666666666666668
-350.0   60.0   0.0
-400.0   60.0   16.666666666666668
-350.0   90.0   16.666666666666668
-350.0   60.0   0.0
-400.0   90.0   0.0
-400.0   60.0   16.666666666666668
-350.0   60.0   16.666666666666668
-400.0   90.0   16.666666666666668
-400.0   60.0   33.333333333333336
-350.0   60.0   16.666666666666668
-350.0   90.0   16.666666666666668
-400.0   90.0   16.666666666666668
-350.0   90.0   33.333333333333336
-400.0   60.0   33.333333333333336
-400.0   90.0   33.333333333333336
-350.0   90.0   33.333333333333336
-400.0   90.0   16.666666666666668
-400.0   60.0   33.333333333333336
-350.0   90.0   33.333333333333336
-350.0   60.0   33.333333333333336
-350.0   60.0   16.666666666666668
-400.0   60.0   33.333333333333336
-350.0   90.0   33.333333333333336
-350.0   60.0   16.666666666666668
-400.0   90.0   16.666666666666668
-400.0   60.0   33.333333333333336
-350.0   60.0   33.333333333333336
-400.0   90.0   33.333333333333336
-400.0   60.0   50.0
-350.0   60.0   33.333333333333336
-350.0   90.0   33.333333333333336
-400.0   90.0   33.333333333333336
-350.0   90.0   50.0
-400.0   60.0   50.0
-400.0   90.0   50.0
-350.0   90.0   50.0
-400.0   90.0   33.333333333333336
-400.0   60.0   50.0
-350.0   90.0   50.0
-350.0   60.0   50.0
-350.0   60.0   33.333333333333336
-400.0   60.0   50.0
-350.0   90.0   50.0
-350.0   60.0   33.333333333333336
-400.0   90.0   33.333333333333336
-400.0   90.0   0.0
-350.0   90.0   0.0
-400.0   120.0   0.0
-400.0   90.0   16.666666666666668
-350.0   90.0   0.0
-350.0   120.0   0.0
-400.0   120.0   0.0
-350.0   120.0   16.666666666666668
-400.0   90.0   16.666666666666668
-400.0   120.0   16.666666666666668
-350.0   120.0   16.666666666666668
-400.0   120.0   0.0
-400.0   90.0   16.666666666666668
-350.0   120.0   16.666666666666668
-350.0   90.0   16.666666666666668
-350.0   90.0   0.0
-400.0   90.0   16.666666666666668
-350.0   120.0   16.666666666666668
-350.0   90.0   0.0
-400.0   120.0   0.0
-400.0   90.0   16.666666666666668
-350.0   90.0   16.666666666666668
-400.0   120.0   16.666666666666668
-400.0   90.0   33.333333333333336
-350.0   90.0   16.666666666666668
-350.0   120.0   16.666666666666668
-400.0   120.0   16.666666666666668
-350.0   120.0   33.333333333333336
-400.0   90.0   33.333333333333336
-400.0   120.0   33.333333333333336
-350.0   120.0   33.333333333333336
-400.0   120.0   16.666666666666668
-400.0   90.0   33.333333333333336
-350.0   120.0   33.333333333333336
-350.0   90.0   33.333333333333336
-350.0   90.0   16.666666666666668
-400.0   90.0   33.333333333333336
-350.0   120.0   33.333333333333336
-350.0   90.0   16.666666666666668
-400.0   120.0   16.666666666666668
-400.0   90.0   33.333333333333336
-350.0   90.0   33.333333333333336
-400.0   120.0   33.333333333333336
-400.0   90.0   50.0
-350.0   90.0   33.333333333333336
-350.0   120.0   33.333333333333336
-400.0   120.0   33.333333333333336
-350.0   120.0   50.0
-400.0   90.0   50.0
-400.0   120.0   50.0
-350.0   120.0   50.0
-400.0   120.0   33.333333333333336
-400.0   90.0   50.0
-350.0   120.0   50.0
-350.0   90.0   50.0
-350.0   90.0   33.333333333333336
-400.0   90.0   50.0
-350.0   120.0   50.0
-350.0   90.0   33.333333333333336
-400.0   120.0   33.333333333333336
-400.0   120.0   0.0
-350.0   120.0   0.0
-400.0   150.0   0.0
-400.0   120.0   16.666666666666668
-350.0   120.0   0.0
-350.0   150.0   0.0
-400.0   150.0   0.0
-350.0   150.0   16.666666666666668
-400.0   120.0   16.666666666666668
-400.0   150.0   16.666666666666668
-350.0   150.0   16.666666666666668
-400.0   150.0   0.0
-400.0   120.0   16.666666666666668
-350.0   150.0   16.666666666666668
-350.0   120.0   16.666666666666668
-350.0   120.0   0.0
-400.0   120.0   16.666666666666668
-350.0   150.0   16.666666666666668
-350.0   120.0   0.0
-400.0   150.0   0.0
-400.0   120.0   16.666666666666668
-350.0   120.0   16.666666666666668
-400.0   150.0   16.666666666666668
-400.0   120.0   33.333333333333336
-350.0   120.0   16.666666666666668
-350.0   150.0   16.666666666666668
-400.0   150.0   16.666666666666668
-350.0   150.0   33.333333333333336
-400.0   120.0   33.333333333333336
-400.0   150.0   33.333333333333336
-350.0   150.0   33.333333333333336
-400.0   150.0   16.666666666666668
-400.0   120.0   33.333333333333336
-350.0   150.0   33.333333333333336
-350.0   120.0   33.333333333333336
-350.0   120.0   16.666666666666668
-400.0   120.0   33.333333333333336
-350.0   150.0   33.333333333333336
-350.0   120.0   16.666666666666668
-400.0   150.0   16.666666666666668
-400.0   120.0   33.333333333333336
-350.0   120.0   33.333333333333336
-400.0   150.0   33.333333333333336
-400.0   120.0   50.0
-350.0   120.0   33.333333333333336
-350.0   150.0   33.333333333333336
-400.0   150.0   33.333333333333336
-350.0   150.0   50.0
-400.0   120.0   50.0
-400.0   150.0   50.0
-350.0   150.0   50.0
-400.0   150.0   33.333333333333336
-400.0   120.0   50.0
-350.0   150.0   50.0
-350.0   120.0   50.0
-350.0   120.0   33.333333333333336
-400.0   120.0   50.0
-350.0   150.0   50.0
-350.0   120.0   33.333333333333336
-400.0   150.0   33.333333333333336
-350.0   0.0   0.0
-300.0   0.0   0.0
-350.0   30.0   0.0
-350.0   0.0   16.666666666666668
-300.0   0.0   0.0
-300.0   30.0   0.0
-350.0   30.0   0.0
-300.0   30.0   16.666666666666668
-350.0   0.0   16.666666666666668
-350.0   30.0   16.666666666666668
-300.0   30.0   16.666666666666668
-350.0   30.0   0.0
-350.0   0.0   16.666666666666668
-300.0   30.0   16.666666666666668
-300.0   0.0   16.666666666666668
-300.0   0.0   0.0
-350.0   0.0   16.666666666666668
-300.0   30.0   16.666666666666668
-300.0   0.0   0.0
-350.0   30.0   0.0
-350.0   0.0   16.666666666666668
-300.0   0.0   16.666666666666668
-350.0   30.0   16.666666666666668
-350.0   0.0   33.333333333333336
-300.0   0.0   16.666666666666668
-300.0   30.0   16.666666666666668
-350.0   30.0   16.666666666666668
-300.0   30.0   33.333333333333336
-350.0   0.0   33.333333333333336
-350.0   30.0   33.333333333333336
-300.0   30.0   33.333333333333336
-350.0   30.0   16.666666666666668
-350.0   0.0   33.333333333333336
-300.0   30.0   33.333333333333336
-300.0   0.0   33.333333333333336
-300.0   0.0   16.666666666666668
-350.0   0.0   33.333333333333336
-300.0   30.0   33.333333333333336
-300.0   0.0   16.666666666666668
-350.0   30.0   16.666666666666668
-350.0   0.0   33.333333333333336
-300.0   0.0   33.333333333333336
-350.0   30.0   33.333333333333336
-350.0   0.0   50.0
-300.0   0.0   33.333333333333336
-300.0   30.0   33.333333333333336
-350.0   30.0   33.333333333333336
-300.0   30.0   50.0
-350.0   0.0   50.0
-350.0   30.0   50.0
-300.0   30.0   50.0
-350.0   30.0   33.333333333333336
-350.0   0.0   50.0
-300.0   30.0   50.0
-300.0   0.0   50.0
-300.0   0.0   33.333333333333336
-350.0   0.0   50.0
-300.0   30.0   50.0
-300.0   0.0   33.333333333333336
-350.0   30.0   33.333333333333336
-350.0   30.0   0.0
-300.0   30.0   0.0
-350.0   60.0   0.0
-350.0   30.0   16.666666666666668
-300.0   30.0   0.0
-300.0   60.0   0.0
-350.0   60.0   0.0
-300.0   60.0   16.666666666666668
-350.0   30.0   16.666666666666668
-350.0   60.0   16.666666666666668
-300.0   60.0   16.666666666666668
-350.0   60.0   0.0
-350.0   30.0   16.666666666666668
-300.0   60.0   16.666666666666668
-300.0   30.0   16.666666666666668
-300.0   30.0   0.0
-350.0   30.0   16.666666666666668
-300.0   60.0   16.666666666666668
-300.0   30.0   0.0
-350.0   60.0   0.0
-350.0   30.0   16.666666666666668
-300.0   30.0   16.666666666666668
-350.0   60.0   16.666666666666668
-350.0   30.0   33.333333333333336
-300.0   30.0   16.666666666666668
-300.0   60.0   16.666666666666668
-350.0   60.0   16.666666666666668
-300.0   60.0   33.333333333333336
-350.0   30.0   33.333333333333336
-350.0   60.0   33.333333333333336
-300.0   60.0   33.333333333333336
-350.0   60.0   16.666666666666668
-350.0   30.0   33.333333333333336
-300.0   60.0   33.333333333333336
-300.0   30.0   33.333333333333336
-300.0   30.0   16.666666666666668
-350.0   30.0   33.333333333333336
-300.0   60.0   33.333333333333336
-300.0   30.0   16.666666666666668
-350.0   60.0   16.666666666666668
-350.0   30.0   33.333333333333336
-300.0   30.0   33.333333333333336
-350.0   60.0   33.333333333333336
-350.0   30.0   50.0
-300.0   30.0   33.333333333333336
-300.0   60.0   33.333333333333336
-350.0   60.0   33.333333333333336
-300.0   60.0   50.0
-350.0   30.0   50.0
-350.0   60.0   50.0
-300.0   60.0   50.0
-350.0   60.0   33.333333333333336
-350.0   30.0   50.0
-300.0   60.0   50.0
-300.0   30.0   50.0
-300.0   30.0   33.333333333333336
-350.0   30.0   50.0
-300.0   60.0   50.0
-300.0   30.0   33.333333333333336
-350.0   60.0   33.333333333333336
-350.0   60.0   0.0
-300.0   60.0   0.0
-350.0   90.0   0.0
-350.0   60.0   16.666666666666668
-300.0   60.0   0.0
-300.0   90.0   0.0
-350.0   90.0   0.0
-300.0   90.0   16.666666666666668
-350.0   60.0   16.666666666666668
-350.0   90.0   16.666666666666668
-300.0   90.0   16.666666666666668
-350.0   90.0   0.0
-350.0   60.0   16.666666666666668
-300.0   90.0   16.666666666666668
-300.0   60.0   16.666666666666668
-300.0   60.0   0.0
-350.0   60.0   16.666666666666668
-300.0   90.0   16.666666666666668
-300.0   60.0   0.0
-350.0   90.0   0.0
-350.0   60.0   16.666666666666668
-300.0   60.0   16.666666666666668
-350.0   90.0   16.666666666666668
-350.0   60.0   33.333333333333336
-300.0   60.0   16.666666666666668
-300.0   90.0   16.666666666666668
-350.0   90.0   16.666666666666668
-300.0   90.0   33.333333333333336
-350.0   60.0   33.333333333333336
-350.0   90.0   33.333333333333336
-300.0   90.0   33.333333333333336
-350.0   90.0   16.666666666666668
-350.0   60.0   33.333333333333336
-300.0   90.0   33.333333333333336
-300.0   60.0   33.333333333333336
-300.0   60.0   16.666666666666668
-350.0   60.0   33.333333333333336
-300.0   90.0   33.333333333333336
-300.0   60.0   16.666666666666668
-350.0   90.0   16.666666666666668
-350.0   60.0   33.333333333333336
-300.0   60.0   33.333333333333336
-350.0   90.0   33.333333333333336
-350.0   60.0   50.0
-300.0   60.0   33.333333333333336
-300.0   90.0   33.333333333333336
-350.0   90.0   33.333333333333336
-300.0   90.0   50.0
-350.0   60.0   50.0
-350.0   90.0   50.0
-300.0   90.0   50.0
-350.0   90.0   33.333333333333336
-350.0   60.0   50.0
-300.0   90.0   50.0
-300.0   60.0   50.0
-300.0   60.0   33.333333333333336
-350.0   60.0   50.0
-300.0   90.0   50.0
-300.0   60.0   33.333333333333336
-350.0   90.0   33.333333333333336
-350.0   90.0   0.0
-300.0   90.0   0.0
-350.0   120.0   0.0
-350.0   90.0   16.666666666666668
-300.0   90.0   0.0
-300.0   120.0   0.0
-350.0   120.0   0.0
-300.0   120.0   16.666666666666668
-350.0   90.0   16.666666666666668
-350.0   120.0   16.666666666666668
-300.0   120.0   16.666666666666668
-350.0   120.0   0.0
-350.0   90.0   16.666666666666668
-300.0   120.0   16.666666666666668
-300.0   90.0   16.666666666666668
-300.0   90.0   0.0
-350.0   90.0   16.666666666666668
-300.0   120.0   16.666666666666668
-300.0   90.0   0.0
-350.0   120.0   0.0
-350.0   90.0   16.666666666666668
-300.0   90.0   16.666666666666668
-350.0   120.0   16.666666666666668
-350.0   90.0   33.333333333333336
-300.0   90.0   16.666666666666668
-300.0   120.0   16.666666666666668
-350.0   120.0   16.666666666666668
-300.0   120.0   33.333333333333336
-350.0   90.0   33.333333333333336
-350.0   120.0   33.333333333333336
-300.0   120.0   33.333333333333336
-350.0   120.0   16.666666666666668
-350.0   90.0   33.333333333333336
-300.0   120.0   33.333333333333336
-300.0   90.0   33.333333333333336
-300.0   90.0   16.666666666666668
-350.0   90.0   33.333333333333336
-300.0   120.0   33.333333333333336
-300.0   90.0   16.666666666666668
-350.0   120.0   16.666666666666668
-350.0   90.0   33.333333333333336
-300.0   90.0   33.333333333333336
-350.0   120.0   33.333333333333336
-350.0   90.0   50.0
-300.0   90.0   33.333333333333336
-300.0   120.0   33.333333333333336
-350.0   120.0   33.333333333333336
-300.0   120.0   50.0
-350.0   90.0   50.0
-350.0   120.0   50.0
-300.0   120.0   50.0
-350.0   120.0   33.333333333333336
-350.0   90.0   50.0
-300.0   120.0   50.0
-300.0   90.0   50.0
-300.0   90.0   33.333333333333336
-350.0   90.0   50.0
-300.0   120.0   50.0
-300.0   90.0   33.333333333333336
-350.0   120.0   33.333333333333336
-350.0   120.0   0.0
-300.0   120.0   0.0
-350.0   150.0   0.0
-350.0   120.0   16.666666666666668
-300.0   120.0   0.0
-300.0   150.0   0.0
-350.0   150.0   0.0
-300.0   150.0   16.666666666666668
-350.0   120.0   16.666666666666668
-350.0   150.0   16.666666666666668
-300.0   150.0   16.666666666666668
-350.0   150.0   0.0
-350.0   120.0   16.666666666666668
-300.0   150.0   16.666666666666668
-300.0   120.0   16.666666666666668
-300.0   120.0   0.0
-350.0   120.0   16.666666666666668
-300.0   150.0   16.666666666666668
-300.0   120.0   0.0
-350.0   150.0   0.0
-350.0   120.0   16.666666666666668
-300.0   120.0   16.666666666666668
-350.0   150.0   16.666666666666668
-350.0   120.0   33.333333333333336
-300.0   120.0   16.666666666666668
-300.0   150.0   16.666666666666668
-350.0   150.0   16.666666666666668
-300.0   150.0   33.333333333333336
-350.0   120.0   33.333333333333336
-350.0   150.0   33.333333333333336
-300.0   150.0   33.333333333333336
-350.0   150.0   16.666666666666668
-350.0   120.0   33.333333333333336
-300.0   150.0   33.333333333333336
-300.0   120.0   33.333333333333336
-300.0   120.0   16.666666666666668
-350.0   120.0   33.333333333333336
-300.0   150.0   33.333333333333336
-300.0   120.0   16.666666666666668
-350.0   150.0   16.666666666666668
-350.0   120.0   33.333333333333336
-300.0   120.0   33.333333333333336
-350.0   150.0   33.333333333333336
-350.0   120.0   50.0
-300.0   120.0   33.333333333333336
-300.0   150.0   33.333333333333336
-350.0   150.0   33.333333333333336
-300.0   150.0   50.0
-350.0   120.0   50.0
-350.0   150.0   50.0
-300.0   150.0   50.0
-350.0   150.0   33.333333333333336
-350.0   120.0   50.0
-300.0   150.0   50.0
-300.0   120.0   50.0
-300.0   120.0   33.333333333333336
-350.0   120.0   50.0
-300.0   150.0   50.0
-300.0   120.0   33.333333333333336
-350.0   150.0   33.333333333333336
-300.0   0.0   0.0
-250.0   0.0   0.0
-300.0   30.0   0.0
-300.0   0.0   16.666666666666668
-250.0   0.0   0.0
-250.0   30.0   0.0
-300.0   30.0   0.0
-250.0   30.0   16.666666666666668
-300.0   0.0   16.666666666666668
-300.0   30.0   16.666666666666668
-250.0   30.0   16.666666666666668
-300.0   30.0   0.0
-300.0   0.0   16.666666666666668
-250.0   30.0   16.666666666666668
-250.0   0.0   16.666666666666668
-250.0   0.0   0.0
-300.0   0.0   16.666666666666668
-250.0   30.0   16.666666666666668
-250.0   0.0   0.0
-300.0   30.0   0.0
-300.0   0.0   16.666666666666668
-250.0   0.0   16.666666666666668
-300.0   30.0   16.666666666666668
-300.0   0.0   33.333333333333336
-250.0   0.0   16.666666666666668
-250.0   30.0   16.666666666666668
-300.0   30.0   16.666666666666668
-250.0   30.0   33.333333333333336
-300.0   0.0   33.333333333333336
-300.0   30.0   33.333333333333336
-250.0   30.0   33.333333333333336
-300.0   30.0   16.666666666666668
-300.0   0.0   33.333333333333336
-250.0   30.0   33.333333333333336
-250.0   0.0   33.333333333333336
-250.0   0.0   16.666666666666668
-300.0   0.0   33.333333333333336
-250.0   30.0   33.333333333333336
-250.0   0.0   16.666666666666668
-300.0   30.0   16.666666666666668
-300.0   0.0   33.333333333333336
-250.0   0.0   33.333333333333336
-300.0   30.0   33.333333333333336
-300.0   0.0   50.0
-250.0   0.0   33.333333333333336
-250.0   30.0   33.333333333333336
-300.0   30.0   33.333333333333336
-250.0   30.0   50.0
-300.0   0.0   50.0
-300.0   30.0   50.0
-250.0   30.0   50.0
-300.0   30.0   33.333333333333336
-300.0   0.0   50.0
-250.0   30.0   50.0
-250.0   0.0   50.0
-250.0   0.0   33.333333333333336
-300.0   0.0   50.0
-250.0   30.0   50.0
-250.0   0.0   33.333333333333336
-300.0   30.0   33.333333333333336
-300.0   30.0   0.0
-250.0   30.0   0.0
-300.0   60.0   0.0
-300.0   30.0   16.666666666666668
-250.0   30.0   0.0
-250.0   60.0   0.0
-300.0   60.0   0.0
-250.0   60.0   16.666666666666668
-300.0   30.0   16.666666666666668
-300.0   60.0   16.666666666666668
-250.0   60.0   16.666666666666668
-300.0   60.0   0.0
-300.0   30.0   16.666666666666668
-250.0   60.0   16.666666666666668
-250.0   30.0   16.666666666666668
-250.0   30.0   0.0
-300.0   30.0   16.666666666666668
-250.0   60.0   16.666666666666668
-250.0   30.0   0.0
-300.0   60.0   0.0
-300.0   30.0   16.666666666666668
-250.0   30.0   16.666666666666668
-300.0   60.0   16.666666666666668
-300.0   30.0   33.333333333333336
-250.0   30.0   16.666666666666668
-250.0   60.0   16.666666666666668
-300.0   60.0   16.666666666666668
-250.0   60.0   33.333333333333336
-300.0   30.0   33.333333333333336
-300.0   60.0   33.333333333333336
-250.0   60.0   33.333333333333336
-300.0   60.0   16.666666666666668
-300.0   30.0   33.333333333333336
-250.0   60.0   33.333333333333336
-250.0   30.0   33.333333333333336
-250.0   30.0   16.666666666666668
-300.0   30.0   33.333333333333336
-250.0   60.0   33.333333333333336
-250.0   30.0   16.666666666666668
-300.0   60.0   16.666666666666668
-300.0   30.0   33.333333333333336
-250.0   30.0   33.333333333333336
-300.0   60.0   33.333333333333336
-300.0   30.0   50.0
-250.0   30.0   33.333333333333336
-250.0   60.0   33.333333333333336
-300.0   60.0   33.333333333333336
-250.0   60.0   50.0
-300.0   30.0   50.0
-300.0   60.0   50.0
-250.0   60.0   50.0
-300.0   60.0   33.333333333333336
-300.0   30.0   50.0
-250.0   60.0   50.0
-250.0   30.0   50.0
-250.0   30.0   33.333333333333336
-300.0   30.0   50.0
-250.0   60.0   50.0
-250.0   30.0   33.333333333333336
-300.0   60.0   33.333333333333336
-300.0   60.0   0.0
-250.0   60.0   0.0
-300.0   90.0   0.0
-300.0   60.0   16.666666666666668
-250.0   60.0   0.0
-250.0   90.0   0.0
-300.0   90.0   0.0
-250.0   90.0   16.666666666666668
-300.0   60.0   16.666666666666668
-300.0   90.0   16.666666666666668
-250.0   90.0   16.666666666666668
-300.0   90.0   0.0
-300.0   60.0   16.666666666666668
-250.0   90.0   16.666666666666668
-250.0   60.0   16.666666666666668
-250.0   60.0   0.0
-300.0   60.0   16.666666666666668
-250.0   90.0   16.666666666666668
-250.0   60.0   0.0
-300.0   90.0   0.0
-300.0   60.0   16.666666666666668
-250.0   60.0   16.666666666666668
-300.0   90.0   16.666666666666668
-300.0   60.0   33.333333333333336
-250.0   60.0   16.666666666666668
-250.0   90.0   16.666666666666668
-300.0   90.0   16.666666666666668
-250.0   90.0   33.333333333333336
-300.0   60.0   33.333333333333336
-300.0   90.0   33.333333333333336
-250.0   90.0   33.333333333333336
-300.0   90.0   16.666666666666668
-300.0   60.0   33.333333333333336
-250.0   90.0   33.333333333333336
-250.0   60.0   33.333333333333336
-250.0   60.0   16.666666666666668
-300.0   60.0   33.333333333333336
-250.0   90.0   33.333333333333336
-250.0   60.0   16.666666666666668
-300.0   90.0   16.666666666666668
-300.0   60.0   33.333333333333336
-250.0   60.0   33.333333333333336
-300.0   90.0   33.333333333333336
-300.0   60.0   50.0
-250.0   60.0   33.333333333333336
-250.0   90.0   33.333333333333336
-300.0   90.0   33.333333333333336
-250.0   90.0   50.0
-300.0   60.0   50.0
-300.0   90.0   50.0
-250.0   90.0   50.0
-300.0   90.0   33.333333333333336
-300.0   60.0   50.0
-250.0   90.0   50.0
-250.0   60.0   50.0
-250.0   60.0   33.333333333333336
-300.0   60.0   50.0
-250.0   90.0   50.0
-250.0   60.0   33.333333333333336
-300.0   90.0   33.333333333333336
-300.0   90.0   0.0
-250.0   90.0   0.0
-300.0   120.0   0.0
-300.0   90.0   16.666666666666668
-250.0   90.0   0.0
-250.0   120.0   0.0
-300.0   120.0   0.0
-250.0   120.0   16.666666666666668
-300.0   90.0   16.666666666666668
-300.0   120.0   16.666666666666668
-250.0   120.0   16.666666666666668
-300.0   120.0   0.0
-300.0   90.0   16.666666666666668
-250.0   120.0   16.666666666666668
-250.0   90.0   16.666666666666668
-250.0   90.0   0.0
-300.0   90.0   16.666666666666668
-250.0   120.0   16.666666666666668
-250.0   90.0   0.0
-300.0   120.0   0.0
-300.0   90.0   16.666666666666668
-250.0   90.0   16.666666666666668
-300.0   120.0   16.666666666666668
-300.0   90.0   33.333333333333336
-250.0   90.0   16.666666666666668
-250.0   120.0   16.666666666666668
-300.0   120.0   16.666666666666668
-250.0   120.0   33.333333333333336
-300.0   90.0   33.333333333333336
-300.0   120.0   33.333333333333336
-250.0   120.0   33.333333333333336
-300.0   120.0   16.666666666666668
-300.0   90.0   33.333333333333336
-250.0   120.0   33.333333333333336
-250.0   90.0   33.333333333333336
-250.0   90.0   16.666666666666668
-300.0   90.0   33.333333333333336
-250.0   120.0   33.333333333333336
-250.0   90.0   16.666666666666668
-300.0   120.0   16.666666666666668
-300.0   90.0   33.333333333333336
-250.0   90.0   33.333333333333336
-300.0   120.0   33.333333333333336
-300.0   90.0   50.0
-250.0   90.0   33.333333333333336
-250.0   120.0   33.333333333333336
-300.0   120.0   33.333333333333336
-250.0   120.0   50.0
-300.0   90.0   50.0
-300.0   120.0   50.0
-250.0   120.0   50.0
-300.0   120.0   33.333333333333336
-300.0   90.0   50.0
-250.0   120.0   50.0
-250.0   90.0   50.0
-250.0   90.0   33.333333333333336
-300.0   90.0   50.0
-250.0   120.0   50.0
-250.0   90.0   33.333333333333336
-300.0   120.0   33.333333333333336
-300.0   120.0   0.0
-250.0   120.0   0.0
-300.0   150.0   0.0
-300.0   120.0   16.666666666666668
-250.0   120.0   0.0
-250.0   150.0   0.0
-300.0   150.0   0.0
-250.0   150.0   16.666666666666668
-300.0   120.0   16.666666666666668
-300.0   150.0   16.666666666666668
-250.0   150.0   16.666666666666668
-300.0   150.0   0.0
-300.0   120.0   16.666666666666668
-250.0   150.0   16.666666666666668
-250.0   120.0   16.666666666666668
-250.0   120.0   0.0
-300.0   120.0   16.666666666666668
-250.0   150.0   16.666666666666668
-250.0   120.0   0.0
-300.0   150.0   0.0
-300.0   120.0   16.666666666666668
-250.0   120.0   16.666666666666668
-300.0   150.0   16.666666666666668
-300.0   120.0   33.333333333333336
-250.0   120.0   16.666666666666668
-250.0   150.0   16.666666666666668
-300.0   150.0   16.666666666666668
-250.0   150.0   33.333333333333336
-300.0   120.0   33.333333333333336
-300.0   150.0   33.333333333333336
-250.0   150.0   33.333333333333336
-300.0   150.0   16.666666666666668
-300.0   120.0   33.333333333333336
-250.0   150.0   33.333333333333336
-250.0   120.0   33.333333333333336
-250.0   120.0   16.666666666666668
-300.0   120.0   33.333333333333336
-250.0   150.0   33.333333333333336
-250.0   120.0   16.666666666666668
-300.0   150.0   16.666666666666668
-300.0   120.0   33.333333333333336
-250.0   120.0   33.333333333333336
-300.0   150.0   33.333333333333336
-300.0   120.0   50.0
-250.0   120.0   33.333333333333336
-250.0   150.0   33.333333333333336
-300.0   150.0   33.333333333333336
-250.0   150.0   50.0
-300.0   120.0   50.0
-300.0   150.0   50.0
-250.0   150.0   50.0
-300.0   150.0   33.333333333333336
-300.0   120.0   50.0
-250.0   150.0   50.0
-250.0   120.0   50.0
-250.0   120.0   33.333333333333336
-300.0   120.0   50.0
-250.0   150.0   50.0
-250.0   120.0   33.333333333333336
-300.0   150.0   33.333333333333336
-250.0   0.0   0.0
-200.0   0.0   0.0
-250.0   30.0   0.0
-250.0   0.0   16.666666666666668
-200.0   0.0   0.0
-200.0   30.0   0.0
-250.0   30.0   0.0
-200.0   30.0   16.666666666666668
-250.0   0.0   16.666666666666668
-250.0   30.0   16.666666666666668
-200.0   30.0   16.666666666666668
-250.0   30.0   0.0
-250.0   0.0   16.666666666666668
-200.0   30.0   16.666666666666668
-200.0   0.0   16.666666666666668
-200.0   0.0   0.0
-250.0   0.0   16.666666666666668
-200.0   30.0   16.666666666666668
-200.0   0.0   0.0
-250.0   30.0   0.0
-250.0   0.0   16.666666666666668
-200.0   0.0   16.666666666666668
-250.0   30.0   16.666666666666668
-250.0   0.0   33.333333333333336
-200.0   0.0   16.666666666666668
-200.0   30.0   16.666666666666668
-250.0   30.0   16.666666666666668
-200.0   30.0   33.333333333333336
-250.0   0.0   33.333333333333336
-250.0   30.0   33.333333333333336
-200.0   30.0   33.333333333333336
-250.0   30.0   16.666666666666668
-250.0   0.0   33.333333333333336
-200.0   30.0   33.333333333333336
-200.0   0.0   33.333333333333336
-200.0   0.0   16.666666666666668
-250.0   0.0   33.333333333333336
-200.0   30.0   33.333333333333336
-200.0   0.0   16.666666666666668
-250.0   30.0   16.666666666666668
-250.0   0.0   33.333333333333336
-200.0   0.0   33.333333333333336
-250.0   30.0   33.333333333333336
-250.0   0.0   50.0
-200.0   0.0   33.333333333333336
-200.0   30.0   33.333333333333336
-250.0   30.0   33.333333333333336
-200.0   30.0   50.0
-250.0   0.0   50.0
-250.0   30.0   50.0
-200.0   30.0   50.0
-250.0   30.0   33.333333333333336
-250.0   0.0   50.0
-200.0   30.0   50.0
-200.0   0.0   50.0
-200.0   0.0   33.333333333333336
-250.0   0.0   50.0
-200.0   30.0   50.0
-200.0   0.0   33.333333333333336
-250.0   30.0   33.333333333333336
-250.0   30.0   0.0
-200.0   30.0   0.0
-250.0   60.0   0.0
-250.0   30.0   16.666666666666668
-200.0   30.0   0.0
-200.0   60.0   0.0
-250.0   60.0   0.0
-200.0   60.0   16.666666666666668
-250.0   30.0   16.666666666666668
-250.0   60.0   16.666666666666668
-200.0   60.0   16.666666666666668
-250.0   60.0   0.0
-250.0   30.0   16.666666666666668
-200.0   60.0   16.666666666666668
-200.0   30.0   16.666666666666668
-200.0   30.0   0.0
-250.0   30.0   16.666666666666668
-200.0   60.0   16.666666666666668
-200.0   30.0   0.0
-250.0   60.0   0.0
-250.0   30.0   16.666666666666668
-200.0   30.0   16.666666666666668
-250.0   60.0   16.666666666666668
-250.0   30.0   33.333333333333336
-200.0   30.0   16.666666666666668
-200.0   60.0   16.666666666666668
-250.0   60.0   16.666666666666668
-200.0   60.0   33.333333333333336
-250.0   30.0   33.333333333333336
-250.0   60.0   33.333333333333336
-200.0   60.0   33.333333333333336
-250.0   60.0   16.666666666666668
-250.0   30.0   33.333333333333336
-200.0   60.0   33.333333333333336
-200.0   30.0   33.333333333333336
-200.0   30.0   16.666666666666668
-250.0   30.0   33.333333333333336
-200.0   60.0   33.333333333333336
-200.0   30.0   16.666666666666668
-250.0   60.0   16.666666666666668
-250.0   30.0   33.333333333333336
-200.0   30.0   33.333333333333336
-250.0   60.0   33.333333333333336
-250.0   30.0   50.0
-200.0   30.0   33.333333333333336
-200.0   60.0   33.333333333333336
-250.0   60.0   33.333333333333336
-200.0   60.0   50.0
-250.0   30.0   50.0
-250.0   60.0   50.0
-200.0   60.0   50.0
-250.0   60.0   33.333333333333336
-250.0   30.0   50.0
-200.0   60.0   50.0
-200.0   30.0   50.0
-200.0   30.0   33.333333333333336
-250.0   30.0   50.0
-200.0   60.0   50.0
-200.0   30.0   33.333333333333336
-250.0   60.0   33.333333333333336
-250.0   60.0   0.0
-200.0   60.0   0.0
-250.0   90.0   0.0
-250.0   60.0   16.666666666666668
-200.0   60.0   0.0
-200.0   90.0   0.0
-250.0   90.0   0.0
-200.0   90.0   16.666666666666668
-250.0   60.0   16.666666666666668
-250.0   90.0   16.666666666666668
-200.0   90.0   16.666666666666668
-250.0   90.0   0.0
-250.0   60.0   16.666666666666668
-200.0   90.0   16.666666666666668
-200.0   60.0   16.666666666666668
-200.0   60.0   0.0
-250.0   60.0   16.666666666666668
-200.0   90.0   16.666666666666668
-200.0   60.0   0.0
-250.0   90.0   0.0
-250.0   60.0   16.666666666666668
-200.0   60.0   16.666666666666668
-250.0   90.0   16.666666666666668
-250.0   60.0   33.333333333333336
-200.0   60.0   16.666666666666668
-200.0   90.0   16.666666666666668
-250.0   90.0   16.666666666666668
-200.0   90.0   33.333333333333336
-250.0   60.0   33.333333333333336
-250.0   90.0   33.333333333333336
-200.0   90.0   33.333333333333336
-250.0   90.0   16.666666666666668
-250.0   60.0   33.333333333333336
-200.0   90.0   33.333333333333336
-200.0   60.0   33.333333333333336
-200.0   60.0   16.666666666666668
-250.0   60.0   33.333333333333336
-200.0   90.0   33.333333333333336
-200.0   60.0   16.666666666666668
-250.0   90.0   16.666666666666668
-250.0   60.0   33.333333333333336
-200.0   60.0   33.333333333333336
-250.0   90.0   33.333333333333336
-250.0   60.0   50.0
-200.0   60.0   33.333333333333336
-200.0   90.0   33.333333333333336
-250.0   90.0   33.333333333333336
-200.0   90.0   50.0
-250.0   60.0   50.0
-250.0   90.0   50.0
-200.0   90.0   50.0
-250.0   90.0   33.333333333333336
-250.0   60.0   50.0
-200.0   90.0   50.0
-200.0   60.0   50.0
-200.0   60.0   33.333333333333336
-250.0   60.0   50.0
-200.0   90.0   50.0
-200.0   60.0   33.333333333333336
-250.0   90.0   33.333333333333336
-250.0   90.0   0.0
-200.0   90.0   0.0
-250.0   120.0   0.0
-250.0   90.0   16.666666666666668
-200.0   90.0   0.0
-200.0   120.0   0.0
-250.0   120.0   0.0
-200.0   120.0   16.666666666666668
-250.0   90.0   16.666666666666668
-250.0   120.0   16.666666666666668
-200.0   120.0   16.666666666666668
-250.0   120.0   0.0
-250.0   90.0   16.666666666666668
-200.0   120.0   16.666666666666668
-200.0   90.0   16.666666666666668
-200.0   90.0   0.0
-250.0   90.0   16.666666666666668
-200.0   120.0   16.666666666666668
-200.0   90.0   0.0
-250.0   120.0   0.0
-250.0   90.0   16.666666666666668
-200.0   90.0   16.666666666666668
-250.0   120.0   16.666666666666668
-250.0   90.0   33.333333333333336
-200.0   90.0   16.666666666666668
-200.0   120.0   16.666666666666668
-250.0   120.0   16.666666666666668
-200.0   120.0   33.333333333333336
-250.0   90.0   33.333333333333336
-250.0   120.0   33.333333333333336
-200.0   120.0   33.333333333333336
-250.0   120.0   16.666666666666668
-250.0   90.0   33.333333333333336
-200.0   120.0   33.333333333333336
-200.0   90.0   33.333333333333336
-200.0   90.0   16.666666666666668
-250.0   90.0   33.333333333333336
-200.0   120.0   33.333333333333336
-200.0   90.0   16.666666666666668
-250.0   120.0   16.666666666666668
-250.0   90.0   33.333333333333336
-200.0   90.0   33.333333333333336
-250.0   120.0   33.333333333333336
-250.0   90.0   50.0
-200.0   90.0   33.333333333333336
-200.0   120.0   33.333333333333336
-250.0   120.0   33.333333333333336
-200.0   120.0   50.0
-250.0   90.0   50.0
-250.0   120.0   50.0
-200.0   120.0   50.0
-250.0   120.0   33.333333333333336
-250.0   90.0   50.0
-200.0   120.0   50.0
-200.0   90.0   50.0
-200.0   90.0   33.333333333333336
-250.0   90.0   50.0
-200.0   120.0   50.0
-200.0   90.0   33.333333333333336
-250.0   120.0   33.333333333333336
-250.0   120.0   0.0
-200.0   120.0   0.0
-250.0   150.0   0.0
-250.0   120.0   16.666666666666668
-200.0   120.0   0.0
-200.0   150.0   0.0
-250.0   150.0   0.0
-200.0   150.0   16.666666666666668
-250.0   120.0   16.666666666666668
-250.0   150.0   16.666666666666668
-200.0   150.0   16.666666666666668
-250.0   150.0   0.0
-250.0   120.0   16.666666666666668
-200.0   150.0   16.666666666666668
-200.0   120.0   16.666666666666668
-200.0   120.0   0.0
-250.0   120.0   16.666666666666668
-200.0   150.0   16.666666666666668
-200.0   120.0   0.0
-250.0   150.0   0.0
-250.0   120.0   16.666666666666668
-200.0   120.0   16.666666666666668
-250.0   150.0   16.666666666666668
-250.0   120.0   33.333333333333336
-200.0   120.0   16.666666666666668
-200.0   150.0   16.666666666666668
-250.0   150.0   16.666666666666668
-200.0   150.0   33.333333333333336
-250.0   120.0   33.333333333333336
-250.0   150.0   33.333333333333336
-200.0   150.0   33.333333333333336
-250.0   150.0   16.666666666666668
-250.0   120.0   33.333333333333336
-200.0   150.0   33.333333333333336
-200.0   120.0   33.333333333333336
-200.0   120.0   16.666666666666668
-250.0   120.0   33.333333333333336
-200.0   150.0   33.333333333333336
-200.0   120.0   16.666666666666668
-250.0   150.0   16.666666666666668
-250.0   120.0   33.333333333333336
-200.0   120.0   33.333333333333336
-250.0   150.0   33.333333333333336
-250.0   120.0   50.0
-200.0   120.0   33.333333333333336
-200.0   150.0   33.333333333333336
-250.0   150.0   33.333333333333336
-200.0   150.0   50.0
-250.0   120.0   50.0
-250.0   150.0   50.0
-200.0   150.0   50.0
-250.0   150.0   33.333333333333336
-250.0   120.0   50.0
-200.0   150.0   50.0
-200.0   120.0   50.0
-200.0   120.0   33.333333333333336
-250.0   120.0   50.0
-200.0   150.0   50.0
-200.0   120.0   33.333333333333336
-250.0   150.0   33.333333333333336
-200.0   0.0   0.0
-150.0   0.0   0.0
-200.0   30.0   0.0
-200.0   0.0   16.666666666666668
-150.0   0.0   0.0
-150.0   30.0   0.0
-200.0   30.0   0.0
-150.0   30.0   16.666666666666668
-200.0   0.0   16.666666666666668
-200.0   30.0   16.666666666666668
-150.0   30.0   16.666666666666668
-200.0   30.0   0.0
-200.0   0.0   16.666666666666668
-150.0   30.0   16.666666666666668
-150.0   0.0   16.666666666666668
-150.0   0.0   0.0
-200.0   0.0   16.666666666666668
-150.0   30.0   16.666666666666668
-150.0   0.0   0.0
-200.0   30.0   0.0
-200.0   0.0   16.666666666666668
-150.0   0.0   16.666666666666668
-200.0   30.0   16.666666666666668
-200.0   0.0   33.333333333333336
-150.0   0.0   16.666666666666668
-150.0   30.0   16.666666666666668
-200.0   30.0   16.666666666666668
-150.0   30.0   33.333333333333336
-200.0   0.0   33.333333333333336
-200.0   30.0   33.333333333333336
-150.0   30.0   33.333333333333336
-200.0   30.0   16.666666666666668
-200.0   0.0   33.333333333333336
-150.0   30.0   33.333333333333336
-150.0   0.0   33.333333333333336
-150.0   0.0   16.666666666666668
-200.0   0.0   33.333333333333336
-150.0   30.0   33.333333333333336
-150.0   0.0   16.666666666666668
-200.0   30.0   16.666666666666668
-200.0   0.0   33.333333333333336
-150.0   0.0   33.333333333333336
-200.0   30.0   33.333333333333336
-200.0   0.0   50.0
-150.0   0.0   33.333333333333336
-150.0   30.0   33.333333333333336
-200.0   30.0   33.333333333333336
-150.0   30.0   50.0
-200.0   0.0   50.0
-200.0   30.0   50.0
-150.0   30.0   50.0
-200.0   30.0   33.333333333333336
-200.0   0.0   50.0
-150.0   30.0   50.0
-150.0   0.0   50.0
-150.0   0.0   33.333333333333336
-200.0   0.0   50.0
-150.0   30.0   50.0
-150.0   0.0   33.333333333333336
-200.0   30.0   33.333333333333336
-200.0   30.0   0.0
-150.0   30.0   0.0
-200.0   60.0   0.0
-200.0   30.0   16.666666666666668
-150.0   30.0   0.0
-150.0   60.0   0.0
-200.0   60.0   0.0
-150.0   60.0   16.666666666666668
-200.0   30.0   16.666666666666668
-200.0   60.0   16.666666666666668
-150.0   60.0   16.666666666666668
-200.0   60.0   0.0
-200.0   30.0   16.666666666666668
-150.0   60.0   16.666666666666668
-150.0   30.0   16.666666666666668
-150.0   30.0   0.0
-200.0   30.0   16.666666666666668
-150.0   60.0   16.666666666666668
-150.0   30.0   0.0
-200.0   60.0   0.0
-200.0   30.0   16.666666666666668
-150.0   30.0   16.666666666666668
-200.0   60.0   16.666666666666668
-200.0   30.0   33.333333333333336
-150.0   30.0   16.666666666666668
-150.0   60.0   16.666666666666668
-200.0   60.0   16.666666666666668
-150.0   60.0   33.333333333333336
-200.0   30.0   33.333333333333336
-200.0   60.0   33.333333333333336
-150.0   60.0   33.333333333333336
-200.0   60.0   16.666666666666668
-200.0   30.0   33.333333333333336
-150.0   60.0   33.333333333333336
-150.0   30.0   33.333333333333336
-150.0   30.0   16.666666666666668
-200.0   30.0   33.333333333333336
-150.0   60.0   33.333333333333336
-150.0   30.0   16.666666666666668
-200.0   60.0   16.666666666666668
-200.0   30.0   33.333333333333336
-150.0   30.0   33.333333333333336
-200.0   60.0   33.333333333333336
-200.0   30.0   50.0
-150.0   30.0   33.333333333333336
-150.0   60.0   33.333333333333336
-200.0   60.0   33.333333333333336
-150.0   60.0   50.0
-200.0   30.0   50.0
-200.0   60.0   50.0
-150.0   60.0   50.0
-200.0   60.0   33.333333333333336
-200.0   30.0   50.0
-150.0   60.0   50.0
-150.0   30.0   50.0
-150.0   30.0   33.333333333333336
-200.0   30.0   50.0
-150.0   60.0   50.0
-150.0   30.0   33.333333333333336
-200.0   60.0   33.333333333333336
-200.0   60.0   0.0
-150.0   60.0   0.0
-200.0   90.0   0.0
-200.0   60.0   16.666666666666668
-150.0   60.0   0.0
-150.0   90.0   0.0
-200.0   90.0   0.0
-150.0   90.0   16.666666666666668
-200.0   60.0   16.666666666666668
-200.0   90.0   16.666666666666668
-150.0   90.0   16.666666666666668
-200.0   90.0   0.0
-200.0   60.0   16.666666666666668
-150.0   90.0   16.666666666666668
-150.0   60.0   16.666666666666668
-150.0   60.0   0.0
-200.0   60.0   16.666666666666668
-150.0   90.0   16.666666666666668
-150.0   60.0   0.0
-200.0   90.0   0.0
-200.0   60.0   16.666666666666668
-150.0   60.0   16.666666666666668
-200.0   90.0   16.666666666666668
-200.0   60.0   33.333333333333336
-150.0   60.0   16.666666666666668
-150.0   90.0   16.666666666666668
-200.0   90.0   16.666666666666668
-150.0   90.0   33.333333333333336
-200.0   60.0   33.333333333333336
-200.0   90.0   33.333333333333336
-150.0   90.0   33.333333333333336
-200.0   90.0   16.666666666666668
-200.0   60.0   33.333333333333336
-150.0   90.0   33.333333333333336
-150.0   60.0   33.333333333333336
-150.0   60.0   16.666666666666668
-200.0   60.0   33.333333333333336
-150.0   90.0   33.333333333333336
-150.0   60.0   16.666666666666668
-200.0   90.0   16.666666666666668
-200.0   60.0   33.333333333333336
-150.0   60.0   33.333333333333336
-200.0   90.0   33.333333333333336
-200.0   60.0   50.0
-150.0   60.0   33.333333333333336
-150.0   90.0   33.333333333333336
-200.0   90.0   33.333333333333336
-150.0   90.0   50.0
-200.0   60.0   50.0
-200.0   90.0   50.0
-150.0   90.0   50.0
-200.0   90.0   33.333333333333336
-200.0   60.0   50.0
-150.0   90.0   50.0
-150.0   60.0   50.0
-150.0   60.0   33.333333333333336
-200.0   60.0   50.0
-150.0   90.0   50.0
-150.0   60.0   33.333333333333336
-200.0   90.0   33.333333333333336
-200.0   90.0   0.0
-150.0   90.0   0.0
-200.0   120.0   0.0
-200.0   90.0   16.666666666666668
-150.0   90.0   0.0
-150.0   120.0   0.0
-200.0   120.0   0.0
-150.0   120.0   16.666666666666668
-200.0   90.0   16.666666666666668
-200.0   120.0   16.666666666666668
-150.0   120.0   16.666666666666668
-200.0   120.0   0.0
-200.0   90.0   16.666666666666668
-150.0   120.0   16.666666666666668
-150.0   90.0   16.666666666666668
-150.0   90.0   0.0
-200.0   90.0   16.666666666666668
-150.0   120.0   16.666666666666668
-150.0   90.0   0.0
-200.0   120.0   0.0
-200.0   90.0   16.666666666666668
-150.0   90.0   16.666666666666668
-200.0   120.0   16.666666666666668
-200.0   90.0   33.333333333333336
-150.0   90.0   16.666666666666668
-150.0   120.0   16.666666666666668
-200.0   120.0   16.666666666666668
-150.0   120.0   33.333333333333336
-200.0   90.0   33.333333333333336
-200.0   120.0   33.333333333333336
-150.0   120.0   33.333333333333336
-200.0   120.0   16.666666666666668
-200.0   90.0   33.333333333333336
-150.0   120.0   33.333333333333336
-150.0   90.0   33.333333333333336
-150.0   90.0   16.666666666666668
-200.0   90.0   33.333333333333336
-150.0   120.0   33.333333333333336
-150.0   90.0   16.666666666666668
-200.0   120.0   16.666666666666668
-200.0   90.0   33.333333333333336
-150.0   90.0   33.333333333333336
-200.0   120.0   33.333333333333336
-200.0   90.0   50.0
-150.0   90.0   33.333333333333336
-150.0   120.0   33.333333333333336
-200.0   120.0   33.333333333333336
-150.0   120.0   50.0
-200.0   90.0   50.0
-200.0   120.0   50.0
-150.0   120.0   50.0
-200.0   120.0   33.333333333333336
-200.0   90.0   50.0
-150.0   120.0   50.0
-150.0   90.0   50.0
-150.0   90.0   33.333333333333336
-200.0   90.0   50.0
-150.0   120.0   50.0
-150.0   90.0   33.333333333333336
-200.0   120.0   33.333333333333336
-200.0   120.0   0.0
-150.0   120.0   0.0
-200.0   150.0   0.0
-200.0   120.0   16.666666666666668
-150.0   120.0   0.0
-150.0   150.0   0.0
-200.0   150.0   0.0
-150.0   150.0   16.666666666666668
-200.0   120.0   16.666666666666668
-200.0   150.0   16.666666666666668
-150.0   150.0   16.666666666666668
-200.0   150.0   0.0
-200.0   120.0   16.666666666666668
-150.0   150.0   16.666666666666668
-150.0   120.0   16.666666666666668
-150.0   120.0   0.0
-200.0   120.0   16.666666666666668
-150.0   150.0   16.666666666666668
-150.0   120.0   0.0
-200.0   150.0   0.0
-200.0   120.0   16.666666666666668
-150.0   120.0   16.666666666666668
-200.0   150.0   16.666666666666668
-200.0   120.0   33.333333333333336
-150.0   120.0   16.666666666666668
-150.0   150.0   16.666666666666668
-200.0   150.0   16.666666666666668
-150.0   150.0   33.333333333333336
-200.0   120.0   33.333333333333336
-200.0   150.0   33.333333333333336
-150.0   150.0   33.333333333333336
-200.0   150.0   16.666666666666668
-200.0   120.0   33.333333333333336
-150.0   150.0   33.333333333333336
-150.0   120.0   33.333333333333336
-150.0   120.0   16.666666666666668
-200.0   120.0   33.333333333333336
-150.0   150.0   33.333333333333336
-150.0   120.0   16.666666666666668
-200.0   150.0   16.666666666666668
-200.0   120.0   33.333333333333336
-150.0   120.0   33.333333333333336
-200.0   150.0   33.333333333333336
-200.0   120.0   50.0
-150.0   120.0   33.333333333333336
-150.0   150.0   33.333333333333336
-200.0   150.0   33.333333333333336
-150.0   150.0   50.0
-200.0   120.0   50.0
-200.0   150.0   50.0
-150.0   150.0   50.0
-200.0   150.0   33.333333333333336
-200.0   120.0   50.0
-150.0   150.0   50.0
-150.0   120.0   50.0
-150.0   120.0   33.333333333333336
-200.0   120.0   50.0
-150.0   150.0   50.0
-150.0   120.0   33.333333333333336
-200.0   150.0   33.333333333333336
-150.0   0.0   0.0
-100.0   0.0   0.0
-150.0   30.0   0.0
-150.0   0.0   16.666666666666668
-100.0   0.0   0.0
-100.0   30.0   0.0
-150.0   30.0   0.0
-100.0   30.0   16.666666666666668
-150.0   0.0   16.666666666666668
-150.0   30.0   16.666666666666668
-100.0   30.0   16.666666666666668
-150.0   30.0   0.0
-150.0   0.0   16.666666666666668
-100.0   30.0   16.666666666666668
-100.0   0.0   16.666666666666668
-100.0   0.0   0.0
-150.0   0.0   16.666666666666668
-100.0   30.0   16.666666666666668
-100.0   0.0   0.0
-150.0   30.0   0.0
-150.0   0.0   16.666666666666668
-100.0   0.0   16.666666666666668
-150.0   30.0   16.666666666666668
-150.0   0.0   33.333333333333336
-100.0   0.0   16.666666666666668
-100.0   30.0   16.666666666666668
-150.0   30.0   16.666666666666668
-100.0   30.0   33.333333333333336
-150.0   0.0   33.333333333333336
-150.0   30.0   33.333333333333336
-100.0   30.0   33.333333333333336
-150.0   30.0   16.666666666666668
-150.0   0.0   33.333333333333336
-100.0   30.0   33.333333333333336
-100.0   0.0   33.333333333333336
-100.0   0.0   16.666666666666668
-150.0   0.0   33.333333333333336
-100.0   30.0   33.333333333333336
-100.0   0.0   16.666666666666668
-150.0   30.0   16.666666666666668
-150.0   0.0   33.333333333333336
-100.0   0.0   33.333333333333336
-150.0   30.0   33.333333333333336
-150.0   0.0   50.0
-100.0   0.0   33.333333333333336
-100.0   30.0   33.333333333333336
-150.0   30.0   33.333333333333336
-100.0   30.0   50.0
-150.0   0.0   50.0
-150.0   30.0   50.0
-100.0   30.0   50.0
-150.0   30.0   33.333333333333336
-150.0   0.0   50.0
-100.0   30.0   50.0
-100.0   0.0   50.0
-100.0   0.0   33.333333333333336
-150.0   0.0   50.0
-100.0   30.0   50.0
-100.0   0.0   33.333333333333336
-150.0   30.0   33.333333333333336
-150.0   30.0   0.0
-100.0   30.0   0.0
-150.0   60.0   0.0
-150.0   30.0   16.666666666666668
-100.0   30.0   0.0
-100.0   60.0   0.0
-150.0   60.0   0.0
-100.0   60.0   16.666666666666668
-150.0   30.0   16.666666666666668
-150.0   60.0   16.666666666666668
-100.0   60.0   16.666666666666668
-150.0   60.0   0.0
-150.0   30.0   16.666666666666668
-100.0   60.0   16.666666666666668
-100.0   30.0   16.666666666666668
-100.0   30.0   0.0
-150.0   30.0   16.666666666666668
-100.0   60.0   16.666666666666668
-100.0   30.0   0.0
-150.0   60.0   0.0
-150.0   30.0   16.666666666666668
-100.0   30.0   16.666666666666668
-150.0   60.0   16.666666666666668
-150.0   30.0   33.333333333333336
-100.0   30.0   16.666666666666668
-100.0   60.0   16.666666666666668
-150.0   60.0   16.666666666666668
-100.0   60.0   33.333333333333336
-150.0   30.0   33.333333333333336
-150.0   60.0   33.333333333333336
-100.0   60.0   33.333333333333336
-150.0   60.0   16.666666666666668
-150.0   30.0   33.333333333333336
-100.0   60.0   33.333333333333336
-100.0   30.0   33.333333333333336
-100.0   30.0   16.666666666666668
-150.0   30.0   33.333333333333336
-100.0   60.0   33.333333333333336
-100.0   30.0   16.666666666666668
-150.0   60.0   16.666666666666668
-150.0   30.0   33.333333333333336
-100.0   30.0   33.333333333333336
-150.0   60.0   33.333333333333336
-150.0   30.0   50.0
-100.0   30.0   33.333333333333336
-100.0   60.0   33.333333333333336
-150.0   60.0   33.333333333333336
-100.0   60.0   50.0
-150.0   30.0   50.0
-150.0   60.0   50.0
-100.0   60.0   50.0
-150.0   60.0   33.333333333333336
-150.0   30.0   50.0
-100.0   60.0   50.0
-100.0   30.0   50.0
-100.0   30.0   33.333333333333336
-150.0   30.0   50.0
-100.0   60.0   50.0
-100.0   30.0   33.333333333333336
-150.0   60.0   33.333333333333336
-150.0   60.0   0.0
-100.0   60.0   0.0
-150.0   90.0   0.0
-150.0   60.0   16.666666666666668
-100.0   60.0   0.0
-100.0   90.0   0.0
-150.0   90.0   0.0
-100.0   90.0   16.666666666666668
-150.0   60.0   16.666666666666668
-150.0   90.0   16.666666666666668
-100.0   90.0   16.666666666666668
-150.0   90.0   0.0
-150.0   60.0   16.666666666666668
-100.0   90.0   16.666666666666668
-100.0   60.0   16.666666666666668
-100.0   60.0   0.0
-150.0   60.0   16.666666666666668
-100.0   90.0   16.666666666666668
-100.0   60.0   0.0
-150.0   90.0   0.0
-150.0   60.0   16.666666666666668
-100.0   60.0   16.666666666666668
-150.0   90.0   16.666666666666668
-150.0   60.0   33.333333333333336
-100.0   60.0   16.666666666666668
-100.0   90.0   16.666666666666668
-150.0   90.0   16.666666666666668
-100.0   90.0   33.333333333333336
-150.0   60.0   33.333333333333336
-150.0   90.0   33.333333333333336
-100.0   90.0   33.333333333333336
-150.0   90.0   16.666666666666668
-150.0   60.0   33.333333333333336
-100.0   90.0   33.333333333333336
-100.0   60.0   33.333333333333336
-100.0   60.0   16.666666666666668
-150.0   60.0   33.333333333333336
-100.0   90.0   33.333333333333336
-100.0   60.0   16.666666666666668
-150.0   90.0   16.666666666666668
-150.0   60.0   33.333333333333336
-100.0   60.0   33.333333333333336
-150.0   90.0   33.333333333333336
-150.0   60.0   50.0
-100.0   60.0   33.333333333333336
-100.0   90.0   33.333333333333336
-150.0   90.0   33.333333333333336
-100.0   90.0   50.0
-150.0   60.0   50.0
-150.0   90.0   50.0
-100.0   90.0   50.0
-150.0   90.0   33.333333333333336
-150.0   60.0   50.0
-100.0   90.0   50.0
-100.0   60.0   50.0
-100.0   60.0   33.333333333333336
-150.0   60.0   50.0
-100.0   90.0   50.0
-100.0   60.0   33.333333333333336
-150.0   90.0   33.333333333333336
-150.0   90.0   0.0
-100.0   90.0   0.0
-150.0   120.0   0.0
-150.0   90.0   16.666666666666668
-100.0   90.0   0.0
-100.0   120.0   0.0
-150.0   120.0   0.0
-100.0   120.0   16.666666666666668
-150.0   90.0   16.666666666666668
-150.0   120.0   16.666666666666668
-100.0   120.0   16.666666666666668
-150.0   120.0   0.0
-150.0   90.0   16.666666666666668
-100.0   120.0   16.666666666666668
-100.0   90.0   16.666666666666668
-100.0   90.0   0.0
-150.0   90.0   16.666666666666668
-100.0   120.0   16.666666666666668
-100.0   90.0   0.0
-150.0   120.0   0.0
-150.0   90.0   16.666666666666668
-100.0   90.0   16.666666666666668
-150.0   120.0   16.666666666666668
-150.0   90.0   33.333333333333336
-100.0   90.0   16.666666666666668
-100.0   120.0   16.666666666666668
-150.0   120.0   16.666666666666668
-100.0   120.0   33.333333333333336
-150.0   90.0   33.333333333333336
-150.0   120.0   33.333333333333336
-100.0   120.0   33.333333333333336
-150.0   120.0   16.666666666666668
-150.0   90.0   33.333333333333336
-100.0   120.0   33.333333333333336
-100.0   90.0   33.333333333333336
-100.0   90.0   16.666666666666668
-150.0   90.0   33.333333333333336
-100.0   120.0   33.333333333333336
-100.0   90.0   16.666666666666668
-150.0   120.0   16.666666666666668
-150.0   90.0   33.333333333333336
-100.0   90.0   33.333333333333336
-150.0   120.0   33.333333333333336
-150.0   90.0   50.0
-100.0   90.0   33.333333333333336
-100.0   120.0   33.333333333333336
-150.0   120.0   33.333333333333336
-100.0   120.0   50.0
-150.0   90.0   50.0
-150.0   120.0   50.0
-100.0   120.0   50.0
-150.0   120.0   33.333333333333336
-150.0   90.0   50.0
-100.0   120.0   50.0
-100.0   90.0   50.0
-100.0   90.0   33.333333333333336
-150.0   90.0   50.0
-100.0   120.0   50.0
-100.0   90.0   33.333333333333336
-150.0   120.0   33.333333333333336
-150.0   120.0   0.0
-100.0   120.0   0.0
-150.0   150.0   0.0
-150.0   120.0   16.666666666666668
-100.0   120.0   0.0
-100.0   150.0   0.0
-150.0   150.0   0.0
-100.0   150.0   16.666666666666668
-150.0   120.0   16.666666666666668
-150.0   150.0   16.666666666666668
-100.0   150.0   16.666666666666668
-150.0   150.0   0.0
-150.0   120.0   16.666666666666668
-100.0   150.0   16.666666666666668
-100.0   120.0   16.666666666666668
-100.0   120.0   0.0
-150.0   120.0   16.666666666666668
-100.0   150.0   16.666666666666668
-100.0   120.0   0.0
-150.0   150.0   0.0
-150.0   120.0   16.666666666666668
-100.0   120.0   16.666666666666668
-150.0   150.0   16.666666666666668
-150.0   120.0   33.333333333333336
-100.0   120.0   16.666666666666668
-100.0   150.0   16.666666666666668
-150.0   150.0   16.666666666666668
-100.0   150.0   33.333333333333336
-150.0   120.0   33.333333333333336
-150.0   150.0   33.333333333333336
-100.0   150.0   33.333333333333336
-150.0   150.0   16.666666666666668
-150.0   120.0   33.333333333333336
-100.0   150.0   33.333333333333336
-100.0   120.0   33.333333333333336
-100.0   120.0   16.666666666666668
-150.0   120.0   33.333333333333336
-100.0   150.0   33.333333333333336
-100.0   120.0   16.666666666666668
-150.0   150.0   16.666666666666668
-150.0   120.0   33.333333333333336
-100.0   120.0   33.333333333333336
-150.0   150.0   33.333333333333336
-150.0   120.0   50.0
-100.0   120.0   33.333333333333336
-100.0   150.0   33.333333333333336
-150.0   150.0   33.333333333333336
-100.0   150.0   50.0
-150.0   120.0   50.0
-150.0   150.0   50.0
-100.0   150.0   50.0
-150.0   150.0   33.333333333333336
-150.0   120.0   50.0
-100.0   150.0   50.0
-100.0   120.0   50.0
-100.0   120.0   33.333333333333336
-150.0   120.0   50.0
-100.0   150.0   50.0
-100.0   120.0   33.333333333333336
-150.0   150.0   33.333333333333336
-100.0   0.0   0.0
-50.0   0.0   0.0
-100.0   30.0   0.0
-100.0   0.0   16.666666666666668
-50.0   0.0   0.0
-50.0   30.0   0.0
-100.0   30.0   0.0
-50.0   30.0   16.666666666666668
-100.0   0.0   16.666666666666668
-100.0   30.0   16.666666666666668
-50.0   30.0   16.666666666666668
-100.0   30.0   0.0
-100.0   0.0   16.666666666666668
-50.0   30.0   16.666666666666668
-50.0   0.0   16.666666666666668
-50.0   0.0   0.0
-100.0   0.0   16.666666666666668
-50.0   30.0   16.666666666666668
-50.0   0.0   0.0
-100.0   30.0   0.0
-100.0   0.0   16.666666666666668
-50.0   0.0   16.666666666666668
-100.0   30.0   16.666666666666668
-100.0   0.0   33.333333333333336
-50.0   0.0   16.666666666666668
-50.0   30.0   16.666666666666668
-100.0   30.0   16.666666666666668
-50.0   30.0   33.333333333333336
-100.0   0.0   33.333333333333336
-100.0   30.0   33.333333333333336
-50.0   30.0   33.333333333333336
-100.0   30.0   16.666666666666668
-100.0   0.0   33.333333333333336
-50.0   30.0   33.333333333333336
-50.0   0.0   33.333333333333336
-50.0   0.0   16.666666666666668
-100.0   0.0   33.333333333333336
-50.0   30.0   33.333333333333336
-50.0   0.0   16.666666666666668
-100.0   30.0   16.666666666666668
-100.0   0.0   33.333333333333336
-50.0   0.0   33.333333333333336
-100.0   30.0   33.333333333333336
-100.0   0.0   50.0
-50.0   0.0   33.333333333333336
-50.0   30.0   33.333333333333336
-100.0   30.0   33.333333333333336
-50.0   30.0   50.0
-100.0   0.0   50.0
-100.0   30.0   50.0
-50.0   30.0   50.0
-100.0   30.0   33.333333333333336
-100.0   0.0   50.0
-50.0   30.0   50.0
-50.0   0.0   50.0
-50.0   0.0   33.333333333333336
-100.0   0.0   50.0
-50.0   30.0   50.0
-50.0   0.0   33.333333333333336
-100.0   30.0   33.333333333333336
-100.0   30.0   0.0
-50.0   30.0   0.0
-100.0   60.0   0.0
-100.0   30.0   16.666666666666668
-50.0   30.0   0.0
-50.0   60.0   0.0
-100.0   60.0   0.0
-50.0   60.0   16.666666666666668
-100.0   30.0   16.666666666666668
-100.0   60.0   16.666666666666668
-50.0   60.0   16.666666666666668
-100.0   60.0   0.0
-100.0   30.0   16.666666666666668
-50.0   60.0   16.666666666666668
-50.0   30.0   16.666666666666668
-50.0   30.0   0.0
-100.0   30.0   16.666666666666668
-50.0   60.0   16.666666666666668
-50.0   30.0   0.0
-100.0   60.0   0.0
-100.0   30.0   16.666666666666668
-50.0   30.0   16.666666666666668
-100.0   60.0   16.666666666666668
-100.0   30.0   33.333333333333336
-50.0   30.0   16.666666666666668
-50.0   60.0   16.666666666666668
-100.0   60.0   16.666666666666668
-50.0   60.0   33.333333333333336
-100.0   30.0   33.333333333333336
-100.0   60.0   33.333333333333336
-50.0   60.0   33.333333333333336
-100.0   60.0   16.666666666666668
-100.0   30.0   33.333333333333336
-50.0   60.0   33.333333333333336
-50.0   30.0   33.333333333333336
-50.0   30.0   16.666666666666668
-100.0   30.0   33.333333333333336
-50.0   60.0   33.333333333333336
-50.0   30.0   16.666666666666668
-100.0   60.0   16.666666666666668
-100.0   30.0   33.333333333333336
-50.0   30.0   33.333333333333336
-100.0   60.0   33.333333333333336
-100.0   30.0   50.0
-50.0   30.0   33.333333333333336
-50.0   60.0   33.333333333333336
-100.0   60.0   33.333333333333336
-50.0   60.0   50.0
-100.0   30.0   50.0
-100.0   60.0   50.0
-50.0   60.0   50.0
-100.0   60.0   33.333333333333336
-100.0   30.0   50.0
-50.0   60.0   50.0
-50.0   30.0   50.0
-50.0   30.0   33.333333333333336
-100.0   30.0   50.0
-50.0   60.0   50.0
-50.0   30.0   33.333333333333336
-100.0   60.0   33.333333333333336
-100.0   60.0   0.0
-50.0   60.0   0.0
-100.0   90.0   0.0
-100.0   60.0   16.666666666666668
-50.0   60.0   0.0
-50.0   90.0   0.0
-100.0   90.0   0.0
-50.0   90.0   16.666666666666668
-100.0   60.0   16.666666666666668
-100.0   90.0   16.666666666666668
-50.0   90.0   16.666666666666668
-100.0   90.0   0.0
-100.0   60.0   16.666666666666668
-50.0   90.0   16.666666666666668
-50.0   60.0   16.666666666666668
-50.0   60.0   0.0
-100.0   60.0   16.666666666666668
-50.0   90.0   16.666666666666668
-50.0   60.0   0.0
-100.0   90.0   0.0
-100.0   60.0   16.666666666666668
-50.0   60.0   16.666666666666668
-100.0   90.0   16.666666666666668
-100.0   60.0   33.333333333333336
-50.0   60.0   16.666666666666668
-50.0   90.0   16.666666666666668
-100.0   90.0   16.666666666666668
-50.0   90.0   33.333333333333336
-100.0   60.0   33.333333333333336
-100.0   90.0   33.333333333333336
-50.0   90.0   33.333333333333336
-100.0   90.0   16.666666666666668
-100.0   60.0   33.333333333333336
-50.0   90.0   33.333333333333336
-50.0   60.0   33.333333333333336
-50.0   60.0   16.666666666666668
-100.0   60.0   33.333333333333336
-50.0   90.0   33.333333333333336
-50.0   60.0   16.666666666666668
-100.0   90.0   16.666666666666668
-100.0   60.0   33.333333333333336
-50.0   60.0   33.333333333333336
-100.0   90.0   33.333333333333336
-100.0   60.0   50.0
-50.0   60.0   33.333333333333336
-50.0   90.0   33.333333333333336
-100.0   90.0   33.333333333333336
-50.0   90.0   50.0
-100.0   60.0   50.0
-100.0   90.0   50.0
-50.0   90.0   50.0
-100.0   90.0   33.333333333333336
-100.0   60.0   50.0
-50.0   90.0   50.0
-50.0   60.0   50.0
-50.0   60.0   33.333333333333336
-100.0   60.0   50.0
-50.0   90.0   50.0
-50.0   60.0   33.333333333333336
-100.0   90.0   33.333333333333336
-100.0   90.0   0.0
-50.0   90.0   0.0
-100.0   120.0   0.0
-100.0   90.0   16.666666666666668
-50.0   90.0   0.0
-50.0   120.0   0.0
-100.0   120.0   0.0
-50.0   120.0   16.666666666666668
-100.0   90.0   16.666666666666668
-100.0   120.0   16.666666666666668
-50.0   120.0   16.666666666666668
-100.0   120.0   0.0
-100.0   90.0   16.666666666666668
-50.0   120.0   16.666666666666668
-50.0   90.0   16.666666666666668
-50.0   90.0   0.0
-100.0   90.0   16.666666666666668
-50.0   120.0   16.666666666666668
-50.0   90.0   0.0
-100.0   120.0   0.0
-100.0   90.0   16.666666666666668
-50.0   90.0   16.666666666666668
-100.0   120.0   16.666666666666668
-100.0   90.0   33.333333333333336
-50.0   90.0   16.666666666666668
-50.0   120.0   16.666666666666668
-100.0   120.0   16.666666666666668
-50.0   120.0   33.333333333333336
-100.0   90.0   33.333333333333336
-100.0   120.0   33.333333333333336
-50.0   120.0   33.333333333333336
-100.0   120.0   16.666666666666668
-100.0   90.0   33.333333333333336
-50.0   120.0   33.333333333333336
-50.0   90.0   33.333333333333336
-50.0   90.0   16.666666666666668
-100.0   90.0   33.333333333333336
-50.0   120.0   33.333333333333336
-50.0   90.0   16.666666666666668
-100.0   120.0   16.666666666666668
-100.0   90.0   33.333333333333336
-50.0   90.0   33.333333333333336
-100.0   120.0   33.333333333333336
-100.0   90.0   50.0
-50.0   90.0   33.333333333333336
-50.0   120.0   33.333333333333336
-100.0   120.0   33.333333333333336
-50.0   120.0   50.0
-100.0   90.0   50.0
-100.0   120.0   50.0
-50.0   120.0   50.0
-100.0   120.0   33.333333333333336
-100.0   90.0   50.0
-50.0   120.0   50.0
-50.0   90.0   50.0
-50.0   90.0   33.333333333333336
-100.0   90.0   50.0
-50.0   120.0   50.0
-50.0   90.0   33.333333333333336
-100.0   120.0   33.333333333333336
-100.0   120.0   0.0
-50.0   120.0   0.0
-100.0   150.0   0.0
-100.0   120.0   16.666666666666668
-50.0   120.0   0.0
-50.0   150.0   0.0
-100.0   150.0   0.0
-50.0   150.0   16.666666666666668
-100.0   120.0   16.666666666666668
-100.0   150.0   16.666666666666668
-50.0   150.0   16.666666666666668
-100.0   150.0   0.0
-100.0   120.0   16.666666666666668
-50.0   150.0   16.666666666666668
-50.0   120.0   16.666666666666668
-50.0   120.0   0.0
-100.0   120.0   16.666666666666668
-50.0   150.0   16.666666666666668
-50.0   120.0   0.0
-100.0   150.0   0.0
-100.0   120.0   16.666666666666668
-50.0   120.0   16.666666666666668
-100.0   150.0   16.666666666666668
-100.0   120.0   33.333333333333336
-50.0   120.0   16.666666666666668
-50.0   150.0   16.666666666666668
-100.0   150.0   16.666666666666668
-50.0   150.0   33.333333333333336
-100.0   120.0   33.333333333333336
-100.0   150.0   33.333333333333336
-50.0   150.0   33.333333333333336
-100.0   150.0   16.666666666666668
-100.0   120.0   33.333333333333336
-50.0   150.0   33.333333333333336
-50.0   120.0   33.333333333333336
-50.0   120.0   16.666666666666668
-100.0   120.0   33.333333333333336
-50.0   150.0   33.333333333333336
-50.0   120.0   16.666666666666668
-100.0   150.0   16.666666666666668
-100.0   120.0   33.333333333333336
-50.0   120.0   33.333333333333336
-100.0   150.0   33.333333333333336
-100.0   120.0   50.0
-50.0   120.0   33.333333333333336
-50.0   150.0   33.333333333333336
-100.0   150.0   33.333333333333336
-50.0   150.0   50.0
-100.0   120.0   50.0
-100.0   150.0   50.0
-50.0   150.0   50.0
-100.0   150.0   33.333333333333336
-100.0   120.0   50.0
-50.0   150.0   50.0
-50.0   120.0   50.0
-50.0   120.0   33.333333333333336
-100.0   120.0   50.0
-50.0   150.0   50.0
-50.0   120.0   33.333333333333336
-100.0   150.0   33.333333333333336
-50.0   0.0   0.0
0.0   0.0   0.0
-50.0   30.0   0.0
-50.0   0.0   16.666666666666668
0.0   0.0   0.0
0.0   30.0   0.0
-50.0   30.0   0.0
0.0   30.0   16.666666666666668
-50.0   0.0   16.666666666666668
-50.0   30.0   16.666666666666668
0.0   30.0   16.666666666666668
-50.0   30.0   0.0
-50.0   0.0   16.666666666666668
0.0   30.0   16.666666666666668
0.0   0.0   16.666666666666668
0.0   0.0   0.0
-50.0   0.0   16.666666666666668
0.0   30.0   16.666666666666668
0.0   0.0   0.0
-50.0   30.0   0.0
-50.0   0.0   16.666666666666668
0.0   0.0   16.666666666666668
-50.0   30.0   16.666666666666668
-50.0   0.0   33.333333333333336
0.0   0.0   16.666666666666668
0.0   30.0   16.666666666666668
-50.0   30.0   16.666666666666668
0.0   30.0   33.333333333333336
-50.0   0.0   33.333333333333336
-50.0   30.0   33.333333333333336
0.0   30.0   33.333333333333336
-50.0   30.0   16.666666666666668
-50.0   0.0   33.333333333333336
0.0   30.0   33.333333333333336
0.0   0.0   33.333333333333336
0.0   0.0   16.666666666666668
-50.0   0.0   33.333333333333336
0.0   30.0   33.333333333333336
0.0   0.0   16.666666666666668
-50.0   30.0   16.666666666666668
-50.0   0.0   33.333333333333336
0.0   0.0   33.333333333333336
-50.0   30.0   33.333333333333336
-50.0   0.0   50.0
0.0   0.0   33.333333333333336
0.0   30.0   33.333333333333336
-50.0   30.0   33.333333333333336
0.0   30.0   50.0
-50.0   0.0   50.0
-50.0   30.0   50.0
0.0   30.0   50.0
-50.0   30.0   33.333333333333336
-50.0   0.0   50.0
0.0   30.0   50.0
0.0   0.0   50.0
0.0   0.0   33.333333333333336
-50.0   0.0   50.0
0.0   30.0   50.0
0.0   0.0   33.333333333333336
-50.0   30.0   33.333333333333336
-50.0   30.0   0.0
0.0   30.0   0.0
-50.0   60.0   0.0
-50.0   30.0   16.666666666666668
0.0   30.0   0.0
0.0   60.0   0.0
-50.0   60.0   0.0
0.0   60.0   16.666666666666668
-50.0   30.0   16.666666666666668
-50.0   60.0   16.666666666666668
0.0   60.0   16.666666666666668
-50.0   60.0   0.0
-50.0   30.0   16.666666666666668
0.0   60.0   16.666666666666668
0.0   30.0   16.666666666666668
0.0   30.0   0.0
-50.0   30.0   16.666666666666668
0.0   60.0   16.666666666666668
0.0   30.0   0.0
-50.0   60.0   0.0
-50.0   30.0   16.666666666666668
0.0   30.0   16.666666666666668
-50.0   60.0   16.666666666666668
-50.0   30.0   33.333333333333336
0.0   30.0   16.666666666666668
0.0   60.0   16.666666666666668
-50.0   60.0   16.666666666666668
0.0   60.0   33.333333333333336
-50.0   30.0   33.333333333333336
-50.0   60.0   33.333333333333336
0.0   60.0   33.333333333333336
-50.0   60.0   16.666666666666668
-50.0   30.0   33.333333333333336
0.0   60.0   33.333333333333336
0.0   30.0   33.333333333333336
0.0   30.0   16.666666666666668
-50.0   30.0   33.333333333333336
0.0   60.0   33.333333333333336
0.0   30.0   16.666666666666668
-50.0   60.0   16.666666666666668
-50.0   30.0   33.333333333333336
0.0   30.0   33.333333333333336
-50.0   60.0   33.333333333333336
-50.0   30.0   50.0
0.0   30.0   33.333333333333336
0.0   60.0   33.333333333333336
-50.0   60.0   33.333333333333336
0.0   60.0   50.0
-50.0   30.0   50.0
-50.0   60.0   50.0
0.0   60.0   50.0
-50.0   60.0   33.333333333333336
-50.0   30.0   50.0
0.0   60.0   50.0
0.0   30.0   50.0
0.0   30.0   33.333333333333336
-50.0   30.0   50.0
0.0   60.0   50.0
0.0   30.0   33.333333333333336
-50.0   60.0   33.333333333333336
-50.0   60.0   0.0
0.0   60.0   0.0
-50.0   90.0   0.0
-50.0   60.0   16.666666666666668
0.0   60.0   0.0
0.0   90.0   0.0
-50.0   90.0   0.0
0.0   90.0   16.666666666666668
-50.0   60.0   16.666666666666668
-50.0   90.0   16.666666666666668
0.0   90.0   16.666666666666668
-50.0   90.0   0.0
-50.0   60.0   16.666666666666668
0.0   90.0   16.666666666666668
0.0   60.0   16.666666666666668
0.0   60.0   0.0
-50.0   60.0   16.666666666666668
0.0   90.0   16.666666666666668
0.0   60.0   0.0
-50.0   90.0   0.0
-50.0   60.0   16.666666666666668
0.0   60.0   16.666666666666668
-50.0   90.0   16.666666666666668
-50.0   60.0   33.333333333333336
0.0   60.0   16.666666666666668
0.0   90.0   16.666666666666668
-50.0   90.0   16.666666666666668
0.0   90.0   33.333333333333336
-50.0   60.0   33.333333333333336
-50.0   90.0   33.333333333333336
0.0   90.0   33.333333333333336
-50.0   90.0   16.666666666666668
-50.0   60.0   33.333333333333336
0.0   90.0   33.333333333333336
0.0   60.0   33.333333333333336
0.0   60.0   16.666666666666668
-50.0   60.0   33.333333333333336
0.0   90.0   33.333333333333336
0.0   60.0   16.666666666666668
-50.0   90.0   16.666666666666668
-50.0   60.0   33.333333333333336
0.0   60.0   33.333333333333336
-50.0   90.0   33.333333333333336
-50.0   60.0   50.0
0.0   60.0   33.333333333333336
0.0   90.0   33.333333333333336
-50.0   90.0   33.333333333333336
0.0   90.0   50.0
-50.0   60.0   50.0
-50.0   90.0   50.0
0.0   90.0   50.0
-50.0   90.0   33.333333333333336
-50.0   60.0   50.0
0.0   90.0   50.0
0.0   60.0   50.0
0.0   60.0   33.333333333333336
-50.0   60.0   50.0
0.0   90.0   50.0
0.0   60.0   33.333333333333336
-50.0   90.0   33.333333333333336
-50.0   90.0   0.0
0.0   90.0   0.0
-50.0   120.0   0.0
-50.0   90.0   16.666666666666668
0.0   90.0   0.0
0.0   120.0   0.0
-50.0   120.0   0.0
0.0   120.0   16.666666666666668
-50.0   90.0   16.666666666666668
-50.0   120.0   16.666666666666668
0.0   120.0   16.666666666666668
-50.0   120.0   0.0
-50.0   90.0   16.666666666666668
0.0   120.0   16.666666666666668
0.0   90.0   16.666666666666668
0.0   90.0   0.0
-50.0   90.0   16.666666666666668
0.0   120.0   16.666666666666668
0.0   90.0   0.0
-50.0   120.0   0.0
-50.0   90.0   16.666666666666668
0.0   90.0   16.666666666666668
-50.0   120.0   16.666666666666668
-50.0   90.0   33.333333333333336
0.0   90.0   16.666666666666668
0.0   120.0   16.666666666666668
-50.0   120.0   16.666666666666668
0.0   120.0   33.333333333333336
-50.0   90.0   33.333333333333336
-50.0   120.0   33.333333333333336
0.0   120.0   33.333333333333336
-50.0   120.0   16.666666666666668
-50.0   90.0   33.333333333333336
0.0   120.0   33.333333333333336
0.0   90.0   33.333333333333336
0.0   90.0   16.666666666666668
-50.0   90.0   33.333333333333336
0.0   120.0   33.333333333333336
0.0   90.0   16.666666666666668
-50.0   120.0   16.666666666666668
-50.0   90.0   33.333333333333336
0.0   90.0   33.333333333333336
-50.0   120.0   33.333333333333336
-50.0   90.0   50.0
0.0   90.0   33.333333333333336
0.0   120.0   33.333333333333336
-50.0   120.0   33.333333333333336
0.0   120.0   50.0
-50.0   90.0   50.0
-50.0   120.0   50.0
0.0   120.0   50.0
-50.0   120.0   33.333333333333336
-50.0   90.0   50.0
0.0   120.0   50.0
0.0   90.0   50.0
0.0   90.0   33.333333333333336
-50.0   90.0   50.0
0.0   120.0   50.0
0.0   90.0   33.333333333333336
-50.0   120.0   33.333333333333336
-50.0   120.0   0.0
0.0   120.0   0.0
-50.0   150.0   0.0
-50.0   120.0   16.666666666666668
0.0   120.0   0.0
0.0   150.0   0.0
-50.0   150.0   0.0
0.0   150.0   16.666666666666668
-50.0   120.0   16.666666666666668
-50.0   150.0   16.666666666666668
0.0   150.0   16.666666666666668
-50.0   150.0   0.0
-50.0   120.0   16.666666666666668
0.0   150.0   16.666666666666668
0.0   120.0   16.666666666666668
0.0   120.0   0.0
-50.0   120.0   16.666666666666668
0.0   150.0   16.666666666666668
0.0   120.0   0.0
-50.0   150.0   0.0
-50.0   120.0   16.666666666666668
0.0   120.0   16.666666666666668
-50.0   150.0   16.666666666666668
-50.0   120.0   33.333333333333336
0.0   120.0   16.666666666666668
0.0   150.0   16.666666666666668
-50.0   150.0   16.666666666666668
0.0   150.0   33.333333333333336
-50.0   120.0   33.333333333333336
-50.0   150.0   33.333333333333336
0.0   150.0   33.333333333333336
-50.0   150.0   16.666666666666668
-50.0   120.0   33.333333333333336
0.0   150.0   33.333333333333336
0.0   120.0   33.333333333333336
0.0   120.0   16.666666666666668
-50.0   120.0   33.333333333333336
0.0   150.0   33.333333333333336
0.0   120.0   16.666666666666668
-50.0   150.0   16.666666666666668
-50.0   120.0   33.333333333333336
0.0   120.0   33.333333333333336
-50.0   150.0   33.333333333333336
-50.0   120.0   50.0
0.0   120.0   33.333333333333336
0.0   150.0   33.333333333333336
-50.0   150.0   33.333333333333336
0.0   150.0   50.0
-50.0   120.0   50.0
-50.0   150.0   50.0
0.0   150.0   50.0
-50.0   150.0   33.333333333333336
-50.0   120.0   50.0
0.0   150.0   50.0
0.0   120.0   50.0
0.0   120.0   33.333333333333336
-50.0   120.0   50.0
0.0   150.0   50.0
0.0   120.0   33.333333333333336
-50.0   150.0   33.333333333333336
0.0   0.0   0.0
50.0   0.0   0.0
0.0   30.0   0.0
0.0   0.0   16.666666666666668
50.0   0.0   0.0
50.0   30.0   0.0
0.0   30.0   0.0
50.0   30.0   16.666666666666668
0.0   0.0   16.666666666666668
0.0   30.0   16.666666666666668
50.0   30.0   16.666666666666668
0.0   30.0   0.0
0.0   0.0   16.666666666666668
50.0   30.0   16.666666666666668
50.0   0.0   16.666666666666668
50.0   0.0   0.0
0.0   0.0   16.666666666666668
50.0   30.0   16.666666666666668
50.0   0.0   0.0
0.0   30.0   0.0
0.0   0.0   16.666666666666668
50.0   0.0   16.666666666666668
0.0   30.0   16.666666666666668
0.0   0.0   33.333333333333336
50.0   0.0   16.666666666666668
50.0   30.0   16.666666666666668
0.0   30.0   16.666666666666668
50.0   30.0   33.333333333333336
0.0   0.0   33.333333333333336
0.0   30.0   33.333333333333336
50.0   30.0   33.333333333333336
0.0   30.0   16.666666666666668
0.0   0.0   33.333333333333336
50.0   30.0   33.333333333333336
50.0   0.0   33.333333333333336
50.0   0.0   16.666666666666668
0.0   0.0   33.333333333333336
50.0   30.0   33.333333333333336
50.0   0.0   16.666666666666668
0.0   30.0   16.666666666666668
0.0   0.0   33.333333333333336
50.0   0.0   33.333333333333336
0.0   30.0   33.333333333333336
0.0   0.0   50.0
50.0   0.0   33.333333333333336
50.0   30.0   33.333333333333336
0.0   30.0   33.333333333333336
50.0   30.0   50.0
0.0   0.0   50.0
0.0   30.0   50.0
50.0   30.0   50.0
0.0   30.0   33.333333333333336
0.0   0.0   50.0
50.0   30.0   50.0
50.0   0.0   50.0
50.0   0.0   33.333333333333336
0.0   0.0   50.0
50.0   30.0   50.0
50.0   0.0   33.333333333333336
0.0   30.0   33.333333333333336
0.0   30.0   0.0
50.0   30.0   0.0
0.0   60.0   0.0
0.0   30.0   16.666666666666668
50.0   30.0   0.0
50.0   60.0   0.0
0.0   60.0   0.0
50.0   60.0   16.666666666666668
0.0   30.0   16.666666666666668
0.0   60.0   16.666666666666668
50.0   60.0   16.666666666666668
0.0   60.0   0.0
0.0   30.0   16.666666666666668
50.0   60.0   16.666666666666668
50.0   30.0   16.666666666666668
50.0   30.0   0.0
0.0   30.0   16.666666666666668
50.0   60.0   16.666666666666668
50.0   30.0   0.0
0.0   60.0   0.0
0.0   30.0   16.666666666666668
50.0   30.0   16.666666666666668
0.0   60.0   16.666666666666668
0.0   30.0   33.333333333333336
50.0   30.0   16.666666666666668
50.0   60.0   16.666666666666668
0.0   60.0   16.666666666666668
50.0   60.0   33.333333333333336
0.0   30.0   33.333333333333336
0.0   60.0   33.333333333333336
50.0   60.0   33.333333333333336
0.0   60.0   16.666666666666668
0.0   30.0   33.333333333333336
50.0   60.0   33.333333333333336
50.0   30.0   33.333333333333336
50.0   30.0   16.666666666666668
0.0   30.0   33.333333333333336
50.0   60.0   33.333333333333336
50.0   30.0   16.666666666666668
0.0   60.0   16.666666666666668
0.0   30.0   33.333333333333336
50.0   30.0   33.333333333333336
0.0   60.0   33.333333333333336
0.0   30.0   50.0
50.0   30.0   33.333333333333336
50.0   60.0   33.333333333333336
0.0   60.0   33.333333333333336
50.0   60.0   50.0
0.0   30.0   50.0
0.0   60.0   50.0
50.0   60.0   50.0
0.0   60.0   33.333333333333336
0.0   30.0   50.0
50.0   60.0   50.0
50.0   30.0   50.0
50.0   30.0   33.333333333333336
0.0   30.0   50.0
50.0   60.0   50.0
50.0   30.0   33.333333333333336
0.0   60.0   33.333333333333336
0.0   60.0   0.0
50.0   60.0   0.0
0.0   90.0   0.0
0.0   60.0   16.666666666666668
50.0   60.0   0.0
50.0   90.0   0.0
0.0   90.0   0.0
50.0   90.0   16.666666666666668
0.0   60.0   16.666666666666668
0.0   90.0   16.666666666666668
50.0   90.0   16.666666666666668
0.0   90.0   0.0
0.0   60.0   16.666666666666668
50.0   90.0   16.666666666666668
50.0   60.0   16.666666666666668
50.0   60.0   0.0
0.0   60.0   16.666666666666668
50.0   90.0   16.666666666666668
50.0   60.0   0.0
0.0   90.0   0.0
0.0   60.0   16.666666666666668
50.0   60.0   16.666666666666668
0.0   90.0   16.666666666666668
0.0   60.0   33.333333333333336
50.0   60.0   16.666666666666668
50.0   90.0   16.666666666666668
0.0   90.0   16.666666666666668
50.0   90.0   33.333333333333336
0.0   60.0   33.333333333333336
0.0   90.0   33.333333333333336
50.0   90.0   33.333333333333336
0.0   90.0   16.666666666666668
0.0   60.0   33.333333333333336
50.0   90.0   33.333333333333336
50.0   60.0   33.333333333333336
50.0   60.0   16.666666666666668
0.0   60.0   33.333333333333336
50.0   90.0   33.333333333333336
50.0   60.0   16.666666666666668
0.0   90.0   16.666666666666668
0.0   60.0   33.333333333333336
50.0   60.0   33.333333333333336
0.0   90.0   33.333333333333336
0.0   60.0   50.0
50.0   60.0   33.333333333333336
50.0   90.0   33.333333333333336
0.0   90.0   33.333333333333336
50.0   90.0   50.0
0.0   60.0   50.0
0.0   90.0   50.0
50.0   90.0   50.0
0.0   90.0   33.333333333333336
0.0   60.0   50.0
50.0   90.0   50.0
50.0   60.0   50.0
50.0   60.0   33.333333333333336
0.0   60.0   50.0
50.0   90.0   50.0
50.0   60.0   33.333333333333336
0.0   90.0   33.333333333333336
0.0   90.0   0.0
50.0   90.0   0.0
0.0   120.0   0.0
0.0   90.0   16.666666666666668
50.0   90.0   0.0
50.0   120.0   0.0
0.0   120.0   0.0
50.0   120.0   16.666666666666668
0.0   90.0   16.666666666666668
0.0   120.0   16.666666666666668
50.0   120.0   16.666666666666668
0.0   120.0   0.0
0.0   90.0   16.666666666666668
50.0   120.0   16.666666666666668
50.0   90.0   16.666666666666668
50.0   90.0   0.0
0.0   90.0   16.666666666666668
50.0   120.0   16.666666666666668
50.0   90.0   0.0
0.0   120.0   0.0
0.0   90.0   16.666666666666668
50.0   90.0   16.666666666666668
0.0   120.0   16.666666666666668
0.0   90.0   33.333333333333336
50.0   90.0   16.666666666666668
50.0   120.0   16.666666666666668
0.0   120.0   16.666666666666668
50.0   120.0   33.333333333333336
0.0   90.0   33.333333333333336
0.0   120.0   33.333333333333336
50.0   120.0   33.333333333333336
0.0   120.0   16.666666666666668
0.0   90.0   33.333333333333336
50.0   120.0   33.333333333333336
50.0   90.0   33.333333333333336
50.0   90.0   16.666666666666668
0.0   90.0   33.333333333333336
50.0   120.0   33.333333333333336
50.0   90.0   16.666666666666668
0.0   120.0   16.666666666666668
0.0   90.0   33.333333333333336
50.0   90.0   33.333333333333336
0.0   120.0   33.333333333333336
0.0   90.0   50.0
50.0   90.0   33.333333333333336
50.0   120.0   33.333333333333336
0.0   120.0   33.333333333333336
50.0   120.0   50.0
0.0   90.0   50.0
0.0   120.0   50.0
50.0   120.0   50.0
0.0   120.0   33.333333333333336
0.0   90.0   50.0
50.0   120.0   50.0
50.0   90.0   50.0
50.0   90.0   33.333333333333336
0.0   90.0   50.0
50.0   120.0   50.0
50.0   90.0   33.333333333333336
0.0   120.0   33.333333333333336
0.0   120.0   0.0
50.0   120.0   0.0
0.0   150.0   0.0
0.0   120.0   16.666666666666668
50.0   120.0   0.0
50.0   150.0   0.0
0.0   150.0   0.0
50.0   150.0   16.666666666666668
0.0   120.0   16.666666666666668
0.0   150.0   16.666666666666668
50.0   150.0   16.666666666666668
0.0   150.0   0.0
0.0   120.0   16.666666666666668
50.0   150.0   16.666666666666668
50.0   120.0   16.666666666666668
50.0   120.0   0.0
0.0   120.0   16.666666666666668
50.0   150.0   16.666666666666668
50.0   120.0   0.0
0.0   150.0   0.0
0.0   120.0   16.666666666666668
50.0   120.0   16.666666666666668
0.0   150.0   16.666666666666668
0.0   120.0   33.333333333333336
50.0   120.0   16.666666666666668
50.0   150.0   16.666666666666668
0.0   150.0   16.666666666666668
50.0   150.0   33.333333333333336
0.0   120.0   33.333333333333336
0.0   150.0   33.333333333333336
50.0   150.0   33.333333333333336
0.0   150.0   16.666666666666668
0.0   120.0   33.333333333333336
50.0   150.0   33.333333333333336
50.0   120.0   33.333333333333336
50.0   120.0   16.666666666666668
0.0   120.0   33.333333333333336
50.0   150.0   33.333333333333336
50.0   120.0   16.666666666666668
0.0   150.0   16.666666666666668
0.0   120.0   33.333333333333336
50.0   120.0   33.333333333333336
0.0   150.0   33.333333333333336
0.0   120.0   50.0
50.0   120.0   33.333333333333336
50.0   150.0   33.333333333333336
0.0   150.0   33.333333333333336
50.0   150.0   50.0
0.0   120.0   50.0
0.0   150.0   50.0
50.0   150.0   50.0
0.0   150.0   33.333333333333336
0.0   120.0   50.0
50.0   150.0   50.0
50.0   120.0   50.0
50.0   120.0   33.333333333333336
0.0   120.0   50.0
50.0   150.0   50.0
50.0   120.0   33.333333333333336
0.0   150.0   33.333333333333336
50.0   0.0   0.0
100.0   0.0   0.0
50.0   30.0   0.0
50.0   0.0   16.666666666666668
100.0   0.0   0.0
100.0   30.0   0.0
50.0   30.0   0.0
100.0   30.0   16.666666666666668
50.0   0.0   16.666666666666668
50.0   30.0   16.666666666666668
100.0   30.0   16.666666666666668
50.0   30.0   0.0
50.0   0.0   16.666666666666668
100.0   30.0   16.666666666666668
100.0   0.0   16.666666666666668
100.0   0.0   0.0
50.0   0.0   16.666666666666668
100.0   30.0   16.666666666666668
100.0   0.0   0.0
50.0   30.0   0.0
50.0   0.0   16.666666666666668
100.0   0.0   16.666666666666668
50.0   30.0   16.666666666666668
50.0   0.0   33.333333333333336
100.0   0.0   16.666666666666668
100.0   30.0   16.666666666666668
50.0   30.0   16.666666666666668
100.0   30.0   33.333333333333336
50.0   0.0   33.333333333333336
50.0   30.0   33.333333333333336
100.0   30.0   33.333333333333336
50.0   30.0   16.666666666666668
50.0   0.0   33.333333333333336
100.0   30.0   33.333333333333336
100.0   0.0   33.333333333333336
100.0   0.0   16.666666666666668
50.0   0.0   33.333333333333336
100.0   30.0   33.333333333333336
100.0   0.0   16.666666666666668
50.0   30.0   16.666666666666668
50.0   0.0   33.333333333333336
100.0   0.0   33.333333333333336
50.0   30.0   33.333333333333336
50.0   0.0   50.0
100.0   0.0   33.333333333333336
100.0   30.0   33.333333333333336
50.0   30.0   33.333333333333336
100.0   30.0   50.0
50.0   0.0   50.0
50.0   30.0   50.0
100.0   30.0   50.0
50.0   30.0   33.333333333333336
50.0   0.0   50.0
100.0   30.0   50.0
100.0   0.0   50.0
100.0   0.0   33.333333333333336
50.0   0.0   50.0
100.0   30.0   50.0
100.0   0.0   33.333333333333336
50.0   30.0   33.333333333333336
50.0   30.0   0.0
100.0   30.0   0.0
50.0   60.0   0.0
50.0   30.0   16.666666666666668
100.0   30.0   0.0
100.0   60.0   0.0
50.0   60.0   0.0
100.0   60.0   16.666666666666668
50.0   30.0   16.666666666666668
50.0   60.0   16.666666666666668
100.0   60.0   16.666666666666668
50.0   60.0   0.0
50.0   30.0   16.666666666666668
100.0   60.0   16.666666666666668
100.0   30.0   16.666666666666668
100.0   30.0   0.0
50.0   30.0   16.666666666666668
100.0   60.0   16.666666666666668
100.0   30.0   0.0
50.0   60.0   0.0
50.0   30.0   16.666666666666668
100.0   30.0   16.666666666666668
50.0   60.0   16.666666666666668
50.0   30.0   33.333333333333336
100.0   30.0   16.666666666666668
100.0   60.0   16.666666666666668
50.0   60.0   16.666666666666668
100.0   60.0   33.333333333333336
50.0   30.0   33.333333333333336
50.0   60.0   33.333333333333336
100.0   60.0   33.333333333333336
50.0   60.0   16.666666666666668
50.0   30.0   33.333333333333336
100.0   60.0   33.333333333333336
100.0   30.0   33.333333333333336
100.0   30.0   16.666666666666668
50.0   30.0   33.333333333333336
100.0   60.0   33.333333333333336
100.0   30.0   16.666666666666668
50.0   60.0   16.666666666666668
50.0   30.0   33.333333333333336
100.0   30.0   33.333333333333336
50.0   60.0   33.333333333333336
50.0   30.0   50.0
100.0   30.0   33.333333333333336
100.0   60.0   33.333333333333336
50.0   60.0   33.333333333333336
100.0   60.0   50.0
50.0   30.0   50.0
50.0   60.0   50.0
100.0   60.0   50.0
50.0   60.0   33.333333333333336
50.0   30.0   50.0
100.0   60.0   50.0
100.0   30.0   50.0
100.0   30.0   33.333333333333336
50.0   30.0   50.0
100.0   60.0   50.0
100.0   30.0   33.333333333333336
50.0   60.0   33.333333333333336
50.0   60.0   0.0
100.0   60.0   0.0
50.0   90.0   0.0
50.0   60.0   16.666666666666668
100.0   60.0   0.0
100.0   90.0   0.0
50.0   90.0   0.0
100.0   90.0   16.666666666666668
50.0   60.0   16.666666666666668
50.0   90.0   16.666666666666668
100.0   90.0   16.666666666666668
50.0   90.0   0.0
50.0   60.0   16.666666666666668
100.0   90.0   16.666666666666668
100.0   60.0   16.666666666666668
100.0   60.0   0.0
50.0   60.0   16.666666666666668
100.0   90.0   16.666666666666668
100.0   60.0   0.0
50.0   90.0   0.0
50.0   60.0   16.666666666666668
100.0   60.0   16.666666666666668
50.0   90.0   16.666666666666668
50.0   60.0   33.333333333333336
100.0   60.0   16.666666666666668
100.0   90.0   16.666666666666668
50.0   90.0   16.666666666666668
100.0   90.0   33.333333333333336
50.0   60.0   33.333333333333336
50.0   90.0   33.333333333333336
100.0   90.0   33.333333333333336
50.0   90.0   16.666666666666668
50.0   60.0   33.333333333333336
100.0   90.0   33.333333333333336
100.0   60.0   33.333333333333336
100.0   60.0   16.666666666666668
50.0   60.0   33.333333333333336
100.0   90.0   33.333333333333336
100.0   60.0   16.666666666666668
50.0   90.0   16.666666666666668
50.0   60.0   33.333333333333336
100.0   60.0   33.333333333333336
50.0   90.0   33.333333333333336
50.0   60.0   50.0
100.0   60.0   33.333333333333336
100.0   90.0   33.333333333333336
50.0   90.0   33.333333333333336
100.0   90.0   50.0
50.0   60.0   50.0
50.0   90.0   50.0
100.0   90.0   50.0
50.0   90.0   33.333333333333336
50.0   60.0   50.0
100.0   90.0   50.0
100.0   60.0   50.0
100.0   60.0   33.333333333333336
50.0   60.0   50.0
100.0   90.0   50.0
100.0   60.0   33.333333333333336
50.0   90.0   33.333333333333336
50.0   90.0   0.0
100.0   90.0   0.0
50.0   120.0   0.0
50.0   90.0   16.666666666666668
100.0   90.0   0.0
100.0   120.0   0.0
50.0   120.0   0.0
100.0   120.0   16.666666666666668
50.0   90.0   16.666666666666668
50.0   120.0   16.666666666666668
100.0   120.0   16.666666666666668
50.0   120.0   0.0
50.0   90.0   16.666666666666668
100.0   120.0   16.666666666666668
100.0   90.0   16.666666666666668
100.0   90.0   0.0
50.0   90.0   16.666666666666668
100.0   120.0   16.666666666666668
100.0   90.0   0.0
50.0   120.0   0.0
50.0   90.0   16.666666666666668
100.0   90.0   16.666666666666668
50.0   120.0   16.666666666666668
50.0   90.0   33.333333333333336
100.0   90.0   16.666666666666668
100.0   120.0   16.666666666666668
50.0   120.0   16.666666666666668
100.0   120.0   33.333333333333336
50.0   90.0   33.333333333333336
50.0   120.0   33.333333333333336
100.0   120.0   33.333333333333336
50.0   120.0   16.666666666666668
50.0   90.0   33.333333333333336
100.0   120.0   33.333333333333336
100.0   90.0   33.333333333333336
100.0   90.0   16.666666666666668
50.0   90.0   33.333333333333336
100.0   120.0   33.333333333333336
100.0   90.0   16.666666666666668
50.0   120.0   16.666666666666668
50.0   90.0   33.333333333333336
100.0   90.0   33.333333333333336
50.0   120.0   33.333333333333336
50.0   90.0   50.0
100.0   90.0   33.333333333333336
100.0   120.0   33.333333333333336
50.0   120.0   33.333333333333336
100.0   120.0   50.0
50.0   90.0   50.0
50.0   120.0   50.0
100.0   120.0   50.0
50.0   120.0   33.333333333333336
50.0   90.0   50.0
100.0   120.0   50.0
100.0   90.0   50.0
100.0   90.0   33.333333333333336
50.0   90.0   50.0
100.0   120.0   50.0
100.0   90.0   33.333333333333336
50.0   120.0   33.333333333333336
50.0   120.0   0.0
100.0   120.0   0.0
50.0   150.0   0.0
50.0   120.0   16.666666666666668
100.0   120.0   0.0
100.0   150.0   0.0
50.0   150.0   0.0
100.0   150.0   16.666666666666668
50.0   120.0   16.666666666666668
50.0   150.0   16.666666666666668
100.0   150.0   16.666666666666668
50.0   150.0   0.0
50.0   120.0   16.666666666666668
100.0   150.0   16.666666666666668
100.0   120.0   16.666666666666668
100.0   120.0   0.0
50.0   120.0   16.666666666666668
100.0   150.0   16.666666666666668
100.0   120.0   0.0
50.0   150.0   0.0
50.0   120.0   16.666666666666668
100.0   120.0   16.666666666666668
50.0   150.0   16.666666666666668
50.0   120.0   33.333333333333336
100.0   120.0   16.666666666666668
100.0   150.0   16.666666666666668
50.0   150.0   16.666666666666668
100.0   150.0   33.333333333333336
50.0   120.0   33.333333333333336
50.0   150.0   33.333333333333336
100.0   150.0   33.333333333333336
50.0   150.0   16.666666666666668
50.0   120.0   33.333333333333336
100.0   150.0   33.333333333333336
100.0   120.0   33.333333333333336
100.0   120.0   16.666666666666668
50.0   120.0   33.333333333333336
100.0   150.0   33.333333333333336
100.0   120.0   16.666666666666668
50.0   150.0   16.666666666666668
50.0   120.0   33.333333333333336
100.0   120.0   33.333333333333336
50.0   150.0   33.333333333333336
50.0   120.0   50.0
100.0   120.0   33.333333333333336
100.0   150.0   33.333333333333336
50.0   150.0   33.333333333333336
100.0   150.0   50.0
50.0   120.0   50.0
50.0   150.0   50.0
100.0   150.0   50.0
50.0   150.0   33.333333333333336
50.0   120.0   50.0
100.0   150.0   50.0
100.0   120.0   50.0
100.0   120.0   33.333333333333336
50.0   120.0   50.0
100.0   150.0   50.0
100.0   120.0   33.333333333333336
50.0   150.0   33.333333333333336
100.0   0.0   0.0
150.0   0.0   0.0
100.0   30.0   0.0
100.0   0.0   16.666666666666668
150.0   0.0   0.0
150.0   30.0   0.0
100.0   30.0   0.0
150.0   30.0   16.666666666666668
100.0   0.0   16.666666666666668
100.0   30.0   16.666666666666668
150.0   30.0   16.666666666666668
100.0   30.0   0.0
100.0   0.0   16.666666666666668
150.0   30.0   16.666666666666668
150.0   0.0   16.666666666666668
150.0   0.0   0.0
100.0   0.0   16.666666666666668
150.0   30.0   16.666666666666668
150.0   0.0   0.0
100.0   30.0   0.0
100.0   0.0   16.666666666666668
150.0   0.0   16.666666666666668
100.0   30.0   16.666666666666668
100.0   0.0   33.333333333333336
150.0   0.0   16.666666666666668
150.0   30.0   16.666666666666668
100.0   30.0   16.666666666666668
150.0   30.0   33.333333333333336
100.0   0.0   33.333333333333336
100.0   30.0   33.333333333333336
150.0   30.0   33.333333333333336
100.0   30.0   16.666666666666668
100.0   0.0   33.333333333333336
150.0   30.0   33.333333333333336
150.0   0.0   33.333333333333336
150.0   0.0   16.666666666666668
100.0   0.0   33.333333333333336
150.0   30.0   33.333333333333336
150.0   0.0   16.666666666666668
100.0   30.0   16.666666666666668
100.0   0.0   33.333333333333336
150.0   0.0   33.333333333333336
100.0   30.0   33.333333333333336
100.0   0.0   50.0
150.0   0.0   33.333333333333336
150.0   30.0   33.333333333333336
100.0   30.0   33.333333333333336
150.0   30.0   50.0
100.0   0.0   50.0
100.0   30.0   50.0
150.0   30.0   50.0
100.0   30.0   33.333333333333336
100.0   0.0   50.0
150.0   30.0   50.0
150.0   0.0   50.0
150.0   0.0   33.333333333333336
100.0   0.0   50.0
150.0   30.0   50.0
150.0   0.0   33.333333333333336
100.0   30.0   33.333333333333336
100.0   30.0   0.0
150.0   30.0   0.0
100.0   60.0   0.0
100.0   30.0   16.666666666666668
150.0   30.0   0.0
150.0   60.0   0.0
100.0   60.0   0.0
150.0   60.0   16.666666666666668
100.0   30.0   16.666666666666668
100.0   60.0   16.666666666666668
150.0   60.0   16.666666666666668
100.0   60.0   0.0
100.0   30.0   16.666666666666668
150.0   60.0   16.666666666666668
150.0   30.0   16.666666666666668
150.0   30.0   0.0
100.0   30.0   16.666666666666668
150.0   60.0   16.666666666666668
150.0   30.0   0.0
100.0   60.0   0.0
100.0   30.0   16.666666666666668
150.0   30.0   16.666666666666668
100.0   60.0   16.666666666666668
100.0   30.0   33.333333333333336
150.0   30.0   16.666666666666668
150.0   60.0   16.666666666666668
100.0   60.0   16.666666666666668
150.0   60.0   33.333333333333336
100.0   30.0   33.333333333333336
100.0   60.0   33.333333333333336
150.0   60.0   33.333333333333336
100.0   60.0   16.666666666666668
100.0   30.0   33.333333333333336
150.0   60.0   33.333333333333336
150.0   30.0   33.333333333333336
150.0   30.0   16.666666666666668
100.0   30.0   33.333333333333336
150.0   60.0   33.333333333333336
150.0   30.0   16.666666666666668
100.0   60.0   16.666666666666668
100.0   30.0   33.333333333333336
150.0   30.0   33.333333333333336
100.0   60.0   33.333333333333336
100.0   30.0   50.0
150.0   30.0   33.333333333333336
150.0   60.0   33.333333333333336
100.0   60.0   33.333333333333336
150.0   60.0   50.0
100.0   30.0   50.0
100.0   60.0   50.0
150.0   60.0   50.0
100.0   60.0   33.333333333333336
100.0   30.0   50.0
150.0   60.0   50.0
150.0   30.0   50.0
150.0   30.0   33.333333333333336
100.0   30.0   50.0
150.0   60.0   50.0
150.0   30.0   33.333333333333336
100.0   60.0   33.333333333333336
100.0   60.0   0.0
150.0   60.0   0.0
100.0   90.0   0.0
100.0   60.0   16.666666666666668
150.0   60.0   0.0
150.0   90.0   0.0
100.0   90.0   0.0
150.0   90.0   16.666666666666668
100.0   60.0   16.666666666666668
100.0   90.0   16.666666666666668
150.0   90.0   16.666666666666668
100.0   90.0   0.0
100.0   60.0   16.666666666666668
150.0   90.0   16.666666666666668
150.0   60.0   16.666666666666668
150.0   60.0   0.0
100.0   60.0   16.666666666666668
150.0   90.0   16.666666666666668
150.0   60.0   0.0
100.0   90.0   0.0
100.0   60.0   16.666666666666668
150.0   60.0   16.666666666666668
100.0   90.0   16.666666666666668
100.0   60.0   33.333333333333336
150.0   60.0   16.666666666666668
150.0   90.0   16.666666666666668
100.0   90.0   16.666666666666668
150.0   90.0   33.333333333333336
100.0   60.0   33.333333333333336
100.0   90.0   33.333333333333336
150.0   90.0   33.333333333333336
100.0   90.0   16.666666666666668
100.0   60.0   33.333333333333336
150.0   90.0   33.333333333333336
150.0   60.0   33.333333333333336
150.0   60.0   16.666666666666668
100.0   60.0   33.333333333333336
150.0   90.0   33.333333333333336
150.0   60.0   16.666666666666668
100.0   90.0   16.666666666666668
100.0   60.0   33.333333333333336
150.0   60.0   33.333333333333336
100.0   90.0   33.333333333333336
100.0   60.0   50.0
150.0   60.0   33.333333333333336
150.0   90.0   33.333333333333336
100.0   90.0   33.333333333333336
150.0   90.0   50.0
100.0   60.0   50.0
100.0   90.0   50.0
150.0   90.0   50.0
100.0   90.0   33.333333333333336
100.0   60.0   50.0
150.0   90.0   50.0
150.0   60.0   50.0
150.0   60.0   33.333333333333336
100.0   60.0   50.0
150.0   90.0   50.0
150.0   60.0   33.333333333333336
100.0   90.0   33.333333333333336
100.0   90.0   0.0
150.0   90.0   0.0
100.0   120.0   0.0
100.0   90.0   16.666666666666668
150.0   90.0   0.0
150.0   120.0   0.0
100.0   120.0   0.0
150.0   120.0   16.666666666666668
100.0   90.0   16.666666666666668
100.0   120.0   16.666666666666668
150.0   120.0   16.666666666666668
100.0   120.0   0.0
100.0   90.0   16.666666666666668
150.0   120.0   16.666666666666668
150.0   90.0   16.666666666666668
150.0   90.0   0.0
100.0   90.0   16.666666666666668
150.0   120.0   16.666666666666668
150.0   90.0   0.0
100.0   120.0   0.0
100.0   90.0   16.666666666666668
150.0   90.0   16.666666666666668
100.0   120.0   16.666666666666668
100.0   90.0   33.333333333333336
150.0   90.0   16.666666666666668
150.0   120.0   16.666666666666668
100.0   120.0   16.666666666666668
150.0   120.0   33.333333333333336
100.0   90.0   33.333333333333336
100.0   120.0   33.333333333333336
150.0   120.0   33.333333333333336
100.0   120.0   16.666666666666668
100.0   90.0   33.333333333333336
150.0   120.0   33.333333333333336
150.0   90.0   33.333333333333336
150.0   90.0   16.666666666666668
100.0   90.0   33.333333333333336
150.0   120.0   33.333333333333336
150.0   90.0   16.666666666666668
100.0   120.0   16.666666666666668
100.0   90.0   33.333333333333336
150.0   90.0   33.333333333333336
100.0   120.0   33.333333333333336
100.0   90.0   50.0
150.0   90.0   33.333333333333336
150.0   120.0   33.333333333333336
100.0   120.0   33.333333333333336
150.0   120.0   50.0
100.0   90.0   50.0
100.0   120.0   50.0
150.0   120.0   50.0
100.0   120.0   33.333333333333336
100.0   90.0   50.0
150.0   120.0   50.0
150.0   90.0   50.0
150.0   90.0   33.333333333333336
100.0   90.0   50.0
150.0   120.0   50.0
150.0   90.0   33.333333333333336
100.0   120.0   33.333333333333336
100.0   120.0   0.0
150.0   120.0   0.0
100.0   150.0   0.0
100.0   120.0   16.666666666666668
150.0   120.0   0.0
150.0   150.0   0.0
100.0   150.0   0.0
150.0   150.0   16.666666666666668
100.0   120.0   16.666666666666668
100.0   150.0   16.666666666666668
150.0   150.0   16.666666666666668
100.0   150.0   0.0
100.0   120.0   16.666666666666668
150.0   150.0   16.666666666666668
150.0   120.0   16.666666666666668
150.0   120.0   0.0
100.0   120.0   16.666666666666668
150.0   150.0   16.666666666666668
150.0   120.0   0.0
100.0   150.0   0.0
100.0   120.0   16.666666666666668
150.0   120.0   16.666666666666668
100.0   150.0   16.666666666666668
100.0   120.0   33.333333333333336
150.0   120.0   16.666666666666668
150.0   150.0   16.666666666666668
100.0   150.0   16.666666666666668
150.0   150.0   33.333333333333336
100.0   120.0   33.333333333333336
100.0   150.0   33.333333333333336
150.0   150.0   33.333333333333336
100.0   150.0   16.666666666666668
100.0   120.0   33.333333333333336
150.0   150.0   33.333333333333336
150.0   120.0   33.333333333333336
150.0   120.0   16.666666666666668
100.0   120.0   33.333333333333336
150.0   150.0   33.333333333333336
150.0   120.0   16.666666666666668
100.0   150.0   16.666666666666668
100.0   120.0   33.333333333333336
150.0   120.0   33.333333333333336
100.0   150.0   33.333333333333336
100.0   120.0   50.0
150.0   120.0   33.333333333333336
150.0   150.0   33.333333333333336
100.0   150.0   33.333333333333336
150.0   150.0   50.0
100.0   120.0   50.0
100.0   150.0   50.0
150.0   150.0   50.0
100.0   150.0   33.333333333333336
100.0   120.0   50.0
150.0   150.0   50.0
150.0   120.0   50.0
150.0   120.0   33.333333333333336
100.0   120.0   50.0
150.0   150.0   50.0
150.0   120.0   33.333333333333336
100.0   150.0   33.333333333333336
150.0   0.0   0.0
200.0   0.0   0.0
150.0   30.0   0.0
150.0   0.0   16.666666666666668
200.0   0.0   0.0
200.0   30.0   0.0
150.0   30.0   0.0
200.0   30.0   16.666666666666668
150.0   0.0   16.666666666666668
150.0   30.0   16.666666666666668
200.0   30.0   16.666666666666668
150.0   30.0   0.0
150.0   0.0   16.666666666666668
200.0   30.0   16.666666666666668
200.0   0.0   16.666666666666668
200.0   0.0   0.0
150.0   0.0   16.666666666666668
200.0   30.0   16.666666666666668
200.0   0.0   0.0
150.0   30.0   0.0
150.0   0.0   16.666666666666668
200.0   0.0   16.666666666666668
150.0   30.0   16.666666666666668
150.0   0.0   33.333333333333336
200.0   0.0   16.666666666666668
200.0   30.0   16.666666666666668
150.0   30.0   16.666666666666668
200.0   30.0   33.333333333333336
150.0   0.0   33.333333333333336
150.0   30.0   33.333333333333336
200.0   30.0   33.333333333333336
150.0   30.0   16.666666666666668
150.0   0.0   33.333333333333336
200.0   30.0   33.333333333333336
200.0   0.0   33.333333333333336
200.0   0.0   16.666666666666668
150.0   0.0   33.333333333333336
200.0   30.0   33.333333333333336
200.0   0.0   16.666666666666668
150.0   30.0   16.666666666666668
150.0   0.0   33.333333333333336
200.0   0.0   33.333333333333336
150.0   30.0   33.333333333333336
150.0   0.0   50.0
200.0   0.0   33.333333333333336
200.0   30.0   33.333333333333336
150.0   30.0   33.333333333333336
200.0   30.0   50.0
150.0   0.0   50.0
150.0   30.0   50.0
200.0   30.0   50.0
150.0   30.0   33.333333333333336
150.0   0.0   50.0
200.0   30.0   50.0
200.0   0.0   50.0
200.0   0.0   33.333333333333336
150.0   0.0   50.0
200.0   30.0   50.0
200.0   0.0   33.333333333333336
150.0   30.0   33.333333333333336
150.0   30.0   0.0
200.0   30.0   0.0
150.0   60.0   0.0
150.0   30.0   16.666666666666668
200.0   30.0   0.0
200.0   60.0   0.0
150.0   60.0   0.0
200.0   60.0   16.666666666666668
150.0   30.0   16.666666666666668
150.0   60.0   16.666666666666668
200.0   60.0   16.666666666666668
150.0   60.0   0.0
150.0   30.0   16.666666666666668
200.0   60.0   16.666666666666668
200.0   30.0   16.666666666666668
200.0   30.0   0.0
150.0   30.0   16.666666666666668
200.0   60.0   16.666666666666668
200.0   30.0   0.0
150.0   60.0   0.0
150.0   30.0   16.666666666666668
200.0   30.0   16.666666666666668
150.0   60.0   16.666666666666668
150.0   30.0   33.333333333333336
200.0   30.0   16.666666666666668
200.0   60.0   16.666666666666668
150.0   60.0   16.666666666666668
200.0   60.0   33.333333333333336
150.0   30.0   33.333333333333336
150.0   60.0   33.333333333333336
200.0   60.0   33.333333333333336
150.0   60.0   16.666666666666668
150.0   30.0   33.333333333333336
200.0   60.0   33.333333333333336
200.0   30.0   33.333333333333336
200.0   30.0   16.666666666666668
150.0   30.0   33.333333333333336
200.0   60.0   33.333333333333336
200.0   30.0   16.666666666666668
150.0   60.0   16.666666666666668
150.0   30.0   33.333333333333336
200.0   30.0   33.333333333333336
150.0   60.0   33.333333333333336
150.0   30.0   50.0
200.0   30.0   33.333333333333336
200.0   60.0   33.333333333333336
150.0   60.0   33.333333333333336
200.0   60.0   50.0
150.0   30.0   50.0
150.0   60.0   50.0
200.0   60.0   50.0
150.0   60.0   33.333333333333336
150.0   30.0   50.0
200.0   60.0   50.0
200.0   30.0   50.0
200.0   30.0   33.333333333333336
150.0   30.0   50.0
200.0   60.0   50.0
200.0   30.0   33.333333333333336
150.0   60.0   33.333333333333336
150.0   60.0   0.0
200.0   60.0   0.0
150.0   90.0   0.0
150.0   60.0   16.666666666666668
200.0   60.0   0.0
200.0   90.0   0.0
150.0   90.0   0.0
200.0   90.0   16.666666666666668
150.0   60.0   16.666666666666668
150.0   90.0   16.666666666666668
200.0   90.0   16.666666666666668
150.0   90.0   0.0
150.0   60.0   16.666666666666668
200.0   90.0   16.666666666666668
200.0   60.0   16.666666666666668
200.0   60.0   0.0
150.0   60.0   16.666666666666668
200.0   90.0   16.666666666666668
200.0   60.0   0.0
150.0   90.0   0.0
150.0   60.0   16.666666666666668
200.0   60.0   16.666666666666668
150.0   90.0   16.666666666666668
150.0   60.0   33.333333333333336
200.0   60.0   16.666666666666668
200.0   90.0   16.666666666666668
150.0   90.0   16.666666666666668
200.0   90.0   33.333333333333336
150.0   60.0   33.333333333333336
150.0   90.0   33.333333333333336
200.0   90.0   33.333333333333336
150.0   90.0   16.666666666666668
150.0   60.0   33.333333333333336
200.0   90.0   33.333333333333336
200.0   60.0   33.333333333333336
200.0   60.0   16.666666666666668
150.0   60.0   33.333333333333336
200.0   90.0   33.333333333333336
200.0   60.0   16.666666666666668
150.0   90.0   16.666666666666668
150.0   60.0   33.333333333333336
200.0   60.0   33.333333333333336
150.0   90.0   33.333333333333336
150.0   60.0   50.0
200.0   60.0   33.333333333333336
200.0   90.0   33.333333333333336
150.0   90.0   33.333333333333336
200.0   90.0   50.0
150.0   60.0   50.0
150.0   90.0   50.0
200.0   90.0   50.0
150.0   90.0   33.333333333333336
150.0   60.0   50.0
200.0   90.0   50.0
200.0   60.0   50.0
200.0   60.0   33.333333333333336
150.0   60.0   50.0
200.0   90.0   50.0
200.0   60.0   33.333333333333336
150.0   90.0   33.333333333333336
150.0   90.0   0.0
200.0   90.0   0.0
150.0   120.0   0.0
150.0   90.0   16.666666666666668
200.0   90.0   0.0
200.0   120.0   0.0
150.0   120.0   0.0
200.0   120.0   16.666666666666668
150.0   90.0   16.666666666666668
150.0   120.0   16.666666666666668
200.0   120.0   16.666666666666668
150.0   120.0   0.0
150.0   90.0   16.666666666666668
200.0   120.0   16.666666666666668
200.0   90.0   16.666666666666668
200.0   90.0   0.0
150.0   90.0   16.666666666666668
200.0   120.0   16.666666666666668
200.0   90.0   0.0
150.0   120.0   0.0
150.0   90.0   16.666666666666668
200.0   90.0   16.666666666666668
150.0   120.0   16.666666666666668
150.0   90.0   33.333333333333336
200.0   90.0   16.666666666666668
200.0   120.0   16.666666666666668
150.0   120.0   16.666666666666668
200.0   120.0   33.333333333333336
150.0   90.0   33.333333333333336
150.0   120.0   33.333333333333336
200.0   120.0   33.333333333333336
150.0   120.0   16.666666666666668
150.0   90.0   33.333333333333336
200.0   120.0   33.333333333333336
200.0   90.0   33.333333333333336
200.0   90.0   16.666666666666668
150.0   90.0   33.333333333333336
200.0   120.0   33.333333333333336
200.0   90.0   16.666666666666668
150.0   120.0   16.666666666666668
150.0   90.0   33.333333333333336
200.0   90.0   33.333333333333336
150.0   120.0   33.333333333333336
150.0   90.0   50.0
200.0   90.0   33.333333333333336
200.0   120.0   33.333333333333336
150.0   120.0   33.333333333333336
200.0   120.0   50.0
150.0   90.0   50.0
150.0   120.0   50.0
200.0   120.0   50.0
150.0   120.0   33.333333333333336
150.0   90.0   50.0
200.0   120.0   50.0
200.0   90.0   50.0
200.0   90.0   33.333333333333336
150.0   90.0   50.0
200.0   120.0   50.0
200.0   90.0   33.333333333333336
150.0   120.0   33.333333333333336
150.0   120.0   0.0
200.0   120.0   0.0
150.0   150.0   0.0
150.0   120.0   16.666666666666668
200.0   120.0   0.0
200.0   150.0   0.0
150.0   150.0   0.0
200.0   150.0   16.666666666666668
150.0   120.0   16.666666666666668
150.0   150.0   16.666666666666668
200.0   150.0   16.666666666666668
150.0   150.0   0.0
150.0   120.0   16.666666666666668
200.0   150.0   16.666666666666668
200.0   120.0   16.666666666666668
200.0   120.0   0.0
150.0   120.0   16.666666666666668
200.0   150.0   16.666666666666668
200.0   120.0   0.0
150.0   150.0   0.0
150.0   120.0   16.666666666666668
200.0   120.0   16.666666666666668
150.0   150.0   16.666666666666668
150.0   120.0   33.333333333333336
200.0   120.0   16.666666666666668
200.0   150.0   16.666666666666668
150.0   150.0   16.666666666666668
200.0   150.0   33.333333333333336
150.0   120.0   33.333333333333336
150.0   150.0   33.333333333333336
200.0   150.0   33.333333333333336
150.0   150.0   16.666666666666668
150.0   120.0   33.333333333333336
200.0   150.0   33.333333333333336
200.0   120.0   33.333333333333336
200.0   120.0   16.666666666666668
150.0   120.0   33.333333333333336
200.0   150.0   33.333333333333336
200.0   120.0   16.666666666666668
150.0   150.0   16.666666666666668
150.0   120.0   33.333333333333336
200.0   120.0   33.333333333333336
150.0   150.0   33.333333333333336
150.0   120.0   50.0
200.0   120.0   33.333333333333336
200.0   150.0   33.333333333333336
150.0   150.0   33.333333333333336
200.0   150.0   50.0
150.0   120.0   50.0
150.0   150.0   50.0
200.0   150.0   50.0
150.0   150.0   33.333333333333336
150.0   120.0   50.0
200.0   150.0   50.0
200.0   120.0   50.0
200.0   120.0   33.333333333333336
150.0   120.0   50.0
200.0   150.0   50.0
200.0   120.0   33.333333333333336
150.0   150.0   33.333333333333336
200.0   0.0   0.0
250.0   0.0   0.0
200.0   30.0   0.0
200.0   0.0   16.666666666666668
250.0   0.0   0.0
250.0   30.0   0.0
200.0   30.0   0.0
250.0   30.0   16.666666666666668
200.0   0.0   16.666666666666668
200.0   30.0   16.666666666666668
250.0   30.0   16.666666666666668
200.0   30.0   0.0
200.0   0.0   16.666666666666668
250.0   30.0   16.666666666666668
250.0   0.0   16.666666666666668
250.0   0.0   0.0
200.0   0.0   16.666666666666668
250.0   30.0   16.666666666666668
250.0   0.0   0.0
200.0   30.0   0.0
200.0   0.0   16.666666666666668
250.0   0.0   16.666666666666668
200.0   30.0   16.666666666666668
200.0   0.0   33.333333333333336
250.0   0.0   16.666666666666668
250.0   30.0   16.666666666666668
200.0   30.0   16.666666666666668
250.0   30.0   33.333333333333336
200.0   0.0   33.333333333333336
200.0   30.0   33.333333333333336
250.0   30.0   33.333333333333336
200.0   30.0   16.666666666666668
200.0   0.0   33.333333333333336
250.0   30.0   33.333333333333336
250.0   0.0   33.333333333333336
250.0   0.0   16.666666666666668
200.0   0.0   33.333333333333336
250.0   30.0   33.333333333333336
250.0   0.0   16.666666666666668
200.0   30.0   16.666666666666668
200.0   0.0   33.333333333333336
250.0   0.0   33.333333333333336
200.0   30.0   33.333333333333336
200.0   0.0   50.0
250.0   0.0   33.333333333333336
250.0   30.0   33.333333333333336
200.0   30.0   33.333333333333336
250.0   30.0   50.0
200.0   0.0   50.0
200.0   30.0   50.0
250.0   30.0   50.0
200.0   30.0   33.333333333333336
200.0   0.0   50.0
250.0   30.0   50.0
250.0   0.0   50.0
250.0   0.0   33.333333333333336
200.0   0.0   50.0
250.0   30.0   50.0
250.0   0.0   33.333333333333336
200.0   30.0   33.333333333333336
200.0   30.0   0.0
250.0   30.0   0.0
200.0   60.0   0.0
200.0   30.0   16.666666666666668
250.0   30.0   0.0
250.0   60.0   0.0
200.0   60.0   0.0
250.0   60.0   16.666666666666668
200.0   30.0   16.666666666666668
200.0   60.0   16.666666666666668
250.0   60.0   16.666666666666668
200.0   60.0   0.0
200.0   30.0   16.666666666666668
250.0   60.0   16.666666666666668
250.0   30.0   16.666666666666668
250.0   30.0   0.0
200.0   30.0   16.666666666666668
250.0   60.0   16.666666666666668
250.0   30.0   0.0
200.0   60.0   0.0
200.0   30.0   16.666666666666668
250.0   30.0   16.666666666666668
200.0   60.0   16.666666666666668
200.0   30.0   33.333333333333336
250.0   30.0   16.666666666666668
250.0   60.0   16.666666666666668
200.0   60.0   16.666666666666668
250.0   60.0   33.333333333333336
200.0   30.0   33.333333333333336
200.0   60.0   33.333333333333336
250.0   60.0   33.333333333333336
200.0   60.0   16.666666666666668
200.0   30.0   33.333333333333336
250.0   60.0   33.333333333333336
250.0   30.0   33.333333333333336
250.0   30.0   16.666666666666668
200.0   30.0   33.333333333333336
250.0   60.0   33.333333333333336
250.0   30.0   16.666666666666668
200.0   60.0   16.666666666666668
200.0   30.0   33.333333333333336
250.0   30.0   33.333333333333336
200.0   60.0   33.333333333333336
200.0   30.0   50.0
250.0   30.0   33.333333333333336
250.0   60.0   33.333333333333336
200.0   60.0   33.333333333333336
250.0   60.0   50.0
200.0   30.0   50.0
200.0   60.0   50.0
250.0   60.0   50.0
200.0   60.0   33.333333333333336
200.0   30.0   50.0
250.0   60.0   50.0
250.0   30.0   50.0
250.0   30.0   33.333333333333336
200.0   30.0   50.0
250.0   60.0   50.0
250.0   30.0   33.333333333333336
200.0   60.0   33.333333333333336
200.0   60.0   0.0
250.0   60.0   0.0
200.0   90.0   0.0
200.0   60.0   16.666666666666668
250.0   60.0   0.0
250.0   90.0   0.0
200.0   90.0   0.0
250.0   90.0   16.666666666666668
200.0   60.0   16.666666666666668
200.0   90.0   16.666666666666668
250.0   90.0   16.666666666666668
200.0   90.0   0.0
200.0   60.0   16.666666666666668
250.0   90.0   16.666666666666668
250.0   60.0   16.666666666666668
250.0   60.0   0.0
200.0   60.0   16.666666666666668
250.0   90.0   16.666666666666668
250.0   60.0   0.0
200.0   90.0   0.0
200.0   60.0   16.666666666666668
250.0   60.0   16.666666666666668
200.0   90.0   16.666666666666668
200.0   60.0   33.333333333333336
250.0   60.0   16.666666666666668
250.0   90.0   16.666666666666668
200.0   90.0   16.666666666666668
250.0   90.0   33.333333333333336
200.0   60.0   33.333333333333336
200.0   90.0   33.333333333333336
250.0   90.0   33.333333333333336
200.0   90.0   16.666666666666668
200.0   60.0   33.333333333333336
250.0   90.0   33.333333333333336
250.0   60.0   33.333333333333336
250.0   60.0   16.666666666666668
200.0   60.0   33.333333333333336
250.0   90.0   33.333333333333336
250.0   60.0   16.666666666666668
200.0   90.0   16.666666666666668
200.0   60.0   33.333333333333336
250.0   60.0   33.333333333333336
200.0   90.0   33.333333333333336
200.0   60.0   50.0
250.0   60.0   33.333333333333336
250.0   90.0   33.333333333333336
200.0   90.0   33.333333333333336
250.0   90.0   50.0
200.0   60.0   50.0
200.0   90.0   50.0
250.0   90.0   50.0
200.0   90.0   33.333333333333336
200.0   60.0   50.0
250.0   90.0   50.0
250.0   60.0   50.0
250.0   60.0   33.333333333333336
200.0   60.0   50.0
250.0   90.0   50.0
250.0   60.0   33.333333333333336
200.0   90.0   33.333333333333336
200.0   90.0   0.0
250.0   90.0   0.0
200.0   120.0   0.0
200.0   90.0   16.666666666666668
250.0   90.0   0.0
250.0   120.0   0.0
200.0   120.0   0.0
250.0   120.0   16.666666666666668
200.0   90.0   16.666666666666668
200.0   120.0   16.666666666666668
250.0   120.0   16.666666666666668
200.0   120.0   0.0
200.0   90.0   16.666666666666668
250.0   120.0   16.666666666666668
250.0   90.0   16.666666666666668
250.0   90.0   0.0
200.0   90.0   16.666666666666668
250.0   120.0   16.666666666666668
250.0   90.0   0.0
200.0   120.0   0.0
200.0   90.0   16.666666666666668
250.0   90.0   16.666666666666668
200.0   120.0   16.666666666666668
200.0   90.0   33.333333333333336
250.0   90.0   16.666666666666668
250.0   120.0   16.666666666666668
200.0   120.0   16.666666666666668
250.0   120.0   33.333333333333336
200.0   90.0   33.333333333333336
200.0   120.0   33.333333333333336
250.0   120.0   33.333333333333336
200.0   120.0   16.666666666666668
200.0   90.0   33.333333333333336
250.0   120.0   33.333333333333336
250.0   90.0   33.333333333333336
250.0   90.0   16.666666666666668
200.0   90.0   33.333333333333336
250.0   120.0   33.333333333333336
250.0   90.0   16.666666666666668
200.0   120.0   16.666666666666668
200.0   90.0   33.333333333333336
250.0   90.0   33.333333333333336
200.0   120.0   33.333333333333336
200.0   90.0   50.0
250.0   90.0   33.333333333333336
250.0   120.0   33.333333333333336
200.0   120.0   33.333333333333336
250.0   120.0   50.0
200.0   90.0   50.0
200.0   120.0   50.0
250.0   120.0   50.0
200.0   120.0   33.333333333333336
200.0   90.0   50.0
250.0   120.0   50.0
250.0   90.0   50.0
250.0   90.0   33.333333333333336
200.0   90.0   50.0
250.0   120.0   50.0
250.0   90.0   33.333333333333336
200.0   120.0   33.333333333333336
200.0   120.0   0.0
250.0   120.0   0.0
200.0   150.0   0.0
200.0   120.0   16.666666666666668
250.0   120.0   0.0
250.0   150.0   0.0
200.0   150.0   0.0
250.0   150.0   16.666666666666668
200.0   120.0   16.666666666666668
200.0   150.0   16.666666666666668
250.0   150.0   16.666666666666668
200.0   150.0   0.0
200.0   120.0   16.666666666666668
250.0   150.0   16.666666666666668
250.0   120.0   16.666666666666668
250.0   120.0   0.0
200.0   120.0   16.666666666666668
250.0   150.0   16.666666666666668
250.0   120.0   0.0
200.0   150.0   0.0
200.0   120.0   16.666666666666668
250.0   120.0   16.666666666666668
200.0   150.0   16.666666666666668
200.0   120.0   33.333333333333336
250.0   120.0   16.666666666666668
250.0   150.0   16.666666666666668
200.0   150.0   16.666666666666668
250.0   150.0   33.333333333333336
200.0   120.0   33.333333333333336
200.0   150.0   33.333333333333336
250.0   150.0   33.333333333333336
200.0   150.0   16.666666666666668
200.0   120.0   33.333333333333336
250.0   150.0   33.333333333333336
250.0   120.0   33.333333333333336
250.0   120.0   16.666666666666668
200.0   120.0   33.333333333333336
250.0   150.0   33.333333333333336
250.0   120.0   16.666666666666668
200.0   150.0   16.666666666666668
200.0   120.0   33.333333333333336
250.0   120.0   33.333333333333336
200.0   150.0   33.333333333333336
200.0   120.0   50.0
250.0   120.0   33.333333333333336
250.0   150.0   33.333333333333336
200.0   150.0   33.333333333333336
250.0   150.0   50.0
200.0   120.0   50.0
200.0   150.0   50.0
250.0   150.0   50.0
200.0   150.0   33.333333333333336
200.0   120.0   50.0
250.0   150.0   50.0
250.0   120.0   50.0
250.0   120.0   33.333333333333336
200.0   120.0   50.0
250.0   150.0   50.0
250.0   120.0   33.333333333333336
200.0   150.0   33.333333333333336
250.0   0.0   0.0
300.0   0.0   0.0
250.0   30.0   0.0
250.0   0.0   16.666666666666668
300.0   0.0   0.0
300.0   30.0   0.0
250.0   30.0   0.0
300.0   30.0   16.666666666666668
250.0   0.0   16.666666666666668
250.0   30.0   16.666666666666668
300.0   30.0   16.666666666666668
250.0   30.0   0.0
250.0   0.0   16.666666666666668
300.0   30.0   16.666666666666668
300.0   0.0   16.666666666666668
300.0   0.0   0.0
250.0   0.0   16.666666666666668
300.0   30.0   16.666666666666668
300.0   0.0   0.0
250.0   30.0   0.0
250.0   0.0   16.666666666666668
300.0   0.0   16.666666666666668
250.0   30.0   16.666666666666668
250.0   0.0   33.333333333333336
300.0   0.0   16.666666666666668
300.0   30.0   16.666666666666668
250.0   30.0   16.666666666666668
300.0   30.0   33.333333333333336
250.0   0.0   33.333333333333336
250.0   30.0   33.333333333333336
300.0   30.0   33.333333333333336
250.0   30.0   16.666666666666668
250.0   0.0   33.333333333333336
300.0   30.0   33.333333333333336
300.0   0.0   33.333333333333336
300.0   0.0   16.666666666666668
250.0   0.0   33.333333333333336
300.0   30.0   33.333333333333336
300.0   0.0   16.666666666666668
250.0   30.0   16.666666666666668
250.0   0.0   33.333333333333336
300.0   0.0   33.333333333333336
250.0   30.0   33.333333333333336
250.0   0.0   50.0
300.0   0.0   33.333333333333336
300.0   30.0   33.333333333333336
250.0   30.0   33.333333333333336
300.0   30.0   50.0
250.0   0.0   50.0
250.0   30.0   50.0
300.0   30.0   50.0
250.0   30.0   33.333333333333336
250.0   0.0   50.0
300.0   30.0   50.0
300.0   0.0   50.0
300.0   0.0   33.333333333333336
250.0   0.0   50.0
300.0   30.0   50.0
300.0   0.0   33.333333333333336
250.0   30.0   33.333333333333336
250.0   30.0   0.0
300.0   30.0   0.0
250.0   60.0   0.0
250.0   30.0   16.666666666666668
300.0   30.0   0.0
300.0   60.0   0.0
250.0   60.0   0.0
300.0   60.0   16.666666666666668
250.0   30.0   16.666666666666668
250.0   60.0   16.666666666666668
300.0   60.0   16.666666666666668
250.0   60.0   0.0
250.0   30.0   16.666666666666668
300.0   60.0   16.666666666666668
300.0   30.0   16.666666666666668
300.0   30.0   0.0
250.0   30.0   16.666666666666668
300.0   60.0   16.666666666666668
300.0   30.0   0.0
250.0   60.0   0.0
250.0   30.0   16.666666666666668
300.0   30.0   16.666666666666668
250.0   60.0   16.666666666666668
250.0   30.0   33.333333333333336
300.0   30.0   16.666666666666668
300.0   60.0   16.666666666666668
250.0   60.0   16.666666666666668
300.0   60.0   33.333333333333336
250.0   30.0   33.333333333333336
250.0   60.0   33.333333333333336
300.0   60.0   33.333333333333336
250.0   60.0   16.666666666666668
250.0   30.0   33.333333333333336
300.0   60.0   33.333333333333336
300.0   30.0   33.333333333333336
300.0   30.0   16.666666666666668
250.0   30.0   33.333333333333336
300.0   60.0   33.333333333333336
300.0   30.0   16.666666666666668
250.0   60.0   16.666666666666668
250.0   30.0   33.333333333333336
300.0   30.0   33.333333333333336
250.0   60.0   33.333333333333336
250.0   30.0   50.0
300.0   30.0   33.333333333333336
300.0   60.0   33.333333333333336
250.0   60.0   33.333333333333336
300.0   60.0   50.0
250.0   30.0   50.0
250.0   60.0   50.0
300.0   60.0   50.0
250.0   60.0   33.333333333333336
250.0   30.0   50.0
300.0   60.0   50.0
300.0   30.0   50.0
300.0   30.0   33.333333333333336
250.0   30.0   50.0
300.0   60.0   50.0
300.0   30.0   33.333333333333336
250.0   60.0   33.333333333333336
250.0   60.0   0.0
300.0   60.0   0.0
250.0   90.0   0.0
250.0   60.0   16.666666666666668
300.0   60.0   0.0
300.0   90.0   0.0
250.0   90.0   0.0
300.0   90.0   16.666666666666668
250.0   60.0   16.666666666666668
250.0   90.0   16.666666666666668
300.0   90.0   16.666666666666668
250.0   90.0   0.0
250.0   60.0   16.666666666666668
300.0   90.0   16.666666666666668
300.0   60.0   16.666666666666668
300.0   60.0   0.0
250.0   60.0   16.666666666666668
300.0   90.0   16.666666666666668
300.0   60.0   0.0
250.0   90.0   0.0
250.0   60.0   16.666666666666668
300.0   60.0   16.666666666666668
250.0   90.0   16.666666666666668
250.0   60.0   33.333333333333336
300.0   60.0   16.666666666666668
300.0   90.0   16.666666666666668
250.0   90.0   16.666666666666668
300.0   90.0   33.333333333333336
250.0   60.0   33.333333333333336
250.0   90.0   33.333333333333336
300.0   90.0   33.333333333333336
250.0   90.0   16.666666666666668
250.0   60.0   33.333333333333336
300.0   90.0   33.333333333333336
300.0   60.0   33.333333333333336
300.0   60.0   16.666666666666668
250.0   60.0   33.333333333333336
300.0   90.0   33.333333333333336
300.0   60.0   16.666666666666668
250.0   90.0   16.666666666666668
250.0   60.0   33.333333333333336
300.0   60.0   33.333333333333336
250.0   90.0   33.333333333333336
250.0   60.0   50.0
300.0   60.0   33.333333333333336
300.0   90.0   33.333333333333336
250.0   90.0   33.333333333333336
300.0   90.0   50.0
250.0   60.0   50.0
250.0   90.0   50.0
300.0   90.0   50.0
250.0   90.0   33.333333333333336
250.0   60.0   50.0
300.0   90.0   50.0
300.0   60.0   50.0
300.0   60.0   33.333333333333336
250.0   60.0   50.0
300.0   90.0   50.0
300.0   60.0   33.333333333333336
250.0   90.0   33.333333333333336
250.0   90.0   0.0
300.0   90.0   0.0
250.0   120.0   0.0
250.0   90.0   16.666666666666668
300.0   90.0   0.0
300.0   120.0   0.0
250.0   120.0   0.0
300.0   120.0   16.666666666666668
250.0   90.0   16.666666666666668
250.0   120.0   16.666666666666668
300.0   120.0   16.666666666666668
250.0   120.0   0.0
250.0   90.0   16.666666666666668
300.0   120.0   16.666666666666668
300.0   90.0   16.666666666666668
300.0   90.0   0.0
250.0   90.0   16.666666666666668
300.0   120.0   16.666666666666668
300.0   90.0   0.0
250.0   120.0   0.0
250.0   90.0   16.666666666666668
300.0   90.0   16.666666666666668
250.0   120.0   16.666666666666668
250.0   90.0   33.333333333333336
300.0   90.0   16.666666666666668
300.0   120.0   16.666666666666668
250.0   120.0   16.666666666666668
300.0   120.0   33.333333333333336
250.0   90.0   33.333333333333336
250.0   120.0   33.333333333333336
300.0   120.0   33.333333333333336
250.0   120.0   16.666666666666668
250.0   90.0   33.333333333333336
300.0   120.0   33.333333333333336
300.0   90.0   33.333333333333336
300.0   90.0   16.666666666666668
250.0   90.0   33.333333333333336
300.0   120.0   33.333333333333336
300.0   90.0   16.666666666666668
250.0   120.0   16.666666666666668
250.0   90.0   33.333333333333336
300.0   90.0   33.333333333333336
250.0   120.0   33.333333333333336
250.0   90.0   50.0
300.0   90.0   33.333333333333336
300.0   120.0   33.333333333333336
250.0   120.0   33.333333333333336
300.0   120.0   50.0
250.0   90.0   50.0
250.0   120.0   50.0
300.0   120.0   50.0
250.0   120.0   33.333333333333336
250.0   90.0   50.0
300.0   120.0   50.0
300.0   90.0   50.0
300.0   90.0   33.333333333333336
250.0   90.0   50.0
300.0   120.0   50.0
300.0   90.0   33.333333333333336
250.0   120.0   33.333333333333336
250.0   120.0   0.0
300.0   120.0   0.0
250.0   150.0   0.0
250.0   120.0   16.666666666666668
300.0   120.0   0.0
300.0   150.0   0.0
250.0   150.0   0.0
300.0   150.0   16.666666666666668
250.0   120.0   16.666666666666668
250.0   150.0   16.666666666666668
300.0   150.0   16.666666666666668
250.0   150.0   0.0
250.0   120.0   16.666666666666668
300.0   150.0   16.666666666666668
300.0   120.0   16.666666666666668
300.0   120.0   0.0
250.0   120.0   16.666666666666668
300.0   150.0   16.666666666666668
300.0   120.0   0.0
250.0   150.0   0.0
250.0   120.0   16.666666666666668
300.0   120.0   16.666666666666668
250.0   150.0   16.666666666666668
250.0   120.0   33.333333333333336
300.0   120.0   16.666666666666668
300.0   150.0   16.666666666666668
250.0   150.0   16.666666666666668
300.0   150.0   33.333333333333336
250.0   120.0   33.333333333333336
250.0   150.0   33.333333333333336
300.0   150.0   33.333333333333336
250.0   150.0   16.666666666666668
250.0   120.0   33.333333333333336
300.0   150.0   33.333333333333336
300.0   120.0   33.333333333333336
300.0   120.0   16.666666666666668
250.0   120.0   33.333333333333336
300.0   150.0   33.333333333333336
300.0   120.0   16.666666666666668
250.0   150.0   16.666666666666668
250.0   120.0   33.333333333333336
300.0   120.0   33.333333333333336
250.0   150.0   33.333333333333336
250.0   120.0   50.0
300.0   120.0   33.333333333333336
300.0   150.0   33.333333333333336
250.0   150.0   33.333333333333336
300.0   150.0   50.0
250.0   120.0   50.0
250.0   150.0   50.0
300.0   150.0   50.0
250.0   150.0   33.333333333333336
250.0   120.0   50.0
300.0   150.0   50.0
300.0   120.0   50.0
300.0   120.0   33.333333333333336
250.0   120.0   50.0
300.0   150.0   50.0
300.0   120.0   33.333333333333336
250.0   150.0   33.333333333333336
300.0   0.0   0.0
350.0   0.0   0.0
300.0   30.0   0.0
300.0   0.0   16.666666666666668
350.0   0.0   0.0
350.0   30.0   0.0
300.0   30.0   0.0
350.0   30.0   16.666666666666668
300.0   0.0   16.666666666666668
300.0   30.0   16.666666666666668
350.0   30.0   16.666666666666668
300.0   30.0   0.0
300.0   0.0   16.666666666666668
350.0   30.0   16.666666666666668
350.0   0.0   16.666666666666668
350.0   0.0   0.0
300.0   0.0   16.666666666666668
350.0   30.0   16.666666666666668
350.0   0.0   0.0
300.0   30.0   0.0
300.0   0.0   16.666666666666668
350.0   0.0   16.666666666666668
300.0   30.0   16.666666666666668
300.0   0.0   33.333333333333336
350.0   0.0   16.666666666666668
350.0   30.0   16.666666666666668
300.0   30.0   16.666666666666668
350.0   30.0   33.333333333333336
300.0   0.0   33.333333333333336
300.0   30.0   33.333333333333336
350.0   30.0   33.333333333333336
300.0   30.0   16.666666666666668
300.0   0.0   33.333333333333336
350.0   30.0   33.333333333333336
350.0   0.0   33.333333333333336
350.0   0.0   16.666666666666668
300.0   0.0   33.333333333333336
350.0   30.0   33.333333333333336
350.0   0.0   16.666666666666668
300.0   30.0   16.666666666666668
300.0   0.0   33.333333333333336
350.0   0.0   33.333333333333336
300.0   30.0   33.333333333333336
300.0   0.0   50.0
350.0   0.0   33.333333333333336
350.0   30.0   33.333333333333336
300.0   30.0   33.333333333333336
350.0   30.0   50.0
300.0   0.0   50.0
300.0   30.0   50.0
350.0   30.0   50.0
300.0   30.0   33.333333333333336
300.0   0.0   50.0
350.0   30.0   50.0
350.0   0.0   50.0
350.0   0.0   33.333333333333336
300.0   0.0   50.0
350.0   30.0   50.0
350.0   0.0   33.333333333333336
300.0   30.0   33.333333333333336
300.0   30.0   0.0
350.0   30.0   0.0
300.0   60.0   0.0
300.0   30.0   16.666666666666668
350.0   30.0   0.0
350.0   60.0   0.0
300.0   60.0   0.0
350.0   60.0   16.666666666666668
300.0   30.0   16.666666666666668
300.0   60.0   16.666666666666668
350.0   60.0   16.666666666666668
300.0   60.0   0.0
300.0   30.0   16.666666666666668
350.0   60.0   16.666666666666668
350.0   30.0   16.666666666666668
350.0   30.0   0.0
300.0   30.0   16.666666666666668
350.0   60.0   16.666666666666668
350.0   30.0   0.0
300.0   60.0   0.0
300.0   30.0   16.666666666666668
350.0   30.0   16.666666666666668
300.0   60.0   16.666666666666668
300.0   30.0   33.333333333333336
350.0   30.0   16.666666666666668
350.0   60.0   16.666666666666668
300.0   60.0   16.666666666666668
350.0   60.0   33.333333333333336
300.0   30.0   33.333333333333336
300.0   60.0   33.333333333333336
350.0   60.0   33.333333333333336
300.0   60.0   16.666666666666668
300.0   30.0   33.333333333333336
350.0   60.0   33.333333333333336
350.0   30.0   33.333333333333336
350.0   30.0   16.666666666666668
300.0   30.0   33.333333333333336
350.0   60.0   33.333333333333336
350.0   30.0   16.666666666666668
300.0   60.0   16.666666666666668
300.0   30.0   33.333333333333336
350.0   30.0   33.333333333333336
300.0   60.0   33.333333333333336
300.0   30.0   50.0
350.0   30.0   33.333333333333336
350.0   60.0   33.333333333333336
300.0   60.0   33.333333333333336
350.0   60.0   50.0
300.0   30.0   50.0
300.0   60.0   50.0
350.0   60.0   50.0
300.0   60.0   33.333333333333336
300.0   30.0   50.0
350.0   60.0   50.0
350.0   30.0   50.0
350.0   30.0   33.333333333333336
300.0   30.0   50.0
350.0   60.0   50.0
350.0   30.0   33.333333333333336
300.0   60.0   33.333333333333336
300.0   60.0   0.0
350.0   60.0   0.0
300.0   90.0   0.0
300.0   60.0   16.666666666666668
350.0   60.0   0.0
350.0   90.0   0.0
300.0   90.0   0.0
350.0   90.0   16.666666666666668
300.0   60.0   16.666666666666668
300.0   90.0   16.666666666666668
350.0   90.0   16.666666666666668
300.0   90.0   0.0
300.0   60.0   16.666666666666668
350.0   90.0   16.666666666666668
350.0   60.0   16.666666666666668
350.0   60.0   0.0
300.0   60.0   16.666666666666668
350.0   90.0   16.666666666666668
350.0   60.0   0.0
300.0   90.0   0.0
300.0   60.0   16.666666666666668
350.0   60.0   16.666666666666668
300.0   90.0   16.666666666666668
300.0   60.0   33.333333333333336
350.0   60.0   16.666666666666668
350.0   90.0   16.666666666666668
300.0   90.0   16.666666666666668
350.0   90.0   33.333333333333336
300.0   60.0   33.333333333333336
300.0   90.0   33.333333333333336
350.0   90.0   33.333333333333336
300.0   90.0   16.666666666666668
300.0   60.0   33.333333333333336
350.0   90.0   33.333333333333336
350.0   60.0   33.333333333333336
350.0   60.0   16.666666666666668
300.0   60.0   33.333333333333336
350.0   90.0   33.333333333333336
350.0   60.0   16.666666666666668
300.0   90.0   16.666666666666668
300.0   60.0   33.333333333333336
350.0   60.0   33.333333333333336
300.0   90.0   33.333333333333336
300.0   60.0   50.0
350.0   60.0   33.333333333333336
350.0   90.0   33.333333333333336
300.0   90.0   33.333333333333336
350.0   90.0   50.0
300.0   60.0   50.0
300.0   90.0   50.0
350.0   90.0   50.0
300.0   90.0   33.333333333333336
300.0   60.0   50.0
350.0   90.0   50.0
350.0   60.0   50.0
350.0   60.0   33.333333333333336
300.0   60.0   50.0
350.0   90.0   50.0
350.0   60.0   33.333333333333336
300.0   90.0   33.333333333333336
300.0   90.0   0.0
350.0   90.0   0.0
300.0   120.0   0.0
300.0   90.0   16.666666666666668
350.0   90.0   0.0
350.0   120.0   0.0
300.0   120.0   0.0
350.0   120.0   16.666666666666668
300.0   90.0   16.666666666666668
300.0   120.0   16.666666666666668
350.0   120.0   16.666666666666668
300.0   120.0   0.0
300.0   90.0   16.666666666666668
350.0   120.0   16.666666666666668
350.0   90.0   16.666666666666668
350.0   90.0   0.0
300.0   90.0   16.666666666666668
350.0   120.0   16.666666666666668
350.0   90.0   0.0
300.0   120.0   0.0
300.0   90.0   16.666666666666668
350.0   90.0   16.666666666666668
300.0   120.0   16.666666666666668
300.0   90.0   33.333333333333336
350.0   90.0   16.666666666666668
350.0   120.0   16.666666666666668
300.0   120.0   16.666666666666668
350.0   120.0   33.333333333333336
300.0   90.0   33.333333333333336
300.0   120.0   33.333333333333336
350.0   120.0   33.333333333333336
300.0   120.0   16.666666666666668
300.0   90.0   33.333333333333336
350.0   120.0   33.333333333333336
350.0   90.0   33.333333333333336
350.0   90.0   16.666666666666668
300.0   90.0   33.333333333333336
350.0   120.0   33.333333333333336
350.0   90.0   16.666666666666668
300.0   120.0   16.666666666666668
300.0   90.0   33.333333333333336
350.0   90.0   33.333333333333336
300.0   120.0   33.333333333333336
300.0   90.0   50.0
350.0   90.0   33.333333333333336
350.0   120.0   33.333333333333336
300.0   120.0   33.333333333333336
350.0   120.0   50.0
300.0   90.0   50.0
300.0   120.0   50.0
350.0   120.0   50.0
300.0   120.0   33.333333333333336
300.0   90.0   50.0
350.0   120.0   50.0
350.0   90.0   50.0
350.0   90.0   33.333333333333336
300.0   90.0   50.0
350.0   120.0   50.0
350.0   90.0   33.333333333333336
300.0   120.0   33.333333333333336
300.0   120.0   0.0
350.0   120.0   0.0
300.0   150.0   0.0
300.0   120.0   16.666666666666668
350.0   120.0   0.0
350.0   150.0   0.0
300.0   150.0   0.0
350.0   150.0   16.666666666666668
300.0   120.0   16.666666666666668
300.0   150.0   16.666666666666668
350.0   150.0   16.666666666666668
300.0   150.0   0.0
300.0   120.0   16.666666666666668
350.0   150.0   16.666666666666668
350.0   120.0   16.666666666666668
350.0   120.0   0.0
300.0   120.0   16.666666666666668
350.0   150.0   16.666666666666668
350.0   120.0   0.0
300.0   150.0   0.0
300.0   120.0   16.666666666666668
350.0   120.0   16.666666666666668
300.0   150.0   16.666666666666668
300.0   120.0   33.333333333333336
350.0   120.0   16.666666666666668
350.0   150.0   16.666666666666668
300.0   150.0   16.666666666666668
350.0   150.0   33.333333333333336
300.0   120.0   33.333333333333336
300.0   150.0   33.333333333333336
350.0   150.0   33.333333333333336
300.0   150.0   16.666666666666668
300.0   120.0   33.333333333333336
350.0   150.0   33.333333333333336
350.0   120.0   33.333333333333336
350.0   120.0   16.666666666666668
300.0   120.0   33.333333333333336
350.0   150.0   33.333333333333336
350.0   120.0   16.666666666666668
300.0   150.0   16.666666666666668
300.0   120.0   33.333333333333336
350.0   120.0   33.333333333333336
300.0   150.0   33.333333333333336
300.0   120.0   50.0
350.0   120.0   33.333333333333336
350.0   150.0   33.333333333333336
300.0   150.0   33.333333333333336
350.0   150.0   50.0
300.0   120.0   50.0
300.0   150.0   50.0
350.0   150.0   50.0
300.0   150.0   33.333333333333336
300.0   120.0   50.0
350.0   150.0   50.0
350.0   120.0   50.0
350.0   120.0   33.333333333333336
300.0   120.0   50.0
350.0   150.0   50.0
350.0   120.0   33.333333333333336
300.0   150.0   33.333333333333336
350.0   0.0   0.0
400.0   0.0   0.0
350.0   30.0   0.0
350.0   0.0   16.666666666666668
400.0   0.0   0.0
400.0   30.0   0.0
350.0   30.0   0.0
400.0   30.0   16.666666666666668
350.0   0.0   16.666666666666668
350.0   30.0   16.666666666666668
400.0   30.0   16.666666666666668
350.0   30.0   0.0
350.0   0.0   16.666666666666668
400.0   30.0   16.666666666666668
400.0   0.0   16.666666666666668
400.0   0.0   0.0
350.0   0.0   16.666666666666668
400.0   30.0   16.666666666666668
400.0   0.0   0.0
350.0   30.0   0.0
350.0   0.0   16.666666666666668
400.0   0.0   16.666666666666668
350.0   30.0   16.666666666666668
350.0   0.0   33.333333333333336
400.0   0.0   16.666666666666668
400.0   30.0   16.666666666666668
350.0   30.0   16.666666666666668
400.0   30.0   33.333333333333336
350.0   0.0   33.333333333333336
350.0   30.0   33.333333333333336
400.0   30.0   33.333333333333336
350.0   30.0   16.666666666666668
350.0   0.0   33.333333333333336
400.0   30.0   33.333333333333336
400.0   0.0   33.333333333333336
400.0   0.0   16.666666666666668
350.0   0.0   33.333333333333336
400.0   30.0   33.333333333333336
400.0   0.0   16.666666666666668
350.0   30.0   16.666666666666668
350.0   0.0   33.333333333333336
400.0   0.0   33.333333333333336
350.0   30.0   33.333333333333336
350.0   0.0   50.0
400.0   0.0   33.333333333333336
400.0   30.0   33.333333333333336
350.0   30.0   33.333333333333336
400.0   30.0   50.0
350.0   0.0   50.0
350.0   30.0   50.0
400.0   30.0   50.0
350.0   30.0   33.333333333333336
350.0   0.0   50.0
400.0   30.0   50.0
400.0   0.0   50.0
400.0   0.0   33.333333333333336
350.0   0.0   50.0
400.0   30.0   50.0
400.0   0.0   33.333333333333336
350.0   30.0   33.333333333333336
350.0   30.0   0.0
400.0   30.0   0.0
350.0   60.0   0.0
350.0   30.0   16.666666666666668
400.0   30.0   0.0
400.0   60.0   0.0
350.0   60.0   0.0
400.0   60.0   16.666666666666668
350.0   30.0   16.666666666666668
350.0   60.0   16.666666666666668
400.0   60.0   16.666666666666668
350.0   60.0   0.0
350.0   30.0   16.666666666666668
400.0   60.0   16.666666666666668
400.0   30.0   16.666666666666668
400.0   30.0   0.0
350.0   30.0   16.666666666666668
400.0   60.0   16.666666666666668
400.0   30.0   0.0
350.0   60.0   0.0
350.0   30.0   16.666666666666668
400.0   30.0   16.666666666666668
350.0   60.0   16.666666666666668
350.0   30.0   33.333333333333336
400.0   30.0   16.666666666666668
400.0   60.0   16.666666666666668
350.0   60.0   16.666666666666668
400.0   60.0   33.333333333333336
350.0   30.0   33.333333333333336
350.0   60.0   33.333333333333336
400.0   60.0   33.333333333333336
350.0   60.0   16.666666666666668
350.0   30.0   33.333333333333336
400.0   60.0   33.333333333333336
400.0   30.0   33.333333333333336
400.0   30.0   16.666666666666668
350.0   30.0   33.333333333333336
400.0   60.0   33.333333333333336
400.0   30.0   16.666666666666668
350.0   60.0   16.666666666666668
350.0   30.0   33.333333333333336
400.0   30.0   33.333333333333336
350.0   60.0   33.333333333333336
350.0   30.0   50.0
400.0   30.0   33.333333333333336
400.0   60.0   33.333333333333336
350.0   60.0   33.333333333333336
400.0   60.0   50.0
350.0   30.0   50.0
350.0   60.0   50.0
400.0   60.0   50.0
350.0   60.0   33.333333333333336
350.0   30.0   50.0
400.0   60.0   50.0
400.0   30.0   50.0
400.0   30.0   33.333333333333336
350.0   30.0   50.0
400.0   60.0   50.0
400.0   30.0   33.333333333333336
350.0   60.0   33.333333333333336
350.0   60.0   0.0
400.0   60.0   0.0
350.0   90.0   0.0
350.0   60.0   16.666666666666668
400.0   60.0   0.0
400.0   90.0   0.0
350.0   90.0   0.0
400.0   90.0   16.666666666666668
350.0   60.0   16.666666666666668
350.0   90.0   16.666666666666668
400.0   90.0   16.666666666666668
350.0   90.0   0.0
350.0   60.0   16.666666666666668
400.0   90.0   16.666666666666668
400.0   60.0   16.666666666666668
400.0   60.0   0.0
350.0   60.0   16.666666666666668
400.0   90.0   16.666666666666668
400.0   60.0   0.0
350.0   90.0   0.0
350.0   60.0   16.666666666666668
400.0   60.0   16.666666666666668
350.0   90.0   16.666666666666668
350.0   60.0   33.333333333333336
400.0   60.0   16.666666666666668
400.0   90.0   16.666666666666668
350.0   90.0   16.666666666666668
400.0   90.0   33.333333333333336
350.0   60.0   33.333333333333336
350.0   90.0   33.333333333333336
400.0   90.0   33.333333333333336
350.0   90.0   16.666666666666668
350.0   60.0   33.333333333333336
400.0   90.0   33.333333333333336
400.0   60.0   33.333333333333336
400.0   60.0   16.666666666666668
350.0   60.0   33.333333333333336
400.0   90.0   33.333333333333336
400.0   60.0   16.666666666666668
350.0   90.0   16.666666666666668
350.0   60.0   33.333333333333336
400.0   60.0   33.333333333333336
350.0   90.0   33.333333333333336
350.0   60.0   50.0
400.0   60.0   33.333333333333336
400.0   90.0   33.333333333333336
350.0   90.0   33.333333333333336
400.0   90.0   50.0
350.0   60.0   50.0
350.0   90.0   50.0
400.0   90.0   50.0
350.0   90.0   33.333333333333336
350.0   60.0   50.0
400.0   90.0   50.0
400.0   60.0   50.0
400.0   60.0   33.333333333333336
350.0   60.0   50.0
400.0   90.0   50.0
400.0   60.0   33.333333333333336
350.0   90.0   33.333333333333336
350.0   90.0   0.0
400.0   90.0   0.0
350.0   120.0   0.0
350.0   90.0   16.666666666666668
400.0   90.0   0.0
400.0   120.0   0.0
350.0   120.0   0.0
400.0   120.0   16.666666666666668
350.0   90.0   16.666666666666668
350.0   120.0   16.666666666666668
400.0   120.0   16.666666666666668
350.0   120.0   0.0
350.0   90.0   16.666666666666668
400.0   120.0   16.666666666666668
400.0   90.0   16.666666666666668
400.0   90.0   0.0
350.0   90.0   16.666666666666668
400.0   120.0   16.666666666666668
400.0   90.0   0.0
350.0   120.0   0.0
350.0   90.0   16.666666666666668
400.0   90.0   16.666666666666668
350.0   120.0   16.666666666666668
350.0   90.0   33.333333333333336
400.0   90.0   16.666666666666668
400.0   120.0   16.666666666666668
350.0   120.0   16.666666666666668
400.0   120.0   33.333333333333336
350.0   90.0   33.333333333333336
350.0   120.0   33.333333333333336
400.0   120.0   33.333333333333336
350.0   120.0   16.666666666666668
350.0   90.0   33.333333333333336
400.0   120.0   33.333333333333336
400.0   90.0   33.333333333333336
400.0   90.0   16.666666666666668
350.0   90.0   33.333333333333336
400.0   120.0   33.333333333333336
400.0   90.0   16.666666666666668
350.0   120.0   16.666666666666668
350.0   90.0   33.333333333333336
400.0   90.0   33.333333333333336
350.0   120.0   33.333333333333336
350.0   90.0   50.0
400.0   90.0   33.333333333333336
400.0   120.0   33.333333333333336
350.0   120.0   33.333333333333336
400.0   120.0   50.0
350.0   90.0   50.0
350.0   120.0   50.0
400.0   120.0   50.0
350.0   120.0   33.333333333333336
350.0   90.0   50.0
400.0   120.0   50.0
400.0   90.0   50.0
400.0   90.0   33.333333333333336
350.0   90.0   50.0
400.0   120.0   50.0
400.0   90.0   33.333333333333336
350.0   120.0   33.333333333333336
350.0   120.0   0.0
400.0   120.0   0.0
350.0   150.0   0.0
350.0   120.0   16.666666666666668
400.0   120.0   0.0
400.0   150.0   0.0
350.0   150.0   0.0
400.0   150.0   16.666666666666668
350.0   120.0   16.666666666666668
350.0   150.0   16.666666666666668
400.0   150.0   16.666666666666668
350.0   150.0   0.0
350.0   120.0   16.666666666666668
400.0   150.0   16.666666666666668
400.0   120.0   16.666666666666668
400.0   120.0   0.0
350.0   120.0   16.666666666666668
400.0   150.0   16.666666666666668
400.0   120.0   0.0
350.0   150.0   0.0
350.0   120.0   16.666666666666668
400.0   120.0   16.666666666666668
350.0   150.0   16.666666666666668
350.0   120.0   33.333333333333336
400.0   120.0   16.666666666666668
400.0   150.0   16.666666666666668
350.0   150.0   16.666666666666668
400.0   150.0   33.333333333333336
350.0   120.0   33.333333333333336
350.0   150.0   33.333333333333336
400.0   150.0   33.333333333333336
350.0   150.0   16.666666666666668
350.0   120.0   33.333333333333336
400.0   150.0   33.333333333333336
400.0   120.0   33.333333333333336
400.0   120.0   16.666666666666668
350.0   120.0   33.333333333333336
400.0   150.0   33.333333333333336
400.0   120.0   16.666666666666668
350.0   150.0   16.666666666666668
350.0   120.0   33.333333333333336
400.0   120.0   33.333333333333336
350.0   150.0   33.333333333333336
350.0   120.0   50.0
400.0   120.0   33.333333333333336
400.0   150.0   33.333333333333336
350.0   150.0   33.333333333333336
400.0   150.0   50.0
350.0   120.0   50.0
350.0   150.0   50.0
400.0   150.0   50.0
350.0   150.0   33.333333333333336
350.0   120.0   50.0
400.0   150.0   50.0
400.0   120.0   50.0
400.0   120.0   33.333333333333336
350.0   120.0   50.0
400.0   150.0   50.0
400.0   120.0   33.333333333333336
350.0   150.0   33.333333333333336
400.0   0.0   0.0
450.0   0.0   0.0
400.0   30.0   0.0
400.0   0.0   16.666666666666668
450.0   0.0   0.0
450.0   30.0   0.0
400.0   30.0   0.0
450.0   30.0   16.666666666666668
400.0   0.0   16.666666666666668
400.0   30.0   16.666666666666668
450.0   30.0   16.666666666666668
400.0   30.0   0.0
400.0   0.0   16.666666666666668
450.0   30.0   16.666666666666668
450.0   0.0   16.666666666666668
450.0   0.0   0.0
400.0   0.0   16.666666666666668
450.0   30.0   16.666666666666668
450.0   0.0   0.0
400.0   30.0   0.0
400.0   0.0   16.666666666666668
450.0   0.0   16.666666666666668
400.0   30.0   16.666666666666668
400.0   0.0   33.333333333333336
450.0   0.0   16.666666666666668
450.0   30.0   16.666666666666668
400.0   30.0   16.666666666666668
450.0   30.0   33.333333333333336
400.0   0.0   33.333333333333336
400.0   30.0   33.333333333333336
450.0   30.0   33.333333333333336
400.0   30.0   16.666666666666668
400.0   0.0   33.333333333333336
450.0   30.0   33.333333333333336
450.0   0.0   33.333333333333336
450.0   0.0   16.666666666666668
400.0   0.0   33.333333333333336
450.0   30.0   33.333333333333336
450.0   0.0   16.666666666666668
400.0   30.0   16.666666666666668
400.0   0.0   33.333333333333336
450.0   0.0   33.333333333333336
400.0   30.0   33.333333333333336
400.0   0.0   50.0
450.0   0.0   33.333333333333336
450.0   30.0   33.333333333333336
400.0   30.0   33.333333333333336
450.0   30.0   50.0
400.0   0.0   50.0
400.0   30.0   50.0
450.0   30.0   50.0
400.0   30.0   33.333333333333336
400.0   0.0   50.0
450.0   30.0   50.0
450.0   0.0   50.0
450.0   0.0   33.333333333333336
400.0   0.0   50.0
450.0   30.0   50.0
450.0   0.0   33.333333333333336
400.0   30.0   33.333333333333336
400.0   30.0   0.0
450.0   30.0   0.0
400.0   60.0   0.0
400.0   30.0   16.666666666666668
450.0   30.0   0.0
450.0   60.0   0.0
400.0   60.0   0.0
450.0   60.0   16.666666666666668
400.0   30.0   16.666666666666668
400.0   60.0   16.666666666666668
450.0   60.0   16.666666666666668
400.0   60.0   0.0
400.0   30.0   16.666666666666668
450.0   60.0   16.666666666666668
450.0   30.0   16.666666666666668
450.0   30.0   0.0
400.0   30.0   16.666666666666668
450.0   60.0   16.666666666666668
450.0   30.0   0.0
400.0   60.0   0.0
400.0   30.0   16.666666666666668
450.0   30.0   16.666666666666668
400.0   60.0   16.666666666666668
400.0   30.0   33.333333333333336
450.0   30.0   16.666666666666668
450.0   60.0   16.666666666666668
400.0   60.0   16.666666666666668
450.0   60.0   33.333333333333336
400.0   30.0   33.333333333333336
400.0   60.0   33.333333333333336
450.0   60.0   33.333333333333336
400.0   60.0   16.666666666666668
400.0   30.0   33.333333333333336
450.0   60.0   33.333333333333336
450.0   30.0   33.333333333333336
450.0   30.0   16.666666666666668
400.0   30.0   33.333333333333336
450.0   60.0   33.333333333333336
450.0   30.0   16.666666666666668
400.0   60.0   16.666666666666668
400.0   30.0   33.333333333333336
450.0   30.0   33.333333333333336
400.0   60.0   33.333333333333336
400.0   30.0   50.0
450.0   30.0   33.333333333333336
450.0   60.0   33.333333333333336
400.0   60.0   33.333333333333336
450.0   60.0   50.0
400.0   30.0   50.0
400.0   60.0   50.0
450.0   60.0   50.0
400.0   60.0   33.333333333333336
400.0   30.0   50.0
450.0   60.0   50.0
450.0   30.0   50.0
450.0   30.0   33.333333333333336
400.0   30.0   50.0
450.0   60.0   50.0
450.0   30.0   33.333333333333336
400.0   60.0   33.333333333333336
400.0   60.0   0.0
450.0   60.0   0.0
400.0   90.0   0.0
400.0   60.0   16.666666666666668
450.0   60.0   0.0
450.0   90.0   0.0
400.0   90.0   0.0
450.0   90.0   16.666666666666668
400.0   60.0   16.666666666666668
400.0   90.0   16.666666666666668
450.0   90.0   16.666666666666668
400.0   90.0   0.0
400.0   60.0   16.666666666666668
450.0   90.0   16.666666666666668
450.0   60.0   16.666666666666668
450.0   60.0   0.0
400.0   60.0   16.666666666666668
450.0   90.0   16.666666666666668
450.0   60.0   0.0
400.0   90.0   0.0
400.0   60.0   16.666666666666668
450.0   60.0   16.666666666666668
400.0   90.0   16.666666666666668
400.0   60.0   33.333333333333336
450.0   60.0   16.666666666666668
450.0   90.0   16.666666666666668
400.0   90.0   16.666666666666668
450.0   90.0   33.333333333333336
400.0   60.0   33.333333333333336
400.0   90.0   33.333333333333336
450.0   90.0   33.333333333333336
400.0   90.0   16.666666666666668
400.0   60.0   33.333333333333336
450.0   90.0   33.333333333333336
450.0   60.0   33.333333333333336
450.0   60.0   16.666666666666668
400.0   60.0   33.333333333333336
450.0   90.0   33.333333333333336
450.0   60.0   16.666666666666668
400.0   90.0   16.666666666666668
400.0   60.0   33.333333333333336
450.0   60.0   33.333333333333336
400.0   90.0   33.333333333333336
400.0   60.0   50.0
450.0   60.0   33.333333333333336
450.0   90.0   33.333333333333336
400.0   90.0   33.333333333333336
450.0   90.0   50.0
400.0   60.0   50.0
400.0   90.0   50.0
450.0   90.0   50.0
400.0   90.0   33.333333333333336
400.0   60.0   50.0
450.0   90.0   50.0
450.0   60.0   50.0
450.0   60.0   33.333333333333336
400.0   60.0   50.0
450.0   90.0   50.0
450.0   60.0   33.333333333333336
400.0   90.0   33.333333333333336
400.0   90.0   0.0
450.0   90.0   0.0
400.0   120.0   0.0
400.0   90.0   16.666666666666668
450.0   90.0   0.0
450.0   120.0   0.0
400.0   120.0   0.0
450.0   120.0   16.666666666666668
400.0   90.0   16.666666666666668
400.0   120.0   16.666666666666668
450.0   120.0   16.666666666666668
400.0   120.0   0.0
400.0   90.0   16.666666666666668
450.0   120.0   16.666666666666668
450.0   90.0   16.666666666666668
450.0   90.0   0.0
400.0   90.0   16.666666666666668
450.0   120.0   16.666666666666668
450.0   90.0   0.0
400.0   120.0   0.0
400.0   90.0   16.666666666666668
450.0   90.0   16.666666666666668
400.0   120.0   16.666666666666668
400.0   90.0   33.333333333333336
450.0   90.0   16.666666666666668
450.0   120.0   16.666666666666668
400.0   120.0   16.666666666666668
450.0   120.0   33.333333333333336
400.0   90.0   33.333333333333336
400.0   120.0   33.333333333333336
450.0   120.0   33.333333333333336
400.0   120.0   16.666666666666668
400.0   90.0   33.333333333333336
450.0   120.0   33.333333333333336
450.0   90.0   33.333333333333336
450.0   90.0   16.666666666666668
400.0   90.0   33.333333333333336
450.0   120.0   33.333333333333336
450.0   90.0   16.666666666666668
400.0   120.0   16.666666666666668
400.0   90.0   33.333333333333336
450.0   90.0   33.333333333333336
400.0   120.0   33.333333333333336
400.0   90.0   50.0
450.0   90.0   33.333333333333336
450.0   120.0   33.333333333333336
400.0   120.0   33.333333333333336
450.0   120.0   50.0
400.0   90.0   50.0
400.0   120.0   50.0
450.0   120.0   50.0
400.0   120.0   33.333333333333336
400.0   90.0   50.0
450.0   120.0   50.0
450.0   90.0   50.0
450.0   90.0   33.333333333333336
400.0   90.0   50.0
450.0   120.0   50.0
450.0   90.0   33.333333333333336
400.0   120.0   33.333333333333336
400.0   120.0   0.0
450.0   120.0   0.0
400.0   150.0   0.0
400.0   120.0   16.666666666666668
450.0   120.0   0.0
450.0   150.0   0.0
400.0   150.0   0.0
450.0   150.0   16.666666666666668
400.0   120.0   16.666666666666668
400.0   150.0   16.666666666666668
450.0   150.0   16.666666666666668
400.0   150.0   0.0
400.0   120.0   16.666666666666668
450.0   150.0   16.666666666666668
450.0   120.0   16.666666666666668
450.0   120.0   0.0
400.0   120.0   16.666666666666668
450.0   150.0   16.666666666666668
450.0   120.0   0.0
400.0   150.0   0.0
400.0   120.0   16.666666666666668
450.0   120.0   16.666666666666668
400.0   150.0   16.666666666666668
400.0   120.0   33.333333333333336
450.0   120.0   16.666666666666668
450.0   150.0   16.666666666666668
400.0   150.0   16.666666666666668
450.0   150.0   33.333333333333336
400.0   120.0   33.333333333333336
400.0   150.0   33.333333333333336
450.0   150.0   33.333333333333336
400.0   150.0   16.666666666666668
400.0   120.0   33.333333333333336
450.0   150.0   33.333333333333336
450.0   120.0   33.333333333333336
450.0   120.0   16.666666666666668
400.0   120.0   33.333333333333336
450.0   150.0   33.333333333333336
450.0   120.0   16.666666666666668
400.0   150.0   16.666666666666668
400.0   120.0   33.333333333333336
450.0   120.0   33.333333333333336
400.0   150.0   33.333333333333336
400.0   120.0   50.0
450.0   120.0   33.333333333333336
450.0   150.0   33.333333333333336
400.0   150.0   33.333333333333336
450.0   150.0   50.0
400.0   120.0   50.0
400.0   150.0   50.0
450.0   150.0   50.0
400.0   150.0   33.333333333333336
400.0   120.0   50.0
450.0   150.0   50.0
450.0   120.0   50.0
450.0   120.0   33.333333333333336
400.0   120.0   50.0
450.0   150.0   50.0
450.0   120.0   33.333333333333336
400.0   150.0   33.333333333333336
450.0   0.0   0.0
500.0   0.0   0.0
450.0   30.0   0.0
450.0   0.0   16.666666666666668
500.0   0.0   0.0
500.0   30.0   0.0
450.0   30.0   0.0
500.0   30.0   16.666666666666668
450.0   0.0   16.666666666666668
450.0   30.0   16.666666666666668
500.0   30.0   16.666666666666668
450.0   30.0   0.0
450.0   0.0   16.666666666666668
500.0   30.0   16.666666666666668
500.0   0.0   16.666666666666668
500.0   0.0   0.0
450.0   0.0   16.666666666666668
500.0   30.0   16.666666666666668
500.0   0.0   0.0
450.0   30.0   0.0
450.0   0.0   16.666666666666668
500.0   0.0   16.666666666666668
450.0   30.0   16.666666666666668
450.0   0.0   33.333333333333336
500.0   0.0   16.666666666666668
500.0   30.0   16.666666666666668
450.0   30.0   16.666666666666668
500.0   30.0   33.333333333333336
450.0   0.0   33.333333333333336
450.0   30.0   33.333333333333336
500.0   30.0   33.333333333333336
450.0   30.0   16.666666666666668
450.0   0.0   33.333333333333336
500.0   30.0   33.333333333333336
500.0   0.0   33.333333333333336
500.0   0.0   16.666666666666668
450.0   0.0   33.333333333333336
500.0   30.0   33.333333333333336
500.0   0.0   16.666666666666668
450.0   30.0   16.666666666666668
450.0   0.0   33.333333333333336
500.0   0.0   33.333333333333336
450.0   30.0   33.333333333333336
450.0   0.0   50.0
500.0   0.0   33.333333333333336
500.0   30.0   33.333333333333336
450.0   30.0   33.333333333333336
500.0   30.0   50.0
450.0   0.0   50.0
450.0   30.0   50.0
500.0   30.0   50.0
450.0   30.0   33.333333333333336
450.0   0.0   50.0
500.0   30.0   50.0
500.0   0.0   50.0
500.0   0.0   33.333333333333336
450.0   0.0   50.0
500.0   30.0   50.0
500.0   0.0   33.333333333333336
450.0   30.0   33.333333333333336
450.0   30.0   0.0
500.0   30.0   0.0
450.0   60.0   0.0
450.0   30.0   16.666666666666668
500.0   30.0   0.0
500.0   60.0   0.0
450.0   60.0   0.0
500.0   60.0   16.666666666666668
450.0   30.0   16.666666666666668
450.0   60.0   16.666666666666668
500.0   60.0   16.666666666666668
450.0   60.0   0.0
450.0   30.0   16.666666666666668
500.0   60.0   16.666666666666668
500.0   30.0   16.666666666666668
500.0   30.0   0.0
450.0   30.0   16.666666666666668
500.0   60.0   16.666666666666668
500.0   30.0   0.0
450.0   60.0   0.0
450.0   30.0   16.666666666666668
500.0   30.0   16.666666666666668
450.0   60.0   16.666666666666668
450.0   30.0   33.333333333333336
500.0   30.0   16.666666666666668
500.0   60.0   16.666666666666668
450.0   60.0   16.666666666666668
500.0   60.0   33.333333333333336
450.0   30.0   33.333333333333336
450.0   60.0   33.333333333333336
500.0   60.0   33.333333333333336
450.0   60.0   16.666666666666668
450.0   30.0   33.333333333333336
500.0   60.0   33.333333333333336
500.0   30.0   33.333333333333336
500.0   30.0   16.666666666666668
450.0   30.0   33.333333333333336
500.0   60.0   33.333333333333336
500.0   30.0   16.666666666666668
450.0   60.0   16.666666666666668
450.0   30.0   33.333333333333336
500.0   30.0   33.333333333333336
450.0   60.0   33.333333333333336
450.0   30.0   50.0
500.0   30.0   33.333333333333336
500.0   60.0   33.333333333333336
450.0   60.0   33.333333333333336
500.0   60.0   50.0
450.0   30.0   50.0
450.0   60.0   50.0
500.0   60.0   50.0
450.0   60.0   33.333333333333336
450.0   30.0   50.0
500.0   60.0   50.0
500.0   30.0   50.0
500.0   30.0   33.333333333333336
450.0   30.0   50.0
500.0   60.0   50.0
500.0   30.0   33.333333333333336
450.0   60.0   33.333333333333336
450.0   60.0   0.0
500.0   60.0   0.0
450.0   90.0   0.0
450.0   60.0   16.666666666666668
500.0   60.0   0.0
500.0   90.0   0.0
450.0   90.0   0.0
500.0   90.0   16.666666666666668
450.0   60.0   16.666666666666668
450.0   90.0   16.666666666666668
500.0   90.0   16.666666666666668
450.0   90.0   0.0
450.0   60.0   16.666666666666668
500.0   90.0   16.666666666666668
500.0   60.0   16.666666666666668
500.0   60.0   0.0
450.0   60.0   16.666666666666668
500.0   90.0   16.666666666666668
500.0   60.0   0.0
450.0   90.0   0.0
450.0   60.0   16.666666666666668
500.0   60.0   16.666666666666668
450.0   90.0   16.666666666666668
450.0   60.0   33.333333333333336
500.0   60.0   16.666666666666668
500.0   90.0   16.666666666666668
450.0   90.0   16.666666666666668
500.0   90.0   33.333333333333336
450.0   60.0   33.333333333333336
450.0   90.0   33.333333333333336
500.0   90.0   33.333333333333336
450.0   90.0   16.666666666666668
450.0   60.0   33.333333333333336
500.0   90.0   33.333333333333336
500.0   60.0   33.333333333333336
500.0   60.0   16.666666666666668
450.0   60.0   33.333333333333336
500.0   90.0   33.333333333333336
500.0   60.0   16.666666666666668
450.0   90.0   16.666666666666668
450.0   60.0   33.333333333333336
500.0   60.0   33.333333333333336
450.0   90.0   33.333333333333336
450.0   60.0   50.0
500.0   60.0   33.333333333333336
500.0   90.0   33.333333333333336
450.0   90.0   33.333333333333336
500.0   90.0   50.0
450.0   60.0   50.0
450.0   90.0   50.0
500.0   90.0   50.0
450.0   90.0   33.333333333333336
450.0   60.0   50.0
500.0   90.0   50.0
500.0   60.0   50.0
500.0   60.0   33.333333333333336
450.0   60.0   50.0
500.0   90.0   50.0
500.0   60.0   33.333333333333336
450.0   90.0   33.333333333333336
450.0   90.0   0.0
500.0   90.0   0.0
450.0   120.0   0.0
450.0   90.0   16.666666666666668
500.0   90.0   0.0
500.0   120.0   0.0
450.0   120.0   0.0
500.0   120.0   16.666666666666668
450.0   90.0   16.666666666666668
450.0   120.0   16.666666666666668
500.0   120.0   16.666666666666668
450.0   120.0   0.0
450.0   90.0   16.666666666666668
500.0   120.0   16.666666666666668
500.0   90.0   16.666666666666668
500.0   90.0   0.0
450.0   90.0   16.666666666666668
500.0   120.0   16.666666666666668
500.0   90.0   0.0
450.0   120.0   0.0
450.0   90.0   16.666666666666668
500.0   90.0   16.666666666666668
450.0   120.0   16.666666666666668
450.0   90.0   33.333333333333336
500.0   90.0   16.666666666666668
500.0   120.0   16.666666666666668
450.0   120.0   16.666666666666668
500.0   120.0   33.333333333333336
450.0   90.0   33.333333333333336
450.0   120.0   33.333333333333336
500.0   120.0   33.333333333333336
450.0   120.0   16.666666666666668
450.0   90.0   33.333333333333336
500.0   120.0   33.333333333333336
500.0   90.0   33.333333333333336
500.0   90.0   16.666666666666668
450.0   90.0   33.333333333333336
500.0   120.0   33.333333333333336
500.0   90.0   16.666666666666668
450.0   120.0   16.666666666666668
450.0   90.0   33.333333333333336
500.0   90.0   33.333333333333336
450.0   120.0   33.333333333333336
450.0   90.0   50.0
500.0   90.0   33.333333333333336
500.0   120.0   33.333333333333336
450.0   120.0   33.333333333333336
500.0   120.0   50.0
450.0   90.0   50.0
450.0   120.0   50.0
500.0   120.0   50.0
450.0   120.0   33.333333333333336
450.0   90.0   50.0
500.0   120.0   50.0
500.0   90.0   50.0
500.0   90.0   33.333333333333336
450.0   90.0   50.0
500.0   120.0   50.0
500.0   90.0   33.333333333333336
450.0   120.0   33.333333333333336
450.0   120.0   0.0
500.0   120.0   0.0
450.0   150.0   0.0
450.0   120.0   16.666666666666668
500.0   120.0   0.0
500.0   150.0   0.0
450.0   150.0   0.0
500.0   150.0   16.666666666666668
450.0   120.0   16.666666666666668
450.0   150.0   16.666666666666668
500.0   150.0   16.666666666666668
450.0   150.0   0.0
450.0   120.0   16.666666666666668
500.0   150.0   16.666666666666668
500.0   120.0   16.666666666666668
500.0   120.0   0.0
450.0   120.0   16.666666666666668
500.0   150.0   16.666666666666668
500.0   120.0   0.0
450.0   150.0   0.0
450.0   120.0   16.666666666666668
500.0   120.0   16.666666666666668
450.0   150.0   16.666666666666668
450.0   120.0   33.333333333333336
500.0   120.0   16.666666666666668
500.0   150.0   16.666666666666668
450.0   150.0   16.666666666666668
500.0   150.0   33.333333333333336
450.0   120.0   33.333333333333336
450.0   150.0   33.333333333333336
500.0   150.0   33.333333333333336
450.0   150.0   16.666666666666668
450.0   120.0   33.333333333333336
500.0   150.0   33.333333333333336
500.0   120.0   33.333333333333336
500.0   120.0   16.666666666666668
450.0   120.0   33.333333333333336
500.0   150.0   33.333333333333336
500.0   120.0   16.666666666666668
450.0   150.0   16.666666666666668
450.0   120.0   33.333333333333336
500.0   120.0   33.333333333333336
450.0   150.0   33.333333333333336
450.0   120.0   50.0
500.0   120.0   33.333333333333336
500.0   150.0   33.333333333333336
450.0   150.0   33.333333333333336
500.0   150.0   50.0
450.0   120.0   50.0
450.0   150.0   50.0
500.0   150.0   50.0
450.0   150.0   33.333333333333336
450.0   120.0   50.0
500.0   150.0   50.0
500.0   120.0   50.0
500.0   120.0   33.333333333333336
450.0   120.0   50.0
500.0   150.0   50.0
500.0   120.0   33.333333333333336
450.0   150.0   33.333333333333336
             </DataArray>   
          </Points>  
          <Cells>  
             <DataArray type="Int32" Name="connectivity" format="ascii">   
0   1   2   3
4   5   6   7
8   9   10   11
12   13   14   15
16   17   18   19
20   21   22   23
24   25   26   27
28   29   30   31
32   33   34   35
36   37   38   39
40   41   42   43
44   45   46   47
48   49   50   51
52   53   54   55
56   57   58   59
60   61   62   63
64   65   66   67
68   69   70   71
72   73   74   75
76   77   78   79
80   81   82   83
84   85   86   87
88   89   90   91
92   93   94   95
96   97   98   99
100   101   102   103
104   105   106   107
108   109   110   111
112   113   114   115
116   117   118   119
120   121   122   123
124   125   126   127
128   129   130   131
132   133   134   135
136   137   138   139
140   141   142   143
144   145   146   147
148   149   150   151
152   153   154   155
156   157   158   159
160   161   162   163
164   165   166   167
168   169   170   171
172   173   174   175
176   177   178   179
180   181   182   183
184   185   186   187
188   189   190   191
192   193   194   195
196   197   198   199
200   201   202   203
204   205   206   207
208   209   210   211
212   213   214   215
216   217   218   219
220   221   222   223
224   225   226   227
228   229   230   231
232   233   234   235
236   237   238   239
240   241   242   243
244   245   246   247
248   249   250   251
252   253   254   255
256   257   258   259
260   261   262   263
264   265   266   267
268   269   270   271
272   273   274   275
276   277   278   279
280   281   282   283
284   285   286   287
288   289   290   291
292   293   294   295
296   297   298   299
300   301   302   303
304   305   306   307
308   309   310   311
312   313   314   315
316   317   318   319
320   321   322   323
324   325   326   327
328   329   330   331
332   333   334   335
336   337   338   339
340   341   342   343
344   345   346   347
348   349   350   351
352   353   354   355
356   357   358   359
360   361   362   363
364   365   366   367
368   369   370   371
372   373   374   375
376   377   378   379
380   381   382   383
384   385   386   387
388   389   390   391
392   393   394   395
396   397   398   399
400   401   402   403
404   405   406   407
408   409   410   411
412   413   414   415
416   417   418   419
420   421   422   423
424   425   426   427
428   429   430   431
432   433   434   435
436   437   438   439
440   441   442   443
444   445   446   447
448   449   450   451
452   453   454   455
456   457   458   459
460   461   462   463
464   465   466   467
468   469   470   471
472   473   474   475
476   477   478   479
480   481   482   483
484   485   486   487
488   489   490   491
492   493   494   495
496   497   498   499
500   501   502   503
504   505   506   507
508   509   510   511
512   513   514   515
516   517   518   519
520   521   522   523
524   525   526   527
528   529   530   531
532   533   534   535
536   537   538   539
540   541   542   543
544   545   546   547
548   549   550   551
552   553   554   555
556   557   558   559
560   561   562   563
564   565   566   567
568   569   570   571
572   573   574   575
576   577   578   579
580   581   582   583
584   585   586   587
588   589   590   591
592   593   594   595
596   597   598   599
600   601   602   603
604   605   606   607
608   609   610   611
612   613   614   615
616   617   618   619
620   621   622   623
624   625   626   627
628   629   630   631
632   633   634   635
636   637   638   639
640   641   642   643
644   645   646   647
648   649   650   651
652   653   654   655
656   657   658   659
660   661   662   663
664   665   666   667
668   669   670   671
672   673   674   675
676   677   678   679
680   681   682   683
684   685   686   687
688   689   690   691
692   693   694   695
696   697   698   699
700   701   702   703
704   705   706   707
708   709   710   711
712   713   714   715
716   717   718   719
720   721   722   723
724   725   726   727
728   729   730   731
732   733   734   735
736   737   738   739
740   741   742   743
744   745   746   747
748   749   750   751
752   753   754   755
756   757   758   759
760   761   762   763
764   765   766   767
768   769   770   771
772   773   774   775
776   777   778   779
780   781   782   783
784   785   786   787
788   789   790   791
792   793   794   795
796   797   798   799
800   801   802   803
804   805   806   807
808   809   810   811
812   813   814   815
816   817   818   819
820   821   822   823
824   825   826   827
828   829   830   831
832   833   834   835
836   837   838   839
840   841   842   843
844   845   846   847
848   849   850   851
852   853   854   855
856   857   858   859
860   861   862   863
864   865   866   867
868   869   870   871
872   873   874   875
876   877   878   879
880   881   882   883
884   885   886   887
888   889   890   891
892   893   894   895
896   897   898   899
900   901   902   903
904   905   906   907
908   909   910   911
912   913   914   915
916   917   918   919
920   921   922   923
924   925   926   927
928   929   930   931
932   933   934   935
936   937   938   939
940   941   942   943
944   945   946   947
948   949   950   951
952   953   954   955
956   957   958   959
960   961   962   963
964   965   966   967
968   969   970   971
972   973   974   975
976   977   978   979
980   981   982   983
984   985   986   987
988   989   990   991
992   993   994   995
996   997   998   999
1000   1001   1002   1003
1004   1005   1006   1007
1008   1009   1010   1011
1012   1013   1014   1015
1016   1017   1018   1019
1020   1021   1022   1023
1024   1025   1026   1027
1028   1029   1030   1031
1032   1033   1034   1035
1036   1037   1038   1039
1040   1041   1042   1043
1044   1045   1046   1047
1048   1049   1050   1051
1052   1053   1054   1055
1056   1057   1058   1059
1060   1061   1062   1063
1064   1065   1066   1067
1068   1069   1070   1071
1072   1073   1074   1075
1076   1077   1078   1079
1080   1081   1082   1083
1084   1085   1086   1087
1088   1089   1090   1091
1092   1093   1094   1095
1096   1097   1098   1099
1100   1101   1102   1103
1104   1105   1106   1107
1108   1109   1110   1111
1112   1113   1114   1115
1116   1117   1118   1119
1120   1121   1122   1123
1124   1125   1126   1127
1128   1129   1130   1131
1132   1133   1134   1135
1136   1137   1138   1139
1140   1141   1142   1143
1144   1145   1146   1147
1148   1149   1150   1151
1152   1153   1154   1155
1156   1157   1158   1159
1160   1161   1162   1163
1164   1165   1166   1167
1168   1169   1170   1171
1172   1173   1174   1175
1176   1177   1178   1179
1180   1181   1182   1183
1184   1185   1186   1187
1188   1189   1190   1191
1192   1193   1194   1195
1196   1197   1198   1199
1200   1201   1202   1203
1204   1205   1206   1207
1208   1209   1210   1211
1212   1213   1214   1215
1216   1217   1218   1219
1220   1221   1222   1223
1224   1225   1226   1227
1228   1229   1230   1231
1232   1233   1234   1235
1236   1237   1238   1239
1240   1241   1242   1243
1244   1245   1246   1247
1248   1249   1250   1251
1252   1253   1254   1255
1256   1257   1258   1259
1260   1261   1262   1263
1264   1265   1266   1267
1268   1269   1270   1271
1272   1273   1274   1275
1276   1277   1278   1279
1280   1281   1282   1283
1284   1285   1286   1287
1288   1289   1290   1291
1292   1293   1294   1295
1296   1297   1298   1299
1300   1301   1302   1303
1304   1305   1306   1307
1308   1309   1310   1311
1312   1313   1314   1315
1316   1317   1318   1319
1320   1321   1322   1323
1324   1325   1326   1327
1328   1329   1330   1331
1332   1333   1334   1335
1336   1337   1338   1339
1340   1341   1342   1343
1344   1345   1346   1347
1348   1349   1350   1351
1352   1353   1354   1355
1356   1357   1358   1359
1360   1361   1362   1363
1364   1365   1366   1367
1368   1369   1370   1371
1372   1373   1374   1375
1376   1377   1378   1379
1380   1381   1382   1383
1384   1385   1386   1387
1388   1389   1390   1391
1392   1393   1394   1395
1396   1397   1398   1399
1400   1401   1402   1403
1404   1405   1406   1407
1408   1409   1410   1411
1412   1413   1414   1415
1416   1417   1418   1419
1420   1421   1422   1423
1424   1425   1426   1427
1428   1429   1430   1431
1432   1433   1434   1435
1436   1437   1438   1439
1440   1441   1442   1443
1444   1445   1446   1447
1448   1449   1450   1451
1452   1453   1454   1455
1456   1457   1458   1459
1460   1461   1462   1463
1464   1465   1466   1467
1468   1469   1470   1471
1472   1473   1474   1475
1476   1477   1478   1479
1480   1481   1482   1483
1484   1485   1486   1487
1488   1489   1490   1491
1492   1493   1494   1495
1496   1497   1498   1499
1500   1501   1502   1503
1504   1505   1506   1507
1508   1509   1510   1511
1512   1513   1514   1515
1516   1517   1518   1519
1520   1521   1522   1523
1524   1525   1526   1527
1528   1529   1530   1531
1532   1533   1534   1535
1536   1537   1538   1539
1540   1541   1542   1543
1544   1545   1546   1547
1548   1549   1550   1551
1552   1553   1554   1555
1556   1557   1558   1559
1560   1561   1562   1563
1564   1565   1566   1567
1568   1569   1570   1571
1572   1573   1574   1575
1576   1577   1578   1579
1580   1581   1582   1583
1584   1585   1586   1587
1588   1589   1590   1591
1592   1593   1594   1595
1596   1597   1598   1599
1600   1601   1602   1603
1604   1605   1606   1607
1608   1609   1610   1611
1612   1613   1614   1615
1616   1617   1618   1619
1620   1621   1622   1623
1624   1625   1626   1627
1628   1629   1630   1631
1632   1633   1634   1635
1636   1637   1638   1639
1640   1641   1642   1643
1644   1645   1646   1647
1648   1649   1650   1651
1652   1653   1654   1655
1656   1657   1658   1659
1660   1661   1662   1663
1664   1665   1666   1667
1668   1669   1670   1671
1672   1673   1674   1675
1676   1677   1678   1679
1680   1681   1682   1683
1684   1685   1686   1687
1688   1689   1690   1691
1692   1693   1694   1695
1696   1697   1698   1699
1700   1701   1702   1703
1704   1705   1706   1707
1708   1709   1710   1711
1712   1713   1714   1715
1716   1717   1718   1719
1720   1721   1722   1723
1724   1725   1726   1727
1728   1729   1730   1731
1732   1733   1734   1735
1736   1737   1738   1739
1740   1741   1742   1743
1744   1745   1746   1747
1748   1749   1750   1751
1752   1753   1754   1755
1756   1757   1758   1759
1760   1761   1762   1763
1764   1765   1766   1767
1768   1769   1770   1771
1772   1773   1774   1775
1776   1777   1778   1779
1780   1781   1782   1783
1784   1785   1786   1787
1788   1789   1790   1791
1792   1793   1794   1795
1796   1797   1798   1799
1800   1801   1802   1803
1804   1805   1806   1807
1808   1809   1810   1811
1812   1813   1814   1815
1816   1817   1818   1819
1820   1821   1822   1823
1824   1825   1826   1827
1828   1829   1830   1831
1832   1833   1834   1835
1836   1837   1838   1839
1840   1841   1842   1843
1844   1845   1846   1847
1848   1849   1850   1851
1852   1853   1854   1855
1856   1857   1858   1859
1860   1861   1862   1863
1864   1865   1866   1867
1868   1869   1870   1871
1872   1873   1874   1875
1876   1877   1878   1879
1880   1881   1882   1883
1884   1885   1886   1887
1888   1889   1890   1891
1892   1893   1894   1895
1896   1897   1898   1899
1900   1901   1902   1903
1904   1905   1906   1907
1908   1909   1910   1911
1912   1913   1914   1915
1916   1917   1918   1919
1920   1921   1922   1923
1924   1925   1926   1927
1928   1929   1930   1931
1932   1933   1934   1935
1936   1937   1938   1939
1940   1941   1942   1943
1944   1945   1946   1947
1948   1949   1950   1951
1952   1953   1954   1955
1956   1957   1958   1959
1960   1961   1962   1963
1964   1965   1966   1967
1968   1969   1970   1971
1972   1973   1974   1975
1976   1977   1978   1979
1980   1981   1982   1983
1984   1985   1986   1987
1988   1989   1990   1991
1992   1993   1994   1995
1996   1997   1998   1999
2000   2001   2002   2003
2004   2005   2006   2007
2008   2009   2010   2011
2012   2013   2014   2015
2016   2017   2018   2019
2020   2021   2022   2023
2024   2025   2026   2027
2028   2029   2030   2031
2032   2033   2034   2035
2036   2037   2038   2039
2040   2041   2042   2043
2044   2045   2046   2047
2048   2049   2050   2051
2052   2053   2054   2055
2056   2057   2058   2059
2060   2061   2062   2063
2064   2065   2066   2067
2068   2069   2070   2071
2072   2073   2074   2075
2076   2077   2078   2079
2080   2081   2082   2083
2084   2085   2086   2087
2088   2089   2090   2091
2092   2093   2094   2095
2096   2097   2098   2099
2100   2101   2102   2103
2104   2105   2106   2107
2108   2109   2110   2111
2112   2113   2114   2115
2116   2117   2118   2119
2120   2121   2122   2123
2124   2125   2126   2127
2128   2129   2130   2131
2132   2133   2134   2135
2136   2137   2138   2139
2140   2141   2142   2143
2144   2145   2146   2147
2148   2149   2150   2151
2152   2153   2154   2155
2156   2157   2158   2159
2160   2161   2162   2163
2164   2165   2166   2167
2168   2169   2170   2171
2172   2173   2174   2175
2176   2177   2178   2179
2180   2181   2182   2183
2184   2185   2186   2187
2188   2189   2190   2191
2192   2193   2194   2195
2196   2197   2198   2199
2200   2201   2202   2203
2204   2205   2206   2207
2208   2209   2210   2211
2212   2213   2214   2215
2216   2217   2218   2219
2220   2221   2222   2223
2224   2225   2226   2227
2228   2229   2230   2231
2232   2233   2234   2235
2236   2237   2238   2239
2240   2241   2242   2243
2244   2245   2246   2247
2248   2249   2250   2251
2252   2253   2254   2255
2256   2257   2258   2259
2260   2261   2262   2263
2264   2265   2266   2267
2268   2269   2270   2271
2272   2273   2274   2275
2276   2277   2278   2279
2280   2281   2282   2283
2284   2285   2286   2287
2288   2289   2290   2291
2292   2293   2294   2295
2296   2297   2298   2299
2300   2301   2302   2303
2304   2305   2306   2307
2308   2309   2310   2311
2312   2313   2314   2315
2316   2317   2318   2319
2320   2321   2322   2323
2324   2325   2326   2327
2328   2329   2330   2331
2332   2333   2334   2335
2336   2337   2338   2339
2340   2341   2342   2343
2344   2345   2346   2347
2348   2349   2350   2351
2352   2353   2354   2355
2356   2357   2358   2359
2360   2361   2362   2363
2364   2365   2366   2367
2368   2369   2370   2371
2372   2373   2374   2375
2376   2377   2378   2379
2380   2381   2382   2383
2384   2385   2386   2387
2388   2389   2390   2391
2392   2393   2394   2395
2396   2397   2398   2399
2400   2401   2402   2403
2404   2405   2406   2407
2408   2409   2410   2411
2412   2413   2414   2415
2416   2417   2418   2419
2420   2421   2422   2423
2424   2425   2426   2427
2428   2429   2430   2431
2432   2433   2434   2435
2436   2437   2438   2439
2440   2441   2442   2443
2444   2445   2446   2447
2448   2449   2450   2451
2452   2453   2454   2455
2456   2457   2458   2459
2460   2461   2462   2463
2464   2465   2466   2467
2468   2469   2470   2471
2472   2473   2474   2475
2476   2477   2478   2479
2480   2481   2482   2483
2484   2485   2486   2487
2488   2489   2490   2491
2492   2493   2494   2495
2496   2497   2498   2499
2500   2501   2502   2503
2504   2505   2506   2507
2508   2509   2510   2511
2512   2513   2514   2515
2516   2517   2518   2519
2520   2521   2522   2523
2524   2525   2526   2527
2528   2529   2530   2531
2532   2533   2534   2535
2536   2537   2538   2539
2540   2541   2542   2543
2544   2545   2546   2547
2548   2549   2550   2551
2552   2553   2554   2555
2556   2557   2558   2559
2560   2561   2562   2563
2564   2565   2566   2567
2568   2569   2570   2571
2572   2573   2574   2575
2576   2577   2578   2579
2580   2581   2582   2583
2584   2585   2586   2587
2588   2589   2590   2591
2592   2593   2594   2595
2596   2597   2598   2599
2600   2601   2602   2603
2604   2605   2606   2607
2608   2609   2610   2611
2612   2613   2614   2615
2616   2617   2618   2619
2620   2621   2622   2623
2624   2625   2626   2627
2628   2629   2630   2631
2632   2633   2634   2635
2636   2637   2638   2639
2640   2641   2642   2643
2644   2645   2646   2647
2648   2649   2650   2651
2652   2653   2654   2655
2656   2657   2658   2659
2660   2661   2662   2663
2664   2665   2666   2667
2668   2669   2670   2671
2672   2673   2674   2675
2676   2677   2678   2679
2680   2681   2682   2683
2684   2685   2686   2687
2688   2689   2690   2691
2692   2693   2694   2695
2696   2697   2698   2699
2700   2701   2702   2703
2704   2705   2706   2707
2708   2709   2710   2711
2712   2713   2714   2715
2716   2717   2718   2719
2720   2721   2722   2723
2724   2725   2726   2727
2728   2729   2730   2731
2732   2733   2734   2735
2736   2737   2738   2739
2740   2741   2742   2743
2744   2745   2746   2747
2748   2749   2750   2751
2752   2753   2754   2755
2756   2757   2758   2759
2760   2761   2762   2763
2764   2765   2766   2767
2768   2769   2770   2771
2772   2773   2774   2775
2776   2777   2778   2779
2780   2781   2782   2783
2784   2785   2786   2787
2788   2789   2790   2791
2792   2793   2794   2795
2796   2797   2798   2799
2800   2801   2802   2803
2804   2805   2806   2807
2808   2809   2810   2811
2812   2813   2814   2815
2816   2817   2818   2819
2820   2821   2822   2823
2824   2825   2826   2827
2828   2829   2830   2831
2832   2833   2834   2835
2836   2837   2838   2839
2840   2841   2842   2843
2844   2845   2846   2847
2848   2849   2850   2851
2852   2853   2854   2855
2856   2857   2858   2859
2860   2861   2862   2863
2864   2865   2866   2867
2868   2869   2870   2871
2872   2873   2874   2875
2876   2877   2878   2879
2880   2881   2882   2883
2884   2885   2886   2887
2888   2889   2890   2891
2892   2893   2894   2895
2896   2897   2898   2899
2900   2901   2902   2903
2904   2905   2906   2907
2908   2909   2910   2911
2912   2913   2914   2915
2916   2917   2918   2919
2920   2921   2922   2923
2924   2925   2926   2927
2928   2929   2930   2931
2932   2933   2934   2935
2936   2937   2938   2939
2940   2941   2942   2943
2944   2945   2946   2947
2948   2949   2950   2951
2952   2953   2954   2955
2956   2957   2958   2959
2960   2961   2962   2963
2964   2965   2966   2967
2968   2969   2970   2971
2972   2973   2974   2975
2976   2977   2978   2979
2980   2981   2982   2983
2984   2985   2986   2987
2988   2989   2990   2991
2992   2993   2994   2995
2996   2997   2998   2999
3000   3001   3002   3003
3004   3005   3006   3007
3008   3009   3010   3011
3012   3013   3014   3015
3016   3017   3018   3019
3020   3021   3022   3023
3024   3025   3026   3027
3028   3029   3030   3031
3032   3033   3034   3035
3036   3037   3038   3039
3040   3041   3042   3043
3044   3045   3046   3047
3048   3049   3050   3051
3052   3053   3054   3055
3056   3057   3058   3059
3060   3061   3062   3063
3064   3065   3066   3067
3068   3069   3070   3071
3072   3073   3074   3075
3076   3077   3078   3079
3080   3081   3082   3083
3084   3085   3086   3087
3088   3089   3090   3091
3092   3093   3094   3095
3096   3097   3098   3099
3100   3101   3102   3103
3104   3105   3106   3107
3108   3109   3110   3111
3112   3113   3114   3115
3116   3117   3118   3119
3120   3121   3122   3123
3124   3125   3126   3127
3128   3129   3130   3131
3132   3133   3134   3135
3136   3137   3138   3139
3140   3141   3142   3143
3144   3145   3146   3147
3148   3149   3150   3151
3152   3153   3154   3155
3156   3157   3158   3159
3160   3161   3162   3163
3164   3165   3166   3167
3168   3169   3170   3171
3172   3173   3174   3175
3176   3177   3178   3179
3180   3181   3182   3183
3184   3185   3186   3187
3188   3189   3190   3191
3192   3193   3194   3195
3196   3197   3198   3199
3200   3201   3202   3203
3204   3205   3206   3207
3208   3209   3210   3211
3212   3213   3214   3215
3216   3217   3218   3219
3220   3221   3222   3223
3224   3225   3226   3227
3228   3229   3230   3231
3232   3233   3234   3235
3236   3237   3238   3239
3240   3241   3242   3243
3244   3245   3246   3247
3248   3249   3250   3251
3252   3253   3254   3255
3256   3257   3258   3259
3260   3261   3262   3263
3264   3265   3266   3267
3268   3269   3270   3271
3272   3273   3274   3275
3276   3277   3278   3279
3280   3281   3282   3283
3284   3285   3286   3287
3288   3289   3290   3291
3292   3293   3294   3295
3296   3297   3298   3299
3300   3301   3302   3303
3304   3305   3306   3307
3308   3309   3310   3311
3312   3313   3314   3315
3316   3317   3318   3319
3320   3321   3322   3323
3324   3325   3326   3327
3328   3329   3330   3331
3332   3333   3334   3335
3336   3337   3338   3339
3340   3341   3342   3343
3344   3345   3346   3347
3348   3349   3350   3351
3352   3353   3354   3355
3356   3357   3358   3359
3360   3361   3362   3363
3364   3365   3366   3367
3368   3369   3370   3371
3372   3373   3374   3375
3376   3377   3378   3379
3380   3381   3382   3383
3384   3385   3386   3387
3388   3389   3390   3391
3392   3393   3394   3395
3396   3397   3398   3399
3400   3401   3402   3403
3404   3405   3406   3407
3408   3409   3410   3411
3412   3413   3414   3415
3416   3417   3418   3419
3420   3421   3422   3423
3424   3425   3426   3427
3428   3429   3430   3431
3432   3433   3434   3435
3436   3437   3438   3439
3440   3441   3442   3443
3444   3445   3446   3447
3448   3449   3450   3451
3452   3453   3454   3455
3456   3457   3458   3459
3460   3461   3462   3463
3464   3465   3466   3467
3468   3469   3470   3471
3472   3473   3474   3475
3476   3477   3478   3479
3480   3481   3482   3483
3484   3485   3486   3487
3488   3489   3490   3491
3492   3493   3494   3495
3496   3497   3498   3499
3500   3501   3502   3503
3504   3505   3506   3507
3508   3509   3510   3511
3512   3513   3514   3515
3516   3517   3518   3519
3520   3521   3522   3523
3524   3525   3526   3527
3528   3529   3530   3531
3532   3533   3534   3535
3536   3537   3538   3539
3540   3541   3542   3543
3544   3545   3546   3547
3548   3549   3550   3551
3552   3553   3554   3555
3556   3557   3558   3559
3560   3561   3562   3563
3564   3565   3566   3567
3568   3569   3570   3571
3572   3573   3574   3575
3576   3577   3578   3579
3580   3581   3582   3583
3584   3585   3586   3587
3588   3589   3590   3591
3592   3593   3594   3595
3596   3597   3598   3599
3600   3601   3602   3603
3604   3605   3606   3607
3608   3609   3610   3611
3612   3613   3614   3615
3616   3617   3618   3619
3620   3621   3622   3623
3624   3625   3626   3627
3628   3629   3630   3631
3632   3633   3634   3635
3636   3637   3638   3639
3640   3641   3642   3643
3644   3645   3646   3647
3648   3649   3650   3651
3652   3653   3654   3655
3656   3657   3658   3659
3660   3661   3662   3663
3664   3665   3666   3667
3668   3669   3670   3671
3672   3673   3674   3675
3676   3677   3678   3679
3680   3681   3682   3683
3684   3685   3686   3687
3688   3689   3690   3691
3692   3693   3694   3695
3696   3697   3698   3699
3700   3701   3702   3703
3704   3705   3706   3707
3708   3709   3710   3711
3712   3713   3714   3715
3716   3717   3718   3719
3720   3721   3722   3723
3724   3725   3726   3727
3728   3729   3730   3731
3732   3733   3734   3735
3736   3737   3738   3739
3740   3741   3742   3743
3744   3745   3746   3747
3748   3749   3750   3751
3752   3753   3754   3755
3756   3757   3758   3759
3760   3761   3762   3763
3764   3765   3766   3767
3768   3769   3770   3771
3772   3773   3774   3775
3776   3777   3778   3779
3780   3781   3782   3783
3784   3785   3786   3787
3788   3789   3790   3791
3792   3793   3794   3795
3796   3797   3798   3799
3800   3801   3802   3803
3804   3805   3806   3807
3808   3809   3810   3811
3812   3813   3814   3815
3816   3817   3818   3819
3820   3821   3822   3823
3824   3825   3826   3827
3828   3829   3830   3831
3832   3833   3834   3835
3836   3837   3838   3839
3840   3841   3842   3843
3844   3845   3846   3847
3848   3849   3850   3851
3852   3853   3854   3855
3856   3857   3858   3859
3860   3861   3862   3863
3864   3865   3866   3867
3868   3869   3870   3871
3872   3873   3874   3875
3876   3877   3878   3879
3880   3881   3882   3883
3884   3885   3886   3887
3888   3889   3890   3891
3892   3893   3894   3895
3896   3897   3898   3899
3900   3901   3902   3903
3904   3905   3906   3907
3908   3909   3910   3911
3912   3913   3914   3915
3916   3917   3918   3919
3920   3921   3922   3923
3924   3925   3926   3927
3928   3929   3930   3931
3932   3933   3934   3935
3936   3937   3938   3939
3940   3941   3942   3943
3944   3945   3946   3947
3948   3949   3950   3951
3952   3953   3954   3955
3956   3957   3958   3959
3960   3961   3962   3963
3964   3965   3966   3967
3968   3969   3970   3971
3972   3973   3974   3975
3976   3977   3978   3979
3980   3981   3982   3983
3984   3985   3986   3987
3988   3989   3990   3991
3992   3993   3994   3995
3996   3997   3998   3999
4000   4001   4002   4003
4004   4005   4006   4007
4008   4009   4010   4011
4012   4013   4014   4015
4016   4017   4018   4019
4020   4021   4022   4023
4024   4025   4026   4027
4028   4029   4030   4031
4032   4033   4034   4035
4036   4037   4038   4039
4040   4041   4042   4043
4044   4045   4046   4047
4048   4049   4050   4051
4052   4053   4054   4055
4056   4057   4058   4059
4060   4061   4062   4063
4064   4065   4066   4067
4068   4069   4070   4071
4072   4073   4074   4075
4076   4077   4078   4079
4080   4081   4082   4083
4084   4085   4086   4087
4088   4089   4090   4091
4092   4093   4094   4095
4096   4097   4098   4099
4100   4101   4102   4103
4104   4105   4106   4107
4108   4109   4110   4111
4112   4113   4114   4115
4116   4117   4118   4119
4120   4121   4122   4123
4124   4125   4126   4127
4128   4129   4130   4131
4132   4133   4134   4135
4136   4137   4138   4139
4140   4141   4142   4143
4144   4145   4146   4147
4148   4149   4150   4151
4152   4153   4154   4155
4156   4157   4158   4159
4160   4161   4162   4163
4164   4165   4166   4167
4168   4169   4170   4171
4172   4173   4174   4175
4176   4177   4178   4179
4180   4181   4182   4183
4184   4185   4186   4187
4188   4189   4190   4191
4192   4193   4194   4195
4196   4197   4198   4199
4200   4201   4202   4203
4204   4205   4206   4207
4208   4209   4210   4211
4212   4213   4214   4215
4216   4217   4218   4219
4220   4221   4222   4223
4224   4225   4226   4227
4228   4229   4230   4231
4232   4233   4234   4235
4236   4237   4238   4239
4240   4241   4242   4243
4244   4245   4246   4247
4248   4249   4250   4251
4252   4253   4254   4255
4256   4257   4258   4259
4260   4261   4262   4263
4264   4265   4266   4267
4268   4269   4270   4271
4272   4273   4274   4275
4276   4277   4278   4279
4280   4281   4282   4283
4284   4285   4286   4287
4288   4289   4290   4291
4292   4293   4294   4295
4296   4297   4298   4299
4300   4301   4302   4303
4304   4305   4306   4307
4308   4309   4310   4311
4312   4313   4314   4315
4316   4317   4318   4319
4320   4321   4322   4323
4324   4325   4326   4327
4328   4329   4330   4331
4332   4333   4334   4335
4336   4337   4338   4339
4340   4341   4342   4343
4344   4345   4346   4347
4348   4349   4350   4351
4352   4353   4354   4355
4356   4357   4358   4359
4360   4361   4362   4363
4364   4365   4366   4367
4368   4369   4370   4371
4372   4373   4374   4375
4376   4377   4378   4379
4380   4381   4382   4383
4384   4385   4386   4387
4388   4389   4390   4391
4392   4393   4394   4395
4396   4397   4398   4399
4400   4401   4402   4403
4404   4405   4406   4407
4408   4409   4410   4411
4412   4413   4414   4415
4416   4417   4418   4419
4420   4421   4422   4423
4424   4425   4426   4427
4428   4429   4430   4431
4432   4433   4434   4435
4436   4437   4438   4439
4440   4441   4442   4443
4444   4445   4446   4447
4448   4449   4450   4451
4452   4453   4454   4455
4456   4457   4458   4459
4460   4461   4462   4463
4464   4465   4466   4467
4468   4469   4470   4471
4472   4473   4474   4475
4476   4477   4478   4479
4480   4481   4482   4483
4484   4485   4486   4487
4488   4489   4490   4491
4492   4493   4494   4495
4496   4497   4498   4499
4500   4501   4502   4503
4504   4505   4506   4507
4508   4509   4510   4511
4512   4513   4514   4515
4516   4517   4518   4519
4520   4521   4522   4523
4524   4525   4526   4527
4528   4529   4530   4531
4532   4533   4534   4535
4536   4537   4538   4539
4540   4541   4542   4543
4544   4545   4546   4547
4548   4549   4550   4551
4552   4553   4554   4555
4556   4557   4558   4559
4560   4561   4562   4563
4564   4565   4566   4567
4568   4569   4570   4571
4572   4573   4574   4575
4576   4577   4578   4579
4580   4581   4582   4583
4584   4585   4586   4587
4588   4589   4590   4591
4592   4593   4594   4595
4596   4597   4598   4599
4600   4601   4602   4603
4604   4605   4606   4607
4608   4609   4610   4611
4612   4613   4614   4615
4616   4617   4618   4619
4620   4621   4622   4623
4624   4625   4626   4627
4628   4629   4630   4631
4632   4633   4634   4635
4636   4637   4638   4639
4640   4641   4642   4643
4644   4645   4646   4647
4648   4649   4650   4651
4652   4653   4654   4655
4656   4657   4658   4659
4660   4661   4662   4663
4664   4665   4666   4667
4668   4669   4670   4671
4672   4673   4674   4675
4676   4677   4678   4679
4680   4681   4682   4683
4684   4685   4686   4687
4688   4689   4690   4691
4692   4693   4694   4695
4696   4697   4698   4699
4700   4701   4702   4703
4704   4705   4706   4707
4708   4709   4710   4711
4712   4713   4714   4715
4716   4717   4718   4719
4720   4721   4722   4723
4724   4725   4726   4727
4728   4729   4730   4731
4732   4733   4734   4735
4736   4737   4738   4739
4740   4741   4742   4743
4744   4745   4746   4747
4748   4749   4750   4751
4752   4753   4754   4755
4756   4757   4758   4759
4760   4761   4762   4763
4764   4765   4766   4767
4768   4769   4770   4771
4772   4773   4774   4775
4776   4777   4778   4779
4780   4781   4782   4783
4784   4785   4786   4787
4788   4789   4790   4791
4792   4793   4794   4795
4796   4797   4798   4799
4800   4801   4802   4803
4804   4805   4806   4807
4808   4809   4810   4811
4812   4813   4814   4815
4816   4817   4818   4819
4820   4821   4822   4823
4824   4825   4826   4827
4828   4829   4830   4831
4832   4833   4834   4835
4836   4837   4838   4839
4840   4841   4842   4843
4844   4845   4846   4847
4848   4849   4850   4851
4852   4853   4854   4855
4856   4857   4858   4859
4860   4861   4862   4863
4864   4865   4866   4867
4868   4869   4870   4871
4872   4873   4874   4875
4876   4877   4878   4879
4880   4881   4882   4883
4884   4885   4886   4887
4888   4889   4890   4891
4892   4893   4894   4895
4896   4897   4898   4899
4900   4901   4902   4903
4904   4905   4906   4907
4908   4909   4910   4911
4912   4913   4914   4915
4916   4917   4918   4919
4920   4921   4922   4923
4924   4925   4926   4927
4928   4929   4930   4931
4932   4933   4934   4935
4936   4937   4938   4939
4940   4941   4942   4943
4944   4945   4946   4947
4948   4949   4950   4951
4952   4953   4954   4955
4956   4957   4958   4959
4960   4961   4962   4963
4964   4965   4966   4967
4968   4969   4970   4971
4972   4973   4974   4975
4976   4977   4978   4979
4980   4981   4982   4983
4984   4985   4986   4987
4988   4989   4990   4991
4992   4993   4994   4995
4996   4997   4998   4999
5000   5001   5002   5003
5004   5005   5006   5007
5008   5009   5010   5011
5012   5013   5014   5015
5016   5017   5018   5019
5020   5021   5022   5023
5024   5025   5026   5027
5028   5029   5030   5031
5032   5033   5034   5035
5036   5037   5038   5039
5040   5041   5042   5043
5044   5045   5046   5047
5048   5049   5050   5051
5052   5053   5054   5055
5056   5057   5058   5059
5060   5061   5062   5063
5064   5065   5066   5067
5068   5069   5070   5071
5072   5073   5074   5075
5076   5077   5078   5079
5080   5081   5082   5083
5084   5085   5086   5087
5088   5089   5090   5091
5092   5093   5094   5095
5096   5097   5098   5099
5100   5101   5102   5103
5104   5105   5106   5107
5108   5109   5110   5111
5112   5113   5114   5115
5116   5117   5118   5119
5120   5121   5122   5123
5124   5125   5126   5127
5128   5129   5130   5131
5132   5133   5134   5135
5136   5137   5138   5139
5140   5141   5142   5143
5144   5145   5146   5147
5148   5149   5150   5151
5152   5153   5154   5155
5156   5157   5158   5159
5160   5161   5162   5163
5164   5165   5166   5167
5168   5169   5170   5171
5172   5173   5174   5175
5176   5177   5178   5179
5180   5181   5182   5183
5184   5185   5186   5187
5188   5189   5190   5191
5192   5193   5194   5195
5196   5197   5198   5199
5200   5201   5202   5203
5204   5205   5206   5207
5208   5209   5210   5211
5212   5213   5214   5215
5216   5217   5218   5219
5220   5221   5222   5223
5224   5225   5226   5227
5228   5229   5230   5231
5232   5233   5234   5235
5236   5237   5238   5239
5240   5241   5242   5243
5244   5245   5246   5247
5248   5249   5250   5251
5252   5253   5254   5255
5256   5257   5258   5259
5260   5261   5262   5263
5264   5265   5266   5267
5268   5269   5270   5271
5272   5273   5274   5275
5276   5277   5278   5279
5280   5281   5282   5283
5284   5285   5286   5287
5288   5289   5290   5291
5292   5293   5294   5295
5296   5297   5298   5299
5300   5301   5302   5303
5304   5305   5306   5307
5308   5309   5310   5311
5312   5313   5314   5315
5316   5317   5318   5319
5320   5321   5322   5323
5324   5325   5326   5327
5328   5329   5330   5331
5332   5333   5334   5335
5336   5337   5338   5339
5340   5341   5342   5343
5344   5345   5346   5347
5348   5349   5350   5351
5352   5353   5354   5355
5356   5357   5358   5359
5360   5361   5362   5363
5364   5365   5366   5367
5368   5369   5370   5371
5372   5373   5374   5375
5376   5377   5378   5379
5380   5381   5382   5383
5384   5385   5386   5387
5388   5389   5390   5391
5392   5393   5394   5395
5396   5397   5398   5399
5400   5401   5402   5403
5404   5405   5406   5407
5408   5409   5410   5411
5412   5413   5414   5415
5416   5417   5418   5419
5420   5421   5422   5423
5424   5425   5426   5427
5428   5429   5430   5431
5432   5433   5434   5435
5436   5437   5438   5439
5440   5441   5442   5443
5444   5445   5446   5447
5448   5449   5450   5451
5452   5453   5454   5455
5456   5457   5458   5459
5460   5461   5462   5463
5464   5465   5466   5467
5468   5469   5470   5471
5472   5473   5474   5475
5476   5477   5478   5479
5480   5481   5482   5483
5484   5485   5486   5487
5488   5489   5490   5491
5492   5493   5494   5495
5496   5497   5498   5499
5500   5501   5502   5503
5504   5505   5506   5507
5508   5509   5510   5511
5512   5513   5514   5515
5516   5517   5518   5519
5520   5521   5522   5523
5524   5525   5526   5527
5528   5529   5530   5531
5532   5533   5534   5535
5536   5537   5538   5539
5540   5541   5542   5543
5544   5545   5546   5547
5548   5549   5550   5551
5552   5553   5554   5555
5556   5557   5558   5559
5560   5561   5562   5563
5564   5565   5566   5567
5568   5569   5570   5571
5572   5573   5574   5575
5576   5577   5578   5579
5580   5581   5582   5583
5584   5585   5586   5587
5588   5589   5590   5591
5592   5593   5594   5595
5596   5597   5598   5599
5600   5601   5602   5603
5604   5605   5606   5607
5608   5609   5610   5611
5612   5613   5614   5615
5616   5617   5618   5619
5620   5621   5622   5623
5624   5625   5626   5627
5628   5629   5630   5631
5632   5633   5634   5635
5636   5637   5638   5639
5640   5641   5642   5643
5644   5645   5646   5647
5648   5649   5650   5651
5652   5653   5654   5655
5656   5657   5658   5659
5660   5661   5662   5663
5664   5665   5666   5667
5668   5669   5670   5671
5672   5673   5674   5675
5676   5677   5678   5679
5680   5681   5682   5683
5684   5685   5686   5687
5688   5689   5690   5691
5692   5693   5694   5695
5696   5697   5698   5699
5700   5701   5702   5703
5704   5705   5706   5707
5708   5709   5710   5711
5712   5713   5714   5715
5716   5717   5718   5719
5720   5721   5722   5723
5724   5725   5726   5727
5728   5729   5730   5731
5732   5733   5734   5735
5736   5737   5738   5739
5740   5741   5742   5743
5744   5745   5746   5747
5748   5749   5750   5751
5752   5753   5754   5755
5756   5757   5758   5759
5760   5761   5762   5763
5764   5765   5766   5767
5768   5769   5770   5771
5772   5773   5774   5775
5776   5777   5778   5779
5780   5781   5782   5783
5784   5785   5786   5787
5788   5789   5790   5791
5792   5793   5794   5795
5796   5797   5798   5799
5800   5801   5802   5803
5804   5805   5806   5807
5808   5809   5810   5811
5812   5813   5814   5815
5816   5817   5818   5819
5820   5821   5822   5823
5824   5825   5826   5827
5828   5829   5830   5831
5832   5833   5834   5835
5836   5837   5838   5839
5840   5841   5842   5843
5844   5845   5846   5847
5848   5849   5850   5851
5852   5853   5854   5855
5856   5857   5858   5859
5860   5861   5862   5863
5864   5865   5866   5867
5868   5869   5870   5871
5872   5873   5874   5875
5876   5877   5878   5879
5880   5881   5882   5883
5884   5885   5886   5887
5888   5889   5890   5891
5892   5893   5894   5895
5896   5897   5898   5899
5900   5901   5902   5903
5904   5905   5906   5907
5908   5909   5910   5911
5912   5913   5914   5915
5916   5917   5918   5919
5920   5921   5922   5923
5924   5925   5926   5927
5928   5929   5930   5931
5932   5933   5934   5935
5936   5937   5938   5939
5940   5941   5942   5943
5944   5945   5946   5947
5948   5949   5950   5951
5952   5953   5954   5955
5956   5957   5958   5959
5960   5961   5962   5963
5964   5965   5966   5967
5968   5969   5970   5971
5972   5973   5974   5975
5976   5977   5978   5979
5980   5981   5982   5983
5984   5985   5986   5987
5988   5989   5990   5991
5992   5993   5994   5995
5996   5997   5998   5999
              </DataArray>   
              <DataArray type="Int32" Name="offsets" format="ascii">   
4
8
12
16
20
24
28
32
36
40
44
48
52
56
60
64
68
72
76
80
84
88
92
96
100
104
108
112
116
120
124
128
132
136
140
144
148
152
156
160
164
168
172
176
180
184
188
192
196
200
204
208
212
216
220
224
228
232
236
240
244
248
252
256
260
264
268
272
276
280
284
288
292
296
300
304
308
312
316
320
324
328
332
336
340
344
348
352
356
360
364
368
372
376
380
384
388
392
396
400
404
408
412
416
420
424
428
432
436
440
444
448
452
456
460
464
468
472
476
480
484
488
492
496
500
504
508
512
516
520
524
528
532
536
540
544
548
552
556
560
564
568
572
576
580
584
588
592
596
600
604
608
612
616
620
624
628
632
636
640
644
648
652
656
660
664
668
672
676
680
684
688
692
696
700
704
708
712
716
720
724
728
732
736
740
744
748
752
756
760
764
768
772
776
780
784
788
792
796
800
804
808
812
816
820
824
828
832
836
840
844
848
852
856
860
864
868
872
876
880
884
888
892
896
900
904
908
912
916
920
924
928
932
936
940
944
948
952
956
960
964
968
972
976
980
984
988
992
996
1000
1004
1008
1012
1016
1020
1024
1028
1032
1036
1040
1044
1048
1052
1056
1060
1064
1068
1072
1076
1080
1084
1088
1092
1096
1100
1104
1108
1112
1116
1120
1124
1128
1132
1136
1140
1144
1148
1152
1156
1160
1164
1168
1172
1176
1180
1184
1188
1192
1196
1200
1204
1208
1212
1216
1220
1224
1228
1232
1236
1240
1244
1248
1252
1256
1260
1264
1268
1272
1276
1280
1284
1288
1292
1296
1300
1304
1308
1312
1316
1320
1324
1328
1332
1336
1340
1344
1348
1352
1356
1360
1364
1368
1372
1376
1380
1384
1388
1392
1396
1400
1404
1408
1412
1416
1420
1424
1428
1432
1436
1440
1444
1448
1452
1456
1460
1464
1468
1472
1476
1480
1484
1488
1492
1496
1500
1504
1508
1512
1516
1520
1524
1528
1532
1536
1540
1544
1548
1552
1556
1560
1564
1568
1572
1576
1580
1584
1588
1592
1596
1600
1604
1608
1612
1616
1620
1624
1628
1632
1636
1640
1644
1648
1652
1656
1660
1664
1668
1672
1676
1680
1684
1688
1692
1696
1700
1704
1708
1712
1716
1720
1724
1728
1732
1736
1740
1744
1748
1752
1756
1760
1764
1768
1772
1776
1780
1784
1788
1792
1796
1800
1804
1808
1812
1816
1820
1824
1828
1832
1836
1840
1844
1848
1852
1856
1860
1864
1868
1872
1876
1880
1884
1888
1892
1896
1900
1904
1908
1912
1916
1920
1924
1928
1932
1936
1940
1944
1948
1952
1956
1960
1964
1968
1972
1976
1980
1984
1988
1992
1996
2000
2004
2008
2012
2016
2020
2024
2028
2032
2036
2040
2044
2048
2052
2056
2060
2064
2068
2072
2076
2080
2084
2088
2092
2096
2100
2104
2108
2112
2116
2120
2124
2128
2132
2136
2140
2144
2148
2152
2156
2160
2164
2168
2172
2176
2180
2184
2188
2192
2196
2200
2204
2208
2212
2216
2220
2224
2228
2232
2236
2240
2244
2248
2252
2256
2260
2264
2268
2272
2276
2280
2284
2288
2292
2296
2300
2304
2308
2312
2316
2320
2324
2328
2332
2336
2340
2344
2348
2352
2356
2360
2364
2368
2372
2376
2380
2384
2388
2392
2396
2400
2404
2408
2412
2416
2420
2424
2428
2432
2436
2440
2444
2448
2452
2456
2460
2464
2468
2472
2476
2480
2484
2488
2492
2496
2500
2504
2508
2512
2516
2520
2524
2528
2532
2536
2540
2544
2548
2552
2556
2560
2564
2568
2572
2576
2580
2584
2588
2592
2596
2600
2604
2608
2612
2616
2620
2624
2628
2632
2636
2640
2644
2648
2652
2656
2660
2664
2668
2672
2676
2680
2684
2688
2692
2696
2700
2704
2708
2712
2716
2720
2724
2728
2732
2736
2740
2744
2748
2752
2756
2760
2764
2768
2772
2776
2780
2784
2788
2792
2796
2800
2804
2808
2812
2816
2820
2824
2828
2832
2836
2840
2844
2848
2852
2856
2860
2864
2868
2872
2876
2880
2884
2888
2892
2896
2900
2904
2908
2912
2916
2920
2924
2928
2932
2936
2940
2944
2948
2952
2956
2960
2964
2968
2972
2976
2980
2984
2988
2992
2996
3000
3004
3008
3012
3016
3020
3024
3028
3032
3036
3040
3044
3048
3052
3056
3060
3064
3068
3072
3076
3080
3084
3088
3092
3096
3100
3104
3108
3112
3116
3120
3124
3128
3132
3136
3140
3144
3148
3152
3156
3160
3164
3168
3172
3176
3180
3184
3188
3192
3196
3200
3204
3208
3212
3216
3220
3224
3228
3232
3236
3240
3244
3248
3252
3256
3260
3264
3268
3272
3276
3280
3284
3288
3292
3296
3300
3304
3308
3312
3316
3320
3324
3328
3332
3336
3340
3344
3348
3352
3356
3360
3364
3368
3372
3376
3380
3384
3388
3392
3396
3400
3404
3408
3412
3416
3420
3424
3428
3432
3436
3440
3444
3448
3452
3456
3460
3464
3468
3472
3476
3480
3484
3488
3492
3496
3500
3504
3508
3512
3516
3520
3524
3528
3532
3536
3540
3544
3548
3552
3556
3560
3564
3568
3572
3576
3580
3584
3588
3592
3596
3600
3604
3608
3612
3616
3620
3624
3628
3632
3636
3640
3644
3648
3652
3656
3660
3664
3668
3672
3676
3680
3684
3688
3692
3696
3700
3704
3708
3712
3716
3720
3724
3728
3732
3736
3740
3744
3748
3752
3756
3760
3764
3768
3772
3776
3780
3784
3788
3792
3796
3800
3804
3808
3812
3816
3820
3824
3828
3832
3836
3840
3844
3848
3852
3856
3860
3864
3868
3872
3876
3880
3884
3888
3892
3896
3900
3904
3908
3912
3916
3920
3924
3928
3932
3936
3940
3944
3948
3952
3956
3960
3964
3968
3972
3976
3980
3984
3988
3992
3996
4000
4004
4008
4012
4016
4020
4024
4028
4032
4036
4040
4044
4048
4052
4056
4060
4064
4068
4072
4076
4080
4084
4088
4092
4096
4100
4104
4108
4112
4116
4120
4124
4128
4132
4136
4140
4144
4148
4152
4156
4160
4164
4168
4172
4176
4180
4184
4188
4192
4196
4200
4204
4208
4212
4216
4220
4224
4228
4232
4236
4240
4244
4248
4252
4256
4260
4264
4268
4272
4276
4280
4284
4288
4292
4296
4300
4304
4308
4312
4316
4320
4324
4328
4332
4336
4340
4344
4348
4352
4356
4360
4364
4368
4372
4376
4380
4384
4388
4392
4396
4400
4404
4408
4412
4416
4420
4424
4428
4432
4436
4440
4444
4448
4452
4456
4460
4464
4468
4472
4476
4480
4484
4488
4492
4496
4500
4504
4508
4512
4516
4520
4524
4528
4532
4536
4540
4544
4548
4552
4556
4560
4564
4568
4572
4576
4580
4584
4588
4592
4596
4600
4604
4608
4612
4616
4620
4624
4628
4632
4636
4640
4644
4648
4652
4656
4660
4664
4668
4672
4676
4680
4684
4688
4692
4696
4700
4704
4708
4712
4716
4720
4724
4728
4732
4736
4740
4744
4748
4752
4756
4760
4764
4768
4772
4776
4780
4784
4788
4792
4796
4800
4804
4808
4812
4816
4820
4824
4828
4832
4836
4840
4844
4848
4852
4856
4860
4864
4868
4872
4876
4880
4884
4888
4892
4896
4900
4904
4908
4912
4916
4920
4924
4928
4932
4936
4940
4944
4948
4952
4956
4960
4964
4968
4972
4976
4980
4984
4988
4992
4996
5000
5004
5008
5012
5016
5020
5024
5028
5032
5036
5040
5044
5048
5052
5056
5060
5064
5068
5072
5076
5080
5084
5088
5092
5096
5100
5104
5108
5112
5116
5120
5124
5128
5132
5136
5140
5144
5148
5152
5156
5160
5164
5168
5172
5176
5180
5184
5188
5192
5196
5200
5204
5208
5212
5216
5220
5224
5228
5232
5236
5240
5244
5248
5252
5256
5260
5264
5268
5272
5276
5280
5284
5288
5292
5296
5300
5304
5308
5312
5316
5320
5324
5328
5332
5336
5340
5344
5348
5352
5356
5360
5364
5368
5372
5376
5380
5384
5388
5392
5396
5400
5404
5408
5412
5416
5420
5424
5428
5432
5436
5440
5444
5448
5452
5456
5460
5464
5468
5472
5476
5480
5484
5488
5492
5496
5500
5504
5508
5512
5516
5520
5524
5528
5532
5536
5540
5544
5548
5552
5556
5560
5564
5568
5572
5576
5580
5584
5588
5592
5596
5600
5604
5608
5612
5616
5620
5624
5628
5632
5636
5640
5644
5648
5652
5656
5660
5664
5668
5672
5676
5680
5684
5688
5692
5696
5700
5704
5708
5712
5716
5720
5724
5728
5732
5736
5740
5744
5748
5752
5756
5760
5764
5768
5772
5776
5780
5784
5788
5792
5796
5800
5804
5808
5812
5816
5820
5824
5828
5832
5836
5840
5844
5848
5852
5856
5860
5864
5868
5872
5876
5880
5884
5888
5892
5896
5900
5904
5908
5912
5916
5920
5924
5928
5932
5936
5940
5944
5948
5952
5956
5960
5964
5968
5972
5976
5980
5984
5988
5992
5996
6000
              </DataArray>   
              <DataArray type="UInt8" Name="types" format="ascii">   
10
10
10
10
10
10
10
10
10
10
10
10
10
10
10
10
10
10
10
10
10
10
10
10
10
10
10
10
10
10
10
10
10
10
10
10
10
10
10
10
10
10
10
10
10
10
10
10
10
10
10
10
10
10
10
10
10
10
10
10
10
10
10
10
10
10
10
10
10
10
10
10
10
10
10
10
10
10
10
10
10
10
10
10
10
10
10
10
10
10
10
10
10
10
10
10
10
10
10
10
10
10
10
10
10
10
10
10
10
10
10
10
10
10
10
10
10
10
10
10
10
10
10
10
10
10
10
10
10
10
10
10
10
10
10
10
10
10
10
10
10
10
10
10
10
10
10
10
10
10
10
10
10
10
10
10
10
10
10
10
10
10
10
10
10
10
10
10
10
10
10
10
10
10
10
10
10
10
10
10
10
10
10
10
10
10
10
10
10
10
10
10
10
10
10
10
10
10
10
10
10
10
10
10
10
10
10
10
10
10
10
10
10
10
10
10
10
10
10
10
10
10
10
10
10
10
10
10
10
10
10
10
10
10
10
10
10
10
10
10
10
10
10
10
10
10
10
10
10
10
10
10
10
10
10
10
10
10
10
10
10
10
10
10
10
10
10
10
10
10
10
10
10
10
10
10
10
10
10
10
10
10
10
10
10
10
10
10
10
10
10
10
10
10
10
10
10
10
10
10
10
10
10
10
10
10
10
10
10
10
10
10
10
10
10
10
10
10
10
10
10
10
10
10
10
10
10
10
10
10
10
10
10
10
10
10
10
10
10
10
10
10
10
10
10
10
10
10
10
10
10
10
10
10
10
10
10
10
10
10
10
10
10
10
10
10
10
10
10
10
10
10
10
10
10
10
10
10
10
10
10
10
10
10
10
10
10
10
10
10
10
10
10
10
10
10
10
10
10
10
10
10
10
10
10
10
10
10
10
10
10
10
10
10
10
10
10
10
10
10
10
10
10
10
10
10
10
10
10
10
10
10
10
10
10
10
10
10
10
10
10
10
10
10
10
10
10
10
10
10
10
10
10
10
10
10
10
10
10
10
10
10
10
10
10
10
10
10
10
10
10
10
10
10
10
10
10
10
10
10
10
10
10
10
10
10
10
10
10
10
10
10
10
10
10
10
10
10
10
10
10
10
10
10
10
10
10
10
10
10
10
10
10
10
10
10
10
10
10
10
10
10
10
10
10
10
10
10
10
10
10
10
10
10
10
10
10
10
10
10
10
10
10
10
10
10
10
10
10
10
10
10
10
10
10
10
10
10
10
10
10
10
10
10
10
10
10
10
10
10
10
10
10
10
10
10
10
10
10
10
10
10
10
10
10
10
10
10
10
10
10
10
10
10
10
10
10
10
10
10
10
10
10
10
10
10
10
10
10
10
10
10
10
10
10
10
10
10
10
10
10
10
10
10
10
10
10
10
10
10
10
10
10
10
10
10
10
10
10
10
10
10
10
10
10
10
10
10
10
10
10
10
10
10
10
10
10
10
10
10
10
10
10
10
10
10
10
10
10
10
10
10
10
10
10
10
10
10
10
10
10
10
10
10
10
10
10
10
10
10
10
10
10
10
10
10
10
10
10
10
10
10
10
10
10
10
10
10
10
10
10
10
10
10
10
10
10
10
10
10
10
10
10
10
10
10
10
10
10
10
10
10
10
10
10
10
10
10
10
10
10
10
10
10
10
10
10
10
10
10
10
10
10
10
10
10
10
10
10
10
10
10
10
10
10
10
10
10
10
10
10
10
10
10
10
10
10
10
10
10
10
10
10
10
10
10
10
10
10
10
10
10
10
10
10
10
10
10
10
10
10
10
10
10
10
10
10
10
10
10
10
10
10
10
10
10
10
10
10
10
10
10
10
10
10
10
10
10
10
10
10
10
10
10
10
10
10
10
10
10
10
10
10
10
10
10
10
10
10
10
10
10
10
10
10
10
10
10
10
10
10
10
10
10
10
10
10
10
10
10
10
10
10
10
10
10
10
10
10
10
10
10
10
10
10
10
10
10
10
10
10
10
10
10
10
10
10
10
10
10
10
10
10
10
10
10
10
10
10
10
10
10
10
10
10
10
10
10
10
10
10
10
10
10
10
10
10
10
10
10
10
10
10
10
10
10
10
10
10
10
10
10
10
10
10
10
10
10
10
10
10
10
10
10
10
10
10
10
10
10
10
10
10
10
10
10
10
10
10
10
10
10
10
10
10
10
10
10
10
10
10
10
10
10
10
10
10
10
10
10
10
10
10
10
10
10
10
10
10
10
10
10
10
10
10
10
10
10
10
10
10
10
10
10
10
10
10
10
10
10
10
10
10
10
10
10
10
10
10
10
10
10
10
10
10
10
10
10
10
10
10
10
10
10
10
10
10
10
10
10
10
10
10
10
10
10
10
10
10
10
10
10
10
10
10
10
10
10
10
10
10
10
10
10
10
10
10
10
10
10
10
10
10
10
10
10
10
10
10
10
10
10
10
10
10
10
10
10
10
10
10
10
10
10
10
10
10
10
10
10
10
10
10
10
10
10
10
10
10
10
10
10
10
10
10
10
10
10
10
10
10
10
10
10
10
10
10
10
10
10
10
10
10
10
10
10
10
10
10
10
10
10
10
10
10
10
10
10
10
10
10
10
10
10
10
10
10
10
10
10
10
10
10
10
10
10
10
10
10
10
10
10
10
10
10
10
10
10
10
10
10
10
10
10
10
10
10
10
10
10
10
10
10
10
10
10
10
10
10
10
10
10
10
10
10
10
10
10
10
10
10
10
10
10
10
10
10
10
10
10
10
10
10
10
10
10
10
10
10
10
10
10
10
10
10
10
10
10
10
10
10
10
10
10
10
10
10
10
10
10
10
10
10
10
10
10
10
10
10
10
10
10
10
10
10
10
10
10
10
10
10
10
10
10
10
10
10
10
10
10
10
10
10
10
10
10
10
10
10
10
10
10
10
10
10
10
10
10
10
10
10
10
10
10
10
10
10
10
10
10
10
10
10
10
10
10
10
10
10
10
10
10
10
10
10
10
10
10
10
10
10
10
10
10
10
10
10
10
10
10
10
10
10
10
10
10
10
10
10
10
10
10
10
10
10
10
10
10
10
10
10
10
10
10
10
10
10
10
10
10
10
10
10
10
10
10
10
10
10
10
10
10
10
10
10
10
10
10
10
10
10
10
10
10
10
10
10
10
10
10
10
10
10
10
10
10
10
10
10
10
10
10
10
10
10
10
10
10
10
10
10
10
10
10
10
10
10
10
10
10
10
10
10
10
10
10
10
10
10
10
10
10
10
10
10
10
10
10
10
10
10
10
10
10
10
10
10
10
10
10
10
10
10
10
10
10
10
10
10
10
10
10
10
10
10
10
10
10
10
10
10
10
10
10
10
10
10
10
10
10
              </DataArray>   
          </Cells>  
          <PointData>  
             <DataArray type="Float64" NumberOfComponents="3" Name="Strains" format="ascii">   
-5.0563138292273415e-05   0.0   -3.3306510373248894e-05
-5.0563138292273415e-05   0.0   -3.3306510373248894e-05
-5.0563138292273415e-05   0.0   -3.3306510373248894e-05
-5.0563138292273415e-05   0.0   -3.3306510373248894e-05
-3.2162252911419775e-05   5.585260096377536e-06   7.127879860002986e-07
-3.2162252911419775e-05   5.585260096377536e-06   7.127879860002986e-07
-3.2162252911419775e-05   5.585260096377536e-06   7.127879860002986e-07
-3.2162252911419775e-05   5.585260096377536e-06   7.127879860002986e-07
-3.151794217797757e-05   0.0   -3.145082094114758e-05
-3.151794217797757e-05   0.0   -3.145082094114758e-05
-3.151794217797757e-05   0.0   -3.145082094114758e-05
-3.151794217797757e-05   0.0   -3.145082094114758e-05
-5.2906520832375476e-05   6.710309663165229e-06   1.7062435161662435e-07
-5.2906520832375476e-05   6.710309663165229e-06   1.7062435161662435e-07
-5.2906520832375476e-05   6.710309663165229e-06   1.7062435161662435e-07
-5.2906520832375476e-05   6.710309663165229e-06   1.7062435161662435e-07
-4.104054023512542e-05   1.5464078600844325e-06   -1.6507668895284986e-05
-4.104054023512542e-05   1.5464078600844325e-06   -1.6507668895284986e-05
-4.104054023512542e-05   1.5464078600844325e-06   -1.6507668895284986e-05
-4.104054023512542e-05   1.5464078600844325e-06   -1.6507668895284986e-05
-5.290652083237557e-05   0.0   -3.5477006739046725e-05
-5.290652083237557e-05   0.0   -3.5477006739046725e-05
-5.290652083237557e-05   0.0   -3.5477006739046725e-05
-5.290652083237557e-05   0.0   -3.5477006739046725e-05
-3.151794217797757e-05   6.7103096631652425e-06   4.196810149515763e-06
-3.151794217797757e-05   6.7103096631652425e-06   4.196810149515763e-06
-3.151794217797757e-05   6.7103096631652425e-06   4.196810149515763e-06
-3.151794217797757e-05   6.7103096631652425e-06   4.196810149515763e-06
-3.15979123117801e-05   0.0   -3.221822667533947e-05
-3.15979123117801e-05   0.0   -3.221822667533947e-05
-3.15979123117801e-05   0.0   -3.221822667533947e-05
-3.15979123117801e-05   0.0   -3.221822667533947e-05
-5.4548162252190945e-05   7.191186078055761e-06   1.717478245178618e-06
-5.4548162252190945e-05   7.191186078055761e-06   1.717478245178618e-06
-5.4548162252190945e-05   7.191186078055761e-06   1.717478245178618e-06
-5.4548162252190945e-05   7.191186078055761e-06   1.717478245178618e-06
-4.2252216572077764e-05   2.715650053089374e-06   -1.6090442940030168e-05
-4.2252216572077764e-05   2.715650053089374e-06   -1.6090442940030168e-05
-4.2252216572077764e-05   2.715650053089374e-06   -1.6090442940030168e-05
-4.2252216572077764e-05   2.715650053089374e-06   -1.6090442940030168e-05
-5.454816225219104e-05   0.0   -3.653293832217294e-05
-5.454816225219104e-05   0.0   -3.653293832217294e-05
-5.454816225219104e-05   0.0   -3.653293832217294e-05
-5.454816225219104e-05   0.0   -3.653293832217294e-05
-3.15979123117801e-05   7.191186078055775e-06   6.032189892012087e-06
-3.15979123117801e-05   7.191186078055775e-06   6.032189892012087e-06
-3.15979123117801e-05   7.191186078055775e-06   6.032189892012087e-06
-3.15979123117801e-05   7.191186078055775e-06   6.032189892012087e-06
-3.157125288341981e-05   0.0   -3.2416825308897784e-05
-3.157125288341981e-05   0.0   -3.2416825308897784e-05
-3.157125288341981e-05   0.0   -3.2416825308897784e-05
-3.157125288341981e-05   0.0   -3.2416825308897784e-05
-5.809355832668423e-05   8.19879446060746e-06   6.867740420178593e-06
-5.809355832668423e-05   8.19879446060746e-06   6.867740420178593e-06
-5.809355832668423e-05   8.19879446060746e-06   6.867740420178593e-06
-5.809355832668423e-05   8.19879446060746e-06   6.867740420178593e-06
-4.3059707567805354e-05   3.430094177729291e-06   -1.53274573415593e-05
-4.3059707567805354e-05   3.430094177729291e-06   -1.53274573415593e-05
-4.3059707567805354e-05   3.430094177729291e-06   -1.53274573415593e-05
-4.3059707567805354e-05   3.430094177729291e-06   -1.53274573415593e-05
-3.216225291141983e-05   0.0   -2.9955354315422373e-05
-3.216225291141983e-05   0.0   -2.9955354315422373e-05
-3.216225291141983e-05   0.0   -2.9955354315422373e-05
-3.216225291141983e-05   0.0   -2.9955354315422373e-05
-1.4657174646691518e-05   2.0453346625802187e-06   4.4697692333958266e-07
-1.4657174646691518e-05   2.0453346625802187e-06   4.4697692333958266e-07
-1.4657174646691518e-05   2.0453346625802187e-06   4.4697692333958266e-07
-1.4657174646691518e-05   2.0453346625802187e-06   4.4697692333958266e-07
-1.4088373301639446e-05   0.0   -2.9700471844035788e-05
-1.4088373301639446e-05   0.0   -2.9700471844035788e-05
-1.4088373301639446e-05   0.0   -2.9700471844035788e-05
-1.4088373301639446e-05   0.0   -2.9700471844035788e-05
-3.151794217797757e-05   2.9172484951863143e-06   -2.401539480584052e-06
-3.151794217797757e-05   2.9172484951863143e-06   -2.401539480584052e-06
-3.151794217797757e-05   2.9172484951863143e-06   -2.401539480584052e-06
-3.151794217797757e-05   2.9172484951863143e-06   -2.401539480584052e-06
-2.3125313106529598e-05   2.1240205948882168e-07   -1.4766346738245391e-05
-2.3125313106529598e-05   2.1240205948882168e-07   -1.4766346738245391e-05
-2.3125313106529598e-05   2.1240205948882168e-07   -1.4766346738245391e-05
-2.3125313106529598e-05   2.1240205948882168e-07   -1.4766346738245391e-05
-3.151794217797753e-05   0.0   -3.145082094114755e-05
-3.151794217797753e-05   0.0   -3.145082094114755e-05
-3.151794217797753e-05   0.0   -3.145082094114755e-05
-3.151794217797753e-05   0.0   -3.145082094114755e-05
-1.4088373301639446e-05   2.9172484951863143e-06   -6.511903834722634e-07
-1.4088373301639446e-05   2.9172484951863143e-06   -6.511903834722634e-07
-1.4088373301639446e-05   2.9172484951863143e-06   -6.511903834722634e-07
-1.4088373301639446e-05   2.9172484951863143e-06   -6.511903834722634e-07
-1.3765272299990422e-05   0.0   -3.0071449042220156e-05
-1.3765272299990422e-05   0.0   -3.0071449042220156e-05
-1.3765272299990422e-05   0.0   -3.0071449042220156e-05
-1.3765272299990422e-05   0.0   -3.0071449042220156e-05
-3.15979123117801e-05   3.577962721865528e-06   -2.497159989023345e-06
-3.15979123117801e-05   3.577962721865528e-06   -2.497159989023345e-06
-3.15979123117801e-05   3.577962721865528e-06   -2.497159989023345e-06
-3.15979123117801e-05   3.577962721865528e-06   -2.497159989023345e-06
-2.2641607238983945e-05   1.1494765824395166e-06   -1.596724342669453e-05
-2.2641607238983945e-05   1.1494765824395166e-06   -1.596724342669453e-05
-2.2641607238983945e-05   1.1494765824395166e-06   -1.596724342669453e-05
-2.2641607238983945e-05   1.1494765824395166e-06   -1.596724342669453e-05
-3.15979123117801e-05   0.0   -3.221822667533947e-05
-3.15979123117801e-05   0.0   -3.221822667533947e-05
-3.15979123117801e-05   0.0   -3.221822667533947e-05
-3.15979123117801e-05   0.0   -3.221822667533947e-05
-1.3765272299990422e-05   3.577962721865528e-06   -3.5038235590403033e-07
-1.3765272299990422e-05   3.577962721865528e-06   -3.5038235590403033e-07
-1.3765272299990422e-05   3.577962721865528e-06   -3.5038235590403033e-07
-1.3765272299990422e-05   3.577962721865528e-06   -3.5038235590403033e-07
-1.3469590650334414e-05   0.0   -2.9917530057066786e-05
-1.3469590650334414e-05   0.0   -2.9917530057066786e-05
-1.3469590650334414e-05   0.0   -2.9917530057066786e-05
-1.3469590650334414e-05   0.0   -2.9917530057066786e-05
-3.157125288341973e-05   4.165492086384944e-06   -2.247388253755447e-06
-3.157125288341973e-05   4.165492086384944e-06   -2.247388253755447e-06
-3.157125288341973e-05   4.165492086384944e-06   -2.247388253755447e-06
-3.157125288341973e-05   4.165492086384944e-06   -2.247388253755447e-06
-2.2533751481057248e-05   1.9172471818938857e-06   -1.5960943648331726e-05
-2.2533751481057248e-05   1.9172471818938857e-06   -1.5960943648331726e-05
-2.2533751481057248e-05   1.9172471818938857e-06   -1.5960943648331726e-05
-2.2533751481057248e-05   1.9172471818938857e-06   -1.5960943648331726e-05
-1.4657174646691545e-05   0.0   -2.8728153517874238e-05
-1.4657174646691545e-05   0.0   -2.8728153517874238e-05
-1.4657174646691545e-05   0.0   -2.8728153517874238e-05
-1.4657174646691545e-05   0.0   -2.8728153517874238e-05
1.874215940956129e-06   -2.643850289697018e-07   -1.3344668891765756e-06
1.874215940956129e-06   -2.643850289697018e-07   -1.3344668891765756e-06
1.874215940956129e-06   -2.643850289697018e-07   -1.3344668891765756e-06
1.874215940956129e-06   -2.643850289697018e-07   -1.3344668891765756e-06
2.2414139848592473e-06   0.0   -2.93895416285096e-05
2.2414139848592473e-06   0.0   -2.93895416285096e-05
2.2414139848592473e-06   0.0   -2.93895416285096e-05
2.2414139848592473e-06   0.0   -2.93895416285096e-05
-1.4088373301639422e-05   5.182170258768136e-07   -2.484159699871283e-06
-1.4088373301639422e-05   5.182170258768136e-07   -2.484159699871283e-06
-1.4088373301639422e-05   5.182170258768136e-07   -2.484159699871283e-06
-1.4088373301639422e-05   5.182170258768136e-07   -2.484159699871283e-06
-6.207880330916123e-06   -5.511567588628843e-07   -1.497669038023291e-05
-6.207880330916123e-06   -5.511567588628843e-07   -1.497669038023291e-05
-6.207880330916123e-06   -5.511567588628843e-07   -1.497669038023291e-05
-6.207880330916123e-06   -5.511567588628843e-07   -1.497669038023291e-05
-1.4088373301639446e-05   0.0   -2.9700471844035788e-05
-1.4088373301639446e-05   0.0   -2.9700471844035788e-05
-1.4088373301639446e-05   0.0   -2.9700471844035788e-05
-1.4088373301639446e-05   0.0   -2.9700471844035788e-05
2.2414139848592516e-06   5.182170258768136e-07   -2.173229484345197e-06
2.2414139848592516e-06   5.182170258768136e-07   -2.173229484345197e-06
2.2414139848592516e-06   5.182170258768136e-07   -2.173229484345197e-06
2.2414139848592516e-06   5.182170258768136e-07   -2.173229484345197e-06
2.5324084289553174e-06   0.0   -2.9346810764102766e-05
2.5324084289553174e-06   0.0   -2.9346810764102766e-05
2.5324084289553174e-06   0.0   -2.9346810764102766e-05
2.5324084289553174e-06   0.0   -2.9346810764102766e-05
-1.3765272299990374e-05   1.2077304635288945e-06   -2.9086478273105777e-06
-1.3765272299990374e-05   1.2077304635288945e-06   -2.9086478273105777e-06
-1.3765272299990374e-05   1.2077304635288945e-06   -2.9086478273105777e-06
-1.3765272299990374e-05   1.2077304635288945e-06   -2.9086478273105777e-06
-5.777982436342052e-06   2.947175666108068e-07   -1.5672989861906955e-05
-5.777982436342052e-06   2.947175666108068e-07   -1.5672989861906955e-05
-5.777982436342052e-06   2.947175666108068e-07   -1.5672989861906955e-05
-5.777982436342052e-06   2.947175666108068e-07   -1.5672989861906955e-05
-1.3765272299990422e-05   0.0   -3.0071449042220156e-05
-1.3765272299990422e-05   0.0   -3.0071449042220156e-05
-1.3765272299990422e-05   0.0   -3.0071449042220156e-05
-1.3765272299990422e-05   0.0   -3.0071449042220156e-05
2.5324084289553216e-06   1.2077304635288945e-06   -2.1840095491932493e-06
2.5324084289553216e-06   1.2077304635288945e-06   -2.1840095491932493e-06
2.5324084289553216e-06   1.2077304635288945e-06   -2.1840095491932493e-06
2.5324084289553216e-06   1.2077304635288945e-06   -2.1840095491932493e-06
2.920983109735937e-06   0.0   -2.8714030474044803e-05
2.920983109735937e-06   0.0   -2.8714030474044803e-05
2.920983109735937e-06   0.0   -2.8714030474044803e-05
2.920983109735937e-06   0.0   -2.8714030474044803e-05
-1.3469590650334378e-05   2.005832638369926e-06   -2.5999071236161995e-06
-1.3469590650334378e-05   2.005832638369926e-06   -2.5999071236161995e-06
-1.3469590650334378e-05   2.005832638369926e-06   -2.5999071236161995e-06
-1.3469590650334378e-05   2.005832638369926e-06   -2.5999071236161995e-06
-5.4221445951272305e-06   1.1311821401460847e-06   -1.5487526916693833e-05
-5.4221445951272305e-06   1.1311821401460847e-06   -1.5487526916693833e-05
-5.4221445951272305e-06   1.1311821401460847e-06   -1.5487526916693833e-05
-5.4221445951272305e-06   1.1311821401460847e-06   -1.5487526916693833e-05
1.8742159409561323e-06   0.0   -2.8886784535256063e-05
1.8742159409561323e-06   0.0   -2.8886784535256063e-05
1.8742159409561323e-06   0.0   -2.8886784535256063e-05
1.8742159409561323e-06   0.0   -2.8886784535256063e-05
1.98263758373279e-05   -2.325478356062066e-06   -3.6180505494033997e-07
1.98263758373279e-05   -2.325478356062066e-06   -3.6180505494033997e-07
1.98263758373279e-05   -2.325478356062066e-06   -3.6180505494033997e-07
1.98263758373279e-05   -2.325478356062066e-06   -3.6180505494033997e-07
1.9872527721588896e-05   0.0   -3.0439895491496932e-05
1.9872527721588896e-05   0.0   -3.0439895491496932e-05
1.9872527721588896e-05   0.0   -3.0439895491496932e-05
1.9872527721588896e-05   0.0   -3.0439895491496932e-05
2.2414139848592554e-06   -1.7505897716453816e-06   -4.352067293636031e-09
2.2414139848592554e-06   -1.7505897716453816e-06   -4.352067293636031e-09
2.2414139848592554e-06   -1.7505897716453816e-06   -4.352067293636031e-09
2.2414139848592554e-06   -1.7505897716453816e-06   -4.352067293636031e-09
1.0873371831272514e-05   -1.2942591302007242e-06   -1.4664746862849185e-05
1.0873371831272514e-05   -1.2942591302007242e-06   -1.4664746862849185e-05
1.0873371831272514e-05   -1.2942591302007242e-06   -1.4664746862849185e-05
1.0873371831272514e-05   -1.2942591302007242e-06   -1.4664746862849185e-05
2.2414139848592554e-06   0.0   -2.93895416285097e-05
2.2414139848592554e-06   0.0   -2.93895416285097e-05
2.2414139848592554e-06   0.0   -2.93895416285097e-05
2.2414139848592554e-06   0.0   -2.93895416285097e-05
1.9872527721588896e-05   -1.7505897716453816e-06   -1.0547059302808655e-06
1.9872527721588896e-05   -1.7505897716453816e-06   -1.0547059302808655e-06
1.9872527721588896e-05   -1.7505897716453816e-06   -1.0547059302808655e-06
1.9872527721588896e-05   -1.7505897716453816e-06   -1.0547059302808655e-06
1.979680761247076e-05   0.0   -3.0005303346384502e-05
1.979680761247076e-05   0.0   -3.0005303346384502e-05
1.979680761247076e-05   0.0   -3.0005303346384502e-05
1.979680761247076e-05   0.0   -3.0005303346384502e-05
2.5324084289553216e-06   -1.0974876371361352e-06   -5.728121249104196e-07
2.5324084289553216e-06   -1.0974876371361352e-06   -5.728121249104196e-07
2.5324084289553216e-06   -1.0974876371361352e-06   -5.728121249104196e-07
2.5324084289553216e-06   -1.0974876371361352e-06   -5.728121249104196e-07
1.1019110798665008e-05   -5.131347648956642e-07   -1.5067927797770835e-05
1.1019110798665008e-05   -5.131347648956642e-07   -1.5067927797770835e-05
1.1019110798665008e-05   -5.131347648956642e-07   -1.5067927797770835e-05
1.1019110798665008e-05   -5.131347648956642e-07   -1.5067927797770835e-05
2.5324084289553195e-06   0.0   -2.9346810764102793e-05
2.5324084289553195e-06   0.0   -2.9346810764102793e-05
2.5324084289553195e-06   0.0   -2.9346810764102793e-05
2.5324084289553195e-06   0.0   -2.9346810764102793e-05
1.979680761247076e-05   -1.0974876371361352e-06   -1.2313047071921043e-06
1.979680761247076e-05   -1.0974876371361352e-06   -1.2313047071921043e-06
1.979680761247076e-05   -1.0974876371361352e-06   -1.2313047071921043e-06
1.979680761247076e-05   -1.0974876371361352e-06   -1.2313047071921043e-06
2.0189235753831183e-05   0.0   -2.884629235559626e-05
2.0189235753831183e-05   0.0   -2.884629235559626e-05
2.0189235753831183e-05   0.0   -2.884629235559626e-05
2.0189235753831183e-05   0.0   -2.884629235559626e-05
2.920983109735942e-06   -2.2043646925234349e-07   6.639059944721074e-08
2.920983109735942e-06   -2.2043646925234349e-07   6.639059944721074e-08
2.920983109735942e-06   -2.2043646925234349e-07   6.639059944721074e-08
2.920983109735942e-06   -2.2043646925234349e-07   6.639059944721074e-08
1.1360822091393244e-05   4.1709867375546567e-07   -1.4382528789119629e-05
1.1360822091393244e-05   4.1709867375546567e-07   -1.4382528789119629e-05
1.1360822091393244e-05   4.1709867375546567e-07   -1.4382528789119629e-05
1.1360822091393244e-05   4.1709867375546567e-07   -1.4382528789119629e-05
1.98263758373279e-05   0.0   -3.02820715488933e-05
1.98263758373279e-05   0.0   -3.02820715488933e-05
1.98263758373279e-05   0.0   -3.02820715488933e-05
1.98263758373279e-05   0.0   -3.02820715488933e-05
4.48184926160719e-05   -5.9024078979923454e-06   7.830011676884867e-06
4.48184926160719e-05   -5.9024078979923454e-06   7.830011676884867e-06
4.48184926160719e-05   -5.9024078979923454e-06   7.830011676884867e-06
4.48184926160719e-05   -5.9024078979923454e-06   7.830011676884867e-06
4.2105952049362866e-05   0.0   -3.344964803812646e-05
4.2105952049362866e-05   0.0   -3.344964803812646e-05
4.2105952049362866e-05   0.0   -3.344964803812646e-05
4.2105952049362866e-05   0.0   -3.344964803812646e-05
1.9872527721588896e-05   -5.0162542443825465e-06   6.615811721459685e-06
1.9872527721588896e-05   -5.0162542443825465e-06   6.615811721459685e-06
1.9872527721588896e-05   -5.0162542443825465e-06   6.615811721459685e-06
1.9872527721588896e-05   -5.0162542443825465e-06   6.615811721459685e-06
3.0966163943345385e-05   -2.6396470743609677e-06   -1.3299546283480724e-05
3.0966163943345385e-05   -2.6396470743609677e-06   -1.3299546283480724e-05
3.0966163943345385e-05   -2.6396470743609677e-06   -1.3299546283480724e-05
3.0966163943345385e-05   -2.6396470743609677e-06   -1.3299546283480724e-05
1.987252772158888e-05   0.0   -3.0439895491496905e-05
1.987252772158888e-05   0.0   -3.0439895491496905e-05
1.987252772158888e-05   0.0   -3.0439895491496905e-05
1.987252772158888e-05   0.0   -3.0439895491496905e-05
4.2105952049362724e-05   -5.016254244382533e-06   3.606059174830135e-06
4.2105952049362724e-05   -5.016254244382533e-06   3.606059174830135e-06
4.2105952049362724e-05   -5.016254244382533e-06   3.606059174830135e-06
4.2105952049362724e-05   -5.016254244382533e-06   3.606059174830135e-06
4.085933297451421e-05   0.0   -3.275431449443278e-05
4.085933297451421e-05   0.0   -3.275431449443278e-05
4.085933297451421e-05   0.0   -3.275431449443278e-05
4.085933297451421e-05   0.0   -3.275431449443278e-05
1.979680761247076e-05   -4.581685246747138e-06   5.0989055903545745e-06
1.979680761247076e-05   -4.581685246747138e-06   5.0989055903545745e-06
1.979680761247076e-05   -4.581685246747138e-06   5.0989055903545745e-06
1.979680761247076e-05   -4.581685246747138e-06   5.0989055903545745e-06
3.0365930348051536e-05   -1.9286825024465423e-06   -1.410810061552707e-05
3.0365930348051536e-05   -1.9286825024465423e-06   -1.410810061552707e-05
3.0365930348051536e-05   -1.9286825024465423e-06   -1.410810061552707e-05
3.0365930348051536e-05   -1.9286825024465423e-06   -1.410810061552707e-05
1.979680761247076e-05   0.0   -3.0005303346384502e-05
1.979680761247076e-05   0.0   -3.0005303346384502e-05
1.979680761247076e-05   0.0   -3.0005303346384502e-05
1.979680761247076e-05   0.0   -3.0005303346384502e-05
4.085933297451407e-05   -4.5816852467471175e-06   2.3498944423062864e-06
4.085933297451407e-05   -4.5816852467471175e-06   2.3498944423062864e-06
4.085933297451407e-05   -4.5816852467471175e-06   2.3498944423062864e-06
4.085933297451407e-05   -4.5816852467471175e-06   2.3498944423062864e-06
3.8996904011263794e-05   0.0   -3.097883096027961e-05
3.8996904011263794e-05   0.0   -3.097883096027961e-05
3.8996904011263794e-05   0.0   -3.097883096027961e-05
3.8996904011263794e-05   0.0   -3.097883096027961e-05
2.0189235753831183e-05   -3.554231007805665e-06   2.499821406791527e-06
2.0189235753831183e-05   -3.554231007805665e-06   2.499821406791527e-06
2.0189235753831183e-05   -3.554231007805665e-06   2.499821406791527e-06
2.0189235753831183e-05   -3.554231007805665e-06   2.499821406791527e-06
2.939685581186731e-05   -8.112730115793026e-07   -1.4491986821004487e-05
2.939685581186731e-05   -8.112730115793026e-07   -1.4491986821004487e-05
2.939685581186731e-05   -8.112730115793026e-07   -1.4491986821004487e-05
2.939685581186731e-05   -8.112730115793026e-07   -1.4491986821004487e-05
-4.378051475921573e-05   5.585260096377522e-06   -2.8806697670619276e-05
-4.378051475921573e-05   5.585260096377522e-06   -2.8806697670619276e-05
-4.378051475921573e-05   5.585260096377522e-06   -2.8806697670619276e-05
-4.378051475921573e-05   5.585260096377522e-06   -2.8806697670619276e-05
-2.8049172551467962e-05   5.017267864357387e-06   -2.928589330251723e-06
-2.8049172551467962e-05   5.017267864357387e-06   -2.928589330251723e-06
-2.8049172551467962e-05   5.017267864357387e-06   -2.928589330251723e-06
-2.8049172551467962e-05   5.017267864357387e-06   -2.928589330251723e-06
-2.875018636319172e-05   6.710309663165222e-06   -2.4200689078028516e-05
-2.875018636319172e-05   6.710309663165222e-06   -2.4200689078028516e-05
-2.875018636319172e-05   6.710309663165222e-06   -2.4200689078028516e-05
-2.875018636319172e-05   6.710309663165222e-06   -2.4200689078028516e-05
-4.4244568344001715e-05   6.026830878821975e-06   2.0333681605941864e-06
-4.4244568344001715e-05   6.026830878821975e-06   2.0333681605941864e-06
-4.4244568344001715e-05   6.026830878821975e-06   2.0333681605941864e-06
-4.4244568344001715e-05   6.026830878821975e-06   2.0333681605941864e-06
-3.477150392443158e-05   5.836551382563105e-06   -1.3640904840934274e-05
-3.477150392443158e-05   5.836551382563105e-06   -1.3640904840934274e-05
-3.477150392443158e-05   5.836551382563105e-06   -1.3640904840934274e-05
-3.477150392443158e-05   5.836551382563105e-06   -1.3640904840934274e-05
-4.4244568344001715e-05   6.710309663165222e-06   -2.3790601807422547e-05
-4.4244568344001715e-05   6.710309663165222e-06   -2.3790601807422547e-05
-4.4244568344001715e-05   6.710309663165222e-06   -2.3790601807422547e-05
-4.4244568344001715e-05   6.710309663165222e-06   -2.3790601807422547e-05
-2.8750186363191813e-05   6.026830878822002e-06   1.6232808899882382e-06
-2.8750186363191813e-05   6.026830878822002e-06   1.6232808899882382e-06
-2.8750186363191813e-05   6.026830878822002e-06   1.6232808899882382e-06
-2.8750186363191813e-05   6.026830878822002e-06   1.6232808899882382e-06
-2.8892066270122914e-05   7.191186078055761e-06   -2.1763399572807053e-05
-2.8892066270122914e-05   7.191186078055761e-06   -2.1763399572807053e-05
-2.8892066270122914e-05   7.191186078055761e-06   -2.1763399572807053e-05
-2.8892066270122914e-05   7.191186078055761e-06   -2.1763399572807053e-05
-4.454742184009183e-05   6.48266658981195e-06   4.75397140342062e-06
-4.454742184009183e-05   6.48266658981195e-06   4.75397140342062e-06
-4.454742184009183e-05   6.48266658981195e-06   4.75397140342062e-06
-4.454742184009183e-05   6.48266658981195e-06   4.75397140342062e-06
-3.578748166405592e-05   6.471095168883299e-06   -9.838986037415248e-06
-3.578748166405592e-05   6.471095168883299e-06   -9.838986037415248e-06
-3.578748166405592e-05   6.471095168883299e-06   -9.838986037415248e-06
-3.578748166405592e-05   6.471095168883299e-06   -9.838986037415248e-06
-4.4547421840091747e-05   7.191186078055761e-06   -2.1338287879860756e-05
-4.4547421840091747e-05   7.191186078055761e-06   -2.1338287879860756e-05
-4.4547421840091747e-05   7.191186078055761e-06   -2.1338287879860756e-05
-4.4547421840091747e-05   7.191186078055761e-06   -2.1338287879860756e-05
-2.889206627012297e-05   6.48266658981195e-06   4.328859710474322e-06
-2.889206627012297e-05   6.48266658981195e-06   4.328859710474322e-06
-2.889206627012297e-05   6.48266658981195e-06   4.328859710474322e-06
-2.889206627012297e-05   6.48266658981195e-06   4.328859710474322e-06
-2.8722420280944026e-05   8.198794460607447e-06   -1.609769597436545e-05
-2.8722420280944026e-05   8.198794460607447e-06   -1.609769597436545e-05
-2.8722420280944026e-05   8.198794460607447e-06   -1.609769597436545e-05
-2.8722420280944026e-05   8.198794460607447e-06   -1.609769597436545e-05
-4.329968005782046e-05   6.847800556026212e-06   9.00833332984389e-06
-4.329968005782046e-05   6.847800556026212e-06   9.00833332984389e-06
-4.329968005782046e-05   6.847800556026212e-06   9.00833332984389e-06
-4.329968005782046e-05   6.847800556026212e-06   9.00833332984389e-06
-3.484889330909117e-05   7.100961992169961e-06   -5.2282081130578315e-06
-3.484889330909117e-05   7.100961992169961e-06   -5.2282081130578315e-06
-3.484889330909117e-05   7.100961992169961e-06   -5.2282081130578315e-06
-3.484889330909117e-05   7.100961992169961e-06   -5.2282081130578315e-06
-2.8049172551467962e-05   2.0453346625802187e-06   -3.06405048700402e-05
-2.8049172551467962e-05   2.0453346625802187e-06   -3.06405048700402e-05
-2.8049172551467962e-05   2.0453346625802187e-06   -3.06405048700402e-05
-2.8049172551467962e-05   2.0453346625802187e-06   -3.06405048700402e-05
-1.3305761351388202e-05   2.334783384164282e-06   -5.89448363695679e-06
-1.3305761351388202e-05   2.334783384164282e-06   -5.89448363695679e-06
-1.3305761351388202e-05   2.334783384164282e-06   -5.89448363695679e-06
-1.3305761351388202e-05   2.334783384164282e-06   -5.89448363695679e-06
-1.3618638642536269e-05   2.9172484951863143e-06   -3.059157265454297e-05
-1.3618638642536269e-05   2.9172484951863143e-06   -3.059157265454297e-05
-1.3618638642536269e-05   2.9172484951863143e-06   -3.059157265454297e-05
-1.3618638642536269e-05   2.9172484951863143e-06   -3.059157265454297e-05
-2.875018636319172e-05   3.263025251161851e-06   -5.579792507035808e-06
-2.875018636319172e-05   3.263025251161851e-06   -5.579792507035808e-06
-2.875018636319172e-05   3.263025251161851e-06   -5.579792507035808e-06
-2.875018636319172e-05   3.263025251161851e-06   -5.579792507035808e-06
-2.0871660291197235e-05   2.626942575672839e-06   -1.8329019688400046e-05
-2.0871660291197235e-05   2.626942575672839e-06   -1.8329019688400046e-05
-2.0871660291197235e-05   2.626942575672839e-06   -1.8329019688400046e-05
-2.0871660291197235e-05   2.626942575672839e-06   -1.8329019688400046e-05
-2.875018636319169e-05   2.9172484951863143e-06   -3.079903870812825e-05
-2.875018636319169e-05   2.9172484951863143e-06   -3.079903870812825e-05
-2.875018636319169e-05   2.9172484951863143e-06   -3.079903870812825e-05
-2.875018636319169e-05   2.9172484951863143e-06   -3.079903870812825e-05
-1.3618638642536293e-05   3.2630252511618783e-06   -5.3723264534505e-06
-1.3618638642536293e-05   3.2630252511618783e-06   -5.3723264534505e-06
-1.3618638642536293e-05   3.2630252511618783e-06   -5.3723264534505e-06
-1.3618638642536293e-05   3.2630252511618783e-06   -5.3723264534505e-06
-1.371329624101684e-05   3.5779627218655144e-06   -3.0020348689569596e-05
-1.371329624101684e-05   3.5779627218655144e-06   -3.0020348689569596e-05
-1.371329624101684e-05   3.5779627218655144e-06   -3.0020348689569596e-05
-1.371329624101684e-05   3.5779627218655144e-06   -3.0020348689569596e-05
-2.8892066270122914e-05   4.031963995653609e-06   -4.994799405332335e-06
-2.8892066270122914e-05   4.031963995653609e-06   -4.994799405332335e-06
-2.8892066270122914e-05   4.031963995653609e-06   -4.994799405332335e-06
-2.8892066270122914e-05   4.031963995653609e-06   -4.994799405332335e-06
-2.1030205734378522e-05   3.3366929358643785e-06   -1.768073766236608e-05
-2.1030205734378522e-05   3.3366929358643785e-06   -1.768073766236608e-05
-2.1030205734378522e-05   3.3366929358643785e-06   -1.768073766236608e-05
-2.1030205734378522e-05   3.3366929358643785e-06   -1.768073766236608e-05
-2.8892066270122914e-05   3.5779627218655144e-06   -3.0292749453842445e-05
-2.8892066270122914e-05   3.5779627218655144e-06   -3.0292749453842445e-05
-2.8892066270122914e-05   3.5779627218655144e-06   -3.0292749453842445e-05
-2.8892066270122914e-05   3.5779627218655144e-06   -3.0292749453842445e-05
-1.3713296241016888e-05   4.031963995653609e-06   -4.722398641059519e-06
-1.3713296241016888e-05   4.031963995653609e-06   -4.722398641059519e-06
-1.3713296241016888e-05   4.031963995653609e-06   -4.722398641059519e-06
-1.3713296241016888e-05   4.031963995653609e-06   -4.722398641059519e-06
-1.3674919755518551e-05   4.165492086384944e-06   -2.9715504991212823e-05
-1.3674919755518551e-05   4.165492086384944e-06   -2.9715504991212823e-05
-1.3674919755518551e-05   4.165492086384944e-06   -2.9715504991212823e-05
-1.3674919755518551e-05   4.165492086384944e-06   -2.9715504991212823e-05
-2.8722420280944006e-05   4.859819308803434e-06   -5.052933782288165e-06
-2.8722420280944006e-05   4.859819308803434e-06   -5.052933782288165e-06
-2.8722420280944006e-05   4.859819308803434e-06   -5.052933782288165e-06
-2.8722420280944006e-05   4.859819308803434e-06   -5.052933782288165e-06
-2.11489819021729e-05   3.97912248229473e-06   -1.7146912984334877e-05
-2.11489819021729e-05   3.97912248229473e-06   -1.7146912984334877e-05
-2.11489819021729e-05   3.97912248229473e-06   -1.7146912984334877e-05
-2.11489819021729e-05   3.97912248229473e-06   -1.7146912984334877e-05
-1.330576135138818e-05   -2.643850289697018e-07   -3.208964843222412e-05
-1.330576135138818e-05   -2.643850289697018e-07   -3.208964843222412e-05
-1.330576135138818e-05   -2.643850289697018e-07   -3.208964843222412e-05
-1.330576135138818e-05   -2.643850289697018e-07   -3.208964843222412e-05
1.2508115736566457e-06   -7.098301060023786e-08   -7.712652346127708e-06
1.2508115736566457e-06   -7.098301060023786e-08   -7.712652346127708e-06
1.2508115736566457e-06   -7.098301060023786e-08   -7.712652346127708e-06
1.2508115736566457e-06   -7.098301060023786e-08   -7.712652346127708e-06
1.1956273738828727e-06   5.182170258768068e-07   -3.2264751314778425e-05
1.1956273738828727e-06   5.182170258768068e-07   -3.2264751314778425e-05
1.1956273738828727e-06   5.182170258768068e-07   -3.2264751314778425e-05
1.1956273738828727e-06   5.182170258768068e-07   -3.2264751314778425e-05
-1.3618638642536269e-05   7.84534786149512e-07   -7.734098610243361e-06
-1.3618638642536269e-05   7.84534786149512e-07   -7.734098610243361e-06
-1.3618638642536269e-05   7.84534786149512e-07   -7.734098610243361e-06
-1.3618638642536269e-05   7.84534786149512e-07   -7.734098610243361e-06
-6.155868639327141e-06   2.610015145874359e-07   -1.9857928652654744e-05
-6.155868639327141e-06   2.610015145874359e-07   -1.9857928652654744e-05
-6.155868639327141e-06   2.610015145874359e-07   -1.9857928652654744e-05
-6.155868639327141e-06   2.610015145874359e-07   -1.9857928652654744e-05
-1.3618638642536269e-05   5.182170258768068e-07   -3.2424541970941995e-05
-1.3618638642536269e-05   5.182170258768068e-07   -3.2424541970941995e-05
-1.3618638642536269e-05   5.182170258768068e-07   -3.2424541970941995e-05
-1.3618638642536269e-05   5.182170258768068e-07   -3.2424541970941995e-05
1.1956273738828727e-06   7.84534786149512e-07   -7.574307954079757e-06
1.1956273738828727e-06   7.84534786149512e-07   -7.574307954079757e-06
1.1956273738828727e-06   7.84534786149512e-07   -7.574307954079757e-06
1.1956273738828727e-06   7.84534786149512e-07   -7.574307954079757e-06
1.119233143033439e-06   1.2077304635288945e-06   -3.2330882954627304e-05
1.119233143033439e-06   1.2077304635288945e-06   -3.2330882954627304e-05
1.119233143033439e-06   1.2077304635288945e-06   -3.2330882954627304e-05
1.119233143033439e-06   1.2077304635288945e-06   -3.2330882954627304e-05
-1.371329624101684e-05   1.6206158074436408e-06   -7.857731854225716e-06
-1.371329624101684e-05   1.6206158074436408e-06   -7.857731854225716e-06
-1.371329624101684e-05   1.6206158074436408e-06   -7.857731854225716e-06
-1.371329624101684e-05   1.6206158074436408e-06   -7.857731854225716e-06
-6.265756028527894e-06   9.856153660109195e-07   -1.988929861018092e-05
-6.265756028527894e-06   9.856153660109195e-07   -1.988929861018092e-05
-6.265756028527894e-06   9.856153660109195e-07   -1.988929861018092e-05
-6.265756028527894e-06   9.856153660109195e-07   -1.988929861018092e-05
-1.371329624101684e-05   1.2077304635288945e-06   -3.257861416097616e-05
-1.371329624101684e-05   1.2077304635288945e-06   -3.257861416097616e-05
-1.371329624101684e-05   1.2077304635288945e-06   -3.257861416097616e-05
-1.371329624101684e-05   1.2077304635288945e-06   -3.257861416097616e-05
1.1192331430334407e-06   1.6206158074436679e-06   -7.61000064787687e-06
1.1192331430334407e-06   1.6206158074436679e-06   -7.61000064787687e-06
1.1192331430334407e-06   1.6206158074436679e-06   -7.61000064787687e-06
1.1192331430334407e-06   1.6206158074436679e-06   -7.61000064787687e-06
9.597986972528033e-07   2.005832638369926e-06   -3.2275905509515946e-05
9.597986972528033e-07   2.005832638369926e-06   -3.2275905509515946e-05
9.597986972528033e-07   2.005832638369926e-06   -3.2275905509515946e-05
9.597986972528033e-07   2.005832638369926e-06   -3.2275905509515946e-05
-1.367491975551856e-05   2.491521977350964e-06   -8.176121691618971e-06
-1.367491975551856e-05   2.491521977350964e-06   -8.176121691618971e-06
-1.367491975551856e-05   2.491521977350964e-06   -8.176121691618971e-06
-1.367491975551856e-05   2.491521977350964e-06   -8.176121691618971e-06
-6.3303022563197066e-06   1.7300206617153793e-06   -1.9960250067569034e-05
-6.3303022563197066e-06   1.7300206617153793e-06   -1.9960250067569034e-05
-6.3303022563197066e-06   1.7300206617153793e-06   -1.9960250067569034e-05
-6.3303022563197066e-06   1.7300206617153793e-06   -1.9960250067569034e-05
1.2508115736566457e-06   -2.325478356062066e-06   -2.9605658373328943e-05
1.2508115736566457e-06   -2.325478356062066e-06   -2.9605658373328943e-05
1.2508115736566457e-06   -2.325478356062066e-06   -2.9605658373328943e-05
1.2508115736566457e-06   -2.325478356062066e-06   -2.9605658373328943e-05
1.625134259538173e-05   -2.390389163382708e-06   -4.64371982151285e-06
1.625134259538173e-05   -2.390389163382708e-06   -4.64371982151285e-06
1.625134259538173e-05   -2.390389163382708e-06   -4.64371982151285e-06
1.625134259538173e-05   -2.390389163382708e-06   -4.64371982151285e-06
1.6390243094638492e-05   -1.7505897716453748e-06   -3.0012751545779575e-05
1.6390243094638492e-05   -1.7505897716453748e-06   -3.0012751545779575e-05
1.6390243094638492e-05   -1.7505897716453748e-06   -3.0012751545779575e-05
1.6390243094638492e-05   -1.7505897716453748e-06   -3.0012751545779575e-05
1.1956273738828727e-06   -1.6120525184000673e-06   -4.771514363134008e-06
1.1956273738828727e-06   -1.6120525184000673e-06   -4.771514363134008e-06
1.1956273738828727e-06   -1.6120525184000673e-06   -4.771514363134008e-06
1.1956273738828727e-06   -1.6120525184000673e-06   -4.771514363134008e-06
8.660004254326519e-06   -1.931380930281912e-06   -1.7020545450077693e-05
8.660004254326519e-06   -1.931380930281912e-06   -1.7020545450077693e-05
8.660004254326519e-06   -1.931380930281912e-06   -1.7020545450077693e-05
8.660004254326519e-06   -1.931380930281912e-06   -1.7020545450077693e-05
1.195627373882871e-06   -1.7505897716453816e-06   -3.009587389772681e-05
1.195627373882871e-06   -1.7505897716453816e-06   -3.009587389772681e-05
1.195627373882871e-06   -1.7505897716453816e-06   -3.009587389772681e-05
1.195627373882871e-06   -1.7505897716453816e-06   -3.009587389772681e-05
1.639024309463852e-05   -1.6120525184000673e-06   -4.68839201118681e-06
1.639024309463852e-05   -1.6120525184000673e-06   -4.68839201118681e-06
1.639024309463852e-05   -1.6120525184000673e-06   -4.68839201118681e-06
1.639024309463852e-05   -1.6120525184000673e-06   -4.68839201118681e-06
1.6315193260219157e-05   -1.0974876371361352e-06   -3.057135335791064e-05
1.6315193260219157e-05   -1.0974876371361352e-06   -3.057135335791064e-05
1.6315193260219157e-05   -1.0974876371361352e-06   -3.057135335791064e-05
1.6315193260219157e-05   -1.0974876371361352e-06   -3.057135335791064e-05
1.119233143033439e-06   -8.502673497465013e-07   -5.393085335034935e-06
1.119233143033439e-06   -8.502673497465013e-07   -5.393085335034935e-06
1.119233143033439e-06   -8.502673497465013e-07   -5.393085335034935e-06
1.119233143033439e-06   -8.502673497465013e-07   -5.393085335034935e-06
8.572053040443926e-06   -1.3109458195242083e-06   -1.753804474885239e-05
8.572053040443926e-06   -1.3109458195242083e-06   -1.753804474885239e-05
8.572053040443926e-06   -1.3109458195242083e-06   -1.753804474885239e-05
8.572053040443926e-06   -1.3109458195242083e-06   -1.753804474885239e-05
1.1192331430334382e-06   -1.0974876371361352e-06   -3.071968553034443e-05
1.1192331430334382e-06   -1.0974876371361352e-06   -3.071968553034443e-05
1.1192331430334382e-06   -1.0974876371361352e-06   -3.071968553034443e-05
1.1192331430334382e-06   -1.0974876371361352e-06   -3.071968553034443e-05
1.631519326021921e-05   -8.502673497465013e-07   -5.244753162601153e-06
1.631519326021921e-05   -8.502673497465013e-07   -5.244753162601153e-06
1.631519326021921e-05   -8.502673497465013e-07   -5.244753162601153e-06
1.631519326021921e-05   -8.502673497465013e-07   -5.244753162601153e-06
1.584245811455135e-05   -2.2043646925234349e-07   -3.062614023488663e-05
1.584245811455135e-05   -2.2043646925234349e-07   -3.062614023488663e-05
1.584245811455135e-05   -2.2043646925234349e-07   -3.062614023488663e-05
1.584245811455135e-05   -2.2043646925234349e-07   -3.062614023488663e-05
9.597986972528033e-07   9.117542172732492e-08   -6.008675007310231e-06
9.597986972528033e-07   9.117542172732492e-08   -6.008675007310231e-06
9.597986972528033e-07   9.117542172732492e-08   -6.008675007310231e-06
9.597986972528033e-07   9.117542172732492e-08   -6.008675007310231e-06
8.48277235908231e-06   -5.863596688958058e-07   -1.8140443389318817e-05
8.48277235908231e-06   -5.863596688958058e-07   -1.8140443389318817e-05
8.48277235908231e-06   -5.863596688958058e-07   -1.8140443389318817e-05
8.48277235908231e-06   -5.863596688958058e-07   -1.8140443389318817e-05
1.625134259538173e-05   -5.9024078979923454e-06   -1.791134338710074e-05
1.625134259538173e-05   -5.9024078979923454e-06   -1.791134338710074e-05
1.625134259538173e-05   -5.9024078979923454e-06   -1.791134338710074e-05
1.625134259538173e-05   -5.9024078979923454e-06   -1.791134338710074e-05
3.1045530670047413e-05   -4.438184212150363e-06   7.624170948847221e-06
3.1045530670047413e-05   -4.438184212150363e-06   7.624170948847221e-06
3.1045530670047413e-05   -4.438184212150363e-06   7.624170948847221e-06
3.1045530670047413e-05   -4.438184212150363e-06   7.624170948847221e-06
3.223958793059255e-05   -5.01625424438254e-06   -2.1745445279132762e-05
3.223958793059255e-05   -5.01625424438254e-06   -2.1745445279132762e-05
3.223958793059255e-05   -5.01625424438254e-06   -2.1745445279132762e-05
3.223958793059255e-05   -5.01625424438254e-06   -2.1745445279132762e-05
1.6390243094638546e-05   -4.021606552871915e-06   4.073340832550944e-06
1.6390243094638546e-05   -4.021606552871915e-06   4.073340832550944e-06
1.6390243094638546e-05   -4.021606552871915e-06   4.073340832550944e-06
1.6390243094638546e-05   -4.021606552871915e-06   4.073340832550944e-06
2.2866119037502065e-05   -4.822898688200018e-06   -6.239010457691441e-06
2.2866119037502065e-05   -4.822898688200018e-06   -6.239010457691441e-06
2.2866119037502065e-05   -4.822898688200018e-06   -6.239010457691441e-06
2.2866119037502065e-05   -4.822898688200018e-06   -6.239010457691441e-06
1.6390243094638502e-05   -5.016254244382526e-06   -2.2342233894039052e-05
1.6390243094638502e-05   -5.016254244382526e-06   -2.2342233894039052e-05
1.6390243094638502e-05   -5.016254244382526e-06   -2.2342233894039052e-05
1.6390243094638502e-05   -5.016254244382526e-06   -2.2342233894039052e-05
3.223958793059255e-05   -4.021606552871915e-06   4.670129447457332e-06
3.223958793059255e-05   -4.021606552871915e-06   4.670129447457332e-06
3.223958793059255e-05   -4.021606552871915e-06   4.670129447457332e-06
3.223958793059255e-05   -4.021606552871915e-06   4.670129447457332e-06
3.2127036481321876e-05   -4.581685246747131e-06   -2.364214056566839e-05
3.2127036481321876e-05   -4.581685246747131e-06   -2.364214056566839e-05
3.2127036481321876e-05   -4.581685246747131e-06   -2.364214056566839e-05
3.2127036481321876e-05   -4.581685246747131e-06   -2.364214056566839e-05
1.631519326021921e-05   -3.583347755587655e-06   2.111928974807006e-06
1.631519326021921e-05   -3.583347755587655e-06   2.111928974807006e-06
1.631519326021921e-05   -3.583347755587655e-06   2.111928974807006e-06
1.631519326021921e-05   -3.583347755587655e-06   2.111928974807006e-06
2.3673190305114917e-05   -4.255976741741218e-06   -9.747822041660355e-06
2.3673190305114917e-05   -4.255976741741218e-06   -9.747822041660355e-06
2.3673190305114917e-05   -4.255976741741218e-06   -9.747822041660355e-06
2.3673190305114917e-05   -4.255976741741218e-06   -9.747822041660355e-06
1.6315193260219184e-05   -4.581685246747124e-06   -2.4241143060364025e-05
1.6315193260219184e-05   -4.581685246747124e-06   -2.4241143060364025e-05
1.6315193260219184e-05   -4.581685246747124e-06   -2.4241143060364025e-05
1.6315193260219184e-05   -4.581685246747124e-06   -2.4241143060364025e-05
3.2127036481321876e-05   -3.583347755587655e-06   2.7109314695026644e-06
3.2127036481321876e-05   -3.583347755587655e-06   2.7109314695026644e-06
3.2127036481321876e-05   -3.583347755587655e-06   2.7109314695026644e-06
3.2127036481321876e-05   -3.583347755587655e-06   2.7109314695026644e-06
3.194218570091235e-05   -3.554231007805665e-06   -2.7512305021335802e-05
3.194218570091235e-05   -3.554231007805665e-06   -2.7512305021335802e-05
3.194218570091235e-05   -3.554231007805665e-06   -2.7512305021335802e-05
3.194218570091235e-05   -3.554231007805665e-06   -2.7512305021335802e-05
1.5842458114551406e-05   -2.6406601333802933e-06   -1.2275682353894674e-06
1.5842458114551406e-05   -2.6406601333802933e-06   -1.2275682353894674e-06
1.5842458114551406e-05   -2.6406601333802933e-06   -1.2275682353894674e-06
1.5842458114551406e-05   -2.6406601333802933e-06   -1.2275682353894674e-06
2.30012609282604e-05   -3.6621804494600956e-06   -1.254599406858989e-05
2.30012609282604e-05   -3.6621804494600956e-06   -1.254599406858989e-05
2.30012609282604e-05   -3.6621804494600956e-06   -1.254599406858989e-05
2.30012609282604e-05   -3.6621804494600956e-06   -1.254599406858989e-05
-3.480095437151394e-05   5.017267864357387e-06   -2.407641225125416e-05
-3.480095437151394e-05   5.017267864357387e-06   -2.407641225125416e-05
-3.480095437151394e-05   5.017267864357387e-06   -2.407641225125416e-05
-3.480095437151394e-05   5.017267864357387e-06   -2.407641225125416e-05
-2.2833122931551497e-05   3.82725778818807e-06   -4.8440325636850415e-06
-2.2833122931551497e-05   3.82725778818807e-06   -4.8440325636850415e-06
-2.2833122931551497e-05   3.82725778818807e-06   -4.8440325636850415e-06
-2.2833122931551497e-05   3.82725778818807e-06   -4.8440325636850415e-06
-2.2940771576230988e-05   6.026830878821975e-06   -1.9994033744868945e-05
-2.2940771576230988e-05   6.026830878821975e-06   -1.9994033744868945e-05
-2.2940771576230988e-05   6.026830878821975e-06   -1.9994033744868945e-05
-2.2940771576230988e-05   6.026830878821975e-06   -1.9994033744868945e-05
-3.4265621857161425e-05   4.633373538694206e-06   -2.832088725748187e-07
-3.4265621857161425e-05   4.633373538694206e-06   -2.832088725748187e-07
-3.4265621857161425e-05   4.633373538694206e-06   -2.832088725748187e-07
-3.4265621857161425e-05   4.633373538694206e-06   -2.832088725748187e-07
-2.7495496450569185e-05   5.1035688955126295e-06   -1.1848868430986423e-05
-2.7495496450569185e-05   5.1035688955126295e-06   -1.1848868430986423e-05
-2.7495496450569185e-05   5.1035688955126295e-06   -1.1848868430986423e-05
-2.7495496450569185e-05   5.1035688955126295e-06   -1.1848868430986423e-05
-3.4265621857161425e-05   6.026830878821975e-06   -1.9157959340792278e-05
-3.4265621857161425e-05   6.026830878821975e-06   -1.9157959340792278e-05
-3.4265621857161425e-05   6.026830878821975e-06   -1.9157959340792278e-05
-3.4265621857161425e-05   6.026830878821975e-06   -1.9157959340792278e-05
-2.2940771576230988e-05   4.633373538694206e-06   -1.1192832766514856e-06
-2.2940771576230988e-05   4.633373538694206e-06   -1.1192832766514856e-06
-2.2940771576230988e-05   4.633373538694206e-06   -1.1192832766514856e-06
-2.2940771576230988e-05   4.633373538694206e-06   -1.1192832766514856e-06
-2.2914620877572104e-05   6.48266658981195e-06   -1.7107591396460704e-05
-2.2914620877572104e-05   6.48266658981195e-06   -1.7107591396460704e-05
-2.2914620877572104e-05   6.48266658981195e-06   -1.7107591396460704e-05
-2.2914620877572104e-05   6.48266658981195e-06   -1.7107591396460704e-05
-3.374535429557351e-05   4.98815663082196e-06   1.8403369422689223e-06
-3.374535429557351e-05   4.98815663082196e-06   1.8403369422689223e-06
-3.374535429557351e-05   4.98815663082196e-06   1.8403369422689223e-06
-3.374535429557351e-05   4.98815663082196e-06   1.8403369422689223e-06
-2.7728798929780882e-05   5.570826361299256e-06   -8.536857172338277e-06
-2.7728798929780882e-05   5.570826361299256e-06   -8.536857172338277e-06
-2.7728798929780882e-05   5.570826361299256e-06   -8.536857172338277e-06
-2.7728798929780882e-05   5.570826361299256e-06   -8.536857172338277e-06
-3.374535429557351e-05   6.48266658981195e-06   -1.6210885421066715e-05
-3.374535429557351e-05   6.48266658981195e-06   -1.6210885421066715e-05
-3.374535429557351e-05   6.48266658981195e-06   -1.6210885421066715e-05
-3.374535429557351e-05   6.48266658981195e-06   -1.6210885421066715e-05
-2.291462087757215e-05   4.98815663082196e-06   9.436309668750152e-07
-2.291462087757215e-05   4.98815663082196e-06   9.436309668750152e-07
-2.291462087757215e-05   4.98815663082196e-06   9.436309668750152e-07
-2.291462087757215e-05   4.98815663082196e-06   9.436309668750152e-07
-2.2935826945157204e-05   6.847800556026212e-06   -1.3070607303321301e-05
-2.2935826945157204e-05   6.847800556026212e-06   -1.3070607303321301e-05
-2.2935826945157204e-05   6.847800556026212e-06   -1.3070607303321301e-05
-2.2935826945157204e-05   6.847800556026212e-06   -1.3070607303321301e-05
-3.3068167957274664e-05   5.339375266721219e-06   4.721682890457247e-06
-3.3068167957274664e-05   5.339375266721219e-06   4.721682890457247e-06
-3.3068167957274664e-05   5.339375266721219e-06   4.721682890457247e-06
-3.3068167957274664e-05   5.339375266721219e-06   4.721682890457247e-06
-2.7093610765484808e-05   5.8182990741499575e-06   -5.523266713649357e-06
-2.7093610765484808e-05   5.8182990741499575e-06   -5.523266713649357e-06
-2.7093610765484808e-05   5.8182990741499575e-06   -5.523266713649357e-06
-2.7093610765484808e-05   5.8182990741499575e-06   -5.523266713649357e-06
-2.2833122931551497e-05   2.334783384164255e-06   -2.792998183661125e-05
-2.2833122931551497e-05   2.334783384164255e-06   -2.792998183661125e-05
-2.2833122931551497e-05   2.334783384164255e-06   -2.792998183661125e-05
-2.2833122931551497e-05   2.334783384164255e-06   -2.792998183661125e-05
-1.1640714803728828e-05   1.9108248107007372e-06   -9.530343434318234e-06
-1.1640714803728828e-05   1.9108248107007372e-06   -9.530343434318234e-06
-1.1640714803728828e-05   1.9108248107007372e-06   -9.530343434318234e-06
-1.1640714803728828e-05   1.9108248107007372e-06   -9.530343434318234e-06
-1.1779871183286843e-05   3.263025251161851e-06   -2.7532430876685873e-05
-1.1779871183286843e-05   3.263025251161851e-06   -2.7532430876685873e-05
-1.1779871183286843e-05   3.263025251161851e-06   -2.7532430876685873e-05
-1.1779871183286843e-05   3.263025251161851e-06   -2.7532430876685873e-05
-2.294077157623094e-05   2.7041523598403676e-06   -8.595606486986088e-06
-2.294077157623094e-05   2.7041523598403676e-06   -8.595606486986088e-06
-2.294077157623094e-05   2.7041523598403676e-06   -8.595606486986088e-06
-2.294077157623094e-05   2.7041523598403676e-06   -8.595606486986088e-06
-1.715018349132642e-05   2.6959924340099048e-06   -1.8241690672995416e-05
-1.715018349132642e-05   2.6959924340099048e-06   -1.8241690672995416e-05
-1.715018349132642e-05   2.6959924340099048e-06   -1.8241690672995416e-05
-1.715018349132642e-05   2.6959924340099048e-06   -1.8241690672995416e-05
-2.2940771576230954e-05   3.263025251161851e-06   -2.7197107141892923e-05
-2.2940771576230954e-05   3.263025251161851e-06   -2.7197107141892923e-05
-2.2940771576230954e-05   3.263025251161851e-06   -2.7197107141892923e-05
-2.2940771576230954e-05   3.263025251161851e-06   -2.7197107141892923e-05
-1.177987118328687e-05   2.704152359840422e-06   -8.93093022177895e-06
-1.177987118328687e-05   2.704152359840422e-06   -8.93093022177895e-06
-1.177987118328687e-05   2.704152359840422e-06   -8.93093022177895e-06
-1.177987118328687e-05   2.704152359840422e-06   -8.93093022177895e-06
-1.1869342677092934e-05   4.031963995653609e-06   -2.680459001816937e-05
-1.1869342677092934e-05   4.031963995653609e-06   -2.680459001816937e-05
-1.1869342677092934e-05   4.031963995653609e-06   -2.680459001816937e-05
-1.1869342677092934e-05   4.031963995653609e-06   -2.680459001816937e-05
-2.2914620877572104e-05   3.4097314858169128e-06   -8.022453511468883e-06
-2.2914620877572104e-05   3.4097314858169128e-06   -8.022453511468883e-06
-2.2914620877572104e-05   3.4097314858169128e-06   -8.022453511468883e-06
-2.2914620877572104e-05   3.4097314858169128e-06   -8.022453511468883e-06
-1.7179910404710857e-05   3.349184665535587e-06   -1.7543976207401866e-05
-1.7179910404710857e-05   3.349184665535587e-06   -1.7543976207401866e-05
-1.7179910404710857e-05   3.349184665535587e-06   -1.7543976207401866e-05
-1.7179910404710857e-05   3.349184665535587e-06   -1.7543976207401866e-05
-2.2914620877572104e-05   4.031963995653609e-06   -2.6431250512267402e-05
-2.2914620877572104e-05   4.031963995653609e-06   -2.6431250512267402e-05
-2.2914620877572104e-05   4.031963995653609e-06   -2.6431250512267402e-05
-2.2914620877572104e-05   4.031963995653609e-06   -2.6431250512267402e-05
-1.1869342677092974e-05   3.409731485816967e-06   -8.395793017370765e-06
-1.1869342677092974e-05   3.409731485816967e-06   -8.395793017370765e-06
-1.1869342677092974e-05   3.409731485816967e-06   -8.395793017370765e-06
-1.1869342677092974e-05   3.409731485816967e-06   -8.395793017370765e-06
-1.1985944594455024e-05   4.859819308803461e-06   -2.674050340679534e-05
-1.1985944594455024e-05   4.859819308803461e-06   -2.674050340679534e-05
-1.1985944594455024e-05   4.859819308803461e-06   -2.674050340679534e-05
-1.1985944594455024e-05   4.859819308803461e-06   -2.674050340679534e-05
-2.2935826945157177e-05   4.161110418652279e-06   -8.07147415486767e-06
-2.2935826945157177e-05   4.161110418652279e-06   -8.07147415486767e-06
-2.2935826945157177e-05   4.161110418652279e-06   -8.07147415486767e-06
-2.2935826945157177e-05   4.161110418652279e-06   -8.07147415486767e-06
-1.7381406377205986e-05   3.99685768787887e-06   -1.7230290129655417e-05
-1.7381406377205986e-05   3.99685768787887e-06   -1.7230290129655417e-05
-1.7381406377205986e-05   3.99685768787887e-06   -1.7230290129655417e-05
-1.7381406377205986e-05   3.99685768787887e-06   -1.7230290129655417e-05
-1.1640714803728801e-05   -7.098301060021075e-08   -3.0118566900881976e-05
-1.1640714803728801e-05   -7.098301060021075e-08   -3.0118566900881976e-05
-1.1640714803728801e-05   -7.098301060021075e-08   -3.0118566900881976e-05
-1.1640714803728801e-05   -7.098301060021075e-08   -3.0118566900881976e-05
-5.711249291466507e-07   1.0221038329279782e-07   -1.1565334406909243e-05
-5.711249291466507e-07   1.0221038329279782e-07   -1.1565334406909243e-05
-5.711249291466507e-07   1.0221038329279782e-07   -1.1565334406909243e-05
-5.711249291466507e-07   1.0221038329279782e-07   -1.1565334406909243e-05
-6.824977387531579e-07   7.84534786149512e-07   -2.9834622323095033e-05
-6.824977387531579e-07   7.84534786149512e-07   -2.9834622323095033e-05
-6.824977387531579e-07   7.84534786149512e-07   -2.9834622323095033e-05
-6.824977387531579e-07   7.84534786149512e-07   -2.9834622323095033e-05
-1.1779871183286843e-05   8.838359701222528e-07   -1.1398580625922587e-05
-1.1779871183286843e-05   8.838359701222528e-07   -1.1398580625922587e-05
-1.1779871183286843e-05   8.838359701222528e-07   -1.1398580625922587e-05
-1.1779871183286843e-05   8.838359701222528e-07   -1.1398580625922587e-05
-6.133561376128309e-06   5.154938828396045e-07   -2.0588091718817234e-05
-6.133561376128309e-06   5.154938828396045e-07   -2.0588091718817234e-05
-6.133561376128309e-06   5.154938828396045e-07   -2.0588091718817234e-05
-6.133561376128309e-06   5.154938828396045e-07   -2.0588091718817234e-05
-1.1779871183286843e-05   7.84534786149512e-07   -2.9894203033478737e-05
-1.1779871183286843e-05   7.84534786149512e-07   -2.9894203033478737e-05
-1.1779871183286843e-05   7.84534786149512e-07   -2.9894203033478737e-05
-1.1779871183286843e-05   7.84534786149512e-07   -2.9894203033478737e-05
-6.824977387531587e-07   8.838359701222528e-07   -1.1338999915538883e-05
-6.824977387531587e-07   8.838359701222528e-07   -1.1338999915538883e-05
-6.824977387531587e-07   8.838359701222528e-07   -1.1338999915538883e-05
-6.824977387531587e-07   8.838359701222528e-07   -1.1338999915538883e-05
-7.621985467208027e-07   1.6206158074436408e-06   -2.991436975269149e-05
-7.621985467208027e-07   1.6206158074436408e-06   -2.991436975269149e-05
-7.621985467208027e-07   1.6206158074436408e-06   -2.991436975269149e-05
-7.621985467208027e-07   1.6206158074436408e-06   -2.991436975269149e-05
-1.1869342677092954e-05   1.6632049385171665e-06   -1.142801634738212e-05
-1.1869342677092954e-05   1.6632049385171665e-06   -1.142801634738212e-05
-1.1869342677092954e-05   1.6632049385171665e-06   -1.142801634738212e-05
-1.1869342677092954e-05   1.6632049385171665e-06   -1.142801634738212e-05
-6.277956459964733e-06   1.204996350121911e-06   -2.0472068222891837e-05
-6.277956459964733e-06   1.204996350121911e-06   -2.0472068222891837e-05
-6.277956459964733e-06   1.204996350121911e-06   -2.0472068222891837e-05
-6.277956459964733e-06   1.204996350121911e-06   -2.0472068222891837e-05
-1.1869342677092954e-05   1.6206158074436679e-06   -2.9939923231335632e-05
-1.1869342677092954e-05   1.6206158074436679e-06   -2.9939923231335632e-05
-1.1869342677092954e-05   1.6206158074436679e-06   -2.9939923231335632e-05
-1.1869342677092954e-05   1.6206158074436679e-06   -2.9939923231335632e-05
-7.62198546720804e-07   1.6632049385171665e-06   -1.1402462868737883e-05
-7.62198546720804e-07   1.6632049385171665e-06   -1.1402462868737883e-05
-7.62198546720804e-07   1.6632049385171665e-06   -1.1402462868737883e-05
-7.62198546720804e-07   1.6632049385171665e-06   -1.1402462868737883e-05
-8.886947553265284e-07   2.491521977350964e-06   -3.0298833003550958e-05
-8.886947553265284e-07   2.491521977350964e-06   -3.0298833003550958e-05
-8.886947553265284e-07   2.491521977350964e-06   -3.0298833003550958e-05
-8.886947553265284e-07   2.491521977350964e-06   -3.0298833003550958e-05
-1.1985944594455014e-05   2.4606130540613734e-06   -1.1784871251029839e-05
-1.1985944594455014e-05   2.4606130540613734e-06   -1.1784871251029839e-05
-1.1985944594455014e-05   2.4606130540613734e-06   -1.1784871251029839e-05
-1.1985944594455014e-05   2.4606130540613734e-06   -1.1784871251029839e-05
-6.431477666286889e-06   1.902696721321122e-06   -2.0707566331665744e-05
-6.431477666286889e-06   1.902696721321122e-06   -2.0707566331665744e-05
-6.431477666286889e-06   1.902696721321122e-06   -2.0707566331665744e-05
-6.431477666286889e-06   1.902696721321122e-06   -2.0707566331665744e-05
-5.711249291466519e-07   -2.390389163382708e-06   -2.6906771855538905e-05
-5.711249291466519e-07   -2.390389163382708e-06   -2.6906771855538905e-05
-5.711249291466519e-07   -2.390389163382708e-06   -2.6906771855538905e-05
-5.711249291466519e-07   -2.390389163382708e-06   -2.6906771855538905e-05
1.043804295654297e-05   -1.598630873034918e-06   -8.083103738514263e-06
1.043804295654297e-05   -1.598630873034918e-06   -8.083103738514263e-06
1.043804295654297e-05   -1.598630873034918e-06   -8.083103738514263e-06
1.043804295654297e-05   -1.598630873034918e-06   -8.083103738514263e-06
1.043225023023841e-05   -1.6120525184000673e-06   -2.65932925154343e-05
1.043225023023841e-05   -1.6120525184000673e-06   -2.65932925154343e-05
1.043225023023841e-05   -1.6120525184000673e-06   -2.65932925154343e-05
1.043225023023841e-05   -1.6120525184000673e-06   -2.65932925154343e-05
-6.824977387531587e-07   -8.811588238749439e-07   -8.50724878383008e-06
-6.824977387531587e-07   -8.811588238749439e-07   -8.50724878383008e-06
-6.824977387531587e-07   -8.811588238749439e-07   -8.50724878383008e-06
-6.824977387531587e-07   -8.811588238749439e-07   -8.50724878383008e-06
4.867081920240091e-06   -1.5636526955103492e-06   -1.7347051892504252e-05
4.867081920240091e-06   -1.5636526955103492e-06   -1.7347051892504252e-05
4.867081920240091e-06   -1.5636526955103492e-06   -1.7347051892504252e-05
4.867081920240091e-06   -1.5636526955103492e-06   -1.7347051892504252e-05
-6.824977387531587e-07   -1.6120525184000673e-06   -2.7031828732149358e-05
-6.824977387531587e-07   -1.6120525184000673e-06   -2.7031828732149358e-05
-6.824977387531587e-07   -1.6120525184000673e-06   -2.7031828732149358e-05
-6.824977387531587e-07   -1.6120525184000673e-06   -2.7031828732149358e-05
1.043225023023841e-05   -8.811588238749439e-07   -8.06871256711495e-06
1.043225023023841e-05   -8.811588238749439e-07   -8.06871256711495e-06
1.043225023023841e-05   -8.811588238749439e-07   -8.06871256711495e-06
1.043225023023841e-05   -8.811588238749439e-07   -8.06871256711495e-06
1.0484913296087042e-05   -8.502673497464742e-07   -2.7293504453854242e-05
1.0484913296087042e-05   -8.502673497464742e-07   -2.7293504453854242e-05
1.0484913296087042e-05   -8.502673497464742e-07   -2.7293504453854242e-05
1.0484913296087042e-05   -8.502673497464742e-07   -2.7293504453854242e-05
-7.621985467208052e-07   -1.7701737308747434e-07   -8.95226803516997e-06
-7.621985467208052e-07   -1.7701737308747434e-07   -8.95226803516997e-06
-7.621985467208052e-07   -1.7701737308747434e-07   -8.95226803516997e-06
-7.621985467208052e-07   -1.7701737308747434e-07   -8.95226803516997e-06
4.718522700274882e-06   -9.417644844047796e-07   -1.762795518003891e-05
4.718522700274882e-06   -9.417644844047796e-07   -1.762795518003891e-05
4.718522700274882e-06   -9.417644844047796e-07   -1.762795518003891e-05
4.718522700274882e-06   -9.417644844047796e-07   -1.762795518003891e-05
-7.621985467208035e-07   -8.502673497465013e-07   -2.7697454439849496e-05
-7.621985467208035e-07   -8.502673497465013e-07   -2.7697454439849496e-05
-7.621985467208035e-07   -8.502673497465013e-07   -2.7697454439849496e-05
-7.621985467208035e-07   -8.502673497465013e-07   -2.7697454439849496e-05
1.0484913296087042e-05   -1.7701737308747434e-07   -8.54831804917444e-06
1.0484913296087042e-05   -1.7701737308747434e-07   -8.54831804917444e-06
1.0484913296087042e-05   -1.7701737308747434e-07   -8.54831804917444e-06
1.0484913296087042e-05   -1.7701737308747434e-07   -8.54831804917444e-06
1.0406954015263701e-05   9.117542172732492e-08   -2.8090279938331315e-05
1.0406954015263701e-05   9.117542172732492e-08   -2.8090279938331315e-05
1.0406954015263701e-05   9.117542172732492e-08   -2.8090279938331315e-05
1.0406954015263701e-05   9.117542172732492e-08   -2.8090279938331315e-05
-8.886947553265301e-07   6.45375395559979e-07   -9.596718638313907e-06
-8.886947553265301e-07   6.45375395559979e-07   -9.596718638313907e-06
-8.886947553265301e-07   6.45375395559979e-07   -9.596718638313907e-06
-8.886947553265301e-07   6.45375395559979e-07   -9.596718638313907e-06
4.667654114617742e-06   -2.771127137061232e-07   -1.8303807222661196e-05
4.667654114617742e-06   -2.771127137061232e-07   -1.8303807222661196e-05
4.667654114617742e-06   -2.771127137061232e-07   -1.8303807222661196e-05
4.667654114617742e-06   -2.771127137061232e-07   -1.8303807222661196e-05
1.0438042956542956e-05   -4.438184212150363e-06   -1.5042360322475412e-05
1.0438042956542956e-05   -4.438184212150363e-06   -1.5042360322475412e-05
1.0438042956542956e-05   -4.438184212150363e-06   -1.5042360322475412e-05
1.0438042956542956e-05   -4.438184212150363e-06   -1.5042360322475412e-05
2.0728172167248457e-05   -2.8929067895476913e-06   3.035021482262069e-06
2.0728172167248457e-05   -2.8929067895476913e-06   3.035021482262069e-06
2.0728172167248457e-05   -2.8929067895476913e-06   3.035021482262069e-06
2.0728172167248457e-05   -2.8929067895476913e-06   3.035021482262069e-06
2.143609275881543e-05   -4.021606552871888e-06   -1.6905309634517118e-05
2.143609275881543e-05   -4.021606552871888e-06   -1.6905309634517118e-05
2.143609275881543e-05   -4.021606552871888e-06   -1.6905309634517118e-05
2.143609275881543e-05   -4.021606552871888e-06   -1.6905309634517118e-05
1.0432250230238397e-05   -2.477856490906271e-06   5.081778759319497e-07
1.0432250230238397e-05   -2.477856490906271e-06   5.081778759319497e-07
1.0432250230238397e-05   -2.477856490906271e-06   5.081778759319497e-07
1.0432250230238397e-05   -2.477856490906271e-06   5.081778759319497e-07
1.5085300012838274e-05   -3.4163313513211192e-06   -6.683820178818975e-06
1.5085300012838274e-05   -3.4163313513211192e-06   -6.683820178818975e-06
1.5085300012838274e-05   -3.4163313513211192e-06   -6.683820178818975e-06
1.5085300012838274e-05   -3.4163313513211192e-06   -6.683820178818975e-06
1.0432250230238383e-05   -4.021606552871915e-06   -1.7831559671696438e-05
1.0432250230238383e-05   -4.021606552871915e-06   -1.7831559671696438e-05
1.0432250230238383e-05   -4.021606552871915e-06   -1.7831559671696438e-05
1.0432250230238383e-05   -4.021606552871915e-06   -1.7831559671696438e-05
2.143609275881543e-05   -2.477856490906325e-06   1.434427913111385e-06
2.143609275881543e-05   -2.477856490906325e-06   1.434427913111385e-06
2.143609275881543e-05   -2.477856490906325e-06   1.434427913111385e-06
2.143609275881543e-05   -2.477856490906325e-06   1.434427913111385e-06
2.198197425377415e-05   -3.583347755587655e-06   -1.9061055309608875e-05
2.198197425377415e-05   -3.583347755587655e-06   -1.9061055309608875e-05
2.198197425377415e-05   -3.583347755587655e-06   -1.9061055309608875e-05
2.198197425377415e-05   -3.583347755587655e-06   -1.9061055309608875e-05
1.0484913296087008e-05   -2.123736077525734e-06   -7.750540536342274e-07
1.0484913296087008e-05   -2.123736077525734e-06   -7.750540536342274e-07
1.0484913296087008e-05   -2.123736077525734e-06   -7.750540536342274e-07
1.0484913296087008e-05   -2.123736077525734e-06   -7.750540536342274e-07
1.5602911951715302e-05   -3.148722712792922e-06   -8.690059831854301e-06
1.5602911951715302e-05   -3.148722712792922e-06   -8.690059831854301e-06
1.5602911951715302e-05   -3.148722712792922e-06   -8.690059831854301e-06
1.5602911951715302e-05   -3.148722712792922e-06   -8.690059831854301e-06
1.0484913296087029e-05   -3.583347755587655e-06   -1.9936822316446036e-05
1.0484913296087029e-05   -3.583347755587655e-06   -1.9936822316446036e-05
1.0484913296087029e-05   -3.583347755587655e-06   -1.9936822316446036e-05
1.0484913296087029e-05   -3.583347755587655e-06   -1.9936822316446036e-05
2.198197425377411e-05   -2.1237360775256797e-06   1.0071295320304187e-07
2.198197425377411e-05   -2.1237360775256797e-06   1.0071295320304187e-07
2.198197425377411e-05   -2.1237360775256797e-06   1.0071295320304187e-07
2.198197425377411e-05   -2.1237360775256797e-06   1.0071295320304187e-07
2.2565188726854143e-05   -2.6406601333802933e-06   -2.2733007636563952e-05
2.2565188726854143e-05   -2.6406601333802933e-06   -2.2733007636563952e-05
2.2565188726854143e-05   -2.6406601333802933e-06   -2.2733007636563952e-05
2.2565188726854143e-05   -2.6406601333802933e-06   -2.2733007636563952e-05
1.0406954015263667e-05   -1.3687723593230547e-06   -3.2324157816809206e-06
1.0406954015263667e-05   -1.3687723593230547e-06   -3.2324157816809206e-06
1.0406954015263667e-05   -1.3687723593230547e-06   -3.2324157816809206e-06
1.0406954015263667e-05   -1.3687723593230547e-06   -3.2324157816809206e-06
1.5541564641794345e-05   -2.710251795481444e-06   -1.0985212497536932e-05
1.5541564641794345e-05   -2.710251795481444e-06   -1.0985212497536932e-05
1.5541564641794345e-05   -2.710251795481444e-06   -1.0985212497536932e-05
1.5541564641794345e-05   -2.710251795481444e-06   -1.0985212497536932e-05
-2.4944573102083745e-05   3.82725778818807e-06   -1.9019231880086667e-05
-2.4944573102083745e-05   3.82725778818807e-06   -1.9019231880086667e-05
-2.4944573102083745e-05   3.82725778818807e-06   -1.9019231880086667e-05
-2.4944573102083745e-05   3.82725778818807e-06   -1.9019231880086667e-05
-1.7009678862162894e-05   2.428544768258835e-06   -6.6336359588427975e-06
-1.7009678862162894e-05   2.428544768258835e-06   -6.6336359588427975e-06
-1.7009678862162894e-05   2.428544768258835e-06   -6.6336359588427975e-06
-1.7009678862162894e-05   2.428544768258835e-06   -6.6336359588427975e-06
-1.694727069526705e-05   4.633373538694206e-06   -1.6158826831879714e-05
-1.694727069526705e-05   4.633373538694206e-06   -1.6158826831879714e-05
-1.694727069526705e-05   4.633373538694206e-06   -1.6158826831879714e-05
-1.694727069526705e-05   4.633373538694206e-06   -1.6158826831879714e-05
-2.4192519636831992e-05   3.0944074854440226e-06   -3.160032297321383e-06
-2.4192519636831992e-05   3.0944074854440226e-06   -3.160032297321383e-06
-2.4192519636831992e-05   3.0944074854440226e-06   -3.160032297321383e-06
-2.4192519636831992e-05   3.0944074854440226e-06   -3.160032297321383e-06
-1.989204595488808e-05   3.6865533597598473e-06   -1.0682775958484157e-05
-1.989204595488808e-05   3.6865533597598473e-06   -1.0682775958484157e-05
-1.989204595488808e-05   3.6865533597598473e-06   -1.0682775958484157e-05
-1.989204595488808e-05   3.6865533597598473e-06   -1.0682775958484157e-05
-2.4192519636831992e-05   4.633373538694206e-06   -1.5235447199929593e-05
-2.4192519636831992e-05   4.633373538694206e-06   -1.5235447199929593e-05
-2.4192519636831992e-05   4.633373538694206e-06   -1.5235447199929593e-05
-2.4192519636831992e-05   4.633373538694206e-06   -1.5235447199929593e-05
-1.694727069526709e-05   3.0944074854440226e-06   -4.083411929271514e-06
-1.694727069526709e-05   3.0944074854440226e-06   -4.083411929271514e-06
-1.694727069526709e-05   3.0944074854440226e-06   -4.083411929271514e-06
-1.694727069526709e-05   3.0944074854440226e-06   -4.083411929271514e-06
-1.681841416777305e-05   4.988156630821906e-06   -1.4090879739554665e-05
-1.681841416777305e-05   4.988156630821906e-06   -1.4090879739554665e-05
-1.681841416777305e-05   4.988156630821906e-06   -1.4090879739554665e-05
-1.681841416777305e-05   4.988156630821906e-06   -1.4090879739554665e-05
-2.3631394559668633e-05   3.405523549714106e-06   -1.7863325710639356e-06
-2.3631394559668633e-05   3.405523549714106e-06   -1.7863325710639356e-06
-2.3631394559668633e-05   3.405523549714106e-06   -1.7863325710639356e-06
-2.3631394559668633e-05   3.405523549714106e-06   -1.7863325710639356e-06
-1.989120289618119e-05   4.058282395844536e-06   -8.411640651221361e-06
-1.989120289618119e-05   4.058282395844536e-06   -8.411640651221361e-06
-1.989120289618119e-05   4.058282395844536e-06   -8.411640651221361e-06
-1.989120289618119e-05   4.058282395844536e-06   -8.411640651221361e-06
-2.3631394559668633e-05   4.988156630821906e-06   -1.3141299890889941e-05
-2.3631394559668633e-05   4.988156630821906e-06   -1.3141299890889941e-05
-2.3631394559668633e-05   4.988156630821906e-06   -1.3141299890889941e-05
-2.3631394559668633e-05   4.988156630821906e-06   -1.3141299890889941e-05
-1.6818414167773076e-05   3.405523549714106e-06   -2.7359124197286107e-06
-1.6818414167773076e-05   3.405523549714106e-06   -2.7359124197286107e-06
-1.6818414167773076e-05   3.405523549714106e-06   -2.7359124197286107e-06
-1.6818414167773076e-05   3.405523549714106e-06   -2.7359124197286107e-06
-1.6767521519959675e-05   5.339375266721273e-06   -1.1231562683927936e-05
-1.6767521519959675e-05   5.339375266721273e-06   -1.1231562683927936e-05
-1.6767521519959675e-05   5.339375266721273e-06   -1.1231562683927936e-05
-1.6767521519959675e-05   5.339375266721273e-06   -1.1231562683927936e-05
-2.289843541241677e-05   3.7980889477013703e-06   -8.860107175403175e-08
-2.289843541241677e-05   3.7980889477013703e-06   -8.860107175403175e-08
-2.289843541241677e-05   3.7980889477013703e-06   -8.860107175403175e-08
-2.289843541241677e-05   3.7980889477013703e-06   -8.860107175403175e-08
-1.9301674387875598e-05   4.261370143632899e-06   -6.3611714968816666e-06
-1.9301674387875598e-05   4.261370143632899e-06   -6.3611714968816666e-06
-1.9301674387875598e-05   4.261370143632899e-06   -6.3611714968816666e-06
-1.9301674387875598e-05   4.261370143632899e-06   -6.3611714968816666e-06
-1.7009678862162867e-05   1.9108248107007914e-06   -2.4290395418599312e-05
-1.7009678862162867e-05   1.9108248107007914e-06   -2.4290395418599312e-05
-1.7009678862162867e-05   1.9108248107007914e-06   -2.4290395418599312e-05
-1.7009678862162867e-05   1.9108248107007914e-06   -2.4290395418599312e-05
-9.80965356254132e-06   1.2596780463649138e-06   -1.2681041311164866e-05
-9.80965356254132e-06   1.2596780463649138e-06   -1.2681041311164866e-05
-9.80965356254132e-06   1.2596780463649138e-06   -1.2681041311164866e-05
-9.80965356254132e-06   1.2596780463649138e-06   -1.2681041311164866e-05
-9.814660019733323e-06   2.7041523598403676e-06   -2.407969263142735e-05
-9.814660019733323e-06   2.7041523598403676e-06   -2.407969263142735e-05
-9.814660019733323e-06   2.7041523598403676e-06   -2.407969263142735e-05
-9.814660019733323e-06   2.7041523598403676e-06   -2.407969263142735e-05
-1.694727069526705e-05   1.9632480444854044e-06   -1.1747465582991425e-05
-1.694727069526705e-05   1.9632480444854044e-06   -1.1747465582991425e-05
-1.694727069526705e-05   1.9632480444854044e-06   -1.1747465582991425e-05
-1.694727069526705e-05   1.9632480444854044e-06   -1.1747465582991425e-05
-1.3271609742294641e-05   2.092630633876479e-06   -1.7951196724913464e-05
-1.3271609742294641e-05   2.092630633876479e-06   -1.7951196724913464e-05
-1.3271609742294641e-05   2.092630633876479e-06   -1.7951196724913464e-05
-1.3271609742294641e-05   2.092630633876479e-06   -1.7951196724913464e-05
-1.6947270695267036e-05   2.7041523598403676e-06   -2.3635150042214262e-05
-1.6947270695267036e-05   2.7041523598403676e-06   -2.3635150042214262e-05
-1.6947270695267036e-05   2.7041523598403676e-06   -2.3635150042214262e-05
-1.6947270695267036e-05   2.7041523598403676e-06   -2.3635150042214262e-05
-9.814660019733323e-06   1.9632480444854586e-06   -1.2192008172204403e-05
-9.814660019733323e-06   1.9632480444854586e-06   -1.2192008172204403e-05
-9.814660019733323e-06   1.9632480444854586e-06   -1.2192008172204403e-05
-9.814660019733323e-06   1.9632480444854586e-06   -1.2192008172204403e-05
-9.807751518954546e-06   3.409731485816967e-06   -2.3540209671881645e-05
-9.807751518954546e-06   3.409731485816967e-06   -2.3540209671881645e-05
-9.807751518954546e-06   3.409731485816967e-06   -2.3540209671881645e-05
-9.807751518954546e-06   3.409731485816967e-06   -2.3540209671881645e-05
-1.681841416777305e-05   2.6043223958448474e-06   -1.1372526469867619e-05
-1.681841416777305e-05   2.6043223958448474e-06   -1.1372526469867619e-05
-1.681841416777305e-05   2.6043223958448474e-06   -1.1372526469867619e-05
-1.681841416777305e-05   2.6043223958448474e-06   -1.1372526469867619e-05
-1.3210175481392178e-05   2.6712377155542065e-06   -1.7426406805661157e-05
-1.3210175481392178e-05   2.6712377155542065e-06   -1.7426406805661157e-05
-1.3210175481392178e-05   2.6712377155542065e-06   -1.7426406805661157e-05
-1.3210175481392178e-05   2.6712377155542065e-06   -1.7426406805661157e-05
-1.681841416777305e-05   3.409731485816967e-06   -2.30569642178984e-05
-1.681841416777305e-05   3.409731485816967e-06   -2.30569642178984e-05
-1.681841416777305e-05   3.409731485816967e-06   -2.30569642178984e-05
-1.681841416777305e-05   3.409731485816967e-06   -2.30569642178984e-05
-9.807751518954566e-06   2.6043223958448474e-06   -1.1855771923850795e-05
-9.807751518954566e-06   2.6043223958448474e-06   -1.1855771923850795e-05
-9.807751518954566e-06   2.6043223958448474e-06   -1.1855771923850795e-05
-9.807751518954566e-06   2.6043223958448474e-06   -1.1855771923850795e-05
-9.816113327875732e-06   4.161110418652279e-06   -2.3635396242229932e-05
-9.816113327875732e-06   4.161110418652279e-06   -2.3635396242229932e-05
-9.816113327875732e-06   4.161110418652279e-06   -2.3635396242229932e-05
-9.816113327875732e-06   4.161110418652279e-06   -2.3635396242229932e-05
-1.6767521519959688e-05   3.301557607718992e-06   -1.1533984235529896e-05
-1.6767521519959688e-05   3.301557607718992e-06   -1.1533984235529896e-05
-1.6767521519959688e-05   3.301557607718992e-06   -1.1533984235529896e-05
-1.6767521519959688e-05   3.301557607718992e-06   -1.1533984235529896e-05
-1.3296085313905286e-05   3.2445652821831076e-06   -1.728551585029909e-05
-1.3296085313905286e-05   3.2445652821831076e-06   -1.728551585029909e-05
-1.3296085313905286e-05   3.2445652821831076e-06   -1.728551585029909e-05
-1.3296085313905286e-05   3.2445652821831076e-06   -1.728551585029909e-05
-9.809653562541306e-06   1.0221038329274361e-07   -2.6819990486127608e-05
-9.809653562541306e-06   1.0221038329274361e-07   -2.6819990486127608e-05
-9.809653562541306e-06   1.0221038329274361e-07   -2.6819990486127608e-05
-9.809653562541306e-06   1.0221038329274361e-07   -2.6819990486127608e-05
-2.7058896966887696e-06   2.1943543591505972e-07   -1.4910049011466738e-05
-2.7058896966887696e-06   2.1943543591505972e-07   -1.4910049011466738e-05
-2.7058896966887696e-06   2.1943543591505972e-07   -1.4910049011466738e-05
-2.7058896966887696e-06   2.1943543591505972e-07   -1.4910049011466738e-05
-2.711434289906509e-06   8.838359701222528e-07   -2.652100323270387e-05
-2.711434289906509e-06   8.838359701222528e-07   -2.652100323270387e-05
-2.711434289906509e-06   8.838359701222528e-07   -2.652100323270387e-05
-2.711434289906509e-06   8.838359701222528e-07   -2.652100323270387e-05
-9.814660019733316e-06   9.27735641567261e-07   -1.4708633485859549e-05
-9.814660019733316e-06   9.27735641567261e-07   -1.4708633485859549e-05
-9.814660019733316e-06   9.27735641567261e-07   -1.4708633485859549e-05
-9.814660019733316e-06   9.27735641567261e-07   -1.4708633485859549e-05
-6.218607246135469e-06   6.256884432037863e-07   -2.0520826456171226e-05
-6.218607246135469e-06   6.256884432037863e-07   -2.0520826456171226e-05
-6.218607246135469e-06   6.256884432037863e-07   -2.0520826456171226e-05
-6.218607246135469e-06   6.256884432037863e-07   -2.0520826456171226e-05
-9.814660019733316e-06   8.838359701222528e-07   -2.654734303557087e-05
-9.814660019733316e-06   8.838359701222528e-07   -2.654734303557087e-05
-9.814660019733316e-06   8.838359701222528e-07   -2.654734303557087e-05
-9.814660019733316e-06   8.838359701222528e-07   -2.654734303557087e-05
-2.711434289906509e-06   9.27735641567261e-07   -1.468229368299255e-05
-2.711434289906509e-06   9.27735641567261e-07   -1.468229368299255e-05
-2.711434289906509e-06   9.27735641567261e-07   -1.468229368299255e-05
-2.711434289906509e-06   9.27735641567261e-07   -1.468229368299255e-05
-2.7023363824826644e-06   1.6632049385171123e-06   -2.6587367233126485e-05
-2.7023363824826644e-06   1.6632049385171123e-06   -2.6587367233126485e-05
-2.7023363824826644e-06   1.6632049385171123e-06   -2.6587367233126485e-05
-2.7023363824826644e-06   1.6632049385171123e-06   -2.6587367233126485e-05
-9.807751518954546e-06   1.6383145531277264e-06   -1.473007444110644e-05
-9.807751518954546e-06   1.6383145531277264e-06   -1.473007444110644e-05
-9.807751518954546e-06   1.6383145531277264e-06   -1.473007444110644e-05
-9.807751518954546e-06   1.6383145531277264e-06   -1.473007444110644e-05
-6.260534453149669e-06   1.2458232120280376e-06   -2.0406608079454703e-05
-6.260534453149669e-06   1.2458232120280376e-06   -2.0406608079454703e-05
-6.260534453149669e-06   1.2458232120280376e-06   -2.0406608079454703e-05
-6.260534453149669e-06   1.2458232120280376e-06   -2.0406608079454703e-05
-9.807751518954546e-06   1.6632049385171123e-06   -2.6572433001892902e-05
-9.807751518954546e-06   1.6632049385171123e-06   -2.6572433001892902e-05
-9.807751518954546e-06   1.6632049385171123e-06   -2.6572433001892902e-05
-9.807751518954546e-06   1.6632049385171123e-06   -2.6572433001892902e-05
-2.7023363824826694e-06   1.6383145531277264e-06   -1.4745008672340009e-05
-2.7023363824826694e-06   1.6383145531277264e-06   -1.4745008672340009e-05
-2.7023363824826694e-06   1.6383145531277264e-06   -1.4745008672340009e-05
-2.7023363824826694e-06   1.6383145531277264e-06   -1.4745008672340009e-05
-2.706716014082312e-06   2.460613054061319e-06   -2.6989145809953353e-05
-2.706716014082312e-06   2.460613054061319e-06   -2.6989145809953353e-05
-2.706716014082312e-06   2.460613054061319e-06   -2.6989145809953353e-05
-2.706716014082312e-06   2.460613054061319e-06   -2.6989145809953353e-05
-9.816113327875725e-06   2.3613167113080446e-06   -1.5080572481312231e-05
-9.816113327875725e-06   2.3613167113080446e-06   -1.5080572481312231e-05
-9.816113327875725e-06   2.3613167113080446e-06   -1.5080572481312231e-05
-9.816113327875725e-06   2.3613167113080446e-06   -1.5080572481312231e-05
-6.314639862217406e-06   1.8741096998472042e-06   -2.0624037383866264e-05
-6.314639862217406e-06   1.8741096998472042e-06   -2.0624037383866264e-05
-6.314639862217406e-06   1.8741096998472042e-06   -2.0624037383866264e-05
-6.314639862217406e-06   1.8741096998472042e-06   -2.0624037383866264e-05
-2.7058896966887645e-06   -1.5986308730349722e-06   -2.3742479760367898e-05
-2.7058896966887645e-06   -1.5986308730349722e-06   -2.3742479760367898e-05
-2.7058896966887645e-06   -1.5986308730349722e-06   -2.3742479760367898e-05
-2.7058896966887645e-06   -1.5986308730349722e-06   -2.3742479760367898e-05
4.288617211181927e-06   -7.311940912327407e-07   -1.156450617816881e-05
4.288617211181927e-06   -7.311940912327407e-07   -1.156450617816881e-05
4.288617211181927e-06   -7.311940912327407e-07   -1.156450617816881e-05
4.288617211181927e-06   -7.311940912327407e-07   -1.156450617816881e-05
4.345516052365892e-06   -8.811588238749439e-07   -2.319843160399044e-05
4.345516052365892e-06   -8.811588238749439e-07   -2.319843160399044e-05
4.345516052365892e-06   -8.811588238749439e-07   -2.319843160399044e-05
4.345516052365892e-06   -8.811588238749439e-07   -2.319843160399044e-05
-2.711434289906509e-06   -6.312466220066313e-08   -1.1927668197207693e-05
-2.711434289906509e-06   -6.312466220066313e-08   -1.1927668197207693e-05
-2.711434289906509e-06   -6.312466220066313e-08   -1.1927668197207693e-05
-2.711434289906509e-06   -6.312466220066313e-08   -1.1927668197207693e-05
8.091224891837591e-07   -7.568250274325792e-07   -1.7379042609885642e-05
8.091224891837591e-07   -7.568250274325792e-07   -1.7379042609885642e-05
8.091224891837591e-07   -7.568250274325792e-07   -1.7379042609885642e-05
8.091224891837591e-07   -7.568250274325792e-07   -1.7379042609885642e-05
-2.711434289906509e-06   -8.811588238749439e-07   -2.3689252100995024e-05
-2.711434289906509e-06   -8.811588238749439e-07   -2.3689252100995024e-05
-2.711434289906509e-06   -8.811588238749439e-07   -2.3689252100995024e-05
-2.711434289906509e-06   -8.811588238749439e-07   -2.3689252100995024e-05
4.345516052365906e-06   -6.312466220066313e-08   -1.143684770020314e-05
4.345516052365906e-06   -6.312466220066313e-08   -1.143684770020314e-05
4.345516052365906e-06   -6.312466220066313e-08   -1.143684770020314e-05
4.345516052365906e-06   -6.312466220066313e-08   -1.143684770020314e-05
4.481098447097283e-06   -1.7701737308747434e-07   -2.3683724597301875e-05
4.481098447097283e-06   -1.7701737308747434e-07   -2.3683724597301875e-05
4.481098447097283e-06   -1.7701737308747434e-07   -2.3683724597301875e-05
4.481098447097283e-06   -1.7701737308747434e-07   -2.3683724597301875e-05
-2.7023363824826694e-06   5.787289640067726e-07   -1.2164781016925201e-05
-2.7023363824826694e-06   5.787289640067726e-07   -1.2164781016925201e-05
-2.7023363824826694e-06   5.787289640067726e-07   -1.2164781016925201e-05
-2.7023363824826694e-06   5.787289640067726e-07   -1.2164781016925201e-05
7.683289371114763e-07   -2.0086200794826184e-07   -1.7481468633075736e-05
7.683289371114763e-07   -2.0086200794826184e-07   -1.7481468633075736e-05
7.683289371114763e-07   -2.0086200794826184e-07   -1.7481468633075736e-05
7.683289371114763e-07   -2.0086200794826184e-07   -1.7481468633075736e-05
-2.702336382482667e-06   -1.7701737308747434e-07   -2.4137172399558445e-05
-2.702336382482667e-06   -1.7701737308747434e-07   -2.4137172399558445e-05
-2.702336382482667e-06   -1.7701737308747434e-07   -2.4137172399558445e-05
-2.702336382482667e-06   -1.7701737308747434e-07   -2.4137172399558445e-05
4.481098447097296e-06   5.787289640068268e-07   -1.171133321466861e-05
4.481098447097296e-06   5.787289640068268e-07   -1.171133321466861e-05
4.481098447097296e-06   5.787289640068268e-07   -1.171133321466861e-05
4.481098447097296e-06   5.787289640068268e-07   -1.171133321466861e-05
4.5478317185275685e-06   6.45375395559979e-07   -2.438161561079801e-05
4.5478317185275685e-06   6.45375395559979e-07   -2.438161561079801e-05
4.5478317185275685e-06   6.45375395559979e-07   -2.438161561079801e-05
4.5478317185275685e-06   6.45375395559979e-07   -2.438161561079801e-05
-2.706716014082307e-06   1.3134291163359089e-06   -1.2691534955580377e-05
-2.706716014082307e-06   1.3134291163359089e-06   -1.2691534955580377e-05
-2.706716014082307e-06   1.3134291163359089e-06   -1.2691534955580377e-05
-2.706716014082307e-06   1.3134291163359089e-06   -1.2691534955580377e-05
7.922925122599406e-07   3.928517678768173e-07   -1.7970869423742004e-05
7.922925122599406e-07   3.928517678768173e-07   -1.7970869423742004e-05
7.922925122599406e-07   3.928517678768173e-07   -1.7970869423742004e-05
7.922925122599406e-07   3.928517678768173e-07   -1.7970869423742004e-05
4.28861721118192e-06   -2.8929067895476913e-06   -1.303105892407183e-05
4.28861721118192e-06   -2.8929067895476913e-06   -1.303105892407183e-05
4.28861721118192e-06   -2.8929067895476913e-06   -1.303105892407183e-05
4.28861721118192e-06   -2.8929067895476913e-06   -1.303105892407183e-05
1.0478645031124261e-05   -1.338346893727698e-06   -1.7816099533425698e-06
1.0478645031124261e-05   -1.338346893727698e-06   -1.7816099533425698e-06
1.0478645031124261e-05   -1.338346893727698e-06   -1.7816099533425698e-06
1.0478645031124261e-05   -1.338346893727698e-06   -1.7816099533425698e-06
1.1221739477317684e-05   -2.477856490906325e-06   -1.3665621781267897e-05
1.1221739477317684e-05   -2.477856490906325e-06   -1.3665621781267897e-05
1.1221739477317684e-05   -2.477856490906325e-06   -1.3665621781267897e-05
1.1221739477317684e-05   -2.477856490906325e-06   -1.3665621781267897e-05
4.345516052365899e-06   -8.846575247802154e-07   -3.1611687860239003e-06
4.345516052365899e-06   -8.846575247802154e-07   -3.1611687860239003e-06
4.345516052365899e-06   -8.846575247802154e-07   -3.1611687860239003e-06
4.345516052365899e-06   -8.846575247802154e-07   -3.1611687860239003e-06
7.260267158344646e-06   -1.8394307270427446e-06   -7.446223374630976e-06
7.260267158344646e-06   -1.8394307270427446e-06   -7.446223374630976e-06
7.260267158344646e-06   -1.8394307270427446e-06   -7.446223374630976e-06
7.260267158344646e-06   -1.8394307270427446e-06   -7.446223374630976e-06
4.345516052365892e-06   -2.477856490906271e-06   -1.4621541160943403e-05
4.345516052365892e-06   -2.477856490906271e-06   -1.4621541160943403e-05
4.345516052365892e-06   -2.477856490906271e-06   -1.4621541160943403e-05
4.345516052365892e-06   -2.477856490906271e-06   -1.4621541160943403e-05
1.1221739477317643e-05   -8.846575247802697e-07   -2.2052494063482995e-06
1.1221739477317643e-05   -8.846575247802697e-07   -2.2052494063482995e-06
1.1221739477317643e-05   -8.846575247802697e-07   -2.2052494063482995e-06
1.1221739477317643e-05   -8.846575247802697e-07   -2.2052494063482995e-06
1.179467830048356e-05   -2.123736077525734e-06   -1.4979722988157657e-05
1.179467830048356e-05   -2.123736077525734e-06   -1.4979722988157657e-05
1.179467830048356e-05   -2.123736077525734e-06   -1.4979722988157657e-05
1.179467830048356e-05   -2.123736077525734e-06   -1.4979722988157657e-05
4.481098447097296e-06   -5.725067215191356e-07   -3.721160846117838e-06
4.481098447097296e-06   -5.725067215191356e-07   -3.721160846117838e-06
4.481098447097296e-06   -5.725067215191356e-07   -3.721160846117838e-06
4.481098447097296e-06   -5.725067215191356e-07   -3.721160846117838e-06
7.712506100688769e-06   -1.6059725965168964e-06   -8.486760743771566e-06
7.712506100688769e-06   -1.6059725965168964e-06   -8.486760743771566e-06
7.712506100688769e-06   -1.6059725965168964e-06   -8.486760743771566e-06
7.712506100688769e-06   -1.6059725965168964e-06   -8.486760743771566e-06
4.4810984470972895e-06   -2.123736077525734e-06   -1.591046060176154e-05
4.4810984470972895e-06   -2.123736077525734e-06   -1.591046060176154e-05
4.4810984470972895e-06   -2.123736077525734e-06   -1.591046060176154e-05
4.4810984470972895e-06   -2.123736077525734e-06   -1.591046060176154e-05
1.1794678300483533e-05   -5.725067215190814e-07   -2.790423232513833e-06
1.1794678300483533e-05   -5.725067215190814e-07   -2.790423232513833e-06
1.1794678300483533e-05   -5.725067215190814e-07   -2.790423232513833e-06
1.1794678300483533e-05   -5.725067215190814e-07   -2.790423232513833e-06
1.2557453727522603e-05   -1.3687723593230547e-06   -1.7505095494960886e-05
1.2557453727522603e-05   -1.3687723593230547e-06   -1.7505095494960886e-05
1.2557453727522603e-05   -1.3687723593230547e-06   -1.7505095494960886e-05
1.2557453727522603e-05   -1.3687723593230547e-06   -1.7505095494960886e-05
4.547831718527582e-06   3.912304651662417e-08   -5.000462723472941e-06
4.547831718527582e-06   3.912304651662417e-08   -5.000462723472941e-06
4.547831718527582e-06   3.912304651662417e-08   -5.000462723472941e-06
4.547831718527582e-06   3.912304651662417e-08   -5.000462723472941e-06
7.86637659458537e-06   -1.261506927411032e-06   -9.750992865879322e-06
7.86637659458537e-06   -1.261506927411032e-06   -9.750992865879322e-06
7.86637659458537e-06   -1.261506927411032e-06   -9.750992865879322e-06
7.86637659458537e-06   -1.261506927411032e-06   -9.750992865879322e-06
-1.5042401370928324e-05   2.428544768258835e-06   -1.4135435197255592e-05
-1.5042401370928324e-05   2.428544768258835e-06   -1.4135435197255592e-05
-1.5042401370928324e-05   2.428544768258835e-06   -1.4135435197255592e-05
-1.5042401370928324e-05   2.428544768258835e-06   -1.4135435197255592e-05
-1.1141216578597037e-05   9.837512200386225e-07   -8.50033667230221e-06
-1.1141216578597037e-05   9.837512200386225e-07   -8.50033667230221e-06
-1.1141216578597037e-05   9.837512200386225e-07   -8.50033667230221e-06
-1.1141216578597037e-05   9.837512200386225e-07   -8.50033667230221e-06
-1.0979251181864023e-05   3.0944074854440226e-06   -1.2470229511994473e-05
-1.0979251181864023e-05   3.0944074854440226e-06   -1.2470229511994473e-05
-1.0979251181864023e-05   3.0944074854440226e-06   -1.2470229511994473e-05
-1.0979251181864023e-05   3.0944074854440226e-06   -1.2470229511994473e-05
-1.4220818495056111e-05   1.5365935915868066e-06   -6.132928987026521e-06
-1.4220818495056111e-05   1.5365935915868066e-06   -6.132928987026521e-06
-1.4220818495056111e-05   1.5365935915868066e-06   -6.132928987026521e-06
-1.4220818495056111e-05   1.5365935915868066e-06   -6.132928987026521e-06
-1.2301772981786844e-05   2.1795550462094544e-06   -9.717115048582737e-06
-1.2301772981786844e-05   2.1795550462094544e-06   -9.717115048582737e-06
-1.2301772981786844e-05   2.1795550462094544e-06   -9.717115048582737e-06
-1.2301772981786844e-05   2.1795550462094544e-06   -9.717115048582737e-06
-1.4220818495056111e-05   3.0944074854440226e-06   -1.1535541175680133e-05
-1.4220818495056111e-05   3.0944074854440226e-06   -1.1535541175680133e-05
-1.4220818495056111e-05   3.0944074854440226e-06   -1.1535541175680133e-05
-1.4220818495056111e-05   3.0944074854440226e-06   -1.1535541175680133e-05
-1.0979251181864036e-05   1.5365935915868066e-06   -7.067617323340875e-06
-1.0979251181864036e-05   1.5365935915868066e-06   -7.067617323340875e-06
-1.0979251181864036e-05   1.5365935915868066e-06   -7.067617323340875e-06
-1.0979251181864036e-05   1.5365935915868066e-06   -7.067617323340875e-06
-1.0747505041462858e-05   3.405523549714106e-06   -1.1134437760655517e-05
-1.0747505041462858e-05   3.405523549714106e-06   -1.1134437760655517e-05
-1.0747505041462858e-05   3.405523549714106e-06   -1.1134437760655517e-05
-1.0747505041462858e-05   3.405523549714106e-06   -1.1134437760655517e-05
-1.3567174954781511e-05   1.8169906792008623e-06   -5.4818681828163254e-06
-1.3567174954781511e-05   1.8169906792008623e-06   -5.4818681828163254e-06
-1.3567174954781511e-05   1.8169906792008623e-06   -5.4818681828163254e-06
-1.3567174954781511e-05   1.8169906792008623e-06   -5.4818681828163254e-06
-1.2086032036972819e-05   2.4783024431922207e-06   -8.347226770892313e-06
-1.2086032036972819e-05   2.4783024431922207e-06   -8.347226770892313e-06
-1.2086032036972819e-05   2.4783024431922207e-06   -8.347226770892313e-06
-1.2086032036972819e-05   2.4783024431922207e-06   -8.347226770892313e-06
-1.3567174954781484e-05   3.405523549714106e-06   -1.0181318038347451e-05
-1.3567174954781484e-05   3.405523549714106e-06   -1.0181318038347451e-05
-1.3567174954781484e-05   3.405523549714106e-06   -1.0181318038347451e-05
-1.3567174954781484e-05   3.405523549714106e-06   -1.0181318038347451e-05
-1.0747505041462871e-05   1.8169906792008623e-06   -6.434987905124296e-06
-1.0747505041462871e-05   1.8169906792008623e-06   -6.434987905124296e-06
-1.0747505041462871e-05   1.8169906792008623e-06   -6.434987905124296e-06
-1.0747505041462871e-05   1.8169906792008623e-06   -6.434987905124296e-06
-1.059115027709961e-05   3.798088947701316e-06   -9.423115032686983e-06
-1.059115027709961e-05   3.798088947701316e-06   -9.423115032686983e-06
-1.059115027709961e-05   3.798088947701316e-06   -9.423115032686983e-06
-1.059115027709961e-05   3.798088947701316e-06   -9.423115032686983e-06
-1.2735269465481334e-05   2.261680300578062e-06   -4.9277378637767e-06
-1.2735269465481334e-05   2.261680300578062e-06   -4.9277378637767e-06
-1.2735269465481334e-05   2.261680300578062e-06   -4.9277378637767e-06
-1.2735269465481334e-05   2.261680300578062e-06   -4.9277378637767e-06
-1.1522412213721262e-05   2.687113191704297e-06   -7.204426351386156e-06
-1.1522412213721262e-05   2.687113191704297e-06   -7.204426351386156e-06
-1.1522412213721262e-05   2.687113191704297e-06   -7.204426351386156e-06
-1.1522412213721262e-05   2.687113191704297e-06   -7.204426351386156e-06
-1.1141216578597037e-05   1.2596780463649138e-06   -2.065902861990833e-05
-1.1141216578597037e-05   1.2596780463649138e-06   -2.065902861990833e-05
-1.1141216578597037e-05   1.2596780463649138e-06   -2.065902861990833e-05
-1.1141216578597037e-05   1.2596780463649138e-06   -2.065902861990833e-05
-7.96724505815568e-06   5.705794981099559e-07   -1.5782535214792372e-05
-7.96724505815568e-06   5.705794981099559e-07   -1.5782535214792372e-05
-7.96724505815568e-06   5.705794981099559e-07   -1.5782535214792372e-05
-7.96724505815568e-06   5.705794981099559e-07   -1.5782535214792372e-05
-7.862506565353324e-06   1.9632480444854586e-06   -2.058918057670458e-05
-7.862506565353324e-06   1.9632480444854586e-06   -2.058918057670458e-05
-7.862506565353324e-06   1.9632480444854586e-06   -2.058918057670458e-05
-7.862506565353324e-06   1.9632480444854586e-06   -2.058918057670458e-05
-1.0979251181864036e-05   1.2050856928350973e-06   -1.493970880486303e-05
-1.0979251181864036e-05   1.2050856928350973e-06   -1.493970880486303e-05
-1.0979251181864036e-05   1.2050856928350973e-06   -1.493970880486303e-05
-1.0979251181864036e-05   1.2050856928350973e-06   -1.493970880486303e-05
-9.395009185365627e-06   1.3728575630680018e-06   -1.768077525450063e-05
-9.395009185365627e-06   1.3728575630680018e-06   -1.768077525450063e-05
-9.395009185365627e-06   1.3728575630680018e-06   -1.768077525450063e-05
-9.395009185365627e-06   1.3728575630680018e-06   -1.768077525450063e-05
-1.0979251181864009e-05   1.9632480444854586e-06   -2.0134283165714286e-05
-1.0979251181864009e-05   1.9632480444854586e-06   -2.0134283165714286e-05
-1.0979251181864009e-05   1.9632480444854586e-06   -2.0134283165714286e-05
-1.0979251181864009e-05   1.9632480444854586e-06   -2.0134283165714286e-05
-7.862506565353324e-06   1.2050856928349889e-06   -1.5394606215853322e-05
-7.862506565353324e-06   1.2050856928349889e-06   -1.5394606215853322e-05
-7.862506565353324e-06   1.2050856928349889e-06   -1.5394606215853322e-05
-7.862506565353324e-06   1.2050856928349889e-06   -1.5394606215853322e-05
-7.746653290464114e-06   2.6043223958448474e-06   -2.0256058334443467e-05
-7.746653290464114e-06   2.6043223958448474e-06   -2.0256058334443467e-05
-7.746653290464114e-06   2.6043223958448474e-06   -2.0256058334443467e-05
-7.746653290464114e-06   2.6043223958448474e-06   -2.0256058334443467e-05
-1.0747505041462898e-05   1.7959781897632044e-06   -1.4769632225796327e-05
-1.0747505041462898e-05   1.7959781897632044e-06   -1.4769632225796327e-05
-1.0747505041462898e-05   1.7959781897632044e-06   -1.4769632225796327e-05
-1.0747505041462898e-05   1.7959781897632044e-06   -1.4769632225796327e-05
-9.256590623803084e-06   1.8868569896660688e-06   -1.730901686850428e-05
-9.256590623803084e-06   1.8868569896660688e-06   -1.730901686850428e-05
-9.256590623803084e-06   1.8868569896660688e-06   -1.730901686850428e-05
-9.256590623803084e-06   1.8868569896660688e-06   -1.730901686850428e-05
-1.0747505041462858e-05   2.6043223958448474e-06   -1.9771051810794286e-05
-1.0747505041462858e-05   2.6043223958448474e-06   -1.9771051810794286e-05
-1.0747505041462858e-05   2.6043223958448474e-06   -1.9771051810794286e-05
-1.0747505041462858e-05   2.6043223958448474e-06   -1.9771051810794286e-05
-7.746653290464108e-06   1.795978189763096e-06   -1.5254638749445345e-05
-7.746653290464108e-06   1.795978189763096e-06   -1.5254638749445345e-05
-7.746653290464108e-06   1.795978189763096e-06   -1.5254638749445345e-05
-7.746653290464108e-06   1.795978189763096e-06   -1.5254638749445345e-05
-7.64413363021865e-06   3.3015576077189378e-06   -2.0452594781659105e-05
-7.64413363021865e-06   3.3015576077189378e-06   -2.0452594781659105e-05
-7.64413363021865e-06   3.3015576077189378e-06   -2.0452594781659105e-05
-7.64413363021865e-06   3.3015576077189378e-06   -2.0452594781659105e-05
-1.059115027709965e-05   2.4534436467053356e-06   -1.5032031993582426e-05
-1.059115027709965e-05   2.4534436467053356e-06   -1.5032031993582426e-05
-1.059115027709965e-05   2.4534436467053356e-06   -1.5032031993582426e-05
-1.059115027709965e-05   2.4534436467053356e-06   -1.5032031993582426e-05
-9.204268130288936e-06   2.4084563995282722e-06   -1.7316509889960923e-05
-9.204268130288936e-06   2.4084563995282722e-06   -1.7316509889960923e-05
-9.204268130288936e-06   2.4084563995282722e-06   -1.7316509889960923e-05
-9.204268130288936e-06   2.4084563995282722e-06   -1.7316509889960923e-05
-7.967245058155653e-06   2.194354359150055e-07   -2.3371830480736484e-05
-7.967245058155653e-06   2.194354359150055e-07   -2.3371830480736484e-05
-7.967245058155653e-06   2.194354359150055e-07   -2.3371830480736484e-05
-7.967245058155653e-06   2.194354359150055e-07   -2.3371830480736484e-05
-4.870780688726971e-06   3.3085058034432267e-07   -1.8144207445031145e-05
-4.870780688726971e-06   3.3085058034432267e-07   -1.8144207445031145e-05
-4.870780688726971e-06   3.3085058034432267e-07   -1.8144207445031145e-05
-4.870780688726971e-06   3.3085058034432267e-07   -1.8144207445031145e-05
-4.769019275118516e-06   9.27735641567261e-07   -2.3075576184996692e-05
-4.769019275118516e-06   9.27735641567261e-07   -2.3075576184996692e-05
-4.769019275118516e-06   9.27735641567261e-07   -2.3075576184996692e-05
-4.769019275118516e-06   9.27735641567261e-07   -2.3075576184996692e-05
-7.862506565353324e-06   9.781184838390626e-07   -1.7949993739968257e-05
-7.862506565353324e-06   9.781184838390626e-07   -1.7949993739968257e-05
-7.862506565353324e-06   9.781184838390626e-07   -1.7949993739968257e-05
-7.862506565353324e-06   9.781184838390626e-07   -1.7949993739968257e-05
-6.32646455456153e-06   7.047207516474099e-07   -2.0346025118639968e-05
-6.32646455456153e-06   7.047207516474099e-07   -2.0346025118639968e-05
-6.32646455456153e-06   7.047207516474099e-07   -2.0346025118639968e-05
-6.32646455456153e-06   7.047207516474099e-07   -2.0346025118639968e-05
-7.86250656535331e-06   9.27735641567261e-07   -2.3105805890359752e-05
-7.86250656535331e-06   9.27735641567261e-07   -2.3105805890359752e-05
-7.86250656535331e-06   9.27735641567261e-07   -2.3105805890359752e-05
-7.86250656535331e-06   9.27735641567261e-07   -2.3105805890359752e-05
-4.769019275118516e-06   9.78118483839171e-07   -1.7919764034605198e-05
-4.769019275118516e-06   9.78118483839171e-07   -1.7919764034605198e-05
-4.769019275118516e-06   9.78118483839171e-07   -1.7919764034605198e-05
-4.769019275118516e-06   9.78118483839171e-07   -1.7919764034605198e-05
-4.653957864969967e-06   1.6383145531277806e-06   -2.3134743315419808e-05
-4.653957864969967e-06   1.6383145531277806e-06   -2.3134743315419808e-05
-4.653957864969967e-06   1.6383145531277806e-06   -2.3134743315419808e-05
-4.653957864969967e-06   1.6383145531277806e-06   -2.3134743315419808e-05
-7.746653290464108e-06   1.631010446926295e-06   -1.797586847587527e-05
-7.746653290464108e-06   1.631010446926295e-06   -1.797586847587527e-05
-7.746653290464108e-06   1.631010446926295e-06   -1.797586847587527e-05
-7.746653290464108e-06   1.631010446926295e-06   -1.797586847587527e-05
-6.259173763880788e-06   1.2615259895728745e-06   -2.0233310345768812e-05
-6.259173763880788e-06   1.2615259895728745e-06   -2.0233310345768812e-05
-6.259173763880788e-06   1.2615259895728745e-06   -2.0233310345768812e-05
-6.259173763880788e-06   1.2615259895728745e-06   -2.0233310345768812e-05
-7.746653290464087e-06   1.6383145531277264e-06   -2.3130360851698895e-05
-7.746653290464087e-06   1.6383145531277264e-06   -2.3130360851698895e-05
-7.746653290464087e-06   1.6383145531277264e-06   -2.3130360851698895e-05
-7.746653290464087e-06   1.6383145531277264e-06   -2.3130360851698895e-05
-4.653957864969976e-06   1.6310104469261866e-06   -1.7980250939596265e-05
-4.653957864969976e-06   1.6310104469261866e-06   -1.7980250939596265e-05
-4.653957864969976e-06   1.6310104469261866e-06   -1.7980250939596265e-05
-4.653957864969976e-06   1.6310104469261866e-06   -1.7980250939596265e-05
-4.550748883962199e-06   2.361316711308099e-06   -2.3523955789932075e-05
-4.550748883962199e-06   2.361316711308099e-06   -2.3523955789932075e-05
-4.550748883962199e-06   2.361316711308099e-06   -2.3523955789932075e-05
-4.550748883962199e-06   2.361316711308099e-06   -2.3523955789932075e-05
-7.644133630218663e-06   2.293809296223786e-06   -1.8327810097120545e-05
-7.644133630218663e-06   2.293809296223786e-06   -1.8327810097120545e-05
-7.644133630218663e-06   2.293809296223786e-06   -1.8327810097120545e-05
-7.644133630218663e-06   2.293809296223786e-06   -1.8327810097120545e-05
-6.204116094251358e-06   1.8257504254629844e-06   -2.0447004001276404e-05
-6.204116094251358e-06   1.8257504254629844e-06   -2.0447004001276404e-05
-6.204116094251358e-06   1.8257504254629844e-06   -2.0447004001276404e-05
-6.204116094251358e-06   1.8257504254629844e-06   -2.0447004001276404e-05
-4.8707806887269544e-06   -7.311940912326865e-07   -2.047990062986225e-05
-4.8707806887269544e-06   -7.311940912326865e-07   -2.047990062986225e-05
-4.8707806887269544e-06   -7.311940912326865e-07   -2.047990062986225e-05
-4.8707806887269544e-06   -7.311940912326865e-07   -2.047990062986225e-05
-1.874815327737585e-06   1.483275880903882e-07   -1.4958912020619536e-05
-1.874815327737585e-06   1.483275880903882e-07   -1.4958912020619536e-05
-1.874815327737585e-06   1.483275880903882e-07   -1.4958912020619536e-05
-1.874815327737585e-06   1.483275880903882e-07   -1.4958912020619536e-05
-1.7213968106199657e-06   -6.312466220066313e-08   -1.981741911080009e-05
-1.7213968106199657e-06   -6.312466220066313e-08   -1.981741911080009e-05
-1.7213968106199657e-06   -6.312466220066313e-08   -1.981741911080009e-05
-1.7213968106199657e-06   -6.312466220066313e-08   -1.981741911080009e-05
-4.769019275118508e-06   7.760946518189015e-07   -1.524157992504738e-05
-4.769019275118508e-06   7.760946518189015e-07   -1.524157992504738e-05
-4.769019275118508e-06   7.760946518189015e-07   -1.524157992504738e-05
-4.769019275118508e-06   7.760946518189015e-07   -1.524157992504738e-05
-3.275557721127411e-06   9.787792098450883e-08   -1.732375247653236e-05
-3.275557721127411e-06   9.787792098450883e-08   -1.732375247653236e-05
-3.275557721127411e-06   9.787792098450883e-08   -1.732375247653236e-05
-3.275557721127411e-06   9.787792098450883e-08   -1.732375247653236e-05
-4.7690192751185e-06   -6.312466220071734e-08   -2.0320950699211787e-05
-4.7690192751185e-06   -6.312466220071734e-08   -2.0320950699211787e-05
-4.7690192751185e-06   -6.312466220071734e-08   -2.0320950699211787e-05
-4.7690192751185e-06   -6.312466220071734e-08   -2.0320950699211787e-05
-1.7213968106199657e-06   7.760946518187931e-07   -1.473804833663578e-05
-1.7213968106199657e-06   7.760946518187931e-07   -1.473804833663578e-05
-1.7213968106199657e-06   7.760946518187931e-07   -1.473804833663578e-05
-1.7213968106199657e-06   7.760946518187931e-07   -1.473804833663578e-05
-1.491384569134353e-06   5.787289640068268e-07   -2.0081615203585584e-05
-1.491384569134353e-06   5.787289640068268e-07   -2.0081615203585584e-05
-1.491384569134353e-06   5.787289640068268e-07   -2.0081615203585584e-05
-1.491384569134353e-06   5.787289640068268e-07   -2.0081615203585584e-05
-4.653957864969967e-06   1.3668963913723029e-06   -1.5283560166945543e-05
-4.653957864969967e-06   1.3668963913723029e-06   -1.5283560166945543e-05
-4.653957864969967e-06   1.3668963913723029e-06   -1.5283560166945543e-05
-4.653957864969967e-06   1.3668963913723029e-06   -1.5283560166945543e-05
-3.183462819956572e-06   6.051953356751372e-07   -1.7277364608549628e-05
-3.183462819956572e-06   6.051953356751372e-07   -1.7277364608549628e-05
-3.183462819956572e-06   6.051953356751372e-07   -1.7277364608549628e-05
-3.183462819956572e-06   6.051953356751372e-07   -1.7277364608549628e-05
-4.6539578649699555e-06   5.787289640068268e-07   -2.055451566000487e-05
-4.6539578649699555e-06   5.787289640068268e-07   -2.055451566000487e-05
-4.6539578649699555e-06   5.787289640068268e-07   -2.055451566000487e-05
-4.6539578649699555e-06   5.787289640068268e-07   -2.055451566000487e-05
-1.4913845691343598e-06   1.3668963913724113e-06   -1.4810659710526254e-05
-1.4913845691343598e-06   1.3668963913724113e-06   -1.4810659710526254e-05
-1.4913845691343598e-06   1.3668963913724113e-06   -1.4810659710526254e-05
-1.4913845691343598e-06   1.3668963913724113e-06   -1.4810659710526254e-05
-1.3311688104646554e-06   1.3134291163359089e-06   -2.064302835590382e-05
-1.3311688104646554e-06   1.3134291163359089e-06   -2.064302835590382e-05
-1.3311688104646554e-06   1.3134291163359089e-06   -2.064302835590382e-05
-1.3311688104646554e-06   1.3134291163359089e-06   -2.064302835590382e-05
-4.550748883962199e-06   2.0339492874097732e-06   -1.5709373669385488e-05
-4.550748883962199e-06   2.0339492874097732e-06   -1.5709373669385488e-05
-4.550748883962199e-06   2.0339492874097732e-06   -1.5709373669385488e-05
-4.550748883962199e-06   2.0339492874097732e-06   -1.5709373669385488e-05
-3.087462041964862e-06   1.1359259720541146e-06   -1.7609371083501004e-05
-3.087462041964862e-06   1.1359259720541146e-06   -1.7609371083501004e-05
-3.087462041964862e-06   1.1359259720541146e-06   -1.7609371083501004e-05
-3.087462041964862e-06   1.1359259720541146e-06   -1.7609371083501004e-05
-1.8748153277375781e-06   -1.3383468937277522e-06   -1.110202733493426e-05
-1.8748153277375781e-06   -1.3383468937277522e-06   -1.110202733493426e-05
-1.8748153277375781e-06   -1.3383468937277522e-06   -1.110202733493426e-05
-1.8748153277375781e-06   -1.3383468937277522e-06   -1.110202733493426e-05
3.1267817885490424e-07   2.134015207195519e-07   -6.525155775278428e-06
3.1267817885490424e-07   2.134015207195519e-07   -6.525155775278428e-06
3.1267817885490424e-07   2.134015207195519e-07   -6.525155775278428e-06
3.1267817885490424e-07   2.134015207195519e-07   -6.525155775278428e-06
1.136651532567139e-06   -8.846575247802154e-07   -1.0584612416331845e-05
1.136651532567139e-06   -8.846575247802154e-07   -1.0584612416331845e-05
1.136651532567139e-06   -8.846575247802154e-07   -1.0584612416331845e-05
1.136651532567139e-06   -8.846575247802154e-07   -1.0584612416331845e-05
-1.7213968106199657e-06   7.105554423681099e-07   -6.778326291308868e-06
-1.7213968106199657e-06   7.105554423681099e-07   -6.778326291308868e-06
-1.7213968106199657e-06   7.105554423681099e-07   -6.778326291308868e-06
-1.7213968106199657e-06   7.105554423681099e-07   -6.778326291308868e-06
-5.208952809856636e-07   -2.5861926764003933e-07   -8.19765734802805e-06
-5.208952809856636e-07   -2.5861926764003933e-07   -8.19765734802805e-06
-5.208952809856636e-07   -2.5861926764003933e-07   -8.19765734802805e-06
-5.208952809856636e-07   -2.5861926764003933e-07   -8.19765734802805e-06
-1.7213968106199589e-06   -8.846575247802154e-07   -1.1541740196620743e-05
-1.7213968106199589e-06   -8.846575247802154e-07   -1.1541740196620743e-05
-1.7213968106199589e-06   -8.846575247802154e-07   -1.1541740196620743e-05
-1.7213968106199589e-06   -8.846575247802154e-07   -1.1541740196620743e-05
1.136651532567139e-06   7.105554423682183e-07   -5.821198511019889e-06
1.136651532567139e-06   7.105554423682183e-07   -5.821198511019889e-06
1.136651532567139e-06   7.105554423682183e-07   -5.821198511019889e-06
1.136651532567139e-06   7.105554423682183e-07   -5.821198511019889e-06
1.787592639531811e-06   -5.725067215190814e-07   -1.1154147586770586e-05
1.787592639531811e-06   -5.725067215190814e-07   -1.1154147586770586e-05
1.787592639531811e-06   -5.725067215190814e-07   -1.1154147586770586e-05
1.787592639531811e-06   -5.725067215190814e-07   -1.1154147586770586e-05
-1.4913845691343598e-06   9.89652025587995e-07   -6.626480820591147e-06
-1.4913845691343598e-06   9.89652025587995e-07   -6.626480820591147e-06
-1.4913845691343598e-06   9.89652025587995e-07   -6.626480820591147e-06
-1.4913845691343598e-06   9.89652025587995e-07   -6.626480820591147e-06
-1.0581494706278803e-07   -1.9719221833647445e-08   -8.330140775590698e-06
-1.0581494706278803e-07   -1.9719221833647445e-08   -8.330140775590698e-06
-1.0581494706278803e-07   -1.9719221833647445e-08   -8.330140775590698e-06
-1.0581494706278803e-07   -1.9719221833647445e-08   -8.330140775590698e-06
-1.491384569134353e-06   -5.725067215191356e-07   -1.2091442835034799e-05
-1.491384569134353e-06   -5.725067215191356e-07   -1.2091442835034799e-05
-1.491384569134353e-06   -5.725067215191356e-07   -1.2091442835034799e-05
-1.491384569134353e-06   -5.725067215191356e-07   -1.2091442835034799e-05
1.7875926395317975e-06   9.89652025587995e-07   -5.689185572326893e-06
1.7875926395317975e-06   9.89652025587995e-07   -5.689185572326893e-06
1.7875926395317975e-06   9.89652025587995e-07   -5.689185572326893e-06
1.7875926395317975e-06   9.89652025587995e-07   -5.689185572326893e-06
2.6109906727975164e-06   3.912304651667838e-08   -1.2486911186642986e-05
2.6109906727975164e-06   3.912304651667838e-08   -1.2486911186642986e-05
2.6109906727975164e-06   3.912304651667838e-08   -1.2486911186642986e-05
2.6109906727975164e-06   3.912304651667838e-08   -1.2486911186642986e-05
-1.3311688104646622e-06   1.4822516625483551e-06   -6.782522550824853e-06
-1.3311688104646622e-06   1.4822516625483551e-06   -6.782522550824853e-06
-1.3311688104646622e-06   1.4822516625483551e-06   -6.782522550824853e-06
-1.3311688104646622e-06   1.4822516625483551e-06   -6.782522550824853e-06
2.5492463691137346e-07   2.5063568871448293e-07   -8.68704204548483e-06
2.5492463691137346e-07   2.5063568871448293e-07   -8.68704204548483e-06
2.5492463691137346e-07   2.5063568871448293e-07   -8.68704204548483e-06
2.5492463691137346e-07   2.5063568871448293e-07   -8.68704204548483e-06
-5.178732653208498e-06   9.837512200386225e-07   -9.374821321511218e-06
-5.178732653208498e-06   9.837512200386225e-07   -9.374821321511218e-06
-5.178732653208498e-06   9.837512200386225e-07   -9.374821321511218e-06
-5.178732653208498e-06   9.837512200386225e-07   -9.374821321511218e-06
-5.307813503598478e-06   -4.6658756172309e-07   -1.0460159341218203e-05
-5.307813503598478e-06   -4.6658756172309e-07   -1.0460159341218203e-05
-5.307813503598478e-06   -4.6658756172309e-07   -1.0460159341218203e-05
-5.307813503598478e-06   -4.6658756172309e-07   -1.0460159341218203e-05
-5.045415763806063e-06   1.5365935915868066e-06   -8.80978941917676e-06
-5.045415763806063e-06   1.5365935915868066e-06   -8.80978941917676e-06
-5.045415763806063e-06   1.5365935915868066e-06   -8.80978941917676e-06
-5.045415763806063e-06   1.5365935915868066e-06   -8.80978941917676e-06
-4.263556609126421e-06   -2.052909367511197e-08   -9.178614399152363e-06
-4.263556609126421e-06   -2.052909367511197e-08   -9.178614399152363e-06
-4.263556609126421e-06   -2.052909367511197e-08   -9.178614399152363e-06
-4.263556609126421e-06   -2.052909367511197e-08   -9.178614399152363e-06
-4.732829653467551e-06   6.775752270917965e-07   -8.81535525104431e-06
-4.732829653467551e-06   6.775752270917965e-07   -8.81535525104431e-06
-4.732829653467551e-06   6.775752270917965e-07   -8.81535525104431e-06
-4.732829653467551e-06   6.775752270917965e-07   -8.81535525104431e-06
-4.263556609126394e-06   1.5365935915868066e-06   -7.875515808019576e-06
-4.263556609126394e-06   1.5365935915868066e-06   -7.875515808019576e-06
-4.263556609126394e-06   1.5365935915868066e-06   -7.875515808019576e-06
-4.263556609126394e-06   1.5365935915868066e-06   -7.875515808019576e-06
-5.045415763806077e-06   -2.052909367511197e-08   -1.0112888010309492e-05
-5.045415763806077e-06   -2.052909367511197e-08   -1.0112888010309492e-05
-5.045415763806077e-06   -2.052909367511197e-08   -1.0112888010309492e-05
-5.045415763806077e-06   -2.052909367511197e-08   -1.0112888010309492e-05
-4.713697564406351e-06   1.816990679200754e-06   -8.175004582310357e-06
-4.713697564406351e-06   1.816990679200754e-06   -8.175004582310357e-06
-4.713697564406351e-06   1.816990679200754e-06   -8.175004582310357e-06
-4.713697564406351e-06   1.816990679200754e-06   -8.175004582310357e-06
-3.5087673187281633e-06   2.3303737907074112e-07   -9.232849678362685e-06
-3.5087673187281633e-06   2.3303737907074112e-07   -9.232849678362685e-06
-3.5087673187281633e-06   2.3303737907074112e-07   -9.232849678362685e-06
-3.5087673187281633e-06   2.3303737907074112e-07   -9.232849678362685e-06
-4.301446055416431e-06   9.072708475123563e-07   -8.316258531614214e-06
-4.301446055416431e-06   9.072708475123563e-07   -8.316258531614214e-06
-4.301446055416431e-06   9.072708475123563e-07   -8.316258531614214e-06
-4.301446055416431e-06   9.072708475123563e-07   -8.316258531614214e-06
-3.5087673187281633e-06   1.816990679200754e-06   -7.224632602232436e-06
-3.5087673187281633e-06   1.816990679200754e-06   -7.224632602232436e-06
-3.5087673187281633e-06   1.816990679200754e-06   -7.224632602232436e-06
-3.5087673187281633e-06   1.816990679200754e-06   -7.224632602232436e-06
-4.713697564406351e-06   2.3303737907074112e-07   -1.0183221658440769e-05
-4.713697564406351e-06   2.3303737907074112e-07   -1.0183221658440769e-05
-4.713697564406351e-06   2.3303737907074112e-07   -1.0183221658440769e-05
-4.713697564406351e-06   2.3303737907074112e-07   -1.0183221658440769e-05
-4.45663787096884e-06   2.261680300578062e-06   -7.587171971295149e-06
-4.45663787096884e-06   2.261680300578062e-06   -7.587171971295149e-06
-4.45663787096884e-06   2.261680300578062e-06   -7.587171971295149e-06
-4.45663787096884e-06   2.261680300578062e-06   -7.587171971295149e-06
-2.576842252861053e-06   7.383300410458357e-07   -9.806154512422016e-06
-2.576842252861053e-06   7.383300410458357e-07   -9.806154512422016e-06
-2.576842252861053e-06   7.383300410458357e-07   -9.806154512422016e-06
-2.576842252861053e-06   7.383300410458357e-07   -9.806154512422016e-06
-3.7637275550976614e-06   1.1289553496960335e-06   -8.062387527217813e-06
-3.7637275550976614e-06   1.1289553496960335e-06   -8.062387527217813e-06
-3.7637275550976614e-06   1.1289553496960335e-06   -8.062387527217813e-06
-3.7637275550976614e-06   1.1289553496960335e-06   -8.062387527217813e-06
-5.307813503598451e-06   5.705794981099559e-07   -1.7113764004105284e-05
-5.307813503598451e-06   5.705794981099559e-07   -1.7113764004105284e-05
-5.307813503598451e-06   5.705794981099559e-07   -1.7113764004105284e-05
-5.307813503598451e-06   5.705794981099559e-07   -1.7113764004105284e-05
-6.161746563875476e-06   -9.703444595141747e-08   -1.8937554137670658e-05
-6.161746563875476e-06   -9.703444595141747e-08   -1.8937554137670658e-05
-6.161746563875476e-06   -9.703444595141747e-08   -1.8937554137670658e-05
-6.161746563875476e-06   -9.703444595141747e-08   -1.8937554137670658e-05
-5.951067144313985e-06   1.2050856928350973e-06   -1.7124982190270285e-05
-5.951067144313985e-06   1.2050856928350973e-06   -1.7124982190270285e-05
-5.951067144313985e-06   1.2050856928350973e-06   -1.7124982190270285e-05
-5.951067144313985e-06   1.2050856928350973e-06   -1.7124982190270285e-05
-5.045415763806077e-06   4.6658354354960074e-07   -1.8191299868212024e-05
-5.045415763806077e-06   4.6658354354960074e-07   -1.8191299868212024e-05
-5.045415763806077e-06   4.6658354354960074e-07   -1.8191299868212024e-05
-5.045415763806077e-06   4.6658354354960074e-07   -1.8191299868212024e-05
-5.551201389311997e-06   6.611537329897707e-07   -1.7465065939366607e-05
-5.551201389311997e-06   6.611537329897707e-07   -1.7465065939366607e-05
-5.551201389311997e-06   6.611537329897707e-07   -1.7465065939366607e-05
-5.551201389311997e-06   6.611537329897707e-07   -1.7465065939366607e-05
-5.04541576380605e-06   1.2050856928350973e-06   -1.6681880900698846e-05
-5.04541576380605e-06   1.2050856928350973e-06   -1.6681880900698846e-05
-5.04541576380605e-06   1.2050856928350973e-06   -1.6681880900698846e-05
-5.04541576380605e-06   1.2050856928350973e-06   -1.6681880900698846e-05
-5.951067144313971e-06   4.6658354354960074e-07   -1.8634401157783436e-05
-5.951067144313971e-06   4.6658354354960074e-07   -1.8634401157783436e-05
-5.951067144313971e-06   4.6658354354960074e-07   -1.8634401157783436e-05
-5.951067144313971e-06   4.6658354354960074e-07   -1.8634401157783436e-05
-5.731833413840683e-06   1.7959781897632044e-06   -1.6981213199908796e-05
-5.731833413840683e-06   1.7959781897632044e-06   -1.6981213199908796e-05
-5.731833413840683e-06   1.7959781897632044e-06   -1.6981213199908796e-05
-5.731833413840683e-06   1.7959781897632044e-06   -1.6981213199908796e-05
-4.713697564406351e-06   1.0100376948861314e-06   -1.8206541985372972e-05
-4.713697564406351e-06   1.0100376948861314e-06   -1.8206541985372972e-05
-4.713697564406351e-06   1.0100376948861314e-06   -1.8206541985372972e-05
-4.713697564406351e-06   1.0100376948861314e-06   -1.8206541985372972e-05
-5.340209409218342e-06   1.1166017486100412e-06   -1.7226294009587496e-05
-5.340209409218342e-06   1.1166017486100412e-06   -1.7226294009587496e-05
-5.340209409218342e-06   1.1166017486100412e-06   -1.7226294009587496e-05
-5.340209409218342e-06   1.1166017486100412e-06   -1.7226294009587496e-05
-4.713697564406351e-06   1.7959781897632044e-06   -1.650964890298251e-05
-4.713697564406351e-06   1.7959781897632044e-06   -1.650964890298251e-05
-4.713697564406351e-06   1.7959781897632044e-06   -1.650964890298251e-05
-4.713697564406351e-06   1.7959781897632044e-06   -1.650964890298251e-05
-5.731833413840662e-06   1.0100376948861314e-06   -1.8678106282299096e-05
-5.731833413840662e-06   1.0100376948861314e-06   -1.8678106282299096e-05
-5.731833413840662e-06   1.0100376948861314e-06   -1.8678106282299096e-05
-5.731833413840662e-06   1.0100376948861314e-06   -1.8678106282299096e-05
-5.5258205863652e-06   2.4534436467053356e-06   -1.7262821787495243e-05
-5.5258205863652e-06   2.4534436467053356e-06   -1.7262821787495243e-05
-5.5258205863652e-06   2.4534436467053356e-06   -1.7262821787495243e-05
-5.5258205863652e-06   2.4534436467053356e-06   -1.7262821787495243e-05
-4.45663787096884e-06   1.6314421889245673e-06   -1.8551592105154002e-05
-4.45663787096884e-06   1.6314421889245673e-06   -1.8551592105154002e-05
-4.45663787096884e-06   1.6314421889245673e-06   -1.8551592105154002e-05
-4.45663787096884e-06   1.6314421889245673e-06   -1.8551592105154002e-05
-5.155125421892853e-06   1.5953066992153552e-06   -1.7365764893121965e-05
-5.155125421892853e-06   1.5953066992153552e-06   -1.7365764893121965e-05
-5.155125421892853e-06   1.5953066992153552e-06   -1.7365764893121965e-05
-5.155125421892853e-06   1.5953066992153552e-06   -1.7365764893121965e-05
-6.161746563875449e-06   3.308505803444311e-07   -1.9942853687438564e-05
-6.161746563875449e-06   3.308505803444311e-07   -1.9942853687438564e-05
-6.161746563875449e-06   3.308505803444311e-07   -1.9942853687438564e-05
-6.161746563875449e-06   3.308505803444311e-07   -1.9942853687438564e-05
-7.054665187758696e-06   4.7300994137147723e-07   -2.1345755777294406e-05
-7.054665187758696e-06   4.7300994137147723e-07   -2.1345755777294406e-05
-7.054665187758696e-06   4.7300994137147723e-07   -2.1345755777294406e-05
-7.054665187758696e-06   4.7300994137147723e-07   -2.1345755777294406e-05
-6.847932481536526e-06   9.78118483839171e-07   -1.9633275689074888e-05
-6.847932481536526e-06   9.78118483839171e-07   -1.9633275689074888e-05
-6.847932481536526e-06   9.78118483839171e-07   -1.9633275689074888e-05
-6.847932481536526e-06   9.78118483839171e-07   -1.9633275689074888e-05
-5.951067144313971e-06   1.0566085260231214e-06   -2.117514527642278e-05
-5.951067144313971e-06   1.0566085260231214e-06   -2.117514527642278e-05
-5.951067144313971e-06   1.0566085260231214e-06   -2.117514527642278e-05
-5.951067144313971e-06   1.0566085260231214e-06   -2.117514527642278e-05
-6.4646604502273695e-06   8.008576627316528e-07   -2.016570591525921e-05
-6.4646604502273695e-06   8.008576627316528e-07   -2.016570591525921e-05
-6.4646604502273695e-06   8.008576627316528e-07   -2.016570591525921e-05
-6.4646604502273695e-06   8.008576627316528e-07   -2.016570591525921e-05
-5.9510671443139645e-06   9.78118483839171e-07   -1.9680369714385193e-05
-5.9510671443139645e-06   9.78118483839171e-07   -1.9680369714385193e-05
-5.9510671443139645e-06   9.78118483839171e-07   -1.9680369714385193e-05
-5.9510671443139645e-06   9.78118483839171e-07   -1.9680369714385193e-05
-6.8479324815365374e-06   1.056608526023013e-06   -2.112805125111249e-05
-6.8479324815365374e-06   1.056608526023013e-06   -2.112805125111249e-05
-6.8479324815365374e-06   1.056608526023013e-06   -2.112805125111249e-05
-6.8479324815365374e-06   1.056608526023013e-06   -2.112805125111249e-05
-6.630020010418537e-06   1.6310104469261866e-06   -1.9689327477020362e-05
-6.630020010418537e-06   1.6310104469261866e-06   -1.9689327477020362e-05
-6.630020010418537e-06   1.6310104469261866e-06   -1.9689327477020362e-05
-6.630020010418537e-06   1.6310104469261866e-06   -1.9689327477020362e-05
-5.731833413840683e-06   1.6528695291236073e-06   -2.119942058730172e-05
-5.731833413840683e-06   1.6528695291236073e-06   -2.119942058730172e-05
-5.731833413840683e-06   1.6528695291236073e-06   -2.119942058730172e-05
-5.731833413840683e-06   1.6528695291236073e-06   -2.119942058730172e-05
-6.2918810584557405e-06   1.3008148884350278e-06   -2.0054775061863846e-05
-6.2918810584557405e-06   1.3008148884350278e-06   -2.0054775061863846e-05
-6.2918810584557405e-06   1.3008148884350278e-06   -2.0054775061863846e-05
-6.2918810584557405e-06   1.3008148884350278e-06   -2.0054775061863846e-05
-5.731833413840662e-06   1.631010446926295e-06   -1.9702442926338695e-05
-5.731833413840662e-06   1.631010446926295e-06   -1.9702442926338695e-05
-5.731833413840662e-06   1.631010446926295e-06   -1.9702442926338695e-05
-5.731833413840662e-06   1.631010446926295e-06   -1.9702442926338695e-05
-6.630020010418537e-06   1.6528695291236073e-06   -2.1186305137983318e-05
-6.630020010418537e-06   1.6528695291236073e-06   -2.1186305137983318e-05
-6.630020010418537e-06   1.6528695291236073e-06   -2.1186305137983318e-05
-6.630020010418537e-06   1.6528695291236073e-06   -2.1186305137983318e-05
-6.424623322358214e-06   2.2938092962236775e-06   -2.0071539010496587e-05
-6.424623322358214e-06   2.2938092962236775e-06   -2.0071539010496587e-05
-6.424623322358214e-06   2.2938092962236775e-06   -2.0071539010496587e-05
-6.424623322358214e-06   2.2938092962236775e-06   -2.0071539010496587e-05
-5.5258205863652e-06   2.25746346943815e-06   -2.154773607441346e-05
-5.5258205863652e-06   2.25746346943815e-06   -2.154773607441346e-05
-5.5258205863652e-06   2.25746346943815e-06   -2.154773607441346e-05
-5.5258205863652e-06   2.25746346943815e-06   -2.154773607441346e-05
-6.133298714756498e-06   1.8078029866019528e-06   -2.0265476237392996e-05
-6.133298714756498e-06   1.8078029866019528e-06   -2.0265476237392996e-05
-6.133298714756498e-06   1.8078029866019528e-06   -2.0265476237392996e-05
-6.133298714756498e-06   1.8078029866019528e-06   -2.0265476237392996e-05
-7.054665187758672e-06   1.4832758809027978e-07   -1.719997565400455e-05
-7.054665187758672e-06   1.4832758809027978e-07   -1.719997565400455e-05
-7.054665187758672e-06   1.4832758809027978e-07   -1.719997565400455e-05
-7.054665187758672e-06   1.4832758809027978e-07   -1.719997565400455e-05
-8.001972474545322e-06   1.0490717100002794e-06   -1.823837465883641e-05
-8.001972474545322e-06   1.0490717100002794e-06   -1.823837465883641e-05
-8.001972474545322e-06   1.0490717100002794e-06   -1.823837465883641e-05
-8.001972474545322e-06   1.0490717100002794e-06   -1.823837465883641e-05
-7.750896339445421e-06   7.760946518187931e-07   -1.643963000149437e-05
-7.750896339445421e-06   7.760946518187931e-07   -1.643963000149437e-05
-7.750896339445421e-06   7.760946518187931e-07   -1.643963000149437e-05
-7.750896339445421e-06   7.760946518187931e-07   -1.643963000149437e-05
-6.847932481536526e-06   1.6351972818568058e-06   -1.8460031342698544e-05
-6.847932481536526e-06   1.6351972818568058e-06   -1.8460031342698544e-05
-6.847932481536526e-06   1.6351972818568058e-06   -1.8460031342698544e-05
-6.847932481536526e-06   1.6351972818568058e-06   -1.8460031342698544e-05
-7.356421183301423e-06   9.6705588509998e-07   -1.7211665335036517e-05
-7.356421183301423e-06   9.6705588509998e-07   -1.7211665335036517e-05
-7.356421183301423e-06   9.6705588509998e-07   -1.7211665335036517e-05
-7.356421183301423e-06   9.6705588509998e-07   -1.7211665335036517e-05
-6.847932481536513e-06   7.760946518187931e-07   -1.6955091579517166e-05
-6.847932481536513e-06   7.760946518187931e-07   -1.6955091579517166e-05
-6.847932481536513e-06   7.760946518187931e-07   -1.6955091579517166e-05
-6.847932481536513e-06   7.760946518187931e-07   -1.6955091579517166e-05
-7.750896339445421e-06   1.6351972818569142e-06   -1.7944569764675805e-05
-7.750896339445421e-06   1.6351972818569142e-06   -1.7944569764675805e-05
-7.750896339445421e-06   1.6351972818569142e-06   -1.7944569764675805e-05
-7.750896339445421e-06   1.6351972818569142e-06   -1.7944569764675805e-05
-7.4242829917120905e-06   1.3668963913723029e-06   -1.6507634545360995e-05
-7.4242829917120905e-06   1.3668963913723029e-06   -1.6507634545360995e-05
-7.4242829917120905e-06   1.3668963913723029e-06   -1.6507634545360995e-05
-7.4242829917120905e-06   1.3668963913723029e-06   -1.6507634545360995e-05
-6.630020010418526e-06   2.175233323053463e-06   -1.8316408339858785e-05
-6.630020010418526e-06   2.175233323053463e-06   -1.8316408339858785e-05
-6.630020010418526e-06   2.175233323053463e-06   -1.8316408339858785e-05
-6.630020010418526e-06   2.175233323053463e-06   -1.8316408339858785e-05
-7.131893218785914e-06   1.432669389396556e-06   -1.7034414632385934e-05
-7.131893218785914e-06   1.432669389396556e-06   -1.7034414632385934e-05
-7.131893218785914e-06   1.432669389396556e-06   -1.7034414632385934e-05
-7.131893218785914e-06   1.432669389396556e-06   -1.7034414632385934e-05
-6.630020010418509e-06   1.3668963913723029e-06   -1.6992636704369528e-05
-6.630020010418509e-06   1.3668963913723029e-06   -1.6992636704369528e-05
-6.630020010418509e-06   1.3668963913723029e-06   -1.6992636704369528e-05
-6.630020010418509e-06   1.3668963913723029e-06   -1.6992636704369528e-05
-7.424282991712104e-06   2.175233323053463e-06   -1.7831406180850184e-05
-7.424282991712104e-06   2.175233323053463e-06   -1.7831406180850184e-05
-7.424282991712104e-06   2.175233323053463e-06   -1.7831406180850184e-05
-7.424282991712104e-06   2.175233323053463e-06   -1.7831406180850184e-05
-7.168241591962862e-06   2.0339492874098817e-06   -1.696533491569622e-05
-7.168241591962862e-06   2.0339492874098817e-06   -1.696533491569622e-05
-7.168241591962862e-06   2.0339492874098817e-06   -1.696533491569622e-05
-7.168241591962862e-06   2.0339492874098817e-06   -1.696533491569622e-05
-6.424623322358214e-06   2.7793879841010727e-06   -1.8651961916385305e-05
-6.424623322358214e-06   2.7793879841010727e-06   -1.8651961916385305e-05
-6.424623322358214e-06   2.7793879841010727e-06   -1.8651961916385305e-05
-6.424623322358214e-06   2.7793879841010727e-06   -1.8651961916385305e-05
-6.965526116607271e-06   1.9076057616648897e-06   -1.722738792584168e-05
-6.965526116607271e-06   1.9076057616648897e-06   -1.722738792584168e-05
-6.965526116607271e-06   1.9076057616648897e-06   -1.722738792584168e-05
-6.965526116607271e-06   1.9076057616648897e-06   -1.722738792584168e-05
-8.001972474545288e-06   2.134015207195519e-07   -9.156821984185977e-06
-8.001972474545288e-06   2.134015207195519e-07   -9.156821984185977e-06
-8.001972474545288e-06   2.134015207195519e-07   -9.156821984185977e-06
-8.001972474545288e-06   2.134015207195519e-07   -9.156821984185977e-06
-9.73124309545241e-06   1.7670511426635211e-06   -1.1106749912531471e-05
-9.73124309545241e-06   1.7670511426635211e-06   -1.1106749912531471e-05
-9.73124309545241e-06   1.7670511426635211e-06   -1.1106749912531471e-05
-9.73124309545241e-06   1.7670511426635211e-06   -1.1106749912531471e-05
-8.825696920254251e-06   7.105554423682183e-07   -7.526623610775644e-06
-8.825696920254251e-06   7.105554423682183e-07   -7.526623610775644e-06
-8.825696920254251e-06   7.105554423682183e-07   -7.526623610775644e-06
-8.825696920254251e-06   7.105554423682183e-07   -7.526623610775644e-06
-7.750896339445407e-06   2.2993626846880407e-06   -1.0271242257515477e-05
-7.750896339445407e-06   2.2993626846880407e-06   -1.0271242257515477e-05
-7.750896339445407e-06   2.2993626846880407e-06   -1.0271242257515477e-05
-7.750896339445407e-06   2.2993626846880407e-06   -1.0271242257515477e-05
-8.230370662502903e-06   1.3108548068943484e-06   -8.879013659076875e-06
-8.230370662502903e-06   1.3108548068943484e-06   -8.879013659076875e-06
-8.230370662502903e-06   1.3108548068943484e-06   -8.879013659076875e-06
-8.230370662502903e-06   1.3108548068943484e-06   -8.879013659076875e-06
-7.75089633944538e-06   7.105554423682183e-07   -8.479907956167483e-06
-7.75089633944538e-06   7.105554423682183e-07   -8.479907956167483e-06
-7.75089633944538e-06   7.105554423682183e-07   -8.479907956167483e-06
-7.75089633944538e-06   7.105554423682183e-07   -8.479907956167483e-06
-8.825696920254224e-06   2.2993626846880407e-06   -9.317957912123652e-06
-8.825696920254224e-06   2.2993626846880407e-06   -9.317957912123652e-06
-8.825696920254224e-06   2.2993626846880407e-06   -9.317957912123652e-06
-8.825696920254224e-06   2.2993626846880407e-06   -9.317957912123652e-06
-8.089163292735883e-06   9.89652025587995e-07   -7.391442297254144e-06
-8.089163292735883e-06   9.89652025587995e-07   -7.391442297254144e-06
-8.089163292735883e-06   9.89652025587995e-07   -7.391442297254144e-06
-8.089163292735883e-06   9.89652025587995e-07   -7.391442297254144e-06
-7.4242829917120905e-06   2.5430076225408695e-06   -9.431589490465513e-06
-7.4242829917120905e-06   2.5430076225408695e-06   -9.431589490465513e-06
-7.4242829917120905e-06   2.5430076225408695e-06   -9.431589490465513e-06
-7.4242829917120905e-06   2.5430076225408695e-06   -9.431589490465513e-06
-7.84847824486983e-06   1.558404085236437e-06   -8.133835279486702e-06
-7.84847824486983e-06   1.558404085236437e-06   -8.133835279486702e-06
-7.84847824486983e-06   1.558404085236437e-06   -8.133835279486702e-06
-7.84847824486983e-06   1.558404085236437e-06   -8.133835279486702e-06
-7.424282991712077e-06   9.89652025587995e-07   -8.323455655425901e-06
-7.424282991712077e-06   9.89652025587995e-07   -8.323455655425901e-06
-7.424282991712077e-06   9.89652025587995e-07   -8.323455655425901e-06
-7.424282991712077e-06   9.89652025587995e-07   -8.323455655425901e-06
-8.089163292735883e-06   2.5430076225408695e-06   -8.49957613229381e-06
-8.089163292735883e-06   2.5430076225408695e-06   -8.49957613229381e-06
-8.089163292735883e-06   2.5430076225408695e-06   -8.49957613229381e-06
-8.089163292735883e-06   2.5430076225408695e-06   -8.49957613229381e-06
-7.186015896296793e-06   1.4822516625482467e-06   -7.609376054550673e-06
-7.186015896296793e-06   1.4822516625482467e-06   -7.609376054550673e-06
-7.186015896296793e-06   1.4822516625482467e-06   -7.609376054550673e-06
-7.186015896296793e-06   1.4822516625482467e-06   -7.609376054550673e-06
-7.168241591962849e-06   2.917951404597099e-06   -8.50041974033639e-06
-7.168241591962849e-06   2.917951404597099e-06   -8.50041974033639e-06
-7.168241591962849e-06   2.917951404597099e-06   -8.50041974033639e-06
-7.168241591962849e-06   2.917951404597099e-06   -8.50041974033639e-06
-7.278436721626636e-06   1.756816171525873e-06   -7.6200800510540405e-06
-7.278436721626636e-06   1.756816171525873e-06   -7.6200800510540405e-06
-7.278436721626636e-06   1.756816171525873e-06   -7.6200800510540405e-06
-7.278436721626636e-06   1.756816171525873e-06   -7.6200800510540405e-06
4.7289620211376235e-06   -4.665875617229816e-07   -4.6913055412978015e-06
4.7289620211376235e-06   -4.665875617229816e-07   -4.6913055412978015e-06
4.7289620211376235e-06   -4.665875617229816e-07   -4.6913055412978015e-06
4.7289620211376235e-06   -4.665875617229816e-07   -4.6913055412978015e-06
4.961752147280923e-07   -1.9372823439118463e-06   -1.2628367087960278e-05
4.961752147280923e-07   -1.9372823439118463e-06   -1.2628367087960278e-05
4.961752147280923e-07   -1.9372823439118463e-06   -1.2628367087960278e-05
4.961752147280923e-07   -1.9372823439118463e-06   -1.2628367087960278e-05
8.550907711581726e-07   -2.052909367511197e-08   -5.1959430684240734e-06
8.550907711581726e-07   -2.052909367511197e-08   -5.1959430684240734e-06
8.550907711581726e-07   -2.052909367511197e-08   -5.1959430684240734e-06
8.550907711581726e-07   -2.052909367511197e-08   -5.1959430684240734e-06
5.742949528863943e-06   -1.5934947778930642e-06   -1.2398594920736371e-05
5.742949528863943e-06   -1.5934947778930642e-06   -1.2398594920736371e-05
5.742949528863943e-06   -1.5934947778930642e-06   -1.2398594920736371e-05
5.742949528863943e-06   -1.5934947778930642e-06   -1.2398594920736371e-05
2.8448817990427898e-06   -8.109101639012378e-07   -8.038032806096144e-06
2.8448817990427898e-06   -8.109101639012378e-07   -8.038032806096144e-06
2.8448817990427898e-06   -8.109101639012378e-07   -8.038032806096144e-06
2.8448817990427898e-06   -8.109101639012378e-07   -8.038032806096144e-06
5.74294952886397e-06   -2.052909367511197e-08   -4.252163657893389e-06
5.74294952886397e-06   -2.052909367511197e-08   -4.252163657893389e-06
5.74294952886397e-06   -2.052909367511197e-08   -4.252163657893389e-06
5.74294952886397e-06   -2.052909367511197e-08   -4.252163657893389e-06
8.550907711581726e-07   -1.5934947778930642e-06   -1.3342374331267164e-05
8.550907711581726e-07   -1.5934947778930642e-06   -1.3342374331267164e-05
8.550907711581726e-07   -1.5934947778930642e-06   -1.3342374331267164e-05
8.550907711581726e-07   -1.5934947778930642e-06   -1.3342374331267164e-05
1.2788300038252287e-06   2.3303737907074112e-07   -5.240104716306695e-06
1.2788300038252287e-06   2.3303737907074112e-07   -5.240104716306695e-06
1.2788300038252287e-06   2.3303737907074112e-07   -5.240104716306695e-06
1.2788300038252287e-06   2.3303737907074112e-07   -5.240104716306695e-06
6.597906310320986e-06   -1.3628650067254054e-06   -1.3147690462321949e-05
6.597906310320986e-06   -1.3628650067254054e-06   -1.3147690462321949e-05
6.597906310320986e-06   -1.3628650067254054e-06   -1.3147690462321949e-05
6.597906310320986e-06   -1.3628650067254054e-06   -1.3147690462321949e-05
3.486535252195268e-06   -6.493786444545764e-07   -8.390163849475321e-06
3.486535252195268e-06   -6.493786444545764e-07   -8.390163849475321e-06
3.486535252195268e-06   -6.493786444545764e-07   -8.390163849475321e-06
3.486535252195268e-06   -6.493786444545764e-07   -8.390163849475321e-06
6.597906310320986e-06   2.3303737907074112e-07   -4.282563284829029e-06
6.597906310320986e-06   2.3303737907074112e-07   -4.282563284829029e-06
6.597906310320986e-06   2.3303737907074112e-07   -4.282563284829029e-06
6.597906310320986e-06   2.3303737907074112e-07   -4.282563284829029e-06
1.2788300038252287e-06   -1.362865006725297e-06   -1.4105231893799615e-05
1.2788300038252287e-06   -1.362865006725297e-06   -1.4105231893799615e-05
1.2788300038252287e-06   -1.362865006725297e-06   -1.4105231893799615e-05
1.2788300038252287e-06   -1.362865006725297e-06   -1.4105231893799615e-05
1.6260113759123524e-06   7.383300410458357e-07   -5.753343834881191e-06
1.6260113759123524e-06   7.383300410458357e-07   -5.753343834881191e-06
1.6260113759123524e-06   7.383300410458357e-07   -5.753343834881191e-06
1.6260113759123524e-06   7.383300410458357e-07   -5.753343834881191e-06
7.625108118967537e-06   -7.831339617938833e-07   -1.483896000493588e-05
7.625108118967537e-06   -7.831339617938833e-07   -1.483896000493588e-05
7.625108118967537e-06   -7.831339617938833e-07   -1.483896000493588e-05
7.625108118967537e-06   -7.831339617938833e-07   -1.483896000493588e-05
3.993501196652696e-06   -4.1091773036355025e-07   -9.00961153993651e-06
3.993501196652696e-06   -4.1091773036355025e-07   -9.00961153993651e-06
3.993501196652696e-06   -4.1091773036355025e-07   -9.00961153993651e-06
3.993501196652696e-06   -4.1091773036355025e-07   -9.00961153993651e-06
4.961752147281058e-07   -9.703444595152589e-08   -1.3650548840626734e-05
4.961752147281058e-07   -9.703444595152589e-08   -1.3650548840626734e-05
4.961752147281058e-07   -9.703444595152589e-08   -1.3650548840626734e-05
4.961752147281058e-07   -9.703444595152589e-08   -1.3650548840626734e-05
-4.416953554211238e-06   -7.604001794914725e-07   -2.223711622898291e-05
-4.416953554211238e-06   -7.604001794914725e-07   -2.223711622898291e-05
-4.416953554211238e-06   -7.604001794914725e-07   -2.223711622898291e-05
-4.416953554211238e-06   -7.604001794914725e-07   -2.223711622898291e-05
-4.103355264805988e-06   4.6658354354960074e-07   -1.372680245752874e-05
-4.103355264805988e-06   4.6658354354960074e-07   -1.372680245752874e-05
-4.103355264805988e-06   4.6658354354960074e-07   -1.372680245752874e-05
-4.103355264805988e-06   4.6658354354960074e-07   -1.372680245752874e-05
8.550907711581726e-07   -2.874956751203802e-07   -2.1538431652933594e-05
8.550907711581726e-07   -2.874956751203802e-07   -2.1538431652933594e-05
8.550907711581726e-07   -2.874956751203802e-07   -2.1538431652933594e-05
8.550907711581726e-07   -2.874956751203802e-07   -2.1538431652933594e-05
-1.7512102505101688e-06   -2.4269505643765947e-08   -1.7352532318505755e-05
-1.7512102505101688e-06   -2.4269505643765947e-08   -1.7352532318505755e-05
-1.7512102505101688e-06   -2.4269505643765947e-08   -1.7352532318505755e-05
-1.7512102505101688e-06   -2.4269505643765947e-08   -1.7352532318505755e-05
8.55090771158159e-07   4.6658354354960074e-07   -1.3274354926326633e-05
8.55090771158159e-07   4.6658354354960074e-07   -1.3274354926326633e-05
8.55090771158159e-07   4.6658354354960074e-07   -1.3274354926326633e-05
8.55090771158159e-07   4.6658354354960074e-07   -1.3274354926326633e-05
-4.103355264805988e-06   -2.874956751203802e-07   -2.1990879184135756e-05
-4.103355264805988e-06   -2.874956751203802e-07   -2.1990879184135756e-05
-4.103355264805988e-06   -2.874956751203802e-07   -2.1990879184135756e-05
-4.103355264805988e-06   -2.874956751203802e-07   -2.1990879184135756e-05
-3.787916513739396e-06   1.0100376948861314e-06   -1.3748246725884031e-05
-3.787916513739396e-06   1.0100376948861314e-06   -1.3748246725884031e-05
-3.787916513739396e-06   1.0100376948861314e-06   -1.3748246725884031e-05
-3.787916513739396e-06   1.0100376948861314e-06   -1.3748246725884031e-05
1.2788300038252287e-06   2.020015571442069e-07   -2.170800257251333e-05
1.2788300038252287e-06   2.020015571442069e-07   -2.170800257251333e-05
1.2788300038252287e-06   2.020015571442069e-07   -2.170800257251333e-05
1.2788300038252287e-06   2.020015571442069e-07   -2.170800257251333e-05
-1.474239926148786e-06   3.651426053035431e-07   -1.7217437318118927e-05
-1.474239926148786e-06   3.651426053035431e-07   -1.7217437318118927e-05
-1.474239926148786e-06   3.651426053035431e-07   -1.7217437318118927e-05
-1.474239926148786e-06   3.651426053035431e-07   -1.7217437318118927e-05
1.2788300038252287e-06   1.0100376948861314e-06   -1.3263425043238898e-05
1.2788300038252287e-06   1.0100376948861314e-06   -1.3263425043238898e-05
1.2788300038252287e-06   1.0100376948861314e-06   -1.3263425043238898e-05
1.2788300038252287e-06   1.0100376948861314e-06   -1.3263425043238898e-05
-3.787916513739396e-06   2.0200155714409848e-07   -2.2192824255158465e-05
-3.787916513739396e-06   2.0200155714409848e-07   -2.2192824255158465e-05
-3.787916513739396e-06   2.0200155714409848e-07   -2.2192824255158465e-05
-3.787916513739396e-06   2.0200155714409848e-07   -2.2192824255158465e-05
-3.4869564889065653e-06   1.6314421889245673e-06   -1.4094157698460496e-05
-3.4869564889065653e-06   1.6314421889245673e-06   -1.4094157698460496e-05
-3.4869564889065653e-06   1.6314421889245673e-06   -1.4094157698460496e-05
-3.4869564889065653e-06   1.6314421889245673e-06   -1.4094157698460496e-05
1.6260113759123524e-06   7.82464811313415e-07   -2.210638437992525e-05
1.6260113759123524e-06   7.82464811313415e-07   -2.210638437992525e-05
1.6260113759123524e-06   7.82464811313415e-07   -2.210638437992525e-05
1.6260113759123524e-06   7.82464811313415e-07   -2.210638437992525e-05
-1.1649530220287567e-06   7.976010055761162e-07   -1.7463858766581398e-05
-1.1649530220287567e-06   7.976010055761162e-07   -1.7463858766581398e-05
-1.1649530220287567e-06   7.976010055761162e-07   -1.7463858766581398e-05
-1.1649530220287567e-06   7.976010055761162e-07   -1.7463858766581398e-05
-4.416953554211252e-06   4.7300994137147723e-07   -1.6542065536990743e-05
-4.416953554211252e-06   4.7300994137147723e-07   -1.6542065536990743e-05
-4.416953554211252e-06   4.7300994137147723e-07   -1.6542065536990743e-05
-4.416953554211252e-06   4.7300994137147723e-07   -1.6542065536990743e-05
-9.285145492455559e-06   5.9590312244482e-07   -2.458198285875383e-05
-9.285145492455559e-06   5.9590312244482e-07   -2.458198285875383e-05
-9.285145492455559e-06   5.9590312244482e-07   -2.458198285875383e-05
-9.285145492455559e-06   5.9590312244482e-07   -2.458198285875383e-05
-8.969596458884931e-06   1.0566085260231214e-06   -1.624315986703702e-05
-8.969596458884931e-06   1.0566085260231214e-06   -1.624315986703702e-05
-8.969596458884931e-06   1.0566085260231214e-06   -1.624315986703702e-05
-8.969596458884931e-06   1.0566085260231214e-06   -1.624315986703702e-05
-4.103355264806002e-06   1.0972530412415313e-06   -2.437794856629974e-05
-4.103355264806002e-06   1.0972530412415313e-06   -2.437794856629974e-05
-4.103355264806002e-06   1.0972530412415313e-06   -2.437794856629974e-05
-4.103355264806002e-06   1.0972530412415313e-06   -2.437794856629974e-05
-6.655069290739141e-06   9.077703036336742e-07   -2.0011402213846493e-05
-6.655069290739141e-06   9.077703036336742e-07   -2.0011402213846493e-05
-6.655069290739141e-06   9.077703036336742e-07   -2.0011402213846493e-05
-6.655069290739141e-06   9.077703036336742e-07   -2.0011402213846493e-05
-4.103355264806002e-06   1.056608526023013e-06   -1.6267546576168154e-05
-4.103355264806002e-06   1.056608526023013e-06   -1.6267546576168154e-05
-4.103355264806002e-06   1.056608526023013e-06   -1.6267546576168154e-05
-4.103355264806002e-06   1.056608526023013e-06   -1.6267546576168154e-05
-8.969596458884931e-06   1.0972530412416397e-06   -2.4353561857168716e-05
-8.969596458884931e-06   1.0972530412416397e-06   -2.4353561857168716e-05
-8.969596458884931e-06   1.0972530412416397e-06   -2.4353561857168716e-05
-8.969596458884931e-06   1.0972530412416397e-06   -2.4353561857168716e-05
-8.648582582022914e-06   1.6528695291236073e-06   -1.6284731578808474e-05
-8.648582582022914e-06   1.6528695291236073e-06   -1.6284731578808474e-05
-8.648582582022914e-06   1.6528695291236073e-06   -1.6284731578808474e-05
-8.648582582022914e-06   1.6528695291236073e-06   -1.6284731578808474e-05
-3.7879165137394096e-06   1.6275852825872912e-06   -2.437067114469246e-05
-3.7879165137394096e-06   1.6275852825872912e-06   -2.437067114469246e-05
-3.7879165137394096e-06   1.6275852825872912e-06   -2.437067114469246e-05
-3.7879165137394096e-06   1.6275852825872912e-06   -2.437067114469246e-05
-6.377967034181589e-06   1.3459684997258739e-06   -1.988495020757231e-05
-6.377967034181589e-06   1.3459684997258739e-06   -1.988495020757231e-05
-6.377967034181589e-06   1.3459684997258739e-06   -1.988495020757231e-05
-6.377967034181589e-06   1.3459684997258739e-06   -1.988495020757231e-05
-3.7879165137394096e-06   1.6528695291236073e-06   -1.6269561030886695e-05
-3.7879165137394096e-06   1.6528695291236073e-06   -1.6269561030886695e-05
-3.7879165137394096e-06   1.6528695291236073e-06   -1.6269561030886695e-05
-3.7879165137394096e-06   1.6528695291236073e-06   -1.6269561030886695e-05
-8.648582582022899e-06   1.6275852825873996e-06   -2.4385841692614292e-05
-8.648582582022899e-06   1.6275852825873996e-06   -2.4385841692614292e-05
-8.648582582022899e-06   1.6275852825873996e-06   -2.4385841692614292e-05
-8.648582582022899e-06   1.6275852825873996e-06   -2.4385841692614292e-05
-8.342551970271013e-06   2.25746346943815e-06   -1.665129754635931e-05
-8.342551970271013e-06   2.25746346943815e-06   -1.665129754635931e-05
-8.342551970271013e-06   2.25746346943815e-06   -1.665129754635931e-05
-8.342551970271013e-06   2.25746346943815e-06   -1.665129754635931e-05
-3.486956488906579e-06   2.1671355472583894e-06   -2.468975992865892e-05
-3.486956488906579e-06   2.1671355472583894e-06   -2.468975992865892e-05
-3.486956488906579e-06   2.1671355472583894e-06   -2.468975992865892e-05
-3.486956488906579e-06   2.1671355472583894e-06   -2.468975992865892e-05
-6.12061265836984e-06   1.7908816707327274e-06   -2.0074580653638342e-05
-6.12061265836984e-06   1.7908816707327274e-06   -2.0074580653638342e-05
-6.12061265836984e-06   1.7908816707327274e-06   -2.0074580653638342e-05
-6.12061265836984e-06   1.7908816707327274e-06   -2.0074580653638342e-05
-9.285145492455576e-06   1.0490717100002794e-06   -1.3901394983034698e-05
-9.285145492455576e-06   1.0490717100002794e-06   -1.3901394983034698e-05
-9.285145492455576e-06   1.0490717100002794e-06   -1.3901394983034698e-05
-9.285145492455576e-06   1.0490717100002794e-06   -1.3901394983034698e-05
-1.4104226955037879e-05   1.914874635849527e-06   -2.1413715665162297e-05
-1.4104226955037879e-05   1.914874635849527e-06   -2.1413715665162297e-05
-1.4104226955037879e-05   1.914874635849527e-06   -2.1413715665162297e-05
-1.4104226955037879e-05   1.914874635849527e-06   -2.1413715665162297e-05
-1.3742986500271793e-05   1.6351972818568058e-06   -1.3086199869408936e-05
-1.3742986500271793e-05   1.6351972818568058e-06   -1.3086199869408936e-05
-1.3742986500271793e-05   1.6351972818568058e-06   -1.3086199869408936e-05
-1.3742986500271793e-05   1.6351972818568058e-06   -1.3086199869408936e-05
-8.969596458884931e-06   2.450097430547332e-06   -2.15307900276013e-05
-8.969596458884931e-06   2.450097430547332e-06   -2.15307900276013e-05
-8.969596458884931e-06   2.450097430547332e-06   -2.15307900276013e-05
-8.969596458884931e-06   2.450097430547332e-06   -2.15307900276013e-05
-1.1445534701624174e-05   1.8310990496736177e-06   -1.7032827261178284e-05
-1.1445534701624174e-05   1.8310990496736177e-06   -1.7032827261178284e-05
-1.1445534701624174e-05   1.8310990496736177e-06   -1.7032827261178284e-05
-1.1445534701624174e-05   1.8310990496736177e-06   -1.7032827261178284e-05
-8.969596458884948e-06   1.6351972818569142e-06   -1.3575139958623187e-05
-8.969596458884948e-06   1.6351972818569142e-06   -1.3575139958623187e-05
-8.969596458884948e-06   1.6351972818569142e-06   -1.3575139958623187e-05
-8.969596458884948e-06   1.6351972818569142e-06   -1.3575139958623187e-05
-1.374298650027182e-05   2.450097430547332e-06   -2.1041849938387212e-05
-1.374298650027182e-05   2.450097430547332e-06   -2.1041849938387212e-05
-1.374298650027182e-05   2.450097430547332e-06   -2.1041849938387212e-05
-1.374298650027182e-05   2.450097430547332e-06   -2.1041849938387212e-05
-1.3308525378767816e-05   2.175233323053463e-06   -1.2960978618624516e-05
-1.3308525378767816e-05   2.175233323053463e-06   -1.2960978618624516e-05
-1.3308525378767816e-05   2.175233323053463e-06   -1.2960978618624516e-05
-1.3308525378767816e-05   2.175233323053463e-06   -1.2960978618624516e-05
-8.648582582022914e-06   2.93166025981922e-06   -2.1181406108592067e-05
-8.648582582022914e-06   2.93166025981922e-06   -2.1181406108592067e-05
-8.648582582022914e-06   2.93166025981922e-06   -2.1181406108592067e-05
-8.648582582022914e-06   2.93166025981922e-06   -2.1181406108592067e-05
-1.108049596268033e-05   2.2543359853813717e-06   -1.672182257616726e-05
-1.108049596268033e-05   2.2543359853813717e-06   -1.672182257616726e-05
-1.108049596268033e-05   2.2543359853813717e-06   -1.672182257616726e-05
-1.108049596268033e-05   2.2543359853813717e-06   -1.672182257616726e-05
-8.648582582022906e-06   2.175233323053463e-06   -1.3414834780683818e-05
-8.648582582022906e-06   2.175233323053463e-06   -1.3414834780683818e-05
-8.648582582022906e-06   2.175233323053463e-06   -1.3414834780683818e-05
-8.648582582022906e-06   2.175233323053463e-06   -1.3414834780683818e-05
-1.3308525378767816e-05   2.9316602598191115e-06   -2.0727549946532764e-05
-1.3308525378767816e-05   2.9316602598191115e-06   -2.0727549946532764e-05
-1.3308525378767816e-05   2.9316602598191115e-06   -2.0727549946532764e-05
-1.3308525378767816e-05   2.9316602598191115e-06   -2.0727549946532764e-05
-1.2947065004153268e-05   2.7793879841010727e-06   -1.3319784345511309e-05
-1.2947065004153268e-05   2.7793879841010727e-06   -1.3319784345511309e-05
-1.2947065004153268e-05   2.7793879841010727e-06   -1.3319784345511309e-05
-1.2947065004153268e-05   2.7793879841010727e-06   -1.3319784345511309e-05
-8.342551970271013e-06   3.4692738953485437e-06   -2.140790428206349e-05
-8.342551970271013e-06   3.4692738953485437e-06   -2.140790428206349e-05
-8.342551970271013e-06   3.4692738953485437e-06   -2.140790428206349e-05
-8.342551970271013e-06   3.4692738953485437e-06   -2.140790428206349e-05
-1.0838896752660212e-05   2.6706109039211726e-06   -1.6768131849891695e-05
-1.0838896752660212e-05   2.6706109039211726e-06   -1.6768131849891695e-05
-1.0838896752660212e-05   2.6706109039211726e-06   -1.6768131849891695e-05
-1.0838896752660212e-05   2.6706109039211726e-06   -1.6768131849891695e-05
-1.4104226955037879e-05   1.7670511426635211e-06   -7.182478254386614e-06
-1.4104226955037879e-05   1.7670511426635211e-06   -7.182478254386614e-06
-1.4104226955037879e-05   1.7670511426635211e-06   -7.182478254386614e-06
-1.4104226955037879e-05   1.7670511426635211e-06   -7.182478254386614e-06
-1.9606147691778934e-05   3.293821132581442e-06   -1.5436284155004288e-05
-1.9606147691778934e-05   3.293821132581442e-06   -1.5436284155004288e-05
-1.9606147691778934e-05   3.293821132581442e-06   -1.5436284155004288e-05
-1.9606147691778934e-05   3.293821132581442e-06   -1.5436284155004288e-05
-1.860125426744566e-05   2.2993626846880407e-06   -4.482214078355346e-06
-1.860125426744566e-05   2.2993626846880407e-06   -4.482214078355346e-06
-1.860125426744566e-05   2.2993626846880407e-06   -4.482214078355346e-06
-1.860125426744566e-05   2.2993626846880407e-06   -4.482214078355346e-06
-1.3742986500271793e-05   3.850459824510295e-06   -1.3509985307538442e-05
-1.3742986500271793e-05   3.850459824510295e-06   -1.3509985307538442e-05
-1.3742986500271793e-05   3.850459824510295e-06   -1.3509985307538442e-05
-1.3742986500271793e-05   3.850459824510295e-06   -1.3509985307538442e-05
-1.584204155629576e-05   2.864818574407251e-06   -9.420175464103426e-06
-1.584204155629576e-05   2.864818574407251e-06   -9.420175464103426e-06
-1.584204155629576e-05   2.864818574407251e-06   -9.420175464103426e-06
-1.584204155629576e-05   2.864818574407251e-06   -9.420175464103426e-06
-1.374298650027181e-05   2.2993626846880407e-06   -5.412872362248568e-06
-1.374298650027181e-05   2.2993626846880407e-06   -5.412872362248568e-06
-1.374298650027181e-05   2.2993626846880407e-06   -5.412872362248568e-06
-1.374298650027181e-05   2.2993626846880407e-06   -5.412872362248568e-06
-1.8601254267445607e-05   3.850459824510186e-06   -1.2579327023645118e-05
-1.8601254267445607e-05   3.850459824510186e-06   -1.2579327023645118e-05
-1.8601254267445607e-05   3.850459824510186e-06   -1.2579327023645118e-05
-1.8601254267445607e-05   3.850459824510186e-06   -1.2579327023645118e-05
-1.7770781600419275e-05   2.5430076225408695e-06   -3.656830539966818e-06
-1.7770781600419275e-05   2.5430076225408695e-06   -3.656830539966818e-06
-1.7770781600419275e-05   2.5430076225408695e-06   -3.656830539966818e-06
-1.7770781600419275e-05   2.5430076225408695e-06   -3.656830539966818e-06
-1.3308525378767792e-05   4.050226602995825e-06   -1.1998255630992288e-05
-1.3308525378767792e-05   4.050226602995825e-06   -1.1998255630992288e-05
-1.3308525378767792e-05   4.050226602995825e-06   -1.1998255630992288e-05
-1.3308525378767792e-05   4.050226602995825e-06   -1.1998255630992288e-05
-1.548037233923218e-05   3.1164652524227985e-06   -7.81825388654117e-06
-1.548037233923218e-05   3.1164652524227985e-06   -7.81825388654117e-06
-1.548037233923218e-05   3.1164652524227985e-06   -7.81825388654117e-06
-1.548037233923218e-05   3.1164652524227985e-06   -7.81825388654117e-06
-1.3308525378767816e-05   2.5430076225408695e-06   -4.561161928239791e-06
-1.3308525378767816e-05   2.5430076225408695e-06   -4.561161928239791e-06
-1.3308525378767816e-05   2.5430076225408695e-06   -4.561161928239791e-06
-1.3308525378767816e-05   2.5430076225408695e-06   -4.561161928239791e-06
-1.7770781600419234e-05   4.050226602995825e-06   -1.1093924242719356e-05
-1.7770781600419234e-05   4.050226602995825e-06   -1.1093924242719356e-05
-1.7770781600419234e-05   4.050226602995825e-06   -1.1093924242719356e-05
-1.7770781600419234e-05   4.050226602995825e-06   -1.1093924242719356e-05
-1.678613939499003e-05   2.917951404597099e-06   -2.7858155013893936e-06
-1.678613939499003e-05   2.917951404597099e-06   -2.7858155013893936e-06
-1.678613939499003e-05   2.917951404597099e-06   -2.7858155013893936e-06
-1.678613939499003e-05   2.917951404597099e-06   -2.7858155013893936e-06
-1.2947065004153268e-05   4.300767881409984e-06   -1.0013962705538362e-05
-1.2947065004153268e-05   4.300767881409984e-06   -1.0013962705538362e-05
-1.2947065004153268e-05   4.300767881409984e-06   -1.0013962705538362e-05
-1.2947065004153268e-05   4.300767881409984e-06   -1.0013962705538362e-05
-1.4697066666156153e-05   3.2369745339362902e-06   -6.459017260382848e-06
-1.4697066666156153e-05   3.2369745339362902e-06   -6.459017260382848e-06
-1.4697066666156153e-05   3.2369745339362902e-06   -6.459017260382848e-06
-1.4697066666156153e-05   3.2369745339362902e-06   -6.459017260382848e-06
1.4798616402871755e-05   -1.9372823439118463e-06   -1.7178563907634635e-08
1.4798616402871755e-05   -1.9372823439118463e-06   -1.7178563907634635e-08
1.4798616402871755e-05   -1.9372823439118463e-06   -1.7178563907634635e-08
1.4798616402871755e-05   -1.9372823439118463e-06   -1.7178563907634635e-08
6.290422581992818e-06   -3.4820549807573244e-06   -1.5124365180813092e-05
6.290422581992818e-06   -3.4820549807573244e-06   -1.5124365180813092e-05
6.290422581992818e-06   -3.4820549807573244e-06   -1.5124365180813092e-05
6.290422581992818e-06   -3.4820549807573244e-06   -1.5124365180813092e-05
6.727581343401849e-06   -1.5934947778930642e-06   -1.5729580379859973e-06
6.727581343401849e-06   -1.5934947778930642e-06   -1.5729580379859973e-06
6.727581343401849e-06   -1.5934947778930642e-06   -1.5729580379859973e-06
6.727581343401849e-06   -1.5934947778930642e-06   -1.5729580379859973e-06
1.590336170382317e-05   -3.2397671591492903e-06   -1.5878161876601194e-05
1.590336170382317e-05   -3.2397671591492903e-06   -1.5878161876601194e-05
1.590336170382317e-05   -3.2397671591492903e-06   -1.5878161876601194e-05
1.590336170382317e-05   -3.2397671591492903e-06   -1.5878161876601194e-05
1.0488418300383554e-05   -2.298869864986652e-06   -7.417794580699401e-06
1.0488418300383554e-05   -2.298869864986652e-06   -7.417794580699401e-06
1.0488418300383554e-05   -2.298869864986652e-06   -7.417794580699401e-06
1.0488418300383554e-05   -2.298869864986652e-06   -7.417794580699401e-06
1.590336170382317e-05   -1.5934947778930642e-06   -5.851946092323701e-07
1.590336170382317e-05   -1.5934947778930642e-06   -5.851946092323701e-07
1.590336170382317e-05   -1.5934947778930642e-06   -5.851946092323701e-07
1.590336170382317e-05   -1.5934947778930642e-06   -5.851946092323701e-07
6.727581343401835e-06   -3.2397671591492903e-06   -1.6865925305354875e-05
6.727581343401835e-06   -3.2397671591492903e-06   -1.6865925305354875e-05
6.727581343401835e-06   -3.2397671591492903e-06   -1.6865925305354875e-05
6.727581343401835e-06   -3.2397671591492903e-06   -1.6865925305354875e-05
7.21232151746395e-06   -1.3628650067254054e-06   -2.257582508327573e-06
7.21232151746395e-06   -1.3628650067254054e-06   -2.257582508327573e-06
7.21232151746395e-06   -1.3628650067254054e-06   -2.257582508327573e-06
7.21232151746395e-06   -1.3628650067254054e-06   -2.257582508327573e-06
1.6829541532685255e-05   -3.02975471691818e-06   -1.7286148707580792e-05
1.6829541532685255e-05   -3.02975471691818e-06   -1.7286148707580792e-05
1.6829541532685255e-05   -3.02975471691818e-06   -1.7286148707580792e-05
1.6829541532685255e-05   -3.02975471691818e-06   -1.7286148707580792e-05
1.1317878322099242e-05   -2.2052717844878427e-06   -8.594733116062356e-06
1.1317878322099242e-05   -2.2052717844878427e-06   -8.594733116062356e-06
1.1317878322099242e-05   -2.2052717844878427e-06   -8.594733116062356e-06
1.1317878322099242e-05   -2.2052717844878427e-06   -8.594733116062356e-06
1.682954153268531e-05   -1.3628650067254054e-06   -1.2574486822118864e-06
1.682954153268531e-05   -1.3628650067254054e-06   -1.2574486822118864e-06
1.682954153268531e-05   -1.3628650067254054e-06   -1.2574486822118864e-06
1.682954153268531e-05   -1.3628650067254054e-06   -1.2574486822118864e-06
7.2123215174639364e-06   -3.02975471691818e-06   -1.828628253369648e-05
7.2123215174639364e-06   -3.02975471691818e-06   -1.828628253369648e-05
7.2123215174639364e-06   -3.02975471691818e-06   -1.828628253369648e-05
7.2123215174639364e-06   -3.02975471691818e-06   -1.828628253369648e-05
7.6115412270976905e-06   -7.831339617938833e-07   -3.831819399345397e-06
7.6115412270976905e-06   -7.831339617938833e-07   -3.831819399345397e-06
7.6115412270976905e-06   -7.831339617938833e-07   -3.831819399345397e-06
7.6115412270976905e-06   -7.831339617938833e-07   -3.831819399345397e-06
1.79052054763926e-05   -2.3676182480416013e-06   -2.0037235909754986e-05
1.79052054763926e-05   -2.3676182480416013e-06   -2.0037235909754986e-05
1.79052054763926e-05   -2.3676182480416013e-06   -2.0037235909754986e-05
1.79052054763926e-05   -2.3676182480416013e-06   -2.0037235909754986e-05
1.1762073515147786e-05   -1.9447865686945433e-06   -1.0052381648622378e-05
1.1762073515147786e-05   -1.9447865686945433e-06   -1.0052381648622378e-05
1.1762073515147786e-05   -1.9447865686945433e-06   -1.0052381648622378e-05
1.1762073515147786e-05   -1.9447865686945433e-06   -1.0052381648622378e-05
6.290422581992818e-06   -7.604001794914725e-07   -1.015477184691338e-05
6.290422581992818e-06   -7.604001794914725e-07   -1.015477184691338e-05
6.290422581992818e-06   -7.604001794914725e-07   -1.015477184691338e-05
6.290422581992818e-06   -7.604001794914725e-07   -1.015477184691338e-05
-2.698309076370868e-06   -1.621383354727347e-06   -2.565258118266111e-05
-2.698309076370868e-06   -1.621383354727347e-06   -2.565258118266111e-05
-2.698309076370868e-06   -1.621383354727347e-06   -2.565258118266111e-05
-2.698309076370868e-06   -1.621383354727347e-06   -2.565258118266111e-05
-2.2926143267137917e-06   -2.874956751203802e-07   -1.036570430204282e-05
-2.2926143267137917e-06   -2.874956751203802e-07   -1.036570430204282e-05
-2.2926143267137917e-06   -2.874956751203802e-07   -1.036570430204282e-05
-2.2926143267137917e-06   -2.874956751203802e-07   -1.036570430204282e-05
6.727581343401835e-06   -1.281977245770529e-06   -2.480267480984533e-05
6.727581343401835e-06   -1.281977245770529e-06   -2.480267480984533e-05
6.727581343401835e-06   -1.281977245770529e-06   -2.480267480984533e-05
6.727581343401835e-06   -1.281977245770529e-06   -2.480267480984533e-05
2.0286252686558772e-06   -7.822836982924585e-07   -1.727089748042223e-05
2.0286252686558772e-06   -7.822836982924585e-07   -1.727089748042223e-05
2.0286252686558772e-06   -7.822836982924585e-07   -1.727089748042223e-05
2.0286252686558772e-06   -7.822836982924585e-07   -1.727089748042223e-05
6.727581343401849e-06   -2.874956751203802e-07   -9.769015359652536e-06
6.727581343401849e-06   -2.874956751203802e-07   -9.769015359652536e-06
6.727581343401849e-06   -2.874956751203802e-07   -9.769015359652536e-06
6.727581343401849e-06   -2.874956751203802e-07   -9.769015359652536e-06
-2.2926143267137917e-06   -1.281977245770529e-06   -2.5399363752235478e-05
-2.2926143267137917e-06   -1.281977245770529e-06   -2.5399363752235478e-05
-2.2926143267137917e-06   -1.281977245770529e-06   -2.5399363752235478e-05
-2.2926143267137917e-06   -1.281977245770529e-06   -2.5399363752235478e-05
-1.9052975421393674e-06   2.020015571442069e-07   -1.0501974973029177e-05
-1.9052975421393674e-06   2.020015571442069e-07   -1.0501974973029177e-05
-1.9052975421393674e-06   2.020015571442069e-07   -1.0501974973029177e-05
-1.9052975421393674e-06   2.020015571442069e-07   -1.0501974973029177e-05
7.2123215174639364e-06   -8.673680861690652e-07   -2.5056384953046733e-05
7.2123215174639364e-06   -8.673680861690652e-07   -2.5056384953046733e-05
7.2123215174639364e-06   -8.673680861690652e-07   -2.5056384953046733e-05
7.2123215174639364e-06   -8.673680861690652e-07   -2.5056384953046733e-05
2.3491646049728345e-06   -4.813875821949466e-07   -1.7182711734612164e-05
2.3491646049728345e-06   -4.813875821949466e-07   -1.7182711734612164e-05
2.3491646049728345e-06   -4.813875821949466e-07   -1.7182711734612164e-05
2.3491646049728345e-06   -4.813875821949466e-07   -1.7182711734612164e-05
7.21232151746395e-06   2.020015571442069e-07   -9.860353187041235e-06
7.21232151746395e-06   2.020015571442069e-07   -9.860353187041235e-06
7.21232151746395e-06   2.020015571442069e-07   -9.860353187041235e-06
7.21232151746395e-06   2.020015571442069e-07   -9.860353187041235e-06
-1.9052975421393674e-06   -8.673680861688484e-07   -2.5698006739034674e-05
-1.9052975421393674e-06   -8.673680861688484e-07   -2.5698006739034674e-05
-1.9052975421393674e-06   -8.673680861688484e-07   -2.5698006739034674e-05
-1.9052975421393674e-06   -8.673680861688484e-07   -2.5698006739034674e-05
-1.5418697554969306e-06   7.82464811313415e-07   -1.086288984695886e-05
-1.5418697554969306e-06   7.82464811313415e-07   -1.086288984695886e-05
-1.5418697554969306e-06   7.82464811313415e-07   -1.086288984695886e-05
-1.5418697554969306e-06   7.82464811313415e-07   -1.086288984695886e-05
7.611541227097677e-06   -3.4507597923322426e-07   -2.5442050343622017e-05
7.611541227097677e-06   -3.4507597923322426e-07   -2.5442050343622017e-05
7.611541227097677e-06   -3.4507597923322426e-07   -2.5442050343622017e-05
7.611541227097677e-06   -3.4507597923322426e-07   -2.5442050343622017e-05
2.7512254278682613e-06   -1.0987944038302021e-07   -1.7482641934883484e-05
2.7512254278682613e-06   -1.0987944038302021e-07   -1.7482641934883484e-05
2.7512254278682613e-06   -1.0987944038302021e-07   -1.7482641934883484e-05
2.7512254278682613e-06   -1.0987944038302021e-07   -1.7482641934883484e-05
-2.698309076370868e-06   5.9590312244482e-07   -1.3089964290469939e-05
-2.698309076370868e-06   5.9590312244482e-07   -1.3089964290469939e-05
-2.698309076370868e-06   5.9590312244482e-07   -1.3089964290469939e-05
-2.698309076370868e-06   5.9590312244482e-07   -1.3089964290469939e-05
-1.1528643424790934e-05   3.134608654016633e-07   -2.797665355872925e-05
-1.1528643424790934e-05   3.134608654016633e-07   -2.797665355872925e-05
-1.1528643424790934e-05   3.134608654016633e-07   -2.797665355872925e-05
-1.1528643424790934e-05   3.134608654016633e-07   -2.797665355872925e-05
-1.1092110594533634e-05   1.0972530412415313e-06   -1.2993904528640888e-05
-1.1092110594533634e-05   1.0972530412415313e-06   -1.2993904528640888e-05
-1.1092110594533634e-05   1.0972530412415313e-06   -1.2993904528640888e-05
-1.1092110594533634e-05   1.0972530412415313e-06   -1.2993904528640888e-05
-2.2926143267137917e-06   6.953683005181139e-07   -2.741860079723999e-05
-2.2926143267137917e-06   6.953683005181139e-07   -2.741860079723999e-05
-2.2926143267137917e-06   6.953683005181139e-07   -2.741860079723999e-05
-2.2926143267137917e-06   6.953683005181139e-07   -2.741860079723999e-05
-6.856028747560603e-06   8.177915281127636e-07   -1.9886364032385337e-05
-6.856028747560603e-06   8.177915281127636e-07   -1.9886364032385337e-05
-6.856028747560603e-06   8.177915281127636e-07   -1.9886364032385337e-05
-6.856028747560603e-06   8.177915281127636e-07   -1.9886364032385337e-05
-2.2926143267137917e-06   1.0972530412415313e-06   -1.275277368420675e-05
-2.2926143267137917e-06   1.0972530412415313e-06   -1.275277368420675e-05
-2.2926143267137917e-06   1.0972530412415313e-06   -1.275277368420675e-05
-2.2926143267137917e-06   1.0972530412415313e-06   -1.275277368420675e-05
-1.1092110594533634e-05   6.953683005181139e-07   -2.7659731641673977e-05
-1.1092110594533634e-05   6.953683005181139e-07   -2.7659731641673977e-05
-1.1092110594533634e-05   6.953683005181139e-07   -2.7659731641673977e-05
-1.1092110594533634e-05   6.953683005181139e-07   -2.7659731641673977e-05
-1.0670822579835069e-05   1.6275852825872912e-06   -1.2974414601624532e-05
-1.0670822579835069e-05   1.6275852825872912e-06   -1.2974414601624532e-05
-1.0670822579835069e-05   1.6275852825872912e-06   -1.2974414601624532e-05
-1.0670822579835069e-05   1.6275852825872912e-06   -1.2974414601624532e-05
-1.9052975421393674e-06   1.1365973841515834e-06   -2.7289030258722654e-05
-1.9052975421393674e-06   1.1365973841515834e-06   -2.7289030258722654e-05
-1.9052975421393674e-06   1.1365973841515834e-06   -2.7289030258722654e-05
-1.9052975421393674e-06   1.1365973841515834e-06   -2.7289030258722654e-05
-6.480929001143842e-06   1.1755254748146635e-06   -1.9686334681446335e-05
-6.480929001143842e-06   1.1755254748146635e-06   -1.9686334681446335e-05
-6.480929001143842e-06   1.1755254748146635e-06   -1.9686334681446335e-05
-6.480929001143842e-06   1.1755254748146635e-06   -1.9686334681446335e-05
-1.9052975421393674e-06   1.6275852825872912e-06   -1.2679821862563172e-05
-1.9052975421393674e-06   1.6275852825872912e-06   -1.2679821862563172e-05
-1.9052975421393674e-06   1.6275852825872912e-06   -1.2679821862563172e-05
-1.9052975421393674e-06   1.6275852825872912e-06   -1.2679821862563172e-05
-1.0670822579835069e-05   1.1365973841515834e-06   -2.758362299778408e-05
-1.0670822579835069e-05   1.1365973841515834e-06   -2.758362299778408e-05
-1.0670822579835069e-05   1.1365973841515834e-06   -2.758362299778408e-05
-1.0670822579835069e-05   1.1365973841515834e-06   -2.758362299778408e-05
-1.0281571654754863e-05   2.1671355472583894e-06   -1.3281721210231805e-05
-1.0281571654754863e-05   2.1671355472583894e-06   -1.3281721210231805e-05
-1.0281571654754863e-05   2.1671355472583894e-06   -1.3281721210231805e-05
-1.0281571654754863e-05   2.1671355472583894e-06   -1.3281721210231805e-05
-1.5418697554969306e-06   1.5923984787483917e-06   -2.7503048801222338e-05
-1.5418697554969306e-06   1.5923984787483917e-06   -2.7503048801222338e-05
-1.5418697554969306e-06   1.5923984787483917e-06   -2.7503048801222338e-05
-1.5418697554969306e-06   1.5923984787483917e-06   -2.7503048801222338e-05
-6.146277721352211e-06   1.5425640777127006e-06   -1.9799134884175692e-05
-6.146277721352211e-06   1.5425640777127006e-06   -1.9799134884175692e-05
-6.146277721352211e-06   1.5425640777127006e-06   -1.9799134884175692e-05
-6.146277721352211e-06   1.5425640777127006e-06   -1.9799134884175692e-05
-1.1528643424790951e-05   1.914874635849527e-06   -1.0610644206613816e-05
-1.1528643424790951e-05   1.914874635849527e-06   -1.0610644206613816e-05
-1.1528643424790951e-05   1.914874635849527e-06   -1.0610644206613816e-05
-1.1528643424790951e-05   1.914874635849527e-06   -1.0610644206613816e-05
-2.020601357932727e-05   2.317904540508845e-06   -2.4831109854711922e-05
-2.020601357932727e-05   2.317904540508845e-06   -2.4831109854711922e-05
-2.020601357932727e-05   2.317904540508845e-06   -2.4831109854711922e-05
-2.020601357932727e-05   2.317904540508845e-06   -2.4831109854711922e-05
-1.9679184219831053e-05   2.450097430547332e-06   -9.960232855855738e-06
-1.9679184219831053e-05   2.450097430547332e-06   -9.960232855855738e-06
-1.9679184219831053e-05   2.450097430547332e-06   -9.960232855855738e-06
-1.9679184219831053e-05   2.450097430547332e-06   -9.960232855855738e-06
-1.1092110594533651e-05   2.8015971692437174e-06   -2.44829220745693e-05
-1.1092110594533651e-05   2.8015971692437174e-06   -2.44829220745693e-05
-1.1092110594533651e-05   2.8015971692437174e-06   -2.44829220745693e-05
-1.1092110594533651e-05   2.8015971692437174e-06   -2.44829220745693e-05
-1.5512536816973797e-05   2.4706704773377886e-06   -1.691698902202553e-05
-1.5512536816973797e-05   2.4706704773377886e-06   -1.691698902202553e-05
-1.5512536816973797e-05   2.4706704773377886e-06   -1.691698902202553e-05
-1.5512536816973797e-05   2.4706704773377886e-06   -1.691698902202553e-05
-1.1092110594533651e-05   2.4500974305474406e-06   -1.0171132699073526e-05
-1.1092110594533651e-05   2.4500974305474406e-06   -1.0171132699073526e-05
-1.1092110594533651e-05   2.4500974305474406e-06   -1.0171132699073526e-05
-1.1092110594533651e-05   2.4500974305474406e-06   -1.0171132699073526e-05
-1.9679184219831083e-05   2.8015971692437174e-06   -2.4272022231351404e-05
-1.9679184219831083e-05   2.8015971692437174e-06   -2.4272022231351404e-05
-1.9679184219831083e-05   2.8015971692437174e-06   -2.4272022231351404e-05
-1.9679184219831083e-05   2.8015971692437174e-06   -2.4272022231351404e-05
-1.909474348838915e-05   2.93166025981922e-06   -9.598200764459296e-06
-1.909474348838915e-05   2.93166025981922e-06   -9.598200764459296e-06
-1.909474348838915e-05   2.93166025981922e-06   -9.598200764459296e-06
-1.909474348838915e-05   2.93166025981922e-06   -9.598200764459296e-06
-1.067082257983509e-05   3.2179573483911202e-06   -2.380984719852584e-05
-1.067082257983509e-05   3.2179573483911202e-06   -2.380984719852584e-05
-1.067082257983509e-05   3.2179573483911202e-06   -2.380984719852584e-05
-1.067082257983509e-05   3.2179573483911202e-06   -2.380984719852584e-05
-1.4978138462994362e-05   2.848076072731187e-06   -1.6409058627864443e-05
-1.4978138462994362e-05   2.848076072731187e-06   -1.6409058627864443e-05
-1.4978138462994362e-05   2.848076072731187e-06   -1.6409058627864443e-05
-1.4978138462994362e-05   2.848076072731187e-06   -1.6409058627864443e-05
-1.0670822579835079e-05   2.93166025981922e-06   -9.769979017602306e-06
-1.0670822579835079e-05   2.93166025981922e-06   -9.769979017602306e-06
-1.0670822579835079e-05   2.93166025981922e-06   -9.769979017602306e-06
-1.0670822579835079e-05   2.93166025981922e-06   -9.769979017602306e-06
-1.909474348838915e-05   3.2179573483911202e-06   -2.3638068945382694e-05
-1.909474348838915e-05   3.2179573483911202e-06   -2.3638068945382694e-05
-1.909474348838915e-05   3.2179573483911202e-06   -2.3638068945382694e-05
-1.909474348838915e-05   3.2179573483911202e-06   -2.3638068945382694e-05
-1.8601281084168555e-05   3.4692738953485437e-06   -9.820702487630469e-06
-1.8601281084168555e-05   3.4692738953485437e-06   -9.820702487630469e-06
-1.8601281084168555e-05   3.4692738953485437e-06   -9.820702487630469e-06
-1.8601281084168555e-05   3.4692738953485437e-06   -9.820702487630469e-06
-1.0281571654754883e-05   3.6775510998453362e-06   -2.3811851192684682e-05
-1.0281571654754883e-05   3.6775510998453362e-06   -2.3811851192684682e-05
-1.0281571654754883e-05   3.6775510998453362e-06   -2.3811851192684682e-05
-1.0281571654754883e-05   3.6775510998453362e-06   -2.3811851192684682e-05
-1.4649409910142611e-05   3.195303291839884e-06   -1.6242772082235193e-05
-1.4649409910142611e-05   3.195303291839884e-06   -1.6242772082235193e-05
-1.4649409910142611e-05   3.195303291839884e-06   -1.6242772082235193e-05
-1.4649409910142611e-05   3.195303291839884e-06   -1.6242772082235193e-05
-2.020601357932727e-05   3.2938211325815505e-06   -5.3074567476109466e-06
-2.020601357932727e-05   3.2938211325815505e-06   -5.3074567476109466e-06
-2.020601357932727e-05   3.2938211325815505e-06   -5.3074567476109466e-06
-2.020601357932727e-05   3.2938211325815505e-06   -5.3074567476109466e-06
-2.936056149592526e-05   4.540732943189357e-06   -1.9816889522242948e-05
-2.936056149592526e-05   4.540732943189357e-06   -1.9816889522242948e-05
-2.936056149592526e-05   4.540732943189357e-06   -1.9816889522242948e-05
-2.936056149592526e-05   4.540732943189357e-06   -1.9816889522242948e-05
-2.8140155637636322e-05   3.850459824510295e-06   -1.6284861276659457e-06
-2.8140155637636322e-05   3.850459824510295e-06   -1.6284861276659457e-06
-2.8140155637636322e-05   3.850459824510295e-06   -1.6284861276659457e-06
-2.8140155637636322e-05   3.850459824510295e-06   -1.6284861276659457e-06
-1.9679184219831053e-05   5.183596653412191e-06   -1.652998725468251e-05
-1.9679184219831053e-05   5.183596653412191e-06   -1.652998725468251e-05
-1.9679184219831053e-05   5.183596653412191e-06   -1.652998725468251e-05
-1.9679184219831053e-05   5.183596653412191e-06   -1.652998725468251e-05
-2.3340559068752136e-05   4.325378384806679e-06   -9.912764878650593e-06
-2.3340559068752136e-05   4.325378384806679e-06   -9.912764878650593e-06
-2.3340559068752136e-05   4.325378384806679e-06   -9.912764878650593e-06
-2.3340559068752136e-05   4.325378384806679e-06   -9.912764878650593e-06
-1.9679184219831066e-05   3.850459824510186e-06   -2.428368225007192e-06
-1.9679184219831066e-05   3.850459824510186e-06   -2.428368225007192e-06
-1.9679184219831066e-05   3.850459824510186e-06   -2.428368225007192e-06
-1.9679184219831066e-05   3.850459824510186e-06   -2.428368225007192e-06
-2.8140155637636274e-05   5.183596653412408e-06   -1.5730105157341317e-05
-2.8140155637636274e-05   5.183596653412408e-06   -1.5730105157341317e-05
-2.8140155637636274e-05   5.183596653412408e-06   -1.5730105157341317e-05
-2.8140155637636274e-05   5.183596653412408e-06   -1.5730105157341317e-05
-2.713610196583109e-05   4.050226602995825e-06   -8.707742174388945e-08
-2.713610196583109e-05   4.050226602995825e-06   -8.707742174388945e-08
-2.713610196583109e-05   4.050226602995825e-06   -8.707742174388945e-08
-2.713610196583109e-05   4.050226602995825e-06   -8.707742174388945e-08
-1.909474348838915e-05   5.353274981620849e-06   -1.4271170577988833e-05
-1.909474348838915e-05   5.353274981620849e-06   -1.4271170577988833e-05
-1.909474348838915e-05   5.353274981620849e-06   -1.4271170577988833e-05
-1.909474348838915e-05   5.353274981620849e-06   -1.4271170577988833e-05
-2.2933125608956544e-05   4.58331476126529e-06   -7.411890911496188e-06
-2.2933125608956544e-05   4.58331476126529e-06   -7.411890911496188e-06
-2.2933125608956544e-05   4.58331476126529e-06   -7.411890911496188e-06
-2.2933125608956544e-05   4.58331476126529e-06   -7.411890911496188e-06
-1.909474348838915e-05   4.050226602995825e-06   -8.689064489188604e-07
-1.909474348838915e-05   4.050226602995825e-06   -8.689064489188604e-07
-1.909474348838915e-05   4.050226602995825e-06   -8.689064489188604e-07
-1.909474348838915e-05   4.050226602995825e-06   -8.689064489188604e-07
-2.7136101965831e-05   5.3532749816210656e-06   -1.3489341550813774e-05
-2.7136101965831e-05   5.3532749816210656e-06   -1.3489341550813774e-05
-2.7136101965831e-05   5.3532749816210656e-06   -1.3489341550813774e-05
-2.7136101965831e-05   5.3532749816210656e-06   -1.3489341550813774e-05
-2.6050277108831666e-05   4.300767881409984e-06   1.8766277106765624e-06
-2.6050277108831666e-05   4.300767881409984e-06   1.8766277106765624e-06
-2.6050277108831666e-05   4.300767881409984e-06   1.8766277106765624e-06
-2.6050277108831666e-05   4.300767881409984e-06   1.8766277106765624e-06
-1.8601281084168555e-05   5.4963014956275254e-06   -1.1255685832292406e-05
-1.8601281084168555e-05   5.4963014956275254e-06   -1.1255685832292406e-05
-1.8601281084168555e-05   5.4963014956275254e-06   -1.1255685832292406e-05
-1.8601281084168555e-05   5.4963014956275254e-06   -1.1255685832292406e-05
-2.191065366248031e-05   4.624951719281673e-06   -5.217255002632306e-06
-2.191065366248031e-05   4.624951719281673e-06   -5.217255002632306e-06
-2.191065366248031e-05   4.624951719281673e-06   -5.217255002632306e-06
-2.191065366248031e-05   4.624951719281673e-06   -5.217255002632306e-06
2.5010240730288628e-05   -3.4820549807571075e-06   5.051363344615628e-06
2.5010240730288628e-05   -3.4820549807571075e-06   5.051363344615628e-06
2.5010240730288628e-05   -3.4820549807571075e-06   5.051363344615628e-06
2.5010240730288628e-05   -3.4820549807571075e-06   5.051363344615628e-06
1.2032009483012177e-05   -5.141849713693894e-06   -1.757489890727383e-05
1.2032009483012177e-05   -5.141849713693894e-06   -1.757489890727383e-05
1.2032009483012177e-05   -5.141849713693894e-06   -1.757489890727383e-05
1.2032009483012177e-05   -5.141849713693894e-06   -1.757489890727383e-05
1.2515917822067898e-05   -3.2397671591490734e-06   2.4848847975661318e-06
1.2515917822067898e-05   -3.2397671591490734e-06   2.4848847975661318e-06
1.2515917822067898e-05   -3.2397671591490734e-06   2.4848847975661318e-06
1.2515917822067898e-05   -3.2397671591490734e-06   2.4848847975661318e-06
2.6141892325086115e-05   -5.0234247527200255e-06   -1.9154878151321747e-05
2.6141892325086115e-05   -5.0234247527200255e-06   -1.9154878151321747e-05
2.6141892325086115e-05   -5.0234247527200255e-06   -1.9154878151321747e-05
2.6141892325086115e-05   -5.0234247527200255e-06   -1.9154878151321747e-05
1.8154605433653795e-05   -3.8094380743710667e-06   -6.571125339277316e-06
1.8154605433653795e-05   -3.8094380743710667e-06   -6.571125339277316e-06
1.8154605433653795e-05   -3.8094380743710667e-06   -6.571125339277316e-06
1.8154605433653795e-05   -3.8094380743710667e-06   -6.571125339277316e-06
2.6141892325086142e-05   -3.2397671591490734e-06   3.555079353708638e-06
2.6141892325086142e-05   -3.2397671591490734e-06   3.555079353708638e-06
2.6141892325086142e-05   -3.2397671591490734e-06   3.555079353708638e-06
2.6141892325086142e-05   -3.2397671591490734e-06   3.555079353708638e-06
1.251591782206787e-05   -5.0234247527200255e-06   -2.0225072707464307e-05
1.251591782206787e-05   -5.0234247527200255e-06   -2.0225072707464307e-05
1.251591782206787e-05   -5.0234247527200255e-06   -2.0225072707464307e-05
1.251591782206787e-05   -5.0234247527200255e-06   -2.0225072707464307e-05
1.2997525395633329e-05   -3.0297547169179633e-06   1.225385625688814e-06
1.2997525395633329e-05   -3.0297547169179633e-06   1.225385625688814e-06
1.2997525395633329e-05   -3.0297547169179633e-06   1.225385625688814e-06
1.2997525395633329e-05   -3.0297547169179633e-06   1.225385625688814e-06
2.700926153921822e-05   -4.848468339657859e-06   -2.1036279773308924e-05
2.700926153921822e-05   -4.848468339657859e-06   -2.1036279773308924e-05
2.700926153921822e-05   -4.848468339657859e-06   -2.1036279773308924e-05
2.700926153921822e-05   -4.848468339657859e-06   -2.1036279773308924e-05
1.9109025744415432e-05   -3.796497055982666e-06   -8.500402885509286e-06
1.9109025744415432e-05   -3.796497055982666e-06   -8.500402885509286e-06
1.9109025744415432e-05   -3.796497055982666e-06   -8.500402885509286e-06
1.9109025744415432e-05   -3.796497055982666e-06   -8.500402885509286e-06
2.700926153921822e-05   -3.0297547169179633e-06   2.316613799332578e-06
2.700926153921822e-05   -3.0297547169179633e-06   2.316613799332578e-06
2.700926153921822e-05   -3.0297547169179633e-06   2.316613799332578e-06
2.700926153921822e-05   -3.0297547169179633e-06   2.316613799332578e-06
1.2997525395633329e-05   -4.848468339657642e-06   -2.212750794695266e-05
1.2997525395633329e-05   -4.848468339657642e-06   -2.212750794695266e-05
1.2997525395633329e-05   -4.848468339657642e-06   -2.212750794695266e-05
1.2997525395633329e-05   -4.848468339657642e-06   -2.212750794695266e-05
1.3323220385335247e-05   -2.3676182480416013e-06   -1.3049633073806272e-06
1.3323220385335247e-05   -2.3676182480416013e-06   -1.3049633073806272e-06
1.3323220385335247e-05   -2.3676182480416013e-06   -1.3049633073806272e-06
1.3323220385335247e-05   -2.3676182480416013e-06   -1.3049633073806272e-06
2.7926913594142764e-05   -4.168078082009965e-06   -2.4564176088345623e-05
2.7926913594142764e-05   -4.168078082009965e-06   -2.4564176088345623e-05
2.7926913594142764e-05   -4.168078082009965e-06   -2.4564176088345623e-05
2.7926913594142764e-05   -4.168078082009965e-06   -2.4564176088345623e-05
1.9369550980496278e-05   -3.503639677573467e-06   -1.07005681082636e-05
1.9369550980496278e-05   -3.503639677573467e-06   -1.07005681082636e-05
1.9369550980496278e-05   -3.503639677573467e-06   -1.07005681082636e-05
1.9369550980496278e-05   -3.503639677573467e-06   -1.07005681082636e-05
1.2032009483012204e-05   -1.621383354727347e-06   -5.956139591853046e-06
1.2032009483012204e-05   -1.621383354727347e-06   -5.956139591853046e-06
1.2032009483012204e-05   -1.621383354727347e-06   -5.956139591853046e-06
1.2032009483012204e-05   -1.621383354727347e-06   -5.956139591853046e-06
-7.653555919764476e-07   -3.3098639934745887e-06   -2.8298169766749113e-05
-7.653555919764476e-07   -3.3098639934745887e-06   -2.8298169766749113e-05
-7.653555919764476e-07   -3.3098639934745887e-06   -2.8298169766749113e-05
-7.653555919764476e-07   -3.3098639934745887e-06   -2.8298169766749113e-05
-2.694367851809612e-07   -1.2819772457707459e-06   -6.571662342479178e-06
-2.694367851809612e-07   -1.2819772457707459e-06   -6.571662342479178e-06
-2.694367851809612e-07   -1.2819772457707459e-06   -6.571662342479178e-06
-2.694367851809612e-07   -1.2819772457707459e-06   -6.571662342479178e-06
1.2515917822067898e-05   -3.148306638361964e-06   -2.676078905233914e-05
1.2515917822067898e-05   -3.148306638361964e-06   -2.676078905233914e-05
1.2515917822067898e-05   -3.148306638361964e-06   -2.676078905233914e-05
1.2515917822067898e-05   -3.148306638361964e-06   -2.676078905233914e-05
5.895275484056015e-06   -2.0034746344942383e-06   -1.641328435797332e-05
5.895275484056015e-06   -2.0034746344942383e-06   -1.641328435797332e-05
5.895275484056015e-06   -2.0034746344942383e-06   -1.641328435797332e-05
5.895275484056015e-06   -2.0034746344942383e-06   -1.641328435797332e-05
1.2515917822067884e-05   -1.2819772457707459e-06   -5.451864706924403e-06
1.2515917822067884e-05   -1.2819772457707459e-06   -5.451864706924403e-06
1.2515917822067884e-05   -1.2819772457707459e-06   -5.451864706924403e-06
1.2515917822067884e-05   -1.2819772457707459e-06   -5.451864706924403e-06
-2.694367851809612e-07   -3.148306638361964e-06   -2.7880586687893997e-05
-2.694367851809612e-07   -3.148306638361964e-06   -2.7880586687893997e-05
-2.694367851809612e-07   -3.148306638361964e-06   -2.7880586687893997e-05
-2.694367851809612e-07   -3.148306638361964e-06   -2.7880586687893997e-05
1.6729774729531174e-07   -8.673680861688484e-07   -6.7341745559771965e-06
1.6729774729531174e-07   -8.673680861688484e-07   -6.7341745559771965e-06
1.6729774729531174e-07   -8.673680861688484e-07   -6.7341745559771965e-06
1.6729774729531174e-07   -8.673680861688484e-07   -6.7341745559771965e-06
1.2997525395633329e-05   -2.849797690028478e-06   -2.6928429540891446e-05
1.2997525395633329e-05   -2.849797690028478e-06   -2.6928429540891446e-05
1.2997525395633329e-05   -2.849797690028478e-06   -2.6928429540891446e-05
1.2997525395633329e-05   -2.849797690028478e-06   -2.6928429540891446e-05
6.230918794279353e-06   -1.8357947890630666e-06   -1.625915361254713e-05
6.230918794279353e-06   -1.8357947890630666e-06   -1.625915361254713e-05
6.230918794279353e-06   -1.8357947890630666e-06   -1.625915361254713e-05
6.230918794279353e-06   -1.8357947890630666e-06   -1.625915361254713e-05
1.2997525395633329e-05   -8.673680861690652e-07   -5.544716793661549e-06
1.2997525395633329e-05   -8.673680861690652e-07   -5.544716793661549e-06
1.2997525395633329e-05   -8.673680861690652e-07   -5.544716793661549e-06
1.2997525395633329e-05   -8.673680861690652e-07   -5.544716793661549e-06
1.6729774729531174e-07   -2.849797690028478e-06   -2.8117887303207283e-05
1.6729774729531174e-07   -2.849797690028478e-06   -2.8117887303207283e-05
1.6729774729531174e-07   -2.849797690028478e-06   -2.8117887303207283e-05
1.6729774729531174e-07   -2.849797690028478e-06   -2.8117887303207283e-05
4.775453986931294e-07   -3.4507597923322426e-07   -7.006987698612833e-06
4.775453986931294e-07   -3.4507597923322426e-07   -7.006987698612833e-06
4.775453986931294e-07   -3.4507597923322426e-07   -7.006987698612833e-06
4.775453986931294e-07   -3.4507597923322426e-07   -7.006987698612833e-06
1.3323220385335287e-05   -2.4249101944226557e-06   -2.7168545480569373e-05
1.3323220385335287e-05   -2.4249101944226557e-06   -2.7168545480569373e-05
1.3323220385335287e-05   -2.4249101944226557e-06   -2.7168545480569373e-05
1.3323220385335287e-05   -2.4249101944226557e-06   -2.7168545480569373e-05
6.6356389825523356e-06   -1.5417355240195975e-06   -1.655248127817332e-05
6.6356389825523356e-06   -1.5417355240195975e-06   -1.655248127817332e-05
6.6356389825523356e-06   -1.5417355240195975e-06   -1.655248127817332e-05
6.6356389825523356e-06   -1.5417355240195975e-06   -1.655248127817332e-05
-7.653555919764476e-07   3.134608654016633e-07   -9.123834996943537e-06
-7.653555919764476e-07   3.134608654016633e-07   -9.123834996943537e-06
-7.653555919764476e-07   3.134608654016633e-07   -9.123834996943537e-06
-7.653555919764476e-07   3.134608654016633e-07   -9.123834996943537e-06
-1.3373782003692408e-05   -1.7034830564360316e-06   -3.134804536957306e-05
-1.3373782003692408e-05   -1.7034830564360316e-06   -3.134804536957306e-05
-1.3373782003692408e-05   -1.7034830564360316e-06   -3.134804536957306e-05
-1.3373782003692408e-05   -1.7034830564360316e-06   -3.134804536957306e-05
-1.2778471816775704e-05   6.953683005181139e-07   -9.915414611401082e-06
-1.2778471816775704e-05   6.953683005181139e-07   -9.915414611401082e-06
-1.2778471816775704e-05   6.953683005181139e-07   -9.915414611401082e-06
-1.2778471816775704e-05   6.953683005181139e-07   -9.915414611401082e-06
-2.694367851809612e-07   -1.5121570726775186e-06   -2.943929110680823e-05
-2.694367851809612e-07   -1.5121570726775186e-06   -2.943929110680823e-05
-2.694367851809612e-07   -1.5121570726775186e-06   -2.943929110680823e-05
-2.694367851809612e-07   -1.5121570726775186e-06   -2.943929110680823e-05
-6.717313576184306e-06   -3.0690211850928177e-07   -1.94159827609701e-05
-6.717313576184306e-06   -3.0690211850928177e-07   -1.94159827609701e-05
-6.717313576184306e-06   -3.0690211850928177e-07   -1.94159827609701e-05
-6.717313576184306e-06   -3.0690211850928177e-07   -1.94159827609701e-05
-2.694367851809612e-07   6.953683005183307e-07   -8.590899387483702e-06
-2.694367851809612e-07   6.953683005183307e-07   -8.590899387483702e-06
-2.694367851809612e-07   6.953683005183307e-07   -8.590899387483702e-06
-2.694367851809612e-07   6.953683005183307e-07   -8.590899387483702e-06
-1.2778471816775704e-05   -1.5121570726775186e-06   -3.076380633072566e-05
-1.2778471816775704e-05   -1.5121570726775186e-06   -3.076380633072566e-05
-1.2778471816775704e-05   -1.5121570726775186e-06   -3.076380633072566e-05
-1.2778471816775704e-05   -1.5121570726775186e-06   -3.076380633072566e-05
-1.2232341582292322e-05   1.1365973841515834e-06   -9.737706892235833e-06
-1.2232341582292322e-05   1.1365973841515834e-06   -9.737706892235833e-06
-1.2232341582292322e-05   1.1365973841515834e-06   -9.737706892235833e-06
-1.2232341582292322e-05   1.1365973841515834e-06   -9.737706892235833e-06
1.6729774729531174e-07   -1.2175839767993978e-06   -2.8991263624977948e-05
1.6729774729531174e-07   -1.2175839767993978e-06   -2.8991263624977948e-05
1.6729774729531174e-07   -1.2175839767993978e-06   -2.8991263624977948e-05
1.6729774729531174e-07   -1.2175839767993978e-06   -2.8991263624977948e-05
-6.233114116543983e-06   -8.906526493819393e-08   -1.9001021745695783e-05
-6.233114116543983e-06   -8.906526493819393e-08   -1.9001021745695783e-05
-6.233114116543983e-06   -8.906526493819393e-08   -1.9001021745695783e-05
-6.233114116543983e-06   -8.906526493819393e-08   -1.9001021745695783e-05
1.6729774729531174e-07   1.1365973841515834e-06   -8.325198075665135e-06
1.6729774729531174e-07   1.1365973841515834e-06   -8.325198075665135e-06
1.6729774729531174e-07   1.1365973841515834e-06   -8.325198075665135e-06
1.6729774729531174e-07   1.1365973841515834e-06   -8.325198075665135e-06
-1.2232341582292342e-05   -1.2175839767993978e-06   -3.0403772441548686e-05
-1.2232341582292342e-05   -1.2175839767993978e-06   -3.0403772441548686e-05
-1.2232341582292342e-05   -1.2175839767993978e-06   -3.0403772441548686e-05
-1.2232341582292342e-05   -1.2175839767993978e-06   -3.0403772441548686e-05
-1.186438794745574e-05   1.5923984787483917e-06   -9.909569032409736e-06
-1.186438794745574e-05   1.5923984787483917e-06   -9.909569032409736e-06
-1.186438794745574e-05   1.5923984787483917e-06   -9.909569032409736e-06
-1.186438794745574e-05   1.5923984787483917e-06   -9.909569032409736e-06
4.77545398693143e-07   -9.377804387924842e-07   -2.8961350592133446e-05
4.77545398693143e-07   -9.377804387924842e-07   -2.8961350592133446e-05
4.77545398693143e-07   -9.377804387924842e-07   -2.8961350592133446e-05
4.77545398693143e-07   -9.377804387924842e-07   -2.8961350592133446e-05
-5.8884766537664246e-06   1.5510978329047811e-07   -1.900704797128442e-05
-5.8884766537664246e-06   1.5510978329047811e-07   -1.900704797128442e-05
-5.8884766537664246e-06   1.5510978329047811e-07   -1.900704797128442e-05
-5.8884766537664246e-06   1.5510978329047811e-07   -1.900704797128442e-05
-1.337378200369238e-05   2.317904540509062e-06   -7.4302755888246575e-06
-1.337378200369238e-05   2.317904540509062e-06   -7.4302755888246575e-06
-1.337378200369238e-05   2.317904540509062e-06   -7.4302755888246575e-06
-1.337378200369238e-05   2.317904540509062e-06   -7.4302755888246575e-06
-2.6162575416370054e-05   5.064120298546235e-07   -2.9831826783013383e-05
-2.6162575416370054e-05   5.064120298546235e-07   -2.9831826783013383e-05
-2.6162575416370054e-05   5.064120298546235e-07   -2.9831826783013383e-05
-2.6162575416370054e-05   5.064120298546235e-07   -2.9831826783013383e-05
-2.5314717667942416e-05   2.8015971692435006e-06   -7.906199813223816e-06
-2.5314717667942416e-05   2.8015971692435006e-06   -7.906199813223816e-06
-2.5314717667942416e-05   2.8015971692435006e-06   -7.906199813223816e-06
-2.5314717667942416e-05   2.8015971692435006e-06   -7.906199813223816e-06
-1.2778471816775684e-05   8.556058876977787e-07   -2.7632348129574168e-05
-1.2778471816775684e-05   8.556058876977787e-07   -2.7632348129574168e-05
-1.2778471816775684e-05   8.556058876977787e-07   -2.7632348129574168e-05
-1.2778471816775684e-05   8.556058876977787e-07   -2.7632348129574168e-05
-1.9207724565860735e-05   1.7839104735528806e-06   -1.7473909632612235e-05
-1.9207724565860735e-05   1.7839104735528806e-06   -1.7473909632612235e-05
-1.9207724565860735e-05   1.7839104735528806e-06   -1.7473909632612235e-05
-1.9207724565860735e-05   1.7839104735528806e-06   -1.7473909632612235e-05
-1.2778471816775684e-05   2.8015971692435006e-06   -6.738605044296297e-06
-1.2778471816775684e-05   2.8015971692435006e-06   -6.738605044296297e-06
-1.2778471816775684e-05   2.8015971692435006e-06   -6.738605044296297e-06
-1.2778471816775684e-05   2.8015971692435006e-06   -6.738605044296297e-06
-2.5314717667942457e-05   8.556058876979956e-07   -2.8799942898501715e-05
-2.5314717667942457e-05   8.556058876979956e-07   -2.8799942898501715e-05
-2.5314717667942457e-05   8.556058876979956e-07   -2.8799942898501715e-05
-2.5314717667942457e-05   8.556058876979956e-07   -2.8799942898501715e-05
-2.449355360056085e-05   3.2179573483911202e-06   -7.1887560878047645e-06
-2.449355360056085e-05   3.2179573483911202e-06   -7.1887560878047645e-06
-2.449355360056085e-05   3.2179573483911202e-06   -7.1887560878047645e-06
-2.449355360056085e-05   3.2179573483911202e-06   -7.1887560878047645e-06
-1.2232341582292342e-05   1.1765823570127412e-06   -2.6399284456758457e-05
-1.2232341582292342e-05   1.1765823570127412e-06   -2.6399284456758457e-05
-1.2232341582292342e-05   1.1765823570127412e-06   -2.6399284456758457e-05
-1.2232341582292342e-05   1.1765823570127412e-06   -2.6399284456758457e-05
-1.8439147771829547e-05   2.0878043424528946e-06   -1.660134066546056e-05
-1.8439147771829547e-05   2.0878043424528946e-06   -1.660134066546056e-05
-1.8439147771829547e-05   2.0878043424528946e-06   -1.660134066546056e-05
-1.8439147771829547e-05   2.0878043424528946e-06   -1.660134066546056e-05
-1.2232341582292305e-05   3.2179573483911202e-06   -5.963931092977455e-06
-1.2232341582292305e-05   3.2179573483911202e-06   -5.963931092977455e-06
-1.2232341582292305e-05   3.2179573483911202e-06   -5.963931092977455e-06
-1.2232341582292305e-05   3.2179573483911202e-06   -5.963931092977455e-06
-2.449355360056089e-05   1.1765823570125244e-06   -2.762410945158567e-05
-2.449355360056089e-05   1.1765823570125244e-06   -2.762410945158567e-05
-2.449355360056089e-05   1.1765823570125244e-06   -2.762410945158567e-05
-2.449355360056089e-05   1.1765823570125244e-06   -2.762410945158567e-05
-2.3872889086637223e-05   3.6775510998451194e-06   -7.211818235122909e-06
-2.3872889086637223e-05   3.6775510998451194e-06   -7.211818235122909e-06
-2.3872889086637223e-05   3.6775510998451194e-06   -7.211818235122909e-06
-2.3872889086637223e-05   3.6775510998451194e-06   -7.211818235122909e-06
-1.1864387947455763e-05   1.447069345917153e-06   -2.5887697748068665e-05
-1.1864387947455763e-05   1.447069345917153e-06   -2.5887697748068665e-05
-1.1864387947455763e-05   1.447069345917153e-06   -2.5887697748068665e-05
-1.1864387947455763e-05   1.447069345917153e-06   -2.5887697748068665e-05
-1.8013867673035355e-05   2.3002158794705515e-06   -1.6150452792234465e-05
-1.8013867673035355e-05   2.3002158794705515e-06   -1.6150452792234465e-05
-1.8013867673035355e-05   2.3002158794705515e-06   -1.6150452792234465e-05
-1.8013867673035355e-05   2.3002158794705515e-06   -1.6150452792234465e-05
-2.6162575416370054e-05   4.540732943189357e-06   -4.2510978491129645e-06
-2.6162575416370054e-05   4.540732943189357e-06   -4.2510978491129645e-06
-2.6162575416370054e-05   4.540732943189357e-06   -4.2510978491129645e-06
-2.6162575416370054e-05   4.540732943189357e-06   -4.2510978491129645e-06
-3.9537464429570564e-05   4.301178693340681e-06   -2.6686312087689833e-05
-3.9537464429570564e-05   4.301178693340681e-06   -2.6686312087689833e-05
-3.9537464429570564e-05   4.301178693340681e-06   -2.6686312087689833e-05
-3.9537464429570564e-05   4.301178693340681e-06   -2.6686312087689833e-05
-3.7852503958600257e-05   5.183596653412408e-06   -1.914400612188817e-08
-3.7852503958600257e-05   5.183596653412408e-06   -1.914400612188817e-08
-3.7852503958600257e-05   5.183596653412408e-06   -1.914400612188817e-08
-3.7852503958600257e-05   5.183596653412408e-06   -1.914400612188817e-08
-2.531471766794237e-05   5.4252980374676265e-06   -2.1060475320984712e-05
-2.531471766794237e-05   5.4252980374676265e-06   -2.1060475320984712e-05
-2.531471766794237e-05   5.4252980374676265e-06   -2.1060475320984712e-05
-2.531471766794237e-05   5.4252980374676265e-06   -2.1060475320984712e-05
-3.082822589835912e-05   5.11292136433231e-06   -1.1683868933075846e-05
-3.082822589835912e-05   5.11292136433231e-06   -1.1683868933075846e-05
-3.082822589835912e-05   5.11292136433231e-06   -1.1683868933075846e-05
-3.082822589835912e-05   5.11292136433231e-06   -1.1683868933075846e-05
-2.5314717667942437e-05   5.183596653412408e-06   -1.6416483655486754e-07
-2.5314717667942437e-05   5.183596653412408e-06   -1.6416483655486754e-07
-2.5314717667942437e-05   5.183596653412408e-06   -1.6416483655486754e-07
-2.5314717667942437e-05   5.183596653412408e-06   -1.6416483655486754e-07
-3.7852503958600257e-05   5.4252980374676265e-06   -2.0915454490551787e-05
-3.7852503958600257e-05   5.4252980374676265e-06   -2.0915454490551787e-05
-3.7852503958600257e-05   5.4252980374676265e-06   -2.0915454490551787e-05
-3.7852503958600257e-05   5.4252980374676265e-06   -2.0915454490551787e-05
-3.645687526893032e-05   5.353274981620849e-06   2.3734720950731704e-06
-3.645687526893032e-05   5.353274981620849e-06   2.3734720950731704e-06
-3.645687526893032e-05   5.353274981620849e-06   2.3734720950731704e-06
-3.645687526893032e-05   5.353274981620849e-06   2.3734720950731704e-06
-2.449355360056085e-05   5.678824674094267e-06   -1.7760727167693284e-05
-2.449355360056085e-05   5.678824674094267e-06   -1.7760727167693284e-05
-2.449355360056085e-05   5.678824674094267e-06   -1.7760727167693284e-05
-2.449355360056085e-05   5.678824674094267e-06   -1.7760727167693284e-05
-3.020147251438014e-05   5.482233388161457e-06   -8.129574206434574e-06
-3.020147251438014e-05   5.482233388161457e-06   -8.129574206434574e-06
-3.020147251438014e-05   5.482233388161457e-06   -8.129574206434574e-06
-3.020147251438014e-05   5.482233388161457e-06   -8.129574206434574e-06
-2.449355360056089e-05   5.353274981620849e-06   2.178142279589293e-06
-2.449355360056089e-05   5.353274981620849e-06   2.178142279589293e-06
-2.449355360056089e-05   5.353274981620849e-06   2.178142279589293e-06
-2.449355360056089e-05   5.353274981620849e-06   2.178142279589293e-06
-3.645687526893027e-05   5.67882467409405e-06   -1.756539735220928e-05
-3.645687526893027e-05   5.67882467409405e-06   -1.756539735220928e-05
-3.645687526893027e-05   5.67882467409405e-06   -1.756539735220928e-05
-3.645687526893027e-05   5.67882467409405e-06   -1.756539735220928e-05
-3.499526661334194e-05   5.4963014956275254e-06   5.586605060878052e-06
-3.499526661334194e-05   5.4963014956275254e-06   5.586605060878052e-06
-3.499526661334194e-05   5.4963014956275254e-06   5.586605060878052e-06
-3.499526661334194e-05   5.4963014956275254e-06   5.586605060878052e-06
-2.3872889086637223e-05   6.108341926138773e-06   -1.3317915075269998e-05
-2.3872889086637223e-05   6.108341926138773e-06   -1.3317915075269998e-05
-2.3872889086637223e-05   6.108341926138773e-06   -1.3317915075269998e-05
-2.3872889086637223e-05   6.108341926138773e-06   -1.3317915075269998e-05
-2.878637224443191e-05   5.603957604921432e-06   -4.82614588621531e-06
-2.878637224443191e-05   5.603957604921432e-06   -4.82614588621531e-06
-2.878637224443191e-05   5.603957604921432e-06   -4.82614588621531e-06
-2.878637224443191e-05   5.603957604921432e-06   -4.82614588621531e-06
3.43024341424891e-05   -5.141849713693894e-06   1.1775620145048921e-05
3.43024341424891e-05   -5.141849713693894e-06   1.1775620145048921e-05
3.43024341424891e-05   -5.141849713693894e-06   1.1775620145048921e-05
3.43024341424891e-05   -5.141849713693894e-06   1.1775620145048921e-05
1.7220216278072384e-05   -6.491726638846061e-06   -1.7504669117403412e-05
1.7220216278072384e-05   -6.491726638846061e-06   -1.7504669117403412e-05
1.7220216278072384e-05   -6.491726638846061e-06   -1.7504669117403412e-05
1.7220216278072384e-05   -6.491726638846061e-06   -1.7504669117403412e-05
1.763356341820937e-05   -5.0234247527200255e-06   8.464695300051711e-06
1.763356341820937e-05   -5.0234247527200255e-06   8.464695300051711e-06
1.763356341820937e-05   -5.0234247527200255e-06   8.464695300051711e-06
1.763356341820937e-05   -5.0234247527200255e-06   8.464695300051711e-06
3.5147623331781354e-05   -6.6541997203681e-06   -1.97469395753128e-05
3.5147623331781354e-05   -6.6541997203681e-06   -1.97469395753128e-05
3.5147623331781354e-05   -6.6541997203681e-06   -1.97469395753128e-05
3.5147623331781354e-05   -6.6541997203681e-06   -1.97469395753128e-05
2.5035653309953885e-05   -5.251892741828766e-06   -3.7350403927238784e-06
2.5035653309953885e-05   -5.251892741828766e-06   -3.7350403927238784e-06
2.5035653309953885e-05   -5.251892741828766e-06   -3.7350403927238784e-06
2.5035653309953885e-05   -5.251892741828766e-06   -3.7350403927238784e-06
3.5147623331781354e-05   -5.0234247527200255e-06   9.443160280640469e-06
3.5147623331781354e-05   -5.0234247527200255e-06   9.443160280640469e-06
3.5147623331781354e-05   -5.0234247527200255e-06   9.443160280640469e-06
3.5147623331781354e-05   -5.0234247527200255e-06   9.443160280640469e-06
1.763356341820937e-05   -6.6541997203681e-06   -2.0725404555901558e-05
1.763356341820937e-05   -6.6541997203681e-06   -2.0725404555901558e-05
1.763356341820937e-05   -6.6541997203681e-06   -2.0725404555901558e-05
1.763356341820937e-05   -6.6541997203681e-06   -2.0725404555901558e-05
1.7982770109623375e-05   -4.848468339657642e-06   6.6885444022977926e-06
1.7982770109623375e-05   -4.848468339657642e-06   6.6885444022977926e-06
1.7982770109623375e-05   -4.848468339657642e-06   6.6885444022977926e-06
1.7982770109623375e-05   -4.848468339657642e-06   6.6885444022977926e-06
3.567360116911855e-05   -6.592473793999836e-06   -2.1749770757588963e-05
3.567360116911855e-05   -6.592473793999836e-06   -2.1749770757588963e-05
3.567360116911855e-05   -6.592473793999836e-06   -2.1749770757588963e-05
3.567360116911855e-05   -6.592473793999836e-06   -2.1749770757588963e-05
2.5911632784474738e-05   -5.4160043997310715e-06   -6.1857050864105585e-06
2.5911632784474738e-05   -5.4160043997310715e-06   -6.1857050864105585e-06
2.5911632784474738e-05   -5.4160043997310715e-06   -6.1857050864105585e-06
2.5911632784474738e-05   -5.4160043997310715e-06   -6.1857050864105585e-06
3.567360116911855e-05   -4.848468339657642e-06   7.734947674902979e-06
3.567360116911855e-05   -4.848468339657642e-06   7.734947674902979e-06
3.567360116911855e-05   -4.848468339657642e-06   7.734947674902979e-06
3.567360116911855e-05   -4.848468339657642e-06   7.734947674902979e-06
1.7982770109623375e-05   -6.592473793999836e-06   -2.2796174030194176e-05
1.7982770109623375e-05   -6.592473793999836e-06   -2.2796174030194176e-05
1.7982770109623375e-05   -6.592473793999836e-06   -2.2796174030194176e-05
1.7982770109623375e-05   -6.592473793999836e-06   -2.2796174030194176e-05
1.8346523971236533e-05   -4.168078082009748e-06   3.2506444449440213e-06
1.8346523971236533e-05   -4.168078082009748e-06   3.2506444449440213e-06
1.8346523971236533e-05   -4.168078082009748e-06   3.2506444449440213e-06
1.8346523971236533e-05   -4.168078082009748e-06   3.2506444449440213e-06
3.619159695141199e-05   -6.2215357533720525e-06   -2.525906925253106e-05
3.619159695141199e-05   -6.2215357533720525e-06   -2.525906925253106e-05
3.619159695141199e-05   -6.2215357533720525e-06   -2.525906925253106e-05
3.619159695141199e-05   -6.2215357533720525e-06   -2.525906925253106e-05
2.591739405578574e-05   -5.2100022513779706e-06   -8.742317861017135e-06
2.591739405578574e-05   -5.2100022513779706e-06   -8.742317861017135e-06
2.591739405578574e-05   -5.2100022513779706e-06   -8.742317861017135e-06
2.591739405578574e-05   -5.2100022513779706e-06   -8.742317861017135e-06
1.7220216278072384e-05   -3.3098639934745887e-06   1.2555115137309223e-06
1.7220216278072384e-05   -3.3098639934745887e-06   1.2555115137309223e-06
1.7220216278072384e-05   -3.3098639934745887e-06   1.2555115137309223e-06
1.7220216278072384e-05   -3.3098639934745887e-06   1.2555115137309223e-06
1.983715430074054e-06   -6.459487753720985e-06   -2.6028430822414082e-05
1.983715430074054e-06   -6.459487753720985e-06   -2.6028430822414082e-05
1.983715430074054e-06   -6.459487753720985e-06   -2.6028430822414082e-05
1.983715430074054e-06   -6.459487753720985e-06   -2.6028430822414082e-05
2.464764685287417e-06   -3.148306638361964e-06   -3.609687585220001e-08
2.464764685287417e-06   -3.148306638361964e-06   -3.609687585220001e-08
2.464764685287417e-06   -3.148306638361964e-06   -3.609687585220001e-08
2.464764685287417e-06   -3.148306638361964e-06   -3.609687585220001e-08
1.7633563418209398e-05   -6.423433023410507e-06   -2.335235226635972e-05
1.7633563418209398e-05   -6.423433023410507e-06   -2.335235226635972e-05
1.7633563418209398e-05   -6.423433023410507e-06   -2.335235226635972e-05
1.7633563418209398e-05   -6.423433023410507e-06   -2.335235226635972e-05
9.86248485069019e-06   -4.360965554488054e-06   -1.1638035135180965e-05
9.86248485069019e-06   -4.360965554488054e-06   -1.1638035135180965e-05
9.86248485069019e-06   -4.360965554488054e-06   -1.1638035135180965e-05
9.86248485069019e-06   -4.360965554488054e-06   -1.1638035135180965e-05
1.763356341820937e-05   -3.148306638361964e-06   1.928978955176904e-06
1.763356341820937e-05   -3.148306638361964e-06   1.928978955176904e-06
1.763356341820937e-05   -3.148306638361964e-06   1.928978955176904e-06
1.763356341820937e-05   -3.148306638361964e-06   1.928978955176904e-06
2.464764685287417e-06   -6.42343302341029e-06   -2.531742809738877e-05
2.464764685287417e-06   -6.42343302341029e-06   -2.531742809738877e-05
2.464764685287417e-06   -6.42343302341029e-06   -2.531742809738877e-05
2.464764685287417e-06   -6.42343302341029e-06   -2.531742809738877e-05
2.8989022641206607e-06   -2.849797690028695e-06   -2.0246651491484264e-07
2.8989022641206607e-06   -2.849797690028695e-06   -2.0246651491484264e-07
2.8989022641206607e-06   -2.849797690028695e-06   -2.0246651491484264e-07
2.8989022641206607e-06   -2.849797690028695e-06   -2.0246651491484264e-07
1.7982770109623375e-05   -6.333279895484904e-06   -2.3252156934145638e-05
1.7982770109623375e-05   -6.333279895484904e-06   -2.3252156934145638e-05
1.7982770109623375e-05   -6.333279895484904e-06   -2.3252156934145638e-05
1.7982770109623375e-05   -6.333279895484904e-06   -2.3252156934145638e-05
1.0133107330218219e-05   -4.405463636641743e-06   -1.1326075390442512e-05
1.0133107330218219e-05   -4.405463636641743e-06   -1.1326075390442512e-05
1.0133107330218219e-05   -4.405463636641743e-06   -1.1326075390442512e-05
1.0133107330218219e-05   -4.405463636641743e-06   -1.1326075390442512e-05
1.7982770109623375e-05   -2.849797690028478e-06   1.8876228083590345e-06
1.7982770109623375e-05   -2.849797690028478e-06   1.8876228083590345e-06
1.7982770109623375e-05   -2.849797690028478e-06   1.8876228083590345e-06
1.7982770109623375e-05   -2.849797690028478e-06   1.8876228083590345e-06
2.8989022641206607e-06   -6.333279895484904e-06   -2.5342246257419325e-05
2.8989022641206607e-06   -6.333279895484904e-06   -2.5342246257419325e-05
2.8989022641206607e-06   -6.333279895484904e-06   -2.5342246257419325e-05
2.8989022641206607e-06   -6.333279895484904e-06   -2.5342246257419325e-05
3.5474373424772135e-06   -2.4249101944228725e-06   -5.119324967896603e-07
3.5474373424772135e-06   -2.4249101944228725e-06   -5.119324967896603e-07
3.5474373424772135e-06   -2.4249101944228725e-06   -5.119324967896603e-07
3.5474373424772135e-06   -2.4249101944228725e-06   -5.119324967896603e-07
1.834652397123652e-05   -6.155715944240834e-06   -2.2938593428164264e-05
1.834652397123652e-05   -6.155715944240834e-06   -2.2938593428164264e-05
1.834652397123652e-05   -6.155715944240834e-06   -2.2938593428164264e-05
1.834652397123652e-05   -6.155715944240834e-06   -2.2938593428164264e-05
1.0655483642287344e-05   -4.332483130507943e-06   -1.1214132568155405e-05
1.0655483642287344e-05   -4.332483130507943e-06   -1.1214132568155405e-05
1.0655483642287344e-05   -4.332483130507943e-06   -1.1214132568155405e-05
1.0655483642287344e-05   -4.332483130507943e-06   -1.1214132568155405e-05
1.983715430074054e-06   -1.7034830564362485e-06   -2.473971992138159e-06
1.983715430074054e-06   -1.7034830564362485e-06   -2.473971992138159e-06
1.983715430074054e-06   -1.7034830564362485e-06   -2.473971992138159e-06
1.983715430074054e-06   -1.7034830564362485e-06   -2.473971992138159e-06
-1.309276223702744e-05   -7.736110766895597e-06   -3.1221011396916185e-05
-1.309276223702744e-05   -7.736110766895597e-06   -3.1221011396916185e-05
-1.309276223702744e-05   -7.736110766895597e-06   -3.1221011396916185e-05
-1.309276223702744e-05   -7.736110766895597e-06   -3.1221011396916185e-05
-1.2342788483824935e-05   -1.5121570726777354e-06   -5.429162080379112e-06
-1.2342788483824935e-05   -1.5121570726777354e-06   -5.429162080379112e-06
-1.2342788483824935e-05   -1.5121570726777354e-06   -5.429162080379112e-06
-1.2342788483824935e-05   -1.5121570726777354e-06   -5.429162080379112e-06
2.464764685287417e-06   -7.902758382032256e-06   -2.627405657662034e-05
2.464764685287417e-06   -7.902758382032256e-06   -2.627405657662034e-05
2.464764685287417e-06   -7.902758382032256e-06   -2.627405657662034e-05
2.464764685287417e-06   -7.902758382032256e-06   -2.627405657662034e-05
-5.075240708623076e-06   -4.360189077681157e-06   -1.5832922502713453e-05
-5.075240708623076e-06   -4.360189077681157e-06   -1.5832922502713453e-05
-5.075240708623076e-06   -4.360189077681157e-06   -1.5832922502713453e-05
-5.075240708623076e-06   -4.360189077681157e-06   -1.5832922502713453e-05
2.464764685287417e-06   -1.5121570726777354e-06   -1.5948012947664863e-06
2.464764685287417e-06   -1.5121570726777354e-06   -1.5948012947664863e-06
2.464764685287417e-06   -1.5121570726777354e-06   -1.5948012947664863e-06
2.464764685287417e-06   -1.5121570726777354e-06   -1.5948012947664863e-06
-1.2342788483824956e-05   -7.902758382032039e-06   -3.0108417362233035e-05
-1.2342788483824956e-05   -7.902758382032039e-06   -3.0108417362233035e-05
-1.2342788483824956e-05   -7.902758382032039e-06   -3.0108417362233035e-05
-1.2342788483824956e-05   -7.902758382032039e-06   -3.0108417362233035e-05
-1.1695776588489264e-05   -1.2175839767993978e-06   -5.061552109185408e-06
-1.1695776588489264e-05   -1.2175839767993978e-06   -5.061552109185408e-06
-1.1695776588489264e-05   -1.2175839767993978e-06   -5.061552109185408e-06
-1.1695776588489264e-05   -1.2175839767993978e-06   -5.061552109185408e-06
2.8989022641206607e-06   -7.860432764299164e-06   -2.540030759103544e-05
2.8989022641206607e-06   -7.860432764299164e-06   -2.540030759103544e-05
2.8989022641206607e-06   -7.860432764299164e-06   -2.540030759103544e-05
2.8989022641206607e-06   -7.860432764299164e-06   -2.540030759103544e-05
-4.5430330334047134e-06   -4.455143198410592e-06   -1.5040255834692967e-05
-4.5430330334047134e-06   -4.455143198410592e-06   -1.5040255834692967e-05
-4.5430330334047134e-06   -4.455143198410592e-06   -1.5040255834692967e-05
-4.5430330334047134e-06   -4.455143198410592e-06   -1.5040255834692967e-05
2.8989022641206607e-06   -1.2175839767993978e-06   -1.0758428366855477e-06
2.8989022641206607e-06   -1.2175839767993978e-06   -1.0758428366855477e-06
2.8989022641206607e-06   -1.2175839767993978e-06   -1.0758428366855477e-06
2.8989022641206607e-06   -1.2175839767993978e-06   -1.0758428366855477e-06
-1.1695776588489305e-05   -7.860432764299164e-06   -2.9386016863535477e-05
-1.1695776588489305e-05   -7.860432764299164e-06   -2.9386016863535477e-05
-1.1695776588489305e-05   -7.860432764299164e-06   -2.9386016863535477e-05
-1.1695776588489305e-05   -7.860432764299164e-06   -2.9386016863535477e-05
-1.0578978571222277e-05   -9.377804387924842e-07   -5.041287999631855e-06
-1.0578978571222277e-05   -9.377804387924842e-07   -5.041287999631855e-06
-1.0578978571222277e-05   -9.377804387924842e-07   -5.041287999631855e-06
-1.0578978571222277e-05   -9.377804387924842e-07   -5.041287999631855e-06
3.5474373424772135e-06   -7.578531972779034e-06   -2.4600863602072492e-05
3.5474373424772135e-06   -7.578531972779034e-06   -2.4600863602072492e-05
3.5474373424772135e-06   -7.578531972779034e-06   -2.4600863602072492e-05
3.5474373424772135e-06   -7.578531972779034e-06   -2.4600863602072492e-05
-3.851116715517657e-06   -4.3514460603432704e-06   -1.4206191719542374e-05
-3.851116715517657e-06   -4.3514460603432704e-06   -1.4206191719542374e-05
-3.851116715517657e-06   -4.3514460603432704e-06   -1.4206191719542374e-05
-3.851116715517657e-06   -4.3514460603432704e-06   -1.4206191719542374e-05
-1.3092762237027419e-05   5.064120298548403e-07   -3.490434525461384e-06
-1.3092762237027419e-05   5.064120298548403e-07   -3.490434525461384e-06
-1.3092762237027419e-05   5.064120298548403e-07   -3.490434525461384e-06
-1.3092762237027419e-05   5.064120298548403e-07   -3.490434525461384e-06
-2.9890555054567355e-05   -9.590790267007725e-06   -3.754507726614557e-05
-2.9890555054567355e-05   -9.590790267007725e-06   -3.754507726614557e-05
-2.9890555054567355e-05   -9.590790267007725e-06   -3.754507726614557e-05
-2.9890555054567355e-05   -9.590790267007725e-06   -3.754507726614557e-05
-2.8990552231052138e-05   8.556058876979956e-07   -9.249979028978675e-06
-2.8990552231052138e-05   8.556058876979956e-07   -9.249979028978675e-06
-2.8990552231052138e-05   8.556058876979956e-07   -9.249979028978675e-06
-2.8990552231052138e-05   8.556058876979956e-07   -9.249979028978675e-06
-1.2342788483824935e-05   -1.0731519361886982e-05   -3.0043976791273e-05
-1.2342788483824935e-05   -1.0731519361886982e-05   -3.0043976791273e-05
-1.2342788483824935e-05   -1.0731519361886982e-05   -3.0043976791273e-05
-1.2342788483824935e-05   -1.0731519361886982e-05   -3.0043976791273e-05
-2.077885818332764e-05   -4.848608823910562e-06   -1.951360694822104e-05
-2.077885818332764e-05   -4.848608823910562e-06   -1.951360694822104e-05
-2.077885818332764e-05   -4.848608823910562e-06   -1.951360694822104e-05
-2.077885818332764e-05   -4.848608823910562e-06   -1.951360694822104e-05
-1.2342788483824935e-05   8.556058876979956e-07   -2.297703879227753e-06
-1.2342788483824935e-05   8.556058876979956e-07   -2.297703879227753e-06
-1.2342788483824935e-05   8.556058876979956e-07   -2.297703879227753e-06
-1.2342788483824935e-05   8.556058876979956e-07   -2.297703879227753e-06
-2.8990552231052138e-05   -1.0731519361886982e-05   -3.6996251941024e-05
-2.8990552231052138e-05   -1.0731519361886982e-05   -3.6996251941024e-05
-2.8990552231052138e-05   -1.0731519361886982e-05   -3.6996251941024e-05
-2.8990552231052138e-05   -1.0731519361886982e-05   -3.6996251941024e-05
-2.8128301632317755e-05   1.1765823570125244e-06   -8.234599366960444e-06
-2.8128301632317755e-05   1.1765823570125244e-06   -8.234599366960444e-06
-2.8128301632317755e-05   1.1765823570125244e-06   -8.234599366960444e-06
-2.8128301632317755e-05   1.1765823570125244e-06   -8.234599366960444e-06
-1.1695776588489284e-05   -1.0785976380596083e-05   -2.8444605864109493e-05
-1.1695776588489284e-05   -1.0785976380596083e-05   -2.8444605864109493e-05
-1.1695776588489284e-05   -1.0785976380596083e-05   -2.8444605864109493e-05
-1.1695776588489284e-05   -1.0785976380596083e-05   -2.8444605864109493e-05
-1.990116320478352e-05   -4.8601572654437e-06   -1.8324452972710403e-05
-1.990116320478352e-05   -4.8601572654437e-06   -1.8324452972710403e-05
-1.990116320478352e-05   -4.8601572654437e-06   -1.8324452972710403e-05
-1.990116320478352e-05   -4.8601572654437e-06   -1.8324452972710403e-05
-1.1695776588489278e-05   1.1765823570125244e-06   -1.0570641243953013e-06
-1.1695776588489278e-05   1.1765823570125244e-06   -1.0570641243953013e-06
-1.1695776588489278e-05   1.1765823570125244e-06   -1.0570641243953013e-06
-1.1695776588489278e-05   1.1765823570125244e-06   -1.0570641243953013e-06
-2.8128301632317802e-05   -1.0785976380596083e-05   -3.562214110667465e-05
-2.8128301632317802e-05   -1.0785976380596083e-05   -3.562214110667465e-05
-2.8128301632317802e-05   -1.0785976380596083e-05   -3.562214110667465e-05
-2.8128301632317802e-05   -1.0785976380596083e-05   -3.562214110667465e-05
-2.6711630047130687e-05   1.447069345917153e-06   -7.204428329772713e-06
-2.6711630047130687e-05   1.447069345917153e-06   -7.204428329772713e-06
-2.6711630047130687e-05   1.447069345917153e-06   -7.204428329772713e-06
-2.6711630047130687e-05   1.447069345917153e-06   -7.204428329772713e-06
-1.0578978571222317e-05   -9.81109819529996e-06   -2.7337280264889786e-05
-1.0578978571222317e-05   -9.81109819529996e-06   -2.7337280264889786e-05
-1.0578978571222317e-05   -9.81109819529996e-06   -2.7337280264889786e-05
-1.0578978571222317e-05   -9.81109819529996e-06   -2.7337280264889786e-05
-1.9038600216837037e-05   -4.269597377941272e-06   -1.656281134594683e-05
-1.9038600216837037e-05   -4.269597377941272e-06   -1.656281134594683e-05
-1.9038600216837037e-05   -4.269597377941272e-06   -1.656281134594683e-05
-1.9038600216837037e-05   -4.269597377941272e-06   -1.656281134594683e-05
-2.9890555054567355e-05   4.301178693340898e-06   -6.25950865834645e-06
-2.9890555054567355e-05   4.301178693340898e-06   -6.25950865834645e-06
-2.9890555054567355e-05   4.301178693340898e-06   -6.25950865834645e-06
-2.9890555054567355e-05   4.301178693340898e-06   -6.25950865834645e-06
-5.134009794571463e-05   0.0   -4.4589454026263135e-05
-5.134009794571463e-05   0.0   -4.4589454026263135e-05
-5.134009794571463e-05   0.0   -4.4589454026263135e-05
-5.134009794571463e-05   0.0   -4.4589454026263135e-05
-5.00272398869072e-05   5.4252980374676265e-06   -4.76569027394228e-06
-5.00272398869072e-05   5.4252980374676265e-06   -4.76569027394228e-06
-5.00272398869072e-05   5.4252980374676265e-06   -4.76569027394228e-06
-5.00272398869072e-05   5.4252980374676265e-06   -4.76569027394228e-06
-2.8990552231052084e-05   0.0   -3.657165754455373e-05
-2.8990552231052084e-05   0.0   -3.657165754455373e-05
-2.8990552231052084e-05   0.0   -3.657165754455373e-05
-2.8990552231052084e-05   0.0   -3.657165754455373e-05
-3.836103232033985e-05   1.6695727124145347e-06   -2.1955934356522968e-05
-3.836103232033985e-05   1.6695727124145347e-06   -2.1955934356522968e-05
-3.836103232033985e-05   1.6695727124145347e-06   -2.1955934356522968e-05
-3.836103232033985e-05   1.6695727124145347e-06   -2.1955934356522968e-05
-2.899055223105211e-05   5.42529803746741e-06   -1.510511451461834e-06
-2.899055223105211e-05   5.42529803746741e-06   -1.510511451461834e-06
-2.899055223105211e-05   5.42529803746741e-06   -1.510511451461834e-06
-2.899055223105211e-05   5.42529803746741e-06   -1.510511451461834e-06
-5.002723988690712e-05   0.0   -3.982683636703408e-05
-5.002723988690712e-05   0.0   -3.982683636703408e-05
-5.002723988690712e-05   0.0   -3.982683636703408e-05
-5.002723988690712e-05   0.0   -3.982683636703408e-05
-4.891404615374514e-05   5.678824674094267e-06   -1.7785118875246865e-06
-4.891404615374514e-05   5.678824674094267e-06   -1.7785118875246865e-06
-4.891404615374514e-05   5.678824674094267e-06   -1.7785118875246865e-06
-4.891404615374514e-05   5.678824674094267e-06   -1.7785118875246865e-06
-2.8128301632317802e-05   0.0   -3.3014124618780565e-05
-2.8128301632317802e-05   0.0   -3.3014124618780565e-05
-2.8128301632317802e-05   0.0   -3.3014124618780565e-05
-2.8128301632317802e-05   0.0   -3.3014124618780565e-05
-3.798074292719814e-05   2.6299602557272334e-06   -1.8171365280749102e-05
-3.798074292719814e-05   2.6299602557272334e-06   -1.8171365280749102e-05
-3.798074292719814e-05   2.6299602557272334e-06   -1.8171365280749102e-05
-3.798074292719814e-05   2.6299602557272334e-06   -1.8171365280749102e-05
-2.8128301632317802e-05   5.678824674094267e-06   1.6287829169318521e-06
-2.8128301632317802e-05   5.678824674094267e-06   1.6287829169318521e-06
-2.8128301632317802e-05   5.678824674094267e-06   1.6287829169318521e-06
-2.8128301632317802e-05   5.678824674094267e-06   1.6287829169318521e-06
-4.891404615374505e-05   0.0   -3.642141942323694e-05
-4.891404615374505e-05   0.0   -3.642141942323694e-05
-4.891404615374505e-05   0.0   -3.642141942323694e-05
-4.891404615374505e-05   0.0   -3.642141942323694e-05
-4.669036304614205e-05   6.10834192613899e-06   3.0386382396992845e-06
-4.669036304614205e-05   6.10834192613899e-06   3.0386382396992845e-06
-4.669036304614205e-05   6.10834192613899e-06   3.0386382396992845e-06
-4.669036304614205e-05   6.10834192613899e-06   3.0386382396992845e-06
-2.671163004713073e-05   0.0   -2.6594244936302967e-05
-2.671163004713073e-05   0.0   -2.6594244936302967e-05
-2.671163004713073e-05   0.0   -2.6594244936302967e-05
-2.671163004713073e-05   0.0   -2.6594244936302967e-05
-3.6030822405878037e-05   3.239268476445435e-06   -1.3005818757591309e-05
-3.6030822405878037e-05   3.239268476445435e-06   -1.3005818757591309e-05
-3.6030822405878037e-05   3.239268476445435e-06   -1.3005818757591309e-05
-3.6030822405878037e-05   3.239268476445435e-06   -1.3005818757591309e-05
3.794825317849299e-05   -6.491726638846061e-06   2.2607107789020557e-05
3.794825317849299e-05   -6.491726638846061e-06   2.2607107789020557e-05
3.794825317849299e-05   -6.491726638846061e-06   2.2607107789020557e-05
3.794825317849299e-05   -6.491726638846061e-06   2.2607107789020557e-05
1.965989476213617e-05   -5.024777672501439e-06   -6.993320191767366e-06
1.965989476213617e-05   -5.024777672501439e-06   -6.993320191767366e-06
1.965989476213617e-05   -5.024777672501439e-06   -6.993320191767366e-06
1.965989476213617e-05   -5.024777672501439e-06   -6.993320191767366e-06
1.9171206519246213e-05   -6.6541997203681e-06   1.9940151007446756e-05
1.9171206519246213e-05   -6.6541997203681e-06   1.9940151007446756e-05
1.9171206519246213e-05   -6.6541997203681e-06   1.9940151007446756e-05
1.9171206519246213e-05   -6.6541997203681e-06   1.9940151007446756e-05
3.7550568248000044e-05   -5.520372217627991e-06   -1.137241504212011e-05
3.7550568248000044e-05   -5.520372217627991e-06   -1.137241504212011e-05
3.7550568248000044e-05   -5.520372217627991e-06   -1.137241504212011e-05
3.7550568248000044e-05   -5.520372217627991e-06   -1.137241504212011e-05
2.741146335389662e-05   -5.605798011549092e-06   5.577348591071472e-06
2.741146335389662e-05   -5.605798011549092e-06   5.577348591071472e-06
2.741146335389662e-05   -5.605798011549092e-06   5.577348591071472e-06
2.741146335389662e-05   -5.605798011549092e-06   5.577348591071472e-06
3.7550568248000044e-05   -6.6541997203681e-06   1.9259854505802908e-05
3.7550568248000044e-05   -6.6541997203681e-06   1.9259854505802908e-05
3.7550568248000044e-05   -6.6541997203681e-06   1.9259854505802908e-05
3.7550568248000044e-05   -6.6541997203681e-06   1.9259854505802908e-05
1.9171206519246213e-05   -5.520372217627991e-06   -1.0692118540476235e-05
1.9171206519246213e-05   -5.520372217627991e-06   -1.0692118540476235e-05
1.9171206519246213e-05   -5.520372217627991e-06   -1.0692118540476235e-05
1.9171206519246213e-05   -5.520372217627991e-06   -1.0692118540476235e-05
1.872857288225162e-05   -6.592473793999836e-06   1.7889687115671968e-05
1.872857288225162e-05   -6.592473793999836e-06   1.7889687115671968e-05
1.872857288225162e-05   -6.592473793999836e-06   1.7889687115671968e-05
1.872857288225162e-05   -6.592473793999836e-06   1.7889687115671968e-05
3.708850307494384e-05   -5.564270776681245e-06   -1.3327118349206143e-05
3.708850307494384e-05   -5.564270776681245e-06   -1.3327118349206143e-05
3.708850307494384e-05   -5.564270776681245e-06   -1.3327118349206143e-05
3.708850307494384e-05   -5.564270776681245e-06   -1.3327118349206143e-05
2.739762105593661e-05   -5.70417205676731e-06   2.9082924505242263e-06
2.739762105593661e-05   -5.70417205676731e-06   2.9082924505242263e-06
2.739762105593661e-05   -5.70417205676731e-06   2.9082924505242263e-06
2.739762105593661e-05   -5.70417205676731e-06   2.9082924505242263e-06
3.7088503074943914e-05   -6.592473793999836e-06   1.727276530528088e-05
3.7088503074943914e-05   -6.592473793999836e-06   1.727276530528088e-05
3.7088503074943914e-05   -6.592473793999836e-06   1.727276530528088e-05
3.7088503074943914e-05   -6.592473793999836e-06   1.727276530528088e-05
1.872857288225162e-05   -5.564270776681245e-06   -1.271019653881504e-05
1.872857288225162e-05   -5.564270776681245e-06   -1.271019653881504e-05
1.872857288225162e-05   -5.564270776681245e-06   -1.271019653881504e-05
1.872857288225162e-05   -5.564270776681245e-06   -1.271019653881504e-05
1.818824843483081e-05   -6.2215357533720525e-06   1.4553696648095379e-05
1.818824843483081e-05   -6.2215357533720525e-06   1.4553696648095379e-05
1.818824843483081e-05   -6.2215357533720525e-06   1.4553696648095379e-05
1.818824843483081e-05   -6.2215357533720525e-06   1.4553696648095379e-05
3.6364332754301326e-05   -5.442370951689538e-06   -1.6207276098698445e-05
3.6364332754301326e-05   -5.442370951689538e-06   -1.6207276098698445e-05
3.6364332754301326e-05   -5.442370951689538e-06   -1.6207276098698445e-05
3.6364332754301326e-05   -5.442370951689538e-06   -1.6207276098698445e-05
2.6468586280155396e-05   -5.423480113751766e-06   2.743001887821751e-07
2.6468586280155396e-05   -5.423480113751766e-06   2.743001887821751e-07
2.6468586280155396e-05   -5.423480113751766e-06   2.743001887821751e-07
2.6468586280155396e-05   -5.423480113751766e-06   2.743001887821751e-07
1.965989476213617e-05   -6.459487753720985e-06   1.6853289719964432e-05
1.965989476213617e-05   -6.459487753720985e-06   1.6853289719964432e-05
1.965989476213617e-05   -6.459487753720985e-06   1.6853289719964432e-05
1.965989476213617e-05   -6.459487753720985e-06   1.6853289719964432e-05
4.105725298537025e-06   -3.081253677569883e-06   -7.043385607010061e-06
4.105725298537025e-06   -3.081253677569883e-06   -7.043385607010061e-06
4.105725298537025e-06   -3.081253677569883e-06   -7.043385607010061e-06
4.105725298537025e-06   -3.081253677569883e-06   -7.043385607010061e-06
3.3324413187409385e-06   -6.42343302341029e-06   1.9207476575162615e-05
3.3324413187409385e-06   -6.42343302341029e-06   1.9207476575162615e-05
3.3324413187409385e-06   -6.42343302341029e-06   1.9207476575162615e-05
3.3324413187409385e-06   -6.42343302341029e-06   1.9207476575162615e-05
1.9171206519246213e-05   -3.266310893120742e-06   -9.084738703853346e-06
1.9171206519246213e-05   -3.266310893120742e-06   -9.084738703853346e-06
1.9171206519246213e-05   -3.266310893120742e-06   -9.084738703853346e-06
1.9171206519246213e-05   -3.266310893120742e-06   -9.084738703853346e-06
1.1550013466987033e-05   -4.629208638535186e-06   4.434988363827296e-06
1.1550013466987033e-05   -4.629208638535186e-06   4.434988363827296e-06
1.1550013466987033e-05   -4.629208638535186e-06   4.434988363827296e-06
1.1550013466987033e-05   -4.629208638535186e-06   4.434988363827296e-06
1.9171206519246233e-05   -6.423433023410507e-06   1.7313203296988756e-05
1.9171206519246233e-05   -6.423433023410507e-06   1.7313203296988756e-05
1.9171206519246233e-05   -6.423433023410507e-06   1.7313203296988756e-05
1.9171206519246233e-05   -6.423433023410507e-06   1.7313203296988756e-05
3.3324413187409385e-06   -3.266310893120742e-06   -7.19046542567946e-06
3.3324413187409385e-06   -3.266310893120742e-06   -7.19046542567946e-06
3.3324413187409385e-06   -3.266310893120742e-06   -7.19046542567946e-06
3.3324413187409385e-06   -3.266310893120742e-06   -7.19046542567946e-06
2.7801004887030627e-06   -6.333279895484904e-06   1.9225880747393196e-05
2.7801004887030627e-06   -6.333279895484904e-06   1.9225880747393196e-05
2.7801004887030627e-06   -6.333279895484904e-06   1.9225880747393196e-05
2.7801004887030627e-06   -6.333279895484904e-06   1.9225880747393196e-05
1.872857288225162e-05   -3.346319002697079e-06   -9.147083110860329e-06
1.872857288225162e-05   -3.346319002697079e-06   -9.147083110860329e-06
1.872857288225162e-05   -3.346319002697079e-06   -9.147083110860329e-06
1.872857288225162e-05   -3.346319002697079e-06   -9.147083110860329e-06
1.088499343673744e-05   -4.532625064007298e-06   4.637332935116369e-06
1.088499343673744e-05   -4.532625064007298e-06   4.637332935116369e-06
1.088499343673744e-05   -4.532625064007298e-06   4.637332935116369e-06
1.088499343673744e-05   -4.532625064007298e-06   4.637332935116369e-06
1.8728572882251655e-05   -6.333279895484904e-06   1.7433704211720696e-05
1.8728572882251655e-05   -6.333279895484904e-06   1.7433704211720696e-05
1.8728572882251655e-05   -6.333279895484904e-06   1.7433704211720696e-05
1.8728572882251655e-05   -6.333279895484904e-06   1.7433704211720696e-05
2.7801004887030627e-06   -3.346319002697079e-06   -7.354906575187748e-06
2.7801004887030627e-06   -3.346319002697079e-06   -7.354906575187748e-06
2.7801004887030627e-06   -3.346319002697079e-06   -7.354906575187748e-06
2.7801004887030627e-06   -3.346319002697079e-06   -7.354906575187748e-06
2.1660468310760172e-06   -6.155715944240834e-06   1.9839594353584047e-05
2.1660468310760172e-06   -6.155715944240834e-06   1.9839594353584047e-05
2.1660468310760172e-06   -6.155715944240834e-06   1.9839594353584047e-05
2.1660468310760172e-06   -6.155715944240834e-06   1.9839594353584047e-05
1.818824843483079e-05   -3.266803813733272e-06   -8.597422264311868e-06
1.818824843483079e-05   -3.266803813733272e-06   -8.597422264311868e-06
1.818824843483079e-05   -3.266803813733272e-06   -8.597422264311868e-06
1.818824843483079e-05   -3.266803813733272e-06   -8.597422264311868e-06
1.0480080381272566e-05   -4.330618703334531e-06   4.88781342537916e-06
1.0480080381272566e-05   -4.330618703334531e-06   4.88781342537916e-06
1.0480080381272566e-05   -4.330618703334531e-06   4.88781342537916e-06
1.0480080381272566e-05   -4.330618703334531e-06   4.88781342537916e-06
4.105725298537039e-06   -7.736110766895597e-06   1.7307226217428838e-05
4.105725298537039e-06   -7.736110766895597e-06   1.7307226217428838e-05
4.105725298537039e-06   -7.736110766895597e-06   1.7307226217428838e-05
4.105725298537039e-06   -7.736110766895597e-06   1.7307226217428838e-05
-1.0841884166176499e-05   -1.256033347922991e-06   -3.7174097723769242e-06
-1.0841884166176499e-05   -1.256033347922991e-06   -3.7174097723769242e-06
-1.0841884166176499e-05   -1.256033347922991e-06   -3.7174097723769242e-06
-1.0841884166176499e-05   -1.256033347922991e-06   -3.7174097723769242e-06
-1.2044138921316754e-05   -7.902758382032039e-06   2.2197477171768086e-05
-1.2044138921316754e-05   -7.902758382032039e-06   2.2197477171768086e-05
-1.2044138921316754e-05   -7.902758382032039e-06   2.2197477171768086e-05
-1.2044138921316754e-05   -7.902758382032039e-06   2.2197477171768086e-05
3.332441318740952e-06   -1.3250432556370737e-06   -7.3767856374983405e-06
3.332441318740952e-06   -1.3250432556370737e-06   -7.3767856374983405e-06
3.332441318740952e-06   -1.3250432556370737e-06   -7.3767856374983405e-06
3.332441318740952e-06   -1.3250432556370737e-06   -7.3767856374983405e-06
-3.7304487441429255e-06   -4.407442299311434e-06   6.244137226845911e-06
-3.7304487441429255e-06   -4.407442299311434e-06   6.244137226845911e-06
-3.7304487441429255e-06   -4.407442299311434e-06   6.244137226845911e-06
-3.7304487441429255e-06   -4.407442299311434e-06   6.244137226845911e-06
3.3324413187409385e-06   -7.902758382032256e-06   1.8250848095931085e-05
3.3324413187409385e-06   -7.902758382032256e-06   1.8250848095931085e-05
3.3324413187409385e-06   -7.902758382032256e-06   1.8250848095931085e-05
3.3324413187409385e-06   -7.902758382032256e-06   1.8250848095931085e-05
-1.2044138921316726e-05   -1.3250432556370737e-06   -3.4301565616614346e-06
-1.2044138921316726e-05   -1.3250432556370737e-06   -3.4301565616614346e-06
-1.2044138921316726e-05   -1.3250432556370737e-06   -3.4301565616614346e-06
-1.2044138921316726e-05   -1.3250432556370737e-06   -3.4301565616614346e-06
-1.2780465755860504e-05   -7.860432764299164e-06   2.3037969132849116e-05
-1.2780465755860504e-05   -7.860432764299164e-06   2.3037969132849116e-05
-1.2780465755860504e-05   -7.860432764299164e-06   2.3037969132849116e-05
-1.2780465755860504e-05   -7.860432764299164e-06   2.3037969132849116e-05
2.7801004887030627e-06   -1.4101832325125793e-06   -6.766457660495353e-06
2.7801004887030627e-06   -1.4101832325125793e-06   -6.766457660495353e-06
2.7801004887030627e-06   -1.4101832325125793e-06   -6.766457660495353e-06
2.7801004887030627e-06   -1.4101832325125793e-06   -6.766457660495353e-06
-4.5451021421123626e-06   -4.3893004769768925e-06   7.229683737542151e-06
-4.5451021421123626e-06   -4.3893004769768925e-06   7.229683737542151e-06
-4.5451021421123626e-06   -4.3893004769768925e-06   7.229683737542151e-06
-4.5451021421123626e-06   -4.3893004769768925e-06   7.229683737542151e-06
2.7801004887030627e-06   -7.860432764299381e-06   1.9167819413777013e-05
2.7801004887030627e-06   -7.860432764299381e-06   1.9167819413777013e-05
2.7801004887030627e-06   -7.860432764299381e-06   1.9167819413777013e-05
2.7801004887030627e-06   -7.860432764299381e-06   1.9167819413777013e-05
-1.2780465755860477e-05   -1.4101832325125793e-06   -2.896307941423399e-06
-1.2780465755860477e-05   -1.4101832325125793e-06   -2.896307941423399e-06
-1.2780465755860477e-05   -1.4101832325125793e-06   -2.896307941423399e-06
-1.2780465755860477e-05   -1.4101832325125793e-06   -2.896307941423399e-06
-1.3644704911831177e-05   -7.578531972779034e-06   2.4123768251126912e-05
-1.3644704911831177e-05   -7.578531972779034e-06   2.4123768251126912e-05
-1.3644704911831177e-05   -7.578531972779034e-06   2.4123768251126912e-05
-1.3644704911831177e-05   -7.578531972779034e-06   2.4123768251126912e-05
2.1660468310760172e-06   -1.3985976035119259e-06   -5.935445275278661e-06
2.1660468310760172e-06   -1.3985976035119259e-06   -5.935445275278661e-06
2.1660468310760172e-06   -1.3985976035119259e-06   -5.935445275278661e-06
2.1660468310760172e-06   -1.3985976035119259e-06   -5.935445275278661e-06
-5.209249304075661e-06   -4.209116413770794e-06   8.043026236129592e-06
-5.209249304075661e-06   -4.209116413770794e-06   8.043026236129592e-06
-5.209249304075661e-06   -4.209116413770794e-06   8.043026236129592e-06
-5.209249304075661e-06   -4.209116413770794e-06   8.043026236129592e-06
-1.0841884166176519e-05   -9.590790267007725e-06   2.0929528177700512e-05
-1.0841884166176519e-05   -9.590790267007725e-06   2.0929528177700512e-05
-1.0841884166176519e-05   -9.590790267007725e-06   2.0929528177700512e-05
-1.0841884166176519e-05   -9.590790267007725e-06   2.0929528177700512e-05
-2.781868056705435e-05   1.4639775755963692e-06   -7.322717848667806e-07
-2.781868056705435e-05   1.4639775755963692e-06   -7.322717848667806e-07
-2.781868056705435e-05   1.4639775755963692e-06   -7.322717848667806e-07
-2.781868056705435e-05   1.4639775755963692e-06   -7.322717848667806e-07
-2.9269006585631163e-05   -1.0731519361886982e-05   2.9532946346661382e-05
-2.9269006585631163e-05   -1.0731519361886982e-05   2.9532946346661382e-05
-2.9269006585631163e-05   -1.0731519361886982e-05   2.9532946346661382e-05
-2.9269006585631163e-05   -1.0731519361886982e-05   2.9532946346661382e-05
-1.2044138921316726e-05   1.3868616446685144e-06   -6.446195031129212e-06
-1.2044138921316726e-05   1.3868616446685144e-06   -6.446195031129212e-06
-1.2044138921316726e-05   1.3868616446685144e-06   -6.446195031129212e-06
-1.2044138921316726e-05   1.3868616446685144e-06   -6.446195031129212e-06
-1.9717631790035362e-05   -3.930010745503308e-06   9.533083184171673e-06
-1.9717631790035362e-05   -3.930010745503308e-06   9.533083184171673e-06
-1.9717631790035362e-05   -3.930010745503308e-06   9.533083184171673e-06
-1.9717631790035362e-05   -3.930010745503308e-06   9.533083184171673e-06
-1.2044138921316754e-05   -1.0731519361886982e-05   2.226191774272815e-05
-1.2044138921316754e-05   -1.0731519361886982e-05   2.226191774272815e-05
-1.2044138921316754e-05   -1.0731519361886982e-05   2.226191774272815e-05
-1.2044138921316754e-05   -1.0731519361886982e-05   2.226191774272815e-05
-2.9269006585631163e-05   1.3868616446685144e-06   8.248335728040616e-07
-2.9269006585631163e-05   1.3868616446685144e-06   8.248335728040616e-07
-2.9269006585631163e-05   1.3868616446685144e-06   8.248335728040616e-07
-2.9269006585631163e-05   1.3868616446685144e-06   8.248335728040616e-07
-3.0151882742015596e-05   -1.0785976380596083e-05   3.11935076221997e-05
-3.0151882742015596e-05   -1.0785976380596083e-05   3.11935076221997e-05
-3.0151882742015596e-05   -1.0785976380596083e-05   3.11935076221997e-05
-3.0151882742015596e-05   -1.0785976380596083e-05   3.11935076221997e-05
-1.2780465755860477e-05   1.2375694359448644e-06   -4.972981511316849e-06
-1.2780465755860477e-05   1.2375694359448644e-06   -4.972981511316849e-06
-1.2780465755860477e-05   1.2375694359448644e-06   -4.972981511316849e-06
-1.2780465755860477e-05   1.2375694359448644e-06   -4.972981511316849e-06
-2.0656009626678974e-05   -4.543537429979941e-06   1.1621589059602111e-05
-2.0656009626678974e-05   -4.543537429979941e-06   1.1621589059602111e-05
-2.0656009626678974e-05   -4.543537429979941e-06   1.1621589059602111e-05
-2.0656009626678974e-05   -4.543537429979941e-06   1.1621589059602111e-05
-1.278046575586047e-05   -1.0785976380596083e-05   2.3979380132275086e-05
-1.278046575586047e-05   -1.0785976380596083e-05   2.3979380132275086e-05
-1.278046575586047e-05   -1.0785976380596083e-05   2.3979380132275086e-05
-1.278046575586047e-05   -1.0785976380596083e-05   2.3979380132275086e-05
-3.015188274201555e-05   1.2375694359448644e-06   2.241145978607831e-06
-3.015188274201555e-05   1.2375694359448644e-06   2.241145978607831e-06
-3.015188274201555e-05   1.2375694359448644e-06   2.241145978607831e-06
-3.015188274201555e-05   1.2375694359448644e-06   2.241145978607831e-06
-3.110442696222001e-05   -9.81109819529996e-06   3.189902753396182e-05
-3.110442696222001e-05   -9.81109819529996e-06   3.189902753396182e-05
-3.110442696222001e-05   -9.81109819529996e-06   3.189902753396182e-05
-3.110442696222001e-05   -9.81109819529996e-06   3.189902753396182e-05
-1.3644704911831143e-05   1.0676101801340623e-06   -3.7277342419465126e-06
-1.3644704911831143e-05   1.0676101801340623e-06   -3.7277342419465126e-06
-1.3644704911831143e-05   1.0676101801340623e-06   -3.7277342419465126e-06
-1.3644704911831143e-05   1.0676101801340623e-06   -3.7277342419465126e-06
-2.1627406474107206e-05   -4.573941911356107e-06   1.2961699616741303e-05
-2.1627406474107206e-05   -4.573941911356107e-06   1.2961699616741303e-05
-2.1627406474107206e-05   -4.573941911356107e-06   1.2961699616741303e-05
-2.1627406474107206e-05   -4.573941911356107e-06   1.2961699616741303e-05
-2.7818680567054254e-05   0.0   2.3098719339149486e-05
-2.7818680567054254e-05   0.0   2.3098719339149486e-05
-2.7818680567054254e-05   0.0   2.3098719339149486e-05
-2.7818680567054254e-05   0.0   2.3098719339149486e-05
-4.8862329079922926e-05   6.4220536901227285e-06   -8.120795968224732e-06
-4.8862329079922926e-05   6.4220536901227285e-06   -8.120795968224732e-06
-4.8862329079922926e-05   6.4220536901227285e-06   -8.120795968224732e-06
-4.8862329079922926e-05   6.4220536901227285e-06   -8.120795968224732e-06
-5.0851927044689784e-05   0.0   3.3684103719282266e-05
-5.0851927044689784e-05   0.0   3.3684103719282266e-05
-5.0851927044689784e-05   0.0   3.3684103719282266e-05
-5.0851927044689784e-05   0.0   3.3684103719282266e-05
-2.9269006585631123e-05   6.210938293584522e-06   -6.013993355299626e-06
-2.9269006585631123e-05   6.210938293584522e-06   -6.013993355299626e-06
-2.9269006585631123e-05   6.210938293584522e-06   -6.013993355299626e-06
-2.9269006585631123e-05   6.210938293584522e-06   -6.013993355299626e-06
-3.753101103782853e-05   3.8092292944341515e-06   9.197039464519611e-06
-3.753101103782853e-05   3.8092292944341515e-06   9.197039464519611e-06
-3.753101103782853e-05   3.8092292944341515e-06   9.197039464519611e-06
-3.753101103782853e-05   3.8092292944341515e-06   9.197039464519611e-06
-2.9269006585631096e-05   0.0   2.995754074313153e-05
-2.9269006585631096e-05   0.0   2.995754074313153e-05
-2.9269006585631096e-05   0.0   2.995754074313153e-05
-2.9269006585631096e-05   0.0   2.995754074313153e-05
-5.085192704468987e-05   6.210938293584522e-06   -2.287430379148891e-06
-5.085192704468987e-05   6.210938293584522e-06   -2.287430379148891e-06
-5.085192704468987e-05   6.210938293584522e-06   -2.287430379148891e-06
-5.085192704468987e-05   6.210938293584522e-06   -2.287430379148891e-06
-5.185265499985977e-05   0.0   3.743533347057445e-05
-5.185265499985977e-05   0.0   3.743533347057445e-05
-5.185265499985977e-05   0.0   3.743533347057445e-05
-5.185265499985977e-05   0.0   3.743533347057445e-05
-3.015188274201555e-05   6.056348934134785e-06   -2.3664296529802648e-06
-3.015188274201555e-05   6.056348934134785e-06   -2.3664296529802648e-06
-3.015188274201555e-05   6.056348934134785e-06   -2.3664296529802648e-06
-3.015188274201555e-05   6.056348934134785e-06   -2.3664296529802648e-06
-3.946380296033113e-05   3.1841944050513445e-06   1.4876730094996054e-05
-3.946380296033113e-05   3.1841944050513445e-06   1.4876730094996054e-05
-3.946380296033113e-05   3.1841944050513445e-06   1.4876730094996054e-05
-3.946380296033113e-05   3.1841944050513445e-06   1.4876730094996054e-05
-3.015188274201555e-05   0.0   3.380152411009362e-05
-3.015188274201555e-05   0.0   3.380152411009362e-05
-3.015188274201555e-05   0.0   3.380152411009362e-05
-3.015188274201555e-05   0.0   3.380152411009362e-05
-5.185265499985995e-05   6.056348934134785e-06   1.2673797075006847e-06
-5.185265499985995e-05   6.056348934134785e-06   1.2673797075006847e-06
-5.185265499985995e-05   6.056348934134785e-06   1.2673797075006847e-06
-5.185265499985995e-05   6.056348934134785e-06   1.2673797075006847e-06
-5.296205991686299e-05   0.0   4.2434933241703257e-05
-5.296205991686299e-05   0.0   4.2434933241703257e-05
-5.296205991686299e-05   0.0   4.2434933241703257e-05
-5.296205991686299e-05   0.0   4.2434933241703257e-05
-3.110442696222001e-05   5.063283090707372e-06   2.96757512954032e-06
-3.110442696222001e-05   5.063283090707372e-06   2.96757512954032e-06
-3.110442696222001e-05   5.063283090707372e-06   2.96757512954032e-06
-3.110442696222001e-05   5.063283090707372e-06   2.96757512954032e-06
-3.977495563487943e-05   2.2444640136753437e-06   1.9109747696858864e-05
-3.977495563487943e-05   2.2444640136753437e-06   1.9109747696858864e-05
-3.977495563487943e-05   2.2444640136753437e-06   1.9109747696858864e-05
-3.977495563487943e-05   2.2444640136753437e-06   1.9109747696858864e-05
3.347513207388675e-05   -5.024777672501439e-06   2.3680328723113715e-05
3.347513207388675e-05   -5.024777672501439e-06   2.3680328723113715e-05
3.347513207388675e-05   -5.024777672501439e-06   2.3680328723113715e-05
3.347513207388675e-05   -5.024777672501439e-06   2.3680328723113715e-05
1.690999017265794e-05   -3.808083317938596e-06   -3.1982244995299065e-06
1.690999017265794e-05   -3.808083317938596e-06   -3.1982244995299065e-06
1.690999017265794e-05   -3.808083317938596e-06   -3.1982244995299065e-06
1.690999017265794e-05   -3.808083317938596e-06   -3.1982244995299065e-06
1.646943617952112e-05   -5.520372217627991e-06   2.0650943385690517e-05
1.646943617952112e-05   -5.520372217627991e-06   2.0650943385690517e-05
1.646943617952112e-05   -5.520372217627991e-06   2.0650943385690517e-05
1.646943617952112e-05   -5.520372217627991e-06   2.0650943385690517e-05
3.269107841555347e-05   -4.311101948296925e-06   -7.110689169295285e-06
3.269107841555347e-05   -4.311101948296925e-06   -7.110689169295285e-06
3.269107841555347e-05   -4.311101948296925e-06   -7.110689169295285e-06
3.269107841555347e-05   -4.311101948296925e-06   -7.110689169295285e-06
2.3778515975532464e-05   -4.481040084107664e-06   7.845544445559468e-06
2.3778515975532464e-05   -4.481040084107664e-06   7.845544445559468e-06
2.3778515975532464e-05   -4.481040084107664e-06   7.845544445559468e-06
2.3778515975532464e-05   -4.481040084107664e-06   7.845544445559468e-06
3.269107841555342e-05   -5.520372217627991e-06   1.9925381224091855e-05
3.269107841555342e-05   -5.520372217627991e-06   1.9925381224091855e-05
3.269107841555342e-05   -5.520372217627991e-06   1.9925381224091855e-05
3.269107841555342e-05   -5.520372217627991e-06   1.9925381224091855e-05
1.6469436179521153e-05   -4.311101948296925e-06   -6.385127007696597e-06
1.6469436179521153e-05   -4.311101948296925e-06   -6.385127007696597e-06
1.6469436179521153e-05   -4.311101948296925e-06   -6.385127007696597e-06
1.6469436179521153e-05   -4.311101948296925e-06   -6.385127007696597e-06
1.5901866831182302e-05   -5.564270776681245e-06   1.8524721026737896e-05
1.5901866831182302e-05   -5.564270776681245e-06   1.8524721026737896e-05
1.5901866831182302e-05   -5.564270776681245e-06   1.8524721026737896e-05
1.5901866831182302e-05   -5.564270776681245e-06   1.8524721026737896e-05
3.1896946286509364e-05   -4.384689675673847e-06   -8.841493392745014e-06
3.1896946286509364e-05   -4.384689675673847e-06   -8.841493392745014e-06
3.1896946286509364e-05   -4.384689675673847e-06   -8.841493392745014e-06
3.1896946286509364e-05   -4.384689675673847e-06   -8.841493392745014e-06
2.3564238882209424e-05   -4.675555713954229e-06   5.22087190405634e-06
2.3564238882209424e-05   -4.675555713954229e-06   5.22087190405634e-06
2.3564238882209424e-05   -4.675555713954229e-06   5.22087190405634e-06
2.3564238882209424e-05   -4.675555713954229e-06   5.22087190405634e-06
3.1896946286509364e-05   -5.564270776681245e-06   1.78169723661335e-05
3.1896946286509364e-05   -5.564270776681245e-06   1.78169723661335e-05
3.1896946286509364e-05   -5.564270776681245e-06   1.78169723661335e-05
3.1896946286509364e-05   -5.564270776681245e-06   1.78169723661335e-05
1.5901866831182302e-05   -4.384689675673847e-06   -8.133744732140551e-06
1.5901866831182302e-05   -4.384689675673847e-06   -8.133744732140551e-06
1.5901866831182302e-05   -4.384689675673847e-06   -8.133744732140551e-06
1.5901866831182302e-05   -4.384689675673847e-06   -8.133744732140551e-06
1.530595415329599e-05   -5.442370951689321e-06   1.536638021927897e-05
1.530595415329599e-05   -5.442370951689321e-06   1.536638021927897e-05
1.530595415329599e-05   -5.442370951689321e-06   1.536638021927897e-05
1.530595415329599e-05   -5.442370951689321e-06   1.536638021927897e-05
3.090250413582309e-05   -4.35170791167859e-06   -1.1282267575606123e-05
3.090250413582309e-05   -4.35170791167859e-06   -1.1282267575606123e-05
3.090250413582309e-05   -4.35170791167859e-06   -1.1282267575606123e-05
3.090250413582309e-05   -4.35170791167859e-06   -1.1282267575606123e-05
2.252358368178165e-05   -4.551407269560515e-06   2.802419462526011e-06
2.252358368178165e-05   -4.551407269560515e-06   2.802419462526011e-06
2.252358368178165e-05   -4.551407269560515e-06   2.802419462526011e-06
2.252358368178165e-05   -4.551407269560515e-06   2.802419462526011e-06
1.690999017265796e-05   -3.081253677569883e-06   2.2333339474917935e-05
1.690999017265796e-05   -3.081253677569883e-06   2.2333339474917935e-05
1.690999017265796e-05   -3.081253677569883e-06   2.2333339474917935e-05
1.690999017265796e-05   -3.081253677569883e-06   2.2333339474917935e-05
1.8046612914561765e-06   -1.3372408866588366e-06   -1.79580098587167e-06
1.8046612914561765e-06   -1.3372408866588366e-06   -1.79580098587167e-06
1.8046612914561765e-06   -1.3372408866588366e-06   -1.79580098587167e-06
1.8046612914561765e-06   -1.3372408866588366e-06   -1.79580098587167e-06
1.3664429155517963e-06   -3.266310893120742e-06   2.3254273752394672e-05
1.3664429155517963e-06   -3.266310893120742e-06   2.3254273752394672e-05
1.3664429155517963e-06   -3.266310893120742e-06   2.3254273752394672e-05
1.3664429155517963e-06   -3.266310893120742e-06   2.3254273752394672e-05
1.6469436179521153e-05   -1.6063933429854866e-06   -2.9133322176354856e-06
1.6469436179521153e-05   -1.6063933429854866e-06   -2.9133322176354856e-06
1.6469436179521153e-05   -1.6063933429854866e-06   -2.9133322176354856e-06
1.6469436179521153e-05   -1.6063933429854866e-06   -2.9133322176354856e-06
9.049764102200265e-06   -2.160635826602055e-06   9.785333401402625e-06
9.049764102200265e-06   -2.160635826602055e-06   9.785333401402625e-06
9.049764102200265e-06   -2.160635826602055e-06   9.785333401402625e-06
9.049764102200265e-06   -2.160635826602055e-06   9.785333401402625e-06
1.6469436179521132e-05   -3.266310893120742e-06   2.2258323222313432e-05
1.6469436179521132e-05   -3.266310893120742e-06   2.2258323222313432e-05
1.6469436179521132e-05   -3.266310893120742e-06   2.2258323222313432e-05
1.6469436179521132e-05   -3.266310893120742e-06   2.2258323222313432e-05
1.3664429155517963e-06   -1.6063933429854866e-06   -1.917381687554327e-06
1.3664429155517963e-06   -1.6063933429854866e-06   -1.917381687554327e-06
1.3664429155517963e-06   -1.6063933429854866e-06   -1.917381687554327e-06
1.3664429155517963e-06   -1.6063933429854866e-06   -1.917381687554327e-06
8.076657632621138e-07   -3.346319002697079e-06   2.302684846115365e-05
8.076657632621138e-07   -3.346319002697079e-06   2.302684846115365e-05
8.076657632621138e-07   -3.346319002697079e-06   2.302684846115365e-05
8.076657632621138e-07   -3.346319002697079e-06   2.302684846115365e-05
1.5901866831182302e-05   -1.781295658595224e-06   -3.069167325174421e-06
1.5901866831182302e-05   -1.781295658595224e-06   -3.069167325174421e-06
1.5901866831182302e-05   -1.781295658595224e-06   -3.069167325174421e-06
1.5901866831182302e-05   -1.781295658595224e-06   -3.069167325174421e-06
8.493037307632794e-06   -2.2616726273231268e-06   9.567108061978458e-06
8.493037307632794e-06   -2.2616726273231268e-06   9.567108061978458e-06
8.493037307632794e-06   -2.2616726273231268e-06   9.567108061978458e-06
8.493037307632794e-06   -2.2616726273231268e-06   9.567108061978458e-06
1.590186683118227e-05   -3.346319002697079e-06   2.2087834454692472e-05
1.590186683118227e-05   -3.346319002697079e-06   2.2087834454692472e-05
1.590186683118227e-05   -3.346319002697079e-06   2.2087834454692472e-05
1.590186683118227e-05   -3.346319002697079e-06   2.2087834454692472e-05
8.076657632621138e-07   -1.781295658595224e-06   -2.130153318713338e-06
8.076657632621138e-07   -1.781295658595224e-06   -2.130153318713338e-06
8.076657632621138e-07   -1.781295658595224e-06   -2.130153318713338e-06
8.076657632621138e-07   -1.781295658595224e-06   -2.130153318713338e-06
1.9046265651086354e-07   -3.266803813733489e-06   2.3356473398905022e-05
1.9046265651086354e-07   -3.266803813733489e-06   2.3356473398905022e-05
1.9046265651086354e-07   -3.266803813733489e-06   2.3356473398905022e-05
1.9046265651086354e-07   -3.266803813733489e-06   2.3356473398905022e-05
1.5305954153295975e-05   -1.8539067699848474e-06   -2.683750655319223e-06
1.5305954153295975e-05   -1.8539067699848474e-06   -2.683750655319223e-06
1.5305954153295975e-05   -1.8539067699848474e-06   -2.683750655319223e-06
1.5305954153295975e-05   -1.8539067699848474e-06   -2.683750655319223e-06
8.04207066335221e-06   -2.2379898422198938e-06   9.653171671261825e-06
8.04207066335221e-06   -2.2379898422198938e-06   9.653171671261825e-06
8.04207066335221e-06   -2.2379898422198938e-06   9.653171671261825e-06
8.04207066335221e-06   -2.2379898422198938e-06   9.653171671261825e-06
1.8046612914561765e-06   -1.256033347922991e-06   2.2817676532714245e-05
1.8046612914561765e-06   -1.256033347922991e-06   2.2817676532714245e-05
1.8046612914561765e-06   -1.256033347922991e-06   2.2817676532714245e-05
1.8046612914561765e-06   -1.256033347922991e-06   2.2817676532714245e-05
-1.2833855178584242e-05   1.2024107957000346e-06   -1.0478443117920358e-07
-1.2833855178584242e-05   1.2024107957000346e-06   -1.0478443117920358e-07
-1.2833855178584242e-05   1.2024107957000346e-06   -1.0478443117920358e-07
-1.2833855178584242e-05   1.2024107957000346e-06   -1.0478443117920358e-07
-1.3327839589253796e-05   -1.3250432556372906e-06   2.446209647458564e-05
-1.3327839589253796e-05   -1.3250432556372906e-06   2.446209647458564e-05
-1.3327839589253796e-05   -1.3250432556372906e-06   2.446209647458564e-05
-1.3327839589253796e-05   -1.3250432556372906e-06   2.446209647458564e-05
1.3664429155517963e-06   9.985283010458066e-07   -1.4225173007667444e-06
1.3664429155517963e-06   9.985283010458066e-07   -1.4225173007667444e-06
1.3664429155517963e-06   9.985283010458066e-07   -1.4225173007667444e-06
1.3664429155517963e-06   9.985283010458066e-07   -1.4225173007667444e-06
-5.7373164693239414e-06   1.238753984914194e-08   1.1008766130744037e-05
-5.7373164693239414e-06   1.238753984914194e-08   1.1008766130744037e-05
-5.7373164693239414e-06   1.238753984914194e-08   1.1008766130744037e-05
-5.7373164693239414e-06   1.238753984914194e-08   1.1008766130744037e-05
1.3664429155517963e-06   -1.3250432556372906e-06   2.3067953540575913e-05
1.3664429155517963e-06   -1.3250432556372906e-06   2.3067953540575913e-05
1.3664429155517963e-06   -1.3250432556372906e-06   2.3067953540575913e-05
1.3664429155517963e-06   -1.3250432556372906e-06   2.3067953540575913e-05
-1.3327839589253796e-05   9.985283010455898e-07   -2.8374366757002653e-08
-1.3327839589253796e-05   9.985283010455898e-07   -2.8374366757002653e-08
-1.3327839589253796e-05   9.985283010455898e-07   -2.8374366757002653e-08
-1.3327839589253796e-05   9.985283010455898e-07   -2.8374366757002653e-08
-1.3988687494045988e-05   -1.4101832325125793e-06   2.4946659912972765e-05
-1.3988687494045988e-05   -1.4101832325125793e-06   2.4946659912972765e-05
-1.3988687494045988e-05   -1.4101832325125793e-06   2.4946659912972765e-05
-1.3988687494045988e-05   -1.4101832325125793e-06   2.4946659912972765e-05
8.076657632621138e-07   8.087543293653927e-07   -1.045291386334184e-06
8.076657632621138e-07   8.087543293653927e-07   -1.045291386334184e-06
8.076657632621138e-07   8.087543293653927e-07   -1.045291386334184e-06
8.076657632621138e-07   8.087543293653927e-07   -1.045291386334184e-06
-6.224205215052613e-06   -4.346091761779289e-08   1.1185822725713493e-05
-6.224205215052613e-06   -4.346091761779289e-08   1.1185822725713493e-05
-6.224205215052613e-06   -4.346091761779289e-08   1.1185822725713493e-05
-6.224205215052613e-06   -4.346091761779289e-08   1.1185822725713493e-05
8.076657632621138e-07   -1.4101832325125793e-06   2.3615297375846004e-05
8.076657632621138e-07   -1.4101832325125793e-06   2.3615297375846004e-05
8.076657632621138e-07   -1.4101832325125793e-06   2.3615297375846004e-05
8.076657632621138e-07   -1.4101832325125793e-06   2.3615297375846004e-05
-1.3988687494045961e-05   8.087543293653927e-07   2.860711507925639e-07
-1.3988687494045961e-05   8.087543293653927e-07   2.860711507925639e-07
-1.3988687494045961e-05   8.087543293653927e-07   2.860711507925639e-07
-1.3988687494045961e-05   8.087543293653927e-07   2.860711507925639e-07
-1.4692737442983131e-05   -1.3985976035119259e-06   2.552781467049384e-05
-1.4692737442983131e-05   -1.3985976035119259e-06   2.552781467049384e-05
-1.4692737442983131e-05   -1.3985976035119259e-06   2.552781467049384e-05
-1.4692737442983131e-05   -1.3985976035119259e-06   2.552781467049384e-05
1.9046265651085677e-07   6.725883312547632e-07   -5.202303895227825e-07
1.9046265651085677e-07   6.725883312547632e-07   -5.202303895227825e-07
1.9046265651085677e-07   6.725883312547632e-07   -5.202303895227825e-07
1.9046265651085677e-07   6.725883312547632e-07   -5.202303895227825e-07
-6.844575681543926e-06   -8.273755668477059e-08   1.165802903999914e-05
-6.844575681543926e-06   -8.273755668477059e-08   1.165802903999914e-05
-6.844575681543926e-06   -8.273755668477059e-08   1.165802903999914e-05
-6.844575681543926e-06   -8.273755668477059e-08   1.165802903999914e-05
-1.2833855178584188e-05   1.4639775755961523e-06   2.064502030083579e-05
-1.2833855178584188e-05   1.4639775755961523e-06   2.064502030083579e-05
-1.2833855178584188e-05   1.4639775755961523e-06   2.064502030083579e-05
-1.2833855178584188e-05   1.4639775755961523e-06   2.064502030083579e-05
-2.7191102649817497e-05   3.8988697886146225e-06   -1.8227901567420763e-06
-2.7191102649817497e-05   3.8988697886146225e-06   -1.8227901567420763e-06
-2.7191102649817497e-05   3.8988697886146225e-06   -1.8227901567420763e-06
-2.7191102649817497e-05   3.8988697886146225e-06   -1.8227901567420763e-06
-2.790754906773723e-05   1.3868616446687312e-06   2.283133386852881e-05
-2.790754906773723e-05   1.3868616446687312e-06   2.283133386852881e-05
-2.790754906773723e-05   1.3868616446687312e-06   2.283133386852881e-05
-2.790754906773723e-05   1.3868616446687312e-06   2.283133386852881e-05
-1.3327839589253741e-05   3.695654750353501e-06   -2.853457792354651e-06
-1.3327839589253741e-05   3.695654750353501e-06   -2.853457792354651e-06
-1.3327839589253741e-05   3.695654750353501e-06   -2.853457792354651e-06
-1.3327839589253741e-05   3.695654750353501e-06   -2.853457792354651e-06
-2.0156924169010506e-05   2.6535199327925967e-06   9.153630731109782e-06
-2.0156924169010506e-05   2.6535199327925967e-06   9.153630731109782e-06
-2.0156924169010506e-05   2.6535199327925967e-06   9.153630731109782e-06
-2.0156924169010506e-05   2.6535199327925967e-06   9.153630731109782e-06
-1.3327839589253769e-05   1.3868616446685144e-06   2.1446058005117688e-05
-1.3327839589253769e-05   1.3868616446685144e-06   2.1446058005117688e-05
-1.3327839589253769e-05   1.3868616446685144e-06   2.1446058005117688e-05
-1.3327839589253769e-05   1.3868616446685144e-06   2.1446058005117688e-05
-2.790754906773716e-05   3.695654750353501e-06   -1.4681819289436102e-06
-2.790754906773716e-05   3.695654750353501e-06   -1.4681819289436102e-06
-2.790754906773716e-05   3.695654750353501e-06   -1.4681819289436102e-06
-2.790754906773716e-05   3.695654750353501e-06   -1.4681819289436102e-06
-2.8786590446138507e-05   1.2375694359448644e-06   2.4231421089480443e-05
-2.8786590446138507e-05   1.2375694359448644e-06   2.4231421089480443e-05
-2.8786590446138507e-05   1.2375694359448644e-06   2.4231421089480443e-05
-2.8786590446138507e-05   1.2375694359448644e-06   2.4231421089480443e-05
-1.3988687494045961e-05   3.5066273466131514e-06   -1.7931852437414223e-06
-1.3988687494045961e-05   3.5066273466131514e-06   -1.7931852437414223e-06
-1.3988687494045961e-05   3.5066273466131514e-06   -1.7931852437414223e-06
-1.3988687494045961e-05   3.5066273466131514e-06   -1.7931852437414223e-06
-2.0688488473629325e-05   2.60911104375686e-06   9.911659503944762e-06
-2.0688488473629325e-05   2.60911104375686e-06   9.911659503944762e-06
-2.0688488473629325e-05   2.60911104375686e-06   9.911659503944762e-06
-2.0688488473629325e-05   2.60911104375686e-06   9.911659503944762e-06
-1.3988687494045947e-05   1.2375694359448644e-06   2.2869986343079384e-05
-1.3988687494045947e-05   1.2375694359448644e-06   2.2869986343079384e-05
-1.3988687494045947e-05   1.2375694359448644e-06   2.2869986343079384e-05
-1.3988687494045947e-05   1.2375694359448644e-06   2.2869986343079384e-05
-2.8786590446138507e-05   3.5066273466131514e-06   -4.317504973404447e-07
-2.8786590446138507e-05   3.5066273466131514e-06   -4.317504973404447e-07
-2.8786590446138507e-05   3.5066273466131514e-06   -4.317504973404447e-07
-2.8786590446138507e-05   3.5066273466131514e-06   -4.317504973404447e-07
-2.9715528070530997e-05   1.0676101801338454e-06   2.5337766422262845e-05
-2.9715528070530997e-05   1.0676101801338454e-06   2.5337766422262845e-05
-2.9715528070530997e-05   1.0676101801338454e-06   2.5337766422262845e-05
-2.9715528070530997e-05   1.0676101801338454e-06   2.5337766422262845e-05
-1.4692737442983077e-05   3.251279080129137e-06   -1.0104192969807543e-06
-1.4692737442983077e-05   3.251279080129137e-06   -1.0104192969807543e-06
-1.4692737442983077e-05   3.251279080129137e-06   -1.0104192969807543e-06
-1.4692737442983077e-05   3.251279080129137e-06   -1.0104192969807543e-06
-2.158122042947234e-05   2.4566083384254967e-06   1.0947188125524031e-05
-2.158122042947234e-05   2.4566083384254967e-06   1.0947188125524031e-05
-2.158122042947234e-05   2.4566083384254967e-06   1.0947188125524031e-05
-2.158122042947234e-05   2.4566083384254967e-06   1.0947188125524031e-05
-2.7191102649817497e-05   6.4220536901227285e-06   1.0864199231215262e-05
-2.7191102649817497e-05   6.4220536901227285e-06   1.0864199231215262e-05
-2.7191102649817497e-05   6.4220536901227285e-06   1.0864199231215262e-05
-2.7191102649817497e-05   6.4220536901227285e-06   1.0864199231215262e-05
-4.096132466437858e-05   6.3408768921555374e-06   -1.2134876871833407e-05
-4.096132466437858e-05   6.3408768921555374e-06   -1.2134876871833407e-05
-4.096132466437858e-05   6.3408768921555374e-06   -1.2134876871833407e-05
-4.096132466437858e-05   6.3408768921555374e-06   -1.2134876871833407e-05
-4.224915702927441e-05   6.210938293584522e-06   1.6146740361069304e-05
-4.224915702927441e-05   6.210938293584522e-06   1.6146740361069304e-05
-4.224915702927441e-05   6.210938293584522e-06   1.6146740361069304e-05
-4.224915702927441e-05   6.210938293584522e-06   1.6146740361069304e-05
-2.790754906773716e-05   6.467993994658519e-06   -7.910172995470458e-06
-2.790754906773716e-05   6.467993994658519e-06   -7.910172995470458e-06
-2.790754906773716e-05   6.467993994658519e-06   -7.910172995470458e-06
-2.790754906773716e-05   6.467993994658519e-06   -7.910172995470458e-06
-3.3185473044597486e-05   6.455678058541652e-06   8.937565276334733e-07
-3.3185473044597486e-05   6.455678058541652e-06   8.937565276334733e-07
-3.3185473044597486e-05   6.455678058541652e-06   8.937565276334733e-07
-3.3185473044597486e-05   6.455678058541652e-06   8.937565276334733e-07
-2.7907549067737148e-05   6.210938293584522e-06   1.5992506940425122e-05
-2.7907549067737148e-05   6.210938293584522e-06   1.5992506940425122e-05
-2.7907549067737148e-05   6.210938293584522e-06   1.5992506940425122e-05
-2.7907549067737148e-05   6.210938293584522e-06   1.5992506940425122e-05
-4.224915702927441e-05   6.467993994658302e-06   -7.755939574826168e-06
-4.224915702927441e-05   6.467993994658302e-06   -7.755939574826168e-06
-4.224915702927441e-05   6.467993994658302e-06   -7.755939574826168e-06
-4.224915702927441e-05   6.467993994658302e-06   -7.755939574826168e-06
-4.3511947313871915e-05   6.056348934134568e-06   1.9843953076058144e-05
-4.3511947313871915e-05   6.056348934134568e-06   1.9843953076058144e-05
-4.3511947313871915e-05   6.056348934134568e-06   1.9843953076058144e-05
-4.3511947313871915e-05   6.056348934134568e-06   1.9843953076058144e-05
-2.8786590446138453e-05   6.423194964410911e-06   -4.918415988330177e-06
-2.8786590446138453e-05   6.423194964410911e-06   -4.918415988330177e-06
-2.8786590446138453e-05   6.423194964410911e-06   -4.918415988330177e-06
-2.8786590446138453e-05   6.423194964410911e-06   -4.918415988330177e-06
-3.467164625778298e-05   6.459565579605177e-06   4.868187995294619e-06
-3.467164625778298e-05   6.459565579605177e-06   4.868187995294619e-06
-3.467164625778298e-05   6.459565579605177e-06   4.868187995294619e-06
-3.467164625778298e-05   6.459565579605177e-06   4.868187995294619e-06
-2.8786590446138453e-05   6.056348934134785e-06   1.962384545789247e-05
-2.8786590446138453e-05   6.056348934134785e-06   1.962384545789247e-05
-2.8786590446138453e-05   6.056348934134785e-06   1.962384545789247e-05
-2.8786590446138453e-05   6.056348934134785e-06   1.962384545789247e-05
-4.3511947313871915e-05   6.423194964410911e-06   -4.698308370164393e-06
-4.3511947313871915e-05   6.423194964410911e-06   -4.698308370164393e-06
-4.3511947313871915e-05   6.423194964410911e-06   -4.698308370164393e-06
-4.3511947313871915e-05   6.423194964410911e-06   -4.698308370164393e-06
-4.5002143566262936e-05   5.063283090707372e-06   2.601895835961654e-05
-4.5002143566262936e-05   5.063283090707372e-06   2.601895835961654e-05
-4.5002143566262936e-05   5.063283090707372e-06   2.601895835961654e-05
-4.5002143566262936e-05   5.063283090707372e-06   2.601895835961654e-05
-2.9715528070530902e-05   5.918462409252971e-06   2.8158275602538103e-08
-2.9715528070530902e-05   5.918462409252971e-06   2.8158275602538103e-08
-2.9715528070530902e-05   5.918462409252971e-06   2.8158275602538103e-08
-2.9715528070530902e-05   5.918462409252971e-06   2.8158275602538103e-08
-3.519078166004027e-05   6.156895246745876e-06   9.01052122228923e-06
-3.519078166004027e-05   6.156895246745876e-06   9.01052122228923e-06
-3.519078166004027e-05   6.156895246745876e-06   9.01052122228923e-06
-3.519078166004027e-05   6.156895246745876e-06   9.01052122228923e-06
2.7256393537090625e-05   -3.808083317938379e-06   2.094437223102623e-05
2.7256393537090625e-05   -3.808083317938379e-06   2.094437223102623e-05
2.7256393537090625e-05   -3.808083317938379e-06   2.094437223102623e-05
2.7256393537090625e-05   -3.808083317938379e-06   2.094437223102623e-05
1.34778968894652e-05   -2.806206289350131e-06   -1.418662631196433e-06
1.34778968894652e-05   -2.806206289350131e-06   -1.418662631196433e-06
1.34778968894652e-05   -2.806206289350131e-06   -1.418662631196433e-06
1.34778968894652e-05   -2.806206289350131e-06   -1.418662631196433e-06
1.2970106605992073e-05   -4.311101948296925e-06   1.819997441659168e-05
1.2970106605992073e-05   -4.311101948296925e-06   1.819997441659168e-05
1.2970106605992073e-05   -4.311101948296925e-06   1.819997441659168e-05
1.2970106605992073e-05   -4.311101948296925e-06   1.819997441659168e-05
2.6323301232501778e-05   -3.251569045587899e-06   -4.691069702549765e-06
2.6323301232501778e-05   -3.251569045587899e-06   -4.691069702549765e-06
2.6323301232501778e-05   -3.251569045587899e-06   -4.691069702549765e-06
2.6323301232501778e-05   -3.251569045587899e-06   -4.691069702549765e-06
1.9091231752968098e-05   -3.5076510379985007e-06   7.516028625452757e-06
1.9091231752968098e-05   -3.5076510379985007e-06   7.516028625452757e-06
1.9091231752968098e-05   -3.5076510379985007e-06   7.516028625452757e-06
1.9091231752968098e-05   -3.5076510379985007e-06   7.516028625452757e-06
2.632330123250173e-05   -4.311101948296708e-06   1.7564254674966306e-05
2.632330123250173e-05   -4.311101948296708e-06   1.7564254674966306e-05
2.632330123250173e-05   -4.311101948296708e-06   1.7564254674966306e-05
2.632330123250173e-05   -4.311101948296708e-06   1.7564254674966306e-05
1.297010660599212e-05   -3.251569045587899e-06   -4.055349960924268e-06
1.297010660599212e-05   -3.251569045587899e-06   -4.055349960924268e-06
1.297010660599212e-05   -3.251569045587899e-06   -4.055349960924268e-06
1.297010660599212e-05   -3.251569045587899e-06   -4.055349960924268e-06
1.2405375805446292e-05   -4.384689675673847e-06   1.6301816421947874e-05
1.2405375805446292e-05   -4.384689675673847e-06   1.6301816421947874e-05
1.2405375805446292e-05   -4.384689675673847e-06   1.6301816421947874e-05
1.2405375805446292e-05   -4.384689675673847e-06   1.6301816421947874e-05
2.547735716881153e-05   -3.340241348182872e-06   -6.111488180155356e-06
2.547735716881153e-05   -3.340241348182872e-06   -6.111488180155356e-06
2.547735716881153e-05   -3.340241348182872e-06   -6.111488180155356e-06
2.547735716881153e-05   -3.340241348182872e-06   -6.111488180155356e-06
1.874538616816822e-05   -3.680615603929207e-06   5.312688041031097e-06
1.874538616816822e-05   -3.680615603929207e-06   5.312688041031097e-06
1.874538616816822e-05   -3.680615603929207e-06   5.312688041031097e-06
1.874538616816822e-05   -3.680615603929207e-06   5.312688041031097e-06
2.547735716881144e-05   -4.384689675673847e-06   1.567514742545329e-05
2.547735716881144e-05   -4.384689675673847e-06   1.567514742545329e-05
2.547735716881144e-05   -4.384689675673847e-06   1.567514742545329e-05
2.547735716881144e-05   -4.384689675673847e-06   1.567514742545329e-05
1.2405375805446316e-05   -3.340241348182872e-06   -5.484819183660837e-06
1.2405375805446316e-05   -3.340241348182872e-06   -5.484819183660837e-06
1.2405375805446316e-05   -3.340241348182872e-06   -5.484819183660837e-06
1.2405375805446316e-05   -3.340241348182872e-06   -5.484819183660837e-06
1.186177045094416e-05   -4.35170791167859e-06   1.3648209261779023e-05
1.186177045094416e-05   -4.35170791167859e-06   1.3648209261779023e-05
1.186177045094416e-05   -4.35170791167859e-06   1.3648209261779023e-05
1.186177045094416e-05   -4.35170791167859e-06   1.3648209261779023e-05
2.4518312706103827e-05   -3.3720118942977967e-06   -8.033845440582093e-06
2.4518312706103827e-05   -3.3720118942977967e-06   -8.033845440582093e-06
2.4518312706103827e-05   -3.3720118942977967e-06   -8.033845440582093e-06
2.4518312706103827e-05   -3.3720118942977967e-06   -8.033845440582093e-06
1.779096200815676e-05   -3.6167533697343407e-06   3.3252506079254024e-06
1.779096200815676e-05   -3.6167533697343407e-06   3.3252506079254024e-06
1.779096200815676e-05   -3.6167533697343407e-06   3.3252506079254024e-06
1.779096200815676e-05   -3.6167533697343407e-06   3.3252506079254024e-06
1.34778968894652e-05   -1.3372408866590534e-06   2.1901514287290874e-05
1.34778968894652e-05   -1.3372408866590534e-06   2.1901514287290874e-05
1.34778968894652e-05   -1.3372408866590534e-06   2.1901514287290874e-05
1.34778968894652e-05   -1.3372408866590534e-06   2.1901514287290874e-05
5.438723403588278e-07   -5.383478685644805e-07   8.241425163034097e-07
5.438723403588278e-07   -5.383478685644805e-07   8.241425163034097e-07
5.438723403588278e-07   -5.383478685644805e-07   8.241425163034097e-07
5.438723403588278e-07   -5.383478685644805e-07   8.241425163034097e-07
5.5902497411546015e-08   -1.6063933429854866e-06   2.212372873318109e-05
5.5902497411546015e-08   -1.6063933429854866e-06   2.212372873318109e-05
5.5902497411546015e-08   -1.6063933429854866e-06   2.212372873318109e-05
5.5902497411546015e-08   -1.6063933429854866e-06   2.212372873318109e-05
1.297010660599212e-05   -8.531274654384729e-07   1.4809569235193663e-07
1.297010660599212e-05   -8.531274654384729e-07   1.4809569235193663e-07
1.297010660599212e-05   -8.531274654384729e-07   1.4809569235193663e-07
1.297010660599212e-05   -8.531274654384729e-07   1.4809569235193663e-07
6.679615060149977e-06   -1.0441810952236275e-06   1.0746880446626693e-05
6.679615060149977e-06   -1.0441810952236275e-06   1.0746880446626693e-05
6.679615060149977e-06   -1.0441810952236275e-06   1.0746880446626693e-05
6.679615060149977e-06   -1.0441810952236275e-06   1.0746880446626693e-05
1.297010660599211e-05   -1.6063933429852698e-06   2.1671769206652817e-05
1.297010660599211e-05   -1.6063933429852698e-06   2.1671769206652817e-05
1.297010660599211e-05   -1.6063933429852698e-06   2.1671769206652817e-05
1.297010660599211e-05   -1.6063933429852698e-06   2.1671769206652817e-05
5.5902497411546015e-08   -8.531274654384729e-07   6.000552188801557e-07
5.5902497411546015e-08   -8.531274654384729e-07   6.000552188801557e-07
5.5902497411546015e-08   -8.531274654384729e-07   6.000552188801557e-07
5.5902497411546015e-08   -8.531274654384729e-07   6.000552188801557e-07
-4.513485962279873e-07   -1.781295658595224e-06   2.1783769794931187e-05
-4.513485962279873e-07   -1.781295658595224e-06   2.1783769794931187e-05
-4.513485962279873e-07   -1.781295658595224e-06   2.1783769794931187e-05
-4.513485962279873e-07   -1.781295658595224e-06   2.1783769794931187e-05
1.2405375805446316e-05   -1.08566904856661e-06   -6.148017387652254e-08
1.2405375805446316e-05   -1.08566904856661e-06   -6.148017387652254e-08
1.2405375805446316e-05   -1.08566904856661e-06   -6.148017387652254e-08
1.2405375805446316e-05   -1.08566904856661e-06   -6.148017387652254e-08
6.1182614391477995e-06   -1.208517439074382e-06   1.0490752804259294e-05
6.1182614391477995e-06   -1.208517439074382e-06   1.0490752804259294e-05
6.1182614391477995e-06   -1.208517439074382e-06   1.0490752804259294e-05
6.1182614391477995e-06   -1.208517439074382e-06   1.0490752804259294e-05
1.2405375805446292e-05   -1.781295658595224e-06   2.1366393828914018e-05
1.2405375805446292e-05   -1.781295658595224e-06   2.1366393828914018e-05
1.2405375805446292e-05   -1.781295658595224e-06   2.1366393828914018e-05
1.2405375805446292e-05   -1.781295658595224e-06   2.1366393828914018e-05
-4.513485962279873e-07   -1.08566904856661e-06   3.558957921407204e-07
-4.513485962279873e-07   -1.08566904856661e-06   3.558957921407204e-07
-4.513485962279873e-07   -1.08566904856661e-06   3.558957921407204e-07
-4.513485962279873e-07   -1.08566904856661e-06   3.558957921407204e-07
-9.794467638899468e-07   -1.8539067699848474e-06   2.1944138567022526e-05
-9.794467638899468e-07   -1.8539067699848474e-06   2.1944138567022526e-05
-9.794467638899468e-07   -1.8539067699848474e-06   2.1944138567022526e-05
-9.794467638899468e-07   -1.8539067699848474e-06   2.1944138567022526e-05
1.1861770450944193e-05   -1.2675564217126331e-06   1.902996666690052e-07
1.1861770450944193e-05   -1.2675564217126331e-06   1.902996666690052e-07
1.1861770450944193e-05   -1.2675564217126331e-06   1.902996666690052e-07
1.1861770450944193e-05   -1.2675564217126331e-06   1.902996666690052e-07
5.698225225851309e-06   -1.2952047799576465e-06   1.0479464056771233e-05
5.698225225851309e-06   -1.2952047799576465e-06   1.0479464056771233e-05
5.698225225851309e-06   -1.2952047799576465e-06   1.0479464056771233e-05
5.698225225851309e-06   -1.2952047799576465e-06   1.0479464056771233e-05
5.438723403588278e-07   1.2024107957002515e-06   2.2596800166665943e-05
5.438723403588278e-07   1.2024107957002515e-06   2.2596800166665943e-05
5.438723403588278e-07   1.2024107957002515e-06   2.2596800166665943e-05
5.438723403588278e-07   1.2024107957002515e-06   2.2596800166665943e-05
-1.2015881860254592e-05   1.7349187394117855e-06   1.983381265203976e-06
-1.2015881860254592e-05   1.7349187394117855e-06   1.983381265203976e-06
-1.2015881860254592e-05   1.7349187394117855e-06   1.983381265203976e-06
-1.2015881860254592e-05   1.7349187394117855e-06   1.983381265203976e-06
-1.2526031514475608e-05   9.985283010458066e-07   2.2904160692223548e-05
-1.2526031514475608e-05   9.985283010458066e-07   2.2904160692223548e-05
-1.2526031514475608e-05   9.985283010458066e-07   2.2904160692223548e-05
-1.2526031514475608e-05   9.985283010458066e-07   2.2904160692223548e-05
5.5902497411546015e-08   1.4744742548040545e-06   1.6487031001565823e-06
5.5902497411546015e-08   1.4744742548040545e-06   1.6487031001565823e-06
5.5902497411546015e-08   1.4744742548040545e-06   1.6487031001565823e-06
5.5902497411546015e-08   1.4744742548040545e-06   1.6487031001565823e-06
-5.994689924866122e-06   1.366632035803509e-06   1.1797729135353029e-05
-5.994689924866122e-06   1.366632035803509e-06   1.1797729135353029e-05
-5.994689924866122e-06   1.366632035803509e-06   1.1797729135353029e-05
-5.994689924866122e-06   1.366632035803509e-06   1.1797729135353029e-05
5.5902497411546015e-08   9.985283010458066e-07   2.261859311996847e-05
5.5902497411546015e-08   9.985283010458066e-07   2.261859311996847e-05
5.5902497411546015e-08   9.985283010458066e-07   2.261859311996847e-05
5.5902497411546015e-08   9.985283010458066e-07   2.261859311996847e-05
-1.2526031514475608e-05   1.4744742548040545e-06   1.9342706724115527e-06
-1.2526031514475608e-05   1.4744742548040545e-06   1.9342706724115527e-06
-1.2526031514475608e-05   1.4744742548040545e-06   1.9342706724115527e-06
-1.2526031514475608e-05   1.4744742548040545e-06   1.9342706724115527e-06
-1.306434011422988e-05   8.087543293653927e-07   2.311636933096479e-05
-1.306434011422988e-05   8.087543293653927e-07   2.311636933096479e-05
-1.306434011422988e-05   8.087543293653927e-07   2.311636933096479e-05
-1.306434011422988e-05   8.087543293653927e-07   2.311636933096479e-05
-4.5134859622800085e-07   1.2216503354563115e-06   1.8469791973072452e-06
-4.5134859622800085e-07   1.2216503354563115e-06   1.8469791973072452e-06
-4.5134859622800085e-07   1.2216503354563115e-06   1.8469791973072452e-06
-4.5134859622800085e-07   1.2216503354563115e-06   1.8469791973072452e-06
-6.4683371104659525e-06   1.2187834411935255e-06   1.187701352426139e-05
-6.4683371104659525e-06   1.2187834411935255e-06   1.187701352426139e-05
-6.4683371104659525e-06   1.2187834411935255e-06   1.187701352426139e-05
-6.4683371104659525e-06   1.2187834411935255e-06   1.187701352426139e-05
-4.513485962279873e-07   8.087543293653927e-07   2.2868631727310435e-05
-4.513485962279873e-07   8.087543293653927e-07   2.2868631727310435e-05
-4.513485962279873e-07   8.087543293653927e-07   2.2868631727310435e-05
-4.513485962279873e-07   8.087543293653927e-07   2.2868631727310435e-05
-1.3064340114229893e-05   1.2216503354563115e-06   2.094716800961588e-06
-1.3064340114229893e-05   1.2216503354563115e-06   2.094716800961588e-06
-1.3064340114229893e-05   1.2216503354563115e-06   2.094716800961588e-06
-1.3064340114229893e-05   1.2216503354563115e-06   2.094716800961588e-06
-1.361960347690421e-05   6.725883312547632e-07   2.345438797230696e-05
-1.361960347690421e-05   6.725883312547632e-07   2.345438797230696e-05
-1.361960347690421e-05   6.725883312547632e-07   2.345438797230696e-05
-1.361960347690421e-05   6.725883312547632e-07   2.345438797230696e-05
-9.794467638899468e-07   9.967006074831225e-07   2.1929927515459903e-06
-9.794467638899468e-07   9.967006074831225e-07   2.1929927515459903e-06
-9.794467638899468e-07   9.967006074831225e-07   2.1929927515459903e-06
-9.794467638899468e-07   9.967006074831225e-07   2.1929927515459903e-06
-6.98093929934249e-06   1.0773105977423397e-06   1.2147114316478596e-05
-6.98093929934249e-06   1.0773105977423397e-06   1.2147114316478596e-05
-6.98093929934249e-06   1.0773105977423397e-06   1.2147114316478596e-05
-6.98093929934249e-06   1.0773105977423397e-06   1.2147114316478596e-05
-1.201588186025462e-05   3.8988697886146225e-06   1.9737363879519213e-05
-1.201588186025462e-05   3.8988697886146225e-06   1.9737363879519213e-05
-1.201588186025462e-05   3.8988697886146225e-06   1.9737363879519213e-05
-1.201588186025462e-05   3.8988697886146225e-06   1.9737363879519213e-05
-2.419528668490823e-05   3.948573399377171e-06   -5.318219951125054e-07
-2.419528668490823e-05   3.948573399377171e-06   -5.318219951125054e-07
-2.419528668490823e-05   3.948573399377171e-06   -5.318219951125054e-07
-2.419528668490823e-05   3.948573399377171e-06   -5.318219951125054e-07
-2.4787341521292087e-05   3.695654750353501e-06   2.0082400458544514e-05
-2.4787341521292087e-05   3.695654750353501e-06   2.0082400458544514e-05
-2.4787341521292087e-05   3.695654750353501e-06   2.0082400458544514e-05
-2.4787341521292087e-05   3.695654750353501e-06   2.0082400458544514e-05
-1.2526031514475621e-05   3.7011934035510383e-06   -3.5643941140143815e-07
-1.2526031514475621e-05   3.7011934035510383e-06   -3.5643941140143815e-07
-1.2526031514475621e-05   3.7011934035510383e-06   -3.5643941140143815e-07
-1.2526031514475621e-05   3.7011934035510383e-06   -3.5643941140143815e-07
-1.8299064740248165e-05   3.799940111657435e-06   9.20603460668898e-06
-1.8299064740248165e-05   3.799940111657435e-06   9.20603460668898e-06
-1.8299064740248165e-05   3.799940111657435e-06   9.20603460668898e-06
-1.8299064740248165e-05   3.799940111657435e-06   9.20603460668898e-06
-1.2526031514475621e-05   3.695654750353501e-06   2.0079077266626035e-05
-1.2526031514475621e-05   3.695654750353501e-06   2.0079077266626035e-05
-1.2526031514475621e-05   3.695654750353501e-06   2.0079077266626035e-05
-1.2526031514475621e-05   3.695654750353501e-06   2.0079077266626035e-05
-2.4787341521292032e-05   3.7011934035510383e-06   -3.5311621948295926e-07
-2.4787341521292032e-05   3.7011934035510383e-06   -3.5311621948295926e-07
-2.4787341521292032e-05   3.7011934035510383e-06   -3.5311621948295926e-07
-2.4787341521292032e-05   3.7011934035510383e-06   -3.5311621948295926e-07
-2.5442788390559398e-05   3.5066273466133682e-06   2.101633489543051e-05
-2.5442788390559398e-05   3.5066273466133682e-06   2.101633489543051e-05
-2.5442788390559398e-05   3.5066273466133682e-06   2.101633489543051e-05
-2.5442788390559398e-05   3.5066273466133682e-06   2.101633489543051e-05
-1.3064340114229893e-05   3.4719972782793884e-06   4.063658092150278e-07
-1.3064340114229893e-05   3.4719972782793884e-06   4.063658092150278e-07
-1.3064340114229893e-05   3.4719972782793884e-06   4.063658092150278e-07
-1.3064340114229893e-05   3.4719972782793884e-06   4.063658092150278e-07
-1.8724780145255226e-05   3.6609951634251382e-06   9.727033796502987e-06
-1.8724780145255226e-05   3.6609951634251382e-06   9.727033796502987e-06
-1.8724780145255226e-05   3.6609951634251382e-06   9.727033796502987e-06
-1.8724780145255226e-05   3.6609951634251382e-06   9.727033796502987e-06
-1.3064340114229893e-05   3.5066273466133682e-06   2.1037112936430724e-05
-1.3064340114229893e-05   3.5066273466133682e-06   2.1037112936430724e-05
-1.3064340114229893e-05   3.5066273466133682e-06   2.1037112936430724e-05
-1.3064340114229893e-05   3.5066273466133682e-06   2.1037112936430724e-05
-2.544278839055933e-05   3.4719972782793884e-06   3.85587768214732e-07
-2.544278839055933e-05   3.4719972782793884e-06   3.85587768214732e-07
-2.544278839055933e-05   3.4719972782793884e-06   3.85587768214732e-07
-2.544278839055933e-05   3.4719972782793884e-06   3.85587768214732e-07
-2.60670174713403e-05   3.25127908012892e-06   2.1685356890078708e-05
-2.60670174713403e-05   3.25127908012892e-06   2.1685356890078708e-05
-2.60670174713403e-05   3.25127908012892e-06   2.1685356890078708e-05
-2.60670174713403e-05   3.25127908012892e-06   2.1685356890078708e-05
-1.3619603476904265e-05   3.191061390278539e-06   9.757975132623081e-07
-1.3619603476904265e-05   3.191061390278539e-06   9.757975132623081e-07
-1.3619603476904265e-05   3.191061390278539e-06   9.757975132623081e-07
-1.3619603476904265e-05   3.191061390278539e-06   9.757975132623081e-07
-1.940723527769661e-05   3.4790356328326475e-06   1.0449065969051288e-05
-1.940723527769661e-05   3.4790356328326475e-06   1.0449065969051288e-05
-1.940723527769661e-05   3.4790356328326475e-06   1.0449065969051288e-05
-1.940723527769661e-05   3.4790356328326475e-06   1.0449065969051288e-05
-2.419528668490819e-05   6.3408768921555374e-06   9.503805409665617e-06
-2.419528668490819e-05   6.3408768921555374e-06   9.503805409665617e-06
-2.419528668490819e-05   6.3408768921555374e-06   9.503805409665617e-06
-2.419528668490819e-05   6.3408768921555374e-06   9.503805409665617e-06
-3.5795088070468783e-05   5.697937988335695e-06   -1.0214960241894009e-05
-3.5795088070468783e-05   5.697937988335695e-06   -1.0214960241894009e-05
-3.5795088070468783e-05   5.697937988335695e-06   -1.0214960241894009e-05
-3.5795088070468783e-05   5.697937988335695e-06   -1.0214960241894009e-05
-3.672775775331264e-05   6.467993994658302e-06   1.3217132569406996e-05
-3.672775775331264e-05   6.467993994658302e-06   1.3217132569406996e-05
-3.672775775331264e-05   6.467993994658302e-06   1.3217132569406996e-05
-3.672775775331264e-05   6.467993994658302e-06   1.3217132569406996e-05
-2.4787341521292087e-05   5.762532623641023e-06   -6.260284328016898e-06
-2.4787341521292087e-05   5.762532623641023e-06   -6.260284328016898e-06
-2.4787341521292087e-05   5.762532623641023e-06   -6.260284328016898e-06
-2.4787341521292087e-05   5.762532623641023e-06   -6.260284328016898e-06
-2.921255839765001e-05   6.0295307946903794e-06   9.548782299500852e-07
-2.921255839765001e-05   6.0295307946903794e-06   9.548782299500852e-07
-2.921255839765001e-05   6.0295307946903794e-06   9.548782299500852e-07
-2.921255839765001e-05   6.0295307946903794e-06   9.548782299500852e-07
-2.4787341521292005e-05   6.467993994658302e-06   1.364040939201745e-05
-2.4787341521292005e-05   6.467993994658302e-06   1.364040939201745e-05
-2.4787341521292005e-05   6.467993994658302e-06   1.364040939201745e-05
-2.4787341521292005e-05   6.467993994658302e-06   1.364040939201745e-05
-3.672775775331278e-05   5.762532623641023e-06   -6.6835611506274335e-06
-3.672775775331278e-05   5.762532623641023e-06   -6.6835611506274335e-06
-3.672775775331278e-05   5.762532623641023e-06   -6.6835611506274335e-06
-3.672775775331278e-05   5.762532623641023e-06   -6.6835611506274335e-06
-3.763736460068816e-05   6.423194964410911e-06   1.6095917385615865e-05
-3.763736460068816e-05   6.423194964410911e-06   1.6095917385615865e-05
-3.763736460068816e-05   6.423194964410911e-06   1.6095917385615865e-05
-3.763736460068816e-05   6.423194964410911e-06   1.6095917385615865e-05
-2.5442788390559398e-05   5.700274933035949e-06   -3.7946242791074103e-06
-2.5442788390559398e-05   5.700274933035949e-06   -3.7946242791074103e-06
-2.5442788390559398e-05   5.700274933035949e-06   -3.7946242791074103e-06
-2.5442788390559398e-05   5.700274933035949e-06   -3.7946242791074103e-06
-3.0366125581066623e-05   6.141219252190494e-06   4.146371113579331e-06
-3.0366125581066623e-05   6.141219252190494e-06   4.146371113579331e-06
-3.0366125581066623e-05   6.141219252190494e-06   4.146371113579331e-06
-3.0366125581066623e-05   6.141219252190494e-06   4.146371113579331e-06
-2.5442788390559398e-05   6.423194964410911e-06   1.6529669404440886e-05
-2.5442788390559398e-05   6.423194964410911e-06   1.6529669404440886e-05
-2.5442788390559398e-05   6.423194964410911e-06   1.6529669404440886e-05
-2.5442788390559398e-05   6.423194964410911e-06   1.6529669404440886e-05
-3.763736460068827e-05   5.700274933035949e-06   -4.228376297932322e-06
-3.763736460068827e-05   5.700274933035949e-06   -4.228376297932322e-06
-3.763736460068827e-05   5.700274933035949e-06   -4.228376297932322e-06
-3.763736460068827e-05   5.700274933035949e-06   -4.228376297932322e-06
-3.869857180847325e-05   5.918462409252971e-06   2.102087634738882e-05
-3.869857180847325e-05   5.918462409252971e-06   2.102087634738882e-05
-3.869857180847325e-05   5.918462409252971e-06   2.102087634738882e-05
-3.869857180847325e-05   5.918462409252971e-06   2.102087634738882e-05
-2.60670174713403e-05   5.263701117126304e-06   3.611425607764082e-07
-2.60670174713403e-05   5.263701117126304e-06   3.611425607764082e-07
-2.60670174713403e-05   5.263701117126304e-06   3.611425607764082e-07
-2.60670174713403e-05   5.263701117126304e-06   3.611425607764082e-07
-3.064772406735507e-05   5.960845494396884e-06   7.577366927772548e-06
-3.064772406735507e-05   5.960845494396884e-06   7.577366927772548e-06
-3.064772406735507e-05   5.960845494396884e-06   7.577366927772548e-06
-3.064772406735507e-05   5.960845494396884e-06   7.577366927772548e-06
2.079231098319165e-05   -2.806206289350131e-06   1.7559360331879026e-05
2.079231098319165e-05   -2.806206289350131e-06   1.7559360331879026e-05
2.079231098319165e-05   -2.806206289350131e-06   1.7559360331879026e-05
2.079231098319165e-05   -2.806206289350131e-06   1.7559360331879026e-05
9.779484691906977e-06   -1.8669875289250605e-06   -2.3181889734040506e-07
9.779484691906977e-06   -1.8669875289250605e-06   -2.3181889734040506e-07
9.779484691906977e-06   -1.8669875289250605e-06   -2.3181889734040506e-07
9.779484691906977e-06   -1.8669875289250605e-06   -2.3181889734040506e-07
9.325109367973296e-06   -3.251569045587899e-06   1.5418030208412927e-05
9.325109367973296e-06   -3.251569045587899e-06   1.5418030208412927e-05
9.325109367973296e-06   -3.251569045587899e-06   1.5418030208412927e-05
9.325109367973296e-06   -3.251569045587899e-06   1.5418030208412927e-05
1.9912496707542374e-05   -2.2614878834620756e-06   -2.821664054810928e-06
1.9912496707542374e-05   -2.2614878834620756e-06   -2.821664054810928e-06
1.9912496707542374e-05   -2.2614878834620756e-06   -2.821664054810928e-06
1.9912496707542374e-05   -2.2614878834620756e-06   -2.821664054810928e-06
1.4249342867567126e-05   -2.5650869147591897e-06   6.799085097259304e-06
1.4249342867567126e-05   -2.5650869147591897e-06   6.799085097259304e-06
1.4249342867567126e-05   -2.5650869147591897e-06   6.799085097259304e-06
1.4249342867567126e-05   -2.5650869147591897e-06   6.799085097259304e-06
1.9912496707542374e-05   -3.251569045587899e-06   1.4823981511137628e-05
1.9912496707542374e-05   -3.251569045587899e-06   1.4823981511137628e-05
1.9912496707542374e-05   -3.251569045587899e-06   1.4823981511137628e-05
1.9912496707542374e-05   -3.251569045587899e-06   1.4823981511137628e-05
9.325109367973313e-06   -2.2614878834620756e-06   -2.22761535753548e-06
9.325109367973313e-06   -2.2614878834620756e-06   -2.22761535753548e-06
9.325109367973313e-06   -2.2614878834620756e-06   -2.22761535753548e-06
9.325109367973313e-06   -2.2614878834620756e-06   -2.22761535753548e-06
8.822921005044993e-06   -3.340241348182872e-06   1.3913955786058751e-05
8.822921005044993e-06   -3.340241348182872e-06   1.3913955786058751e-05
8.822921005044993e-06   -3.340241348182872e-06   1.3913955786058751e-05
8.822921005044993e-06   -3.340241348182872e-06   1.3913955786058751e-05
1.9140583531398057e-05   -2.366204078407992e-06   -3.8665707863945895e-06
1.9140583531398057e-05   -2.366204078407992e-06   -3.8665707863945895e-06
1.9140583531398057e-05   -2.366204078407992e-06   -3.8665707863945895e-06
1.9140583531398057e-05   -2.366204078407992e-06   -3.8665707863945895e-06
1.3889363137060097e-05   -2.7255218588016945e-06   5.101053872405158e-06
1.3889363137060097e-05   -2.7255218588016945e-06   5.101053872405158e-06
1.3889363137060097e-05   -2.7255218588016945e-06   5.101053872405158e-06
1.3889363137060097e-05   -2.7255218588016945e-06   5.101053872405158e-06
1.914058353139802e-05   -3.340241348183089e-06   1.3329533424193889e-05
1.914058353139802e-05   -3.340241348183089e-06   1.3329533424193889e-05
1.914058353139802e-05   -3.340241348183089e-06   1.3329533424193889e-05
1.914058353139802e-05   -3.340241348183089e-06   1.3329533424193889e-05
8.82292100504501e-06   -2.366204078407992e-06   -3.282148424529679e-06
8.82292100504501e-06   -2.366204078407992e-06   -3.282148424529679e-06
8.82292100504501e-06   -2.366204078407992e-06   -3.282148424529679e-06
8.82292100504501e-06   -2.366204078407992e-06   -3.282148424529679e-06
8.358840509459999e-06   -3.3720118942977967e-06   1.1870607633405377e-05
8.358840509459999e-06   -3.3720118942977967e-06   1.1870607633405377e-05
8.358840509459999e-06   -3.3720118942977967e-06   1.1870607633405377e-05
8.358840509459999e-06   -3.3720118942977967e-06   1.1870607633405377e-05
1.8276887985422497e-05   -2.4609398375854963e-06   -5.206114727226048e-06
1.8276887985422497e-05   -2.4609398375854963e-06   -5.206114727226048e-06
1.8276887985422497e-05   -2.4609398375854963e-06   -5.206114727226048e-06
1.8276887985422497e-05   -2.4609398375854963e-06   -5.206114727226048e-06
1.3078829772810728e-05   -2.708336314623857e-06   3.605753513350135e-06
1.3078829772810728e-05   -2.708336314623857e-06   3.605753513350135e-06
1.3078829772810728e-05   -2.708336314623857e-06   3.605753513350135e-06
1.3078829772810728e-05   -2.708336314623857e-06   3.605753513350135e-06
9.779484691906943e-06   -5.383478685646974e-07   1.988636092477747e-05
9.779484691906943e-06   -5.383478685646974e-07   1.988636092477747e-05
9.779484691906943e-06   -5.383478685646974e-07   1.988636092477747e-05
9.779484691906943e-06   -5.383478685646974e-07   1.988636092477747e-05
-6.392409537228812e-07   -1.6100973169964547e-08   2.8351663192977125e-06
-6.392409537228812e-07   -1.6100973169964547e-08   2.8351663192977125e-06
-6.392409537228812e-07   -1.6100973169964547e-08   2.8351663192977125e-06
-6.392409537228812e-07   -1.6100973169964547e-08   2.8351663192977125e-06
-1.0667910544077757e-06   -8.531274654384729e-07   1.9918511872572277e-05
-1.0667910544077757e-06   -8.531274654384729e-07   1.9918511872572277e-05
-1.0667910544077757e-06   -8.531274654384729e-07   1.9918511872572277e-05
-1.0667910544077757e-06   -8.531274654384729e-07   1.9918511872572277e-05
9.325109367973313e-06   -3.5806744729991423e-07   2.301641824387444e-06
9.325109367973313e-06   -3.5806744729991423e-07   2.301641824387444e-06
9.325109367973313e-06   -3.5806744729991423e-07   2.301641824387444e-06
9.325109367973313e-06   -3.5806744729991423e-07   2.301641824387444e-06
4.278972405724107e-06   -4.540162854350157e-07   1.0769439397683757e-05
4.278972405724107e-06   -4.540162854350157e-07   1.0769439397683757e-05
4.278972405724107e-06   -4.540162854350157e-07   1.0769439397683757e-05
4.278972405724107e-06   -4.540162854350157e-07   1.0769439397683757e-05
9.325109367973285e-06   -8.53127465438256e-07   1.9621475861689185e-05
9.325109367973285e-06   -8.53127465438256e-07   1.9621475861689185e-05
9.325109367973285e-06   -8.53127465438256e-07   1.9621475861689185e-05
9.325109367973285e-06   -8.53127465438256e-07   1.9621475861689185e-05
-1.0667910544077757e-06   -3.5806744729991423e-07   2.598677835270475e-06
-1.0667910544077757e-06   -3.5806744729991423e-07   2.598677835270475e-06
-1.0667910544077757e-06   -3.5806744729991423e-07   2.598677835270475e-06
-1.0667910544077757e-06   -3.5806744729991423e-07   2.598677835270475e-06
-1.5035906415768283e-06   -1.08566904856661e-06   1.9612796047373542e-05
-1.5035906415768283e-06   -1.08566904856661e-06   1.9612796047373542e-05
-1.5035906415768283e-06   -1.08566904856661e-06   1.9612796047373542e-05
-1.5035906415768283e-06   -1.08566904856661e-06   1.9612796047373542e-05
8.82292100504501e-06   -6.265002960158684e-07   2.1264420514733066e-06
8.82292100504501e-06   -6.265002960158684e-07   2.1264420514733066e-06
8.82292100504501e-06   -6.265002960158684e-07   2.1264420514733066e-06
8.82292100504501e-06   -6.265002960158684e-07   2.1264420514733066e-06
3.798381650917114e-06   -6.644711237064997e-07   1.0523456804968113e-05
3.798381650917114e-06   -6.644711237064997e-07   1.0523456804968113e-05
3.798381650917114e-06   -6.644711237064997e-07   1.0523456804968113e-05
3.798381650917114e-06   -6.644711237064997e-07   1.0523456804968113e-05
8.822921005044993e-06   -1.0856690485663931e-06   1.933729479584325e-05
8.822921005044993e-06   -1.0856690485663931e-06   1.933729479584325e-05
8.822921005044993e-06   -1.0856690485663931e-06   1.933729479584325e-05
8.822921005044993e-06   -1.0856690485663931e-06   1.933729479584325e-05
-1.5035906415768283e-06   -6.265002960158684e-07   2.4019433030038166e-06
-1.5035906415768283e-06   -6.265002960158684e-07   2.4019433030038166e-06
-1.5035906415768283e-06   -6.265002960158684e-07   2.4019433030038166e-06
-1.5035906415768283e-06   -6.265002960158684e-07   2.4019433030038166e-06
-1.942853536946365e-06   -1.2675564217126331e-06   1.9743237961308987e-05
-1.942853536946365e-06   -1.2675564217126331e-06   1.9743237961308987e-05
-1.942853536946365e-06   -1.2675564217126331e-06   1.9743237961308987e-05
-1.942853536946365e-06   -1.2675564217126331e-06   1.9743237961308987e-05
8.358840509460006e-06   -8.73718369911276e-07   2.3374450528840875e-06
8.358840509460006e-06   -8.73718369911276e-07   2.3374450528840875e-06
8.358840509460006e-06   -8.73718369911276e-07   2.3374450528840875e-06
8.358840509460006e-06   -8.73718369911276e-07   2.3374450528840875e-06
3.4330480325425337e-06   -8.189220375097971e-07   1.0514221381639408e-05
3.4330480325425337e-06   -8.189220375097971e-07   1.0514221381639408e-05
3.4330480325425337e-06   -8.189220375097971e-07   1.0514221381639408e-05
3.4330480325425337e-06   -8.189220375097971e-07   1.0514221381639408e-05
-6.392409537228812e-07   1.7349187394117855e-06   2.1039443044687674e-05
-6.392409537228812e-07   1.7349187394117855e-06   2.1039443044687674e-05
-6.392409537228812e-07   1.7349187394117855e-06   2.1039443044687674e-05
-6.392409537228812e-07   1.7349187394117855e-06   2.1039443044687674e-05
-1.0839226333094474e-05   1.7882659822999504e-06   4.071475758134517e-06
-1.0839226333094474e-05   1.7882659822999504e-06   4.071475758134517e-06
-1.0839226333094474e-05   1.7882659822999504e-06   4.071475758134517e-06
-1.0839226333094474e-05   1.7882659822999504e-06   4.071475758134517e-06
-1.126945535184258e-05   1.4744742548040545e-06   2.0975899927716556e-05
-1.126945535184258e-05   1.4744742548040545e-06   2.0975899927716556e-05
-1.126945535184258e-05   1.4744742548040545e-06   2.0975899927716556e-05
-1.126945535184258e-05   1.4744742548040545e-06   2.0975899927716556e-05
-1.0667910544077757e-06   1.4890412112504754e-06   3.962719258124143e-06
-1.0667910544077757e-06   1.4890412112504754e-06   3.962719258124143e-06
-1.0667910544077757e-06   1.4890412112504754e-06   3.962719258124143e-06
-1.0667910544077757e-06   1.4890412112504754e-06   3.962719258124143e-06
-5.969048396227323e-06   1.592577909200442e-06   1.2071026142386704e-05
-5.969048396227323e-06   1.592577909200442e-06   1.2071026142386704e-05
-5.969048396227323e-06   1.592577909200442e-06   1.2071026142386704e-05
-5.969048396227323e-06   1.592577909200442e-06   1.2071026142386704e-05
-1.0667910544077757e-06   1.4744742548040545e-06   2.096715975384892e-05
-1.0667910544077757e-06   1.4744742548040545e-06   2.096715975384892e-05
-1.0667910544077757e-06   1.4744742548040545e-06   2.096715975384892e-05
-1.0667910544077757e-06   1.4744742548040545e-06   2.096715975384892e-05
-1.126945535184258e-05   1.4890412112504754e-06   3.971459431991874e-06
-1.126945535184258e-05   1.4890412112504754e-06   3.971459431991874e-06
-1.126945535184258e-05   1.4890412112504754e-06   3.971459431991874e-06
-1.126945535184258e-05   1.4890412112504754e-06   3.971459431991874e-06
-1.1710222809566554e-05   1.2216503354563115e-06   2.1087663732691892e-05
-1.1710222809566554e-05   1.2216503354563115e-06   2.1087663732691892e-05
-1.1710222809566554e-05   1.2216503354563115e-06   2.1087663732691892e-05
-1.1710222809566554e-05   1.2216503354563115e-06   2.1087663732691892e-05
-1.5035906415768283e-06   1.1946241357096293e-06   4.09282583922364e-06
-1.5035906415768283e-06   1.1946241357096293e-06   4.09282583922364e-06
-1.5035906415768283e-06   1.1946241357096293e-06   4.09282583922364e-06
-1.5035906415768283e-06   1.1946241357096293e-06   4.09282583922364e-06
-6.36815398710132e-06   1.3919463194836043e-06   1.2082038104833698e-05
-6.36815398710132e-06   1.3919463194836043e-06   1.2082038104833698e-05
-6.36815398710132e-06   1.3919463194836043e-06   1.2082038104833698e-05
-6.36815398710132e-06   1.3919463194836043e-06   1.2082038104833698e-05
-1.5035906415768283e-06   1.2216503354560947e-06   2.1103879452539945e-05
-1.5035906415768283e-06   1.2216503354560947e-06   2.1103879452539945e-05
-1.5035906415768283e-06   1.2216503354560947e-06   2.1103879452539945e-05
-1.5035906415768283e-06   1.2216503354560947e-06   2.1103879452539945e-05
-1.1710222809566554e-05   1.1946241357096293e-06   4.0766101193756956e-06
-1.1710222809566554e-05   1.1946241357096293e-06   4.0766101193756956e-06
-1.1710222809566554e-05   1.1946241357096293e-06   4.0766101193756956e-06
-1.1710222809566554e-05   1.1946241357096293e-06   4.0766101193756956e-06
-1.2150627242419812e-05   9.967006074831225e-07   2.1345306796043953e-05
-1.2150627242419812e-05   9.967006074831225e-07   2.1345306796043953e-05
-1.2150627242419812e-05   9.967006074831225e-07   2.1345306796043953e-05
-1.2150627242419812e-05   9.967006074831225e-07   2.1345306796043953e-05
-1.942853536946365e-06   9.153438721852709e-07   4.3811646614337504e-06
-1.942853536946365e-06   9.153438721852709e-07   4.3811646614337504e-06
-1.942853536946365e-06   9.153438721852709e-07   4.3811646614337504e-06
-1.942853536946365e-06   9.153438721852709e-07   4.3811646614337504e-06
-6.786154802280904e-06   1.196603425175245e-06   1.2284577705197692e-05
-6.786154802280904e-06   1.196603425175245e-06   1.2284577705197692e-05
-6.786154802280904e-06   1.196603425175245e-06   1.2284577705197692e-05
-6.786154802280904e-06   1.196603425175245e-06   1.2284577705197692e-05
-1.0839226333094447e-05   3.948573399377171e-06   1.8526425963646454e-05
-1.0839226333094447e-05   3.948573399377171e-06   1.8526425963646454e-05
-1.0839226333094447e-05   3.948573399377171e-06   1.8526425963646454e-05
-1.0839226333094447e-05   3.948573399377171e-06   1.8526425963646454e-05
-2.0824601690499795e-05   3.5264495983420695e-06   1.63085942068308e-06
-2.0824601690499795e-05   3.5264495983420695e-06   1.63085942068308e-06
-2.0824601690499795e-05   3.5264495983420695e-06   1.63085942068308e-06
-2.0824601690499795e-05   3.5264495983420695e-06   1.63085942068308e-06
-2.1287856449843758e-05   3.7011934035510383e-06   1.840905334771811e-05
-2.1287856449843758e-05   3.7011934035510383e-06   1.840905334771811e-05
-2.1287856449843758e-05   3.7011934035510383e-06   1.840905334771811e-05
-2.1287856449843758e-05   3.7011934035510383e-06   1.840905334771811e-05
-1.1269455351842607e-05   3.2409659099085376e-06   1.9878546805682956e-06
-1.1269455351842607e-05   3.2409659099085376e-06   1.9878546805682956e-06
-1.1269455351842607e-05   3.2409659099085376e-06   1.9878546805682956e-06
-1.1269455351842607e-05   3.2409659099085376e-06   1.9878546805682956e-06
-1.600194703202537e-05   3.5559774452912935e-06   9.686333892976624e-06
-1.600194703202537e-05   3.5559774452912935e-06   9.686333892976624e-06
-1.600194703202537e-05   3.5559774452912935e-06   9.686333892976624e-06
-1.600194703202537e-05   3.5559774452912935e-06   9.686333892976624e-06
-1.126945535184258e-05   3.7011934035510383e-06   1.8685189843903674e-05
-1.126945535184258e-05   3.7011934035510383e-06   1.8685189843903674e-05
-1.126945535184258e-05   3.7011934035510383e-06   1.8685189843903674e-05
-1.126945535184258e-05   3.7011934035510383e-06   1.8685189843903674e-05
-2.1287856449843758e-05   3.2409659099085376e-06   1.7117181843828927e-06
-2.1287856449843758e-05   3.2409659099085376e-06   1.7117181843828927e-06
-2.1287856449843758e-05   3.2409659099085376e-06   1.7117181843828927e-06
-2.1287856449843758e-05   3.2409659099085376e-06   1.7117181843828927e-06
-2.1797318280100268e-05   3.4719972782793884e-06   1.9100487699082484e-05
-2.1797318280100268e-05   3.4719972782793884e-06   1.9100487699082484e-05
-2.1797318280100268e-05   3.4719972782793884e-06   1.9100487699082484e-05
-2.1797318280100268e-05   3.4719972782793884e-06   1.9100487699082484e-05
-1.1710222809566581e-05   2.973955541841263e-06   2.587486956722525e-06
-1.1710222809566581e-05   2.973955541841263e-06   2.587486956722525e-06
-1.1710222809566581e-05   2.973955541841263e-06   2.587486956722525e-06
-1.1710222809566581e-05   2.973955541841263e-06   2.587486956722525e-06
-1.6332326143465647e-05   3.37417501882647e-06   1.005086082703029e-05
-1.6332326143465647e-05   3.37417501882647e-06   1.005086082703029e-05
-1.6332326143465647e-05   3.37417501882647e-06   1.005086082703029e-05
-1.6332326143465647e-05   3.37417501882647e-06   1.005086082703029e-05
-1.1710222809566568e-05   3.4719972782793884e-06   1.939931274094525e-05
-1.1710222809566568e-05   3.4719972782793884e-06   1.939931274094525e-05
-1.1710222809566568e-05   3.4719972782793884e-06   1.939931274094525e-05
-1.1710222809566568e-05   3.4719972782793884e-06   1.939931274094525e-05
-2.1797318280100268e-05   2.973955541841263e-06   2.28866191485965e-06
-2.1797318280100268e-05   2.973955541841263e-06   2.28866191485965e-06
-2.1797318280100268e-05   2.973955541841263e-06   2.28866191485965e-06
-2.1797318280100268e-05   2.973955541841263e-06   2.28866191485965e-06
-2.226254410898459e-05   3.191061390278539e-06   1.9616262325391847e-05
-2.226254410898459e-05   3.191061390278539e-06   1.9616262325391847e-05
-2.226254410898459e-05   3.191061390278539e-06   1.9616262325391847e-05
-2.226254410898459e-05   3.191061390278539e-06   1.9616262325391847e-05
-1.2150627242419826e-05   2.662091612559833e-06   3.0804494144153003e-06
-1.2150627242419826e-05   2.662091612559833e-06   3.0804494144153003e-06
-1.2150627242419826e-05   2.662091612559833e-06   3.0804494144153003e-06
-1.2150627242419826e-05   2.662091612559833e-06   3.0804494144153003e-06
-1.6862422803240337e-05   3.1679854989984796e-06   1.0629905683920394e-05
-1.6862422803240337e-05   3.1679854989984796e-06   1.0629905683920394e-05
-1.6862422803240337e-05   3.1679854989984796e-06   1.0629905683920394e-05
-1.6862422803240337e-05   3.1679854989984796e-06   1.0629905683920394e-05
-2.0824601690499795e-05   5.697937988335695e-06   8.97577677853585e-06
-2.0824601690499795e-05   5.697937988335695e-06   8.97577677853585e-06
-2.0824601690499795e-05   5.697937988335695e-06   8.97577677853585e-06
-2.0824601690499795e-05   5.697937988335695e-06   8.97577677853585e-06
-3.0331249669679494e-05   4.873241758576556e-06   -7.3634542579525735e-06
-3.0331249669679494e-05   4.873241758576556e-06   -7.3634542579525735e-06
-3.0331249669679494e-05   4.873241758576556e-06   -7.3634542579525735e-06
-3.0331249669679494e-05   4.873241758576556e-06   -7.3634542579525735e-06
-3.116500446240269e-05   5.762532623641023e-06   1.1956021602642884e-05
-3.116500446240269e-05   5.762532623641023e-06   1.1956021602642884e-05
-3.116500446240269e-05   5.762532623641023e-06   1.1956021602642884e-05
-3.116500446240269e-05   5.762532623641023e-06   1.1956021602642884e-05
-2.1287856449843758e-05   4.852759896071916e-06   -3.960028115080748e-06
-2.1287856449843758e-05   4.852759896071916e-06   -3.960028115080748e-06
-2.1287856449843758e-05   4.852759896071916e-06   -3.960028115080748e-06
-2.1287856449843758e-05   4.852759896071916e-06   -3.960028115080748e-06
-2.491614667822087e-05   5.2175048865486535e-06   1.8682752712618155e-06
-2.491614667822087e-05   5.2175048865486535e-06   1.8682752712618155e-06
-2.491614667822087e-05   5.2175048865486535e-06   1.8682752712618155e-06
-2.491614667822087e-05   5.2175048865486535e-06   1.8682752712618155e-06
-2.128785644984373e-05   5.7625326236408064e-06   1.2501885239184197e-05
-2.128785644984373e-05   5.7625326236408064e-06   1.2501885239184197e-05
-2.128785644984373e-05   5.7625326236408064e-06   1.2501885239184197e-05
-2.128785644984373e-05   5.7625326236408064e-06   1.2501885239184197e-05
-3.116500446240274e-05   4.852759896071916e-06   -4.505891751622115e-06
-3.116500446240274e-05   4.852759896071916e-06   -4.505891751622115e-06
-3.116500446240274e-05   4.852759896071916e-06   -4.505891751622115e-06
-3.116500446240274e-05   4.852759896071916e-06   -4.505891751622115e-06
-3.1910391533906924e-05   5.700274933035949e-06   1.4353207619815156e-05
-3.1910391533906924e-05   5.700274933035949e-06   1.4353207619815156e-05
-3.1910391533906924e-05   5.700274933035949e-06   1.4353207619815156e-05
-3.1910391533906924e-05   5.700274933035949e-06   1.4353207619815156e-05
-2.1797318280100268e-05   4.755161546460621e-06   -1.9348464379175174e-06
-2.1797318280100268e-05   4.755161546460621e-06   -1.9348464379175174e-06
-2.1797318280100268e-05   4.755161546460621e-06   -1.9348464379175174e-06
-2.1797318280100268e-05   4.755161546460621e-06   -1.9348464379175174e-06
-2.5879976501005965e-05   5.276540509783437e-06   4.556756552266e-06
-2.5879976501005965e-05   5.276540509783437e-06   4.556756552266e-06
-2.5879976501005965e-05   5.276540509783437e-06   4.556756552266e-06
-2.5879976501005965e-05   5.276540509783437e-06   4.556756552266e-06
-2.1797318280100268e-05   5.700274933035949e-06   1.4920275651760504e-05
-2.1797318280100268e-05   5.700274933035949e-06   1.4920275651760504e-05
-2.1797318280100268e-05   5.700274933035949e-06   1.4920275651760504e-05
-2.1797318280100268e-05   5.700274933035949e-06   1.4920275651760504e-05
-3.191039153390698e-05   4.755161546460621e-06   -2.501914469862812e-06
-3.191039153390698e-05   4.755161546460621e-06   -2.501914469862812e-06
-3.191039153390698e-05   4.755161546460621e-06   -2.501914469862812e-06
-3.191039153390698e-05   4.755161546460621e-06   -2.501914469862812e-06
-3.276580810578116e-05   5.263701117126304e-06   1.847243825890254e-05
-3.276580810578116e-05   5.263701117126304e-06   1.847243825890254e-05
-3.276580810578116e-05   5.263701117126304e-06   1.847243825890254e-05
-3.276580810578116e-05   5.263701117126304e-06   1.847243825890254e-05
-2.226254410898459e-05   4.321534903936521e-06   1.532297992155201e-06
-2.226254410898459e-05   4.321534903936521e-06   1.532297992155201e-06
-2.226254410898459e-05   4.321534903936521e-06   1.532297992155201e-06
-2.226254410898459e-05   4.321534903936521e-06   1.532297992155201e-06
-2.607709622428161e-05   5.096381951424922e-06   7.424976622491227e-06
-2.607709622428161e-05   5.096381951424922e-06   7.424976622491227e-06
-2.607709622428161e-05   5.096381951424922e-06   7.424976622491227e-06
-2.607709622428161e-05   5.096381951424922e-06   7.424976622491227e-06
1.4420799046768243e-05   -1.8669875289250605e-06   1.435983320445804e-05
1.4420799046768243e-05   -1.8669875289250605e-06   1.435983320445804e-05
1.4420799046768243e-05   -1.8669875289250605e-06   1.435983320445804e-05
1.4420799046768243e-05   -1.8669875289250605e-06   1.435983320445804e-05
5.989747070467766e-06   -9.314541064867022e-07   8.693999640869369e-07
5.989747070467766e-06   -9.314541064867022e-07   8.693999640869369e-07
5.989747070467766e-06   -9.314541064867022e-07   8.693999640869369e-07
5.989747070467766e-06   -9.314541064867022e-07   8.693999640869369e-07
5.623092115084046e-06   -2.2614878834620756e-06   1.2899704165406783e-05
5.623092115084046e-06   -2.2614878834620756e-06   1.2899704165406783e-05
5.623092115084046e-06   -2.2614878834620756e-06   1.2899704165406783e-05
5.623092115084046e-06   -2.2614878834620756e-06   1.2899704165406783e-05
1.3638782045708113e-05   -1.2858039447287807e-06   -1.0451894155400843e-06
1.3638782045708113e-05   -1.2858039447287807e-06   -1.0451894155400843e-06
1.3638782045708113e-05   -1.2858039447287807e-06   -1.0451894155400843e-06
1.3638782045708113e-05   -1.2858039447287807e-06   -1.0451894155400843e-06
9.425297748768602e-06   -1.623656816075996e-06   6.179996135501054e-06
9.425297748768602e-06   -1.623656816075996e-06   6.179996135501054e-06
9.425297748768602e-06   -1.623656816075996e-06   6.179996135501054e-06
9.425297748768602e-06   -1.623656816075996e-06   6.179996135501054e-06
1.3638782045708137e-05   -2.2614878834620756e-06   1.2314293802166655e-05
1.3638782045708137e-05   -2.2614878834620756e-06   1.2314293802166655e-05
1.3638782045708137e-05   -2.2614878834620756e-06   1.2314293802166655e-05
1.3638782045708137e-05   -2.2614878834620756e-06   1.2314293802166655e-05
5.6230921150840255e-06   -1.2858039447287807e-06   -4.597790522999556e-07
5.6230921150840255e-06   -1.2858039447287807e-06   -4.597790522999556e-07
5.6230921150840255e-06   -1.2858039447287807e-06   -4.597790522999556e-07
5.6230921150840255e-06   -1.2858039447287807e-06   -4.597790522999556e-07
5.210526551783154e-06   -2.366204078407992e-06   1.1816876791740662e-05
5.210526551783154e-06   -2.366204078407992e-06   1.1816876791740662e-05
5.210526551783154e-06   -2.366204078407992e-06   1.1816876791740662e-05
5.210526551783154e-06   -2.366204078407992e-06   1.1816876791740662e-05
1.2966695841797957e-05   -1.4069989921802317e-06   -1.6855950766874112e-06
1.2966695841797957e-05   -1.4069989921802317e-06   -1.6855950766874112e-06
1.2966695841797957e-05   -1.4069989921802317e-06   -1.6855950766874112e-06
1.2966695841797957e-05   -1.4069989921802317e-06   -1.6855950766874112e-06
9.081170986120086e-06   -1.7742398434408575e-06   5.010624193532481e-06
9.081170986120086e-06   -1.7742398434408575e-06   5.010624193532481e-06
9.081170986120086e-06   -1.7742398434408575e-06   5.010624193532481e-06
9.081170986120086e-06   -1.7742398434408575e-06   5.010624193532481e-06
1.296669584179798e-05   -2.366204078407992e-06   1.124135374000392e-05
1.296669584179798e-05   -2.366204078407992e-06   1.124135374000392e-05
1.296669584179798e-05   -2.366204078407992e-06   1.124135374000392e-05
1.296669584179798e-05   -2.366204078407992e-06   1.124135374000392e-05
5.2105265517831436e-06   -1.4069989921802317e-06   -1.1100720249505869e-06
5.2105265517831436e-06   -1.4069989921802317e-06   -1.1100720249505869e-06
5.2105265517831436e-06   -1.4069989921802317e-06   -1.1100720249505869e-06
5.2105265517831436e-06   -1.4069989921802317e-06   -1.1100720249505869e-06
4.840383387436735e-06   -2.4609398375854963e-06   1.040497655927365e-05
4.840383387436735e-06   -2.4609398375854963e-06   1.040497655927365e-05
4.840383387436735e-06   -2.4609398375854963e-06   1.040497655927365e-05
4.840383387436735e-06   -2.4609398375854963e-06   1.040497655927365e-05
1.2203085583799973e-05   -1.564672175286149e-06   -2.4039543653779687e-06
1.2203085583799973e-05   -1.564672175286149e-06   -2.4039543653779687e-06
1.2203085583799973e-05   -1.564672175286149e-06   -2.4039543653779687e-06
1.2203085583799973e-05   -1.564672175286149e-06   -2.4039543653779687e-06
8.432464892194353e-06   -1.802012046319204e-06   4.022817376584558e-06
8.432464892194353e-06   -1.802012046319204e-06   4.022817376584558e-06
8.432464892194353e-06   -1.802012046319204e-06   4.022817376584558e-06
8.432464892194353e-06   -1.802012046319204e-06   4.022817376584558e-06
5.989747070467786e-06   -1.6100973169964547e-08   1.7674790337322463e-05
5.989747070467786e-06   -1.6100973169964547e-08   1.7674790337322463e-05
5.989747070467786e-06   -1.6100973169964547e-08   1.7674790337322463e-05
5.989747070467786e-06   -1.6100973169964547e-08   1.7674790337322463e-05
-1.9148105182354905e-06   4.610183196258671e-07   4.7867992651612215e-06
-1.9148105182354905e-06   4.610183196258671e-07   4.7867992651612215e-06
-1.9148105182354905e-06   4.610183196258671e-07   4.7867992651612215e-06
-1.9148105182354905e-06   4.610183196258671e-07   4.7867992651612215e-06
-2.2520467406803957e-06   -3.5806744729991423e-07   1.77060138043969e-05
-2.2520467406803957e-06   -3.5806744729991423e-07   1.77060138043969e-05
-2.2520467406803957e-06   -3.5806744729991423e-07   1.77060138043969e-05
-2.2520467406803957e-06   -3.5806744729991423e-07   1.77060138043969e-05
5.6230921150840255e-06   1.0368664781206394e-07   4.303729921055695e-06
5.6230921150840255e-06   1.0368664781206394e-07   4.303729921055695e-06
5.6230921150840255e-06   1.0368664781206394e-07   4.303729921055695e-06
5.6230921150840255e-06   1.0368664781206394e-07   4.303729921055695e-06
1.8048883634925892e-06   1.6607016219442536e-08   1.0719650619330618e-05
1.8048883634925892e-06   1.6607016219442536e-08   1.0719650619330618e-05
1.8048883634925892e-06   1.6607016219442536e-08   1.0719650619330618e-05
1.8048883634925892e-06   1.6607016219442536e-08   1.0719650619330618e-05
5.623092115084041e-06   -3.5806744729991423e-07   1.7428961347329647e-05
5.623092115084041e-06   -3.5806744729991423e-07   1.7428961347329647e-05
5.623092115084041e-06   -3.5806744729991423e-07   1.7428961347329647e-05
5.623092115084041e-06   -3.5806744729991423e-07   1.7428961347329647e-05
-2.252046740680409e-06   1.0368664781217236e-07   4.5807823781229134e-06
-2.252046740680409e-06   1.0368664781217236e-07   4.5807823781229134e-06
-2.252046740680409e-06   1.0368664781217236e-07   4.5807823781229134e-06
-2.252046740680409e-06   1.0368664781217236e-07   4.5807823781229134e-06
-2.59701645310082e-06   -6.265002960158684e-07   1.748877551827283e-05
-2.59701645310082e-06   -6.265002960158684e-07   1.748877551827283e-05
-2.59701645310082e-06   -6.265002960158684e-07   1.748877551827283e-05
-2.59701645310082e-06   -6.265002960158684e-07   1.748877551827283e-05
5.2105265517831436e-06   -1.8765321180053054e-07   4.212895592937061e-06
5.2105265517831436e-06   -1.8765321180053054e-07   4.212895592937061e-06
5.2105265517831436e-06   -1.8765321180053054e-07   4.212895592937061e-06
5.2105265517831436e-06   -1.8765321180053054e-07   4.212895592937061e-06
1.433354506590114e-06   -2.210961614226934e-07   1.0528248104699483e-05
1.433354506590114e-06   -2.210961614226934e-07   1.0528248104699483e-05
1.433354506590114e-06   -2.210961614226934e-07   1.0528248104699483e-05
1.433354506590114e-06   -2.210961614226934e-07   1.0528248104699483e-05
5.2105265517831605e-06   -6.265002960158684e-07   1.7225467267743756e-05
5.2105265517831605e-06   -6.265002960158684e-07   1.7225467267743756e-05
5.2105265517831605e-06   -6.265002960158684e-07   1.7225467267743756e-05
5.2105265517831605e-06   -6.265002960158684e-07   1.7225467267743756e-05
-2.59701645310082e-06   -1.8765321180063896e-07   4.476203843466306e-06
-2.59701645310082e-06   -1.8765321180063896e-07   4.476203843466306e-06
-2.59701645310082e-06   -1.8765321180063896e-07   4.476203843466306e-06
-2.59701645310082e-06   -1.8765321180063896e-07   4.476203843466306e-06
-2.9392172844828395e-06   -8.73718369911276e-07   1.7642072428408436e-05
-2.9392172844828395e-06   -8.73718369911276e-07   1.7642072428408436e-05
-2.9392172844828395e-06   -8.73718369911276e-07   1.7642072428408436e-05
-2.9392172844828395e-06   -8.73718369911276e-07   1.7642072428408436e-05
4.840383387436714e-06   -4.734194981578571e-07   4.435891985490614e-06
4.840383387436714e-06   -4.734194981578571e-07   4.435891985490614e-06
4.840383387436714e-06   -4.734194981578571e-07   4.435891985490614e-06
4.840383387436714e-06   -4.734194981578571e-07   4.435891985490614e-06
1.1410777322511022e-06   -4.1800252852325706e-07   1.0568151229019187e-05
1.1410777322511022e-06   -4.1800252852325706e-07   1.0568151229019187e-05
1.1410777322511022e-06   -4.1800252852325706e-07   1.0568151229019187e-05
1.1410777322511022e-06   -4.1800252852325706e-07   1.0568151229019187e-05
-1.914810518235477e-06   1.7882659822999504e-06   1.9165363006103933e-05
-1.914810518235477e-06   1.7882659822999504e-06   1.9165363006103933e-05
-1.914810518235477e-06   1.7882659822999504e-06   1.9165363006103933e-05
-1.914810518235477e-06   1.7882659822999504e-06   1.9165363006103933e-05
-9.686500089842368e-06   1.7633961623488058e-06   6.1976251614551505e-06
-9.686500089842368e-06   1.7633961623488058e-06   6.1976251614551505e-06
-9.686500089842368e-06   1.7633961623488058e-06   6.1976251614551505e-06
-9.686500089842368e-06   1.7633961623488058e-06   6.1976251614551505e-06
-1.0019582031829376e-05   1.4890412112504754e-06   1.90405485760263e-05
-1.0019582031829376e-05   1.4890412112504754e-06   1.90405485760263e-05
-1.0019582031829376e-05   1.4890412112504754e-06   1.90405485760263e-05
-1.0019582031829376e-05   1.4890412112504754e-06   1.90405485760263e-05
-2.252046740680409e-06   1.4398634592103794e-06   6.124163075335649e-06
-2.252046740680409e-06   1.4398634592103794e-06   6.124163075335649e-06
-2.252046740680409e-06   1.4398634592103794e-06   6.124163075335649e-06
-2.252046740680409e-06   1.4398634592103794e-06   6.124163075335649e-06
-5.9832359775086315e-06   1.5791963008116852e-06   1.2259212098422165e-05
-5.9832359775086315e-06   1.5791963008116852e-06   1.2259212098422165e-05
-5.9832359775086315e-06   1.5791963008116852e-06   1.2259212098422165e-05
-5.9832359775086315e-06   1.5791963008116852e-06   1.2259212098422165e-05
-2.2520467406803957e-06   1.4890412112504754e-06   1.9070055227250553e-05
-2.2520467406803957e-06   1.4890412112504754e-06   1.9070055227250553e-05
-2.2520467406803957e-06   1.4890412112504754e-06   1.9070055227250553e-05
-2.2520467406803957e-06   1.4890412112504754e-06   1.9070055227250553e-05
-1.0019582031829376e-05   1.439863459210271e-06   6.094656424111518e-06
-1.0019582031829376e-05   1.439863459210271e-06   6.094656424111518e-06
-1.0019582031829376e-05   1.439863459210271e-06   6.094656424111518e-06
-1.0019582031829376e-05   1.439863459210271e-06   6.094656424111518e-06
-1.0360525613516662e-05   1.1946241357096293e-06   1.9134931019515575e-05
-1.0360525613516662e-05   1.1946241357096293e-06   1.9134931019515575e-05
-1.0360525613516662e-05   1.1946241357096293e-06   1.9134931019515575e-05
-1.0360525613516662e-05   1.1946241357096293e-06   1.9134931019515575e-05
-2.5970164531008064e-06   1.1200790774140669e-06   6.240476120466425e-06
-2.5970164531008064e-06   1.1200790774140669e-06   6.240476120466425e-06
-2.5970164531008064e-06   1.1200790774140669e-06   6.240476120466425e-06
-2.5970164531008064e-06   1.1200790774140669e-06   6.240476120466425e-06
-6.287917167490145e-06   1.3448708070113715e-06   1.2257102273357265e-05
-6.287917167490145e-06   1.3448708070113715e-06   1.2257102273357265e-05
-6.287917167490145e-06   1.3448708070113715e-06   1.2257102273357265e-05
-6.287917167490145e-06   1.3448708070113715e-06   1.2257102273357265e-05
-2.59701645310082e-06   1.1946241357096293e-06   1.917965805449276e-05
-2.59701645310082e-06   1.1946241357096293e-06   1.917965805449276e-05
-2.59701645310082e-06   1.1946241357096293e-06   1.917965805449276e-05
-2.59701645310082e-06   1.1946241357096293e-06   1.917965805449276e-05
-1.0360525613516662e-05   1.1200790774141753e-06   6.195749085489239e-06
-1.0360525613516662e-05   1.1200790774141753e-06   6.195749085489239e-06
-1.0360525613516662e-05   1.1200790774141753e-06   6.195749085489239e-06
-1.0360525613516662e-05   1.1200790774141753e-06   6.195749085489239e-06
-1.0697351157550882e-05   9.153438721852709e-07   1.9387711754102754e-05
-1.0697351157550882e-05   9.153438721852709e-07   1.9387711754102754e-05
-1.0697351157550882e-05   9.153438721852709e-07   1.9387711754102754e-05
-1.0697351157550882e-05   9.153438721852709e-07   1.9387711754102754e-05
-2.939217284482826e-06   8.123814525611527e-07   6.519266084097203e-06
-2.939217284482826e-06   8.123814525611527e-07   6.519266084097203e-06
-2.939217284482826e-06   8.123814525611527e-07   6.519266084097203e-06
-2.939217284482826e-06   8.123814525611527e-07   6.519266084097203e-06
-6.606800434350275e-06   1.1161860564680914e-06   1.2449621904865458e-05
-6.606800434350275e-06   1.1161860564680914e-06   1.2449621904865458e-05
-6.606800434350275e-06   1.1161860564680914e-06   1.2449621904865458e-05
-6.606800434350275e-06   1.1161860564680914e-06   1.2449621904865458e-05
-9.686500089842368e-06   3.5264495983420695e-06   1.696309905730288e-05
-9.686500089842368e-06   3.5264495983420695e-06   1.696309905730288e-05
-9.686500089842368e-06   3.5264495983420695e-06   1.696309905730288e-05
-9.686500089842368e-06   3.5264495983420695e-06   1.696309905730288e-05
-1.7335320719242663e-05   3.0312975494789984e-06   3.917973445651164e-06
-1.7335320719242663e-05   3.0312975494789984e-06   3.917973445651164e-06
-1.7335320719242663e-05   3.0312975494789984e-06   3.917973445651164e-06
-1.7335320719242663e-05   3.0312975494789984e-06   3.917973445651164e-06
-1.769304832616861e-05   3.2409659099085376e-06   1.674199761959622e-05
-1.769304832616861e-05   3.2409659099085376e-06   1.674199761959622e-05
-1.769304832616861e-05   3.2409659099085376e-06   1.674199761959622e-05
-1.769304832616861e-05   3.2409659099085376e-06   1.674199761959622e-05
-1.0019582031829335e-05   2.7160555682310527e-06   4.267833334037428e-06
-1.0019582031829335e-05   2.7160555682310527e-06   4.267833334037428e-06
-1.0019582031829335e-05   2.7160555682310527e-06   4.267833334037428e-06
-1.0019582031829335e-05   2.7160555682310527e-06   4.267833334037428e-06
-1.3644692718859657e-05   3.0742301972987683e-06   1.0094779701647798e-05
-1.3644692718859657e-05   3.0742301972987683e-06   1.0094779701647798e-05
-1.3644692718859657e-05   3.0742301972987683e-06   1.0094779701647798e-05
-1.3644692718859657e-05   3.0742301972987683e-06   1.0094779701647798e-05
-1.0019582031829376e-05   3.2409659099085376e-06   1.7056943824602776e-05
-1.0019582031829376e-05   3.2409659099085376e-06   1.7056943824602776e-05
-1.0019582031829376e-05   3.2409659099085376e-06   1.7056943824602776e-05
-1.0019582031829376e-05   3.2409659099085376e-06   1.7056943824602776e-05
-1.7693048326168582e-05   2.716055568231161e-06   3.95288712903098e-06
-1.7693048326168582e-05   2.716055568231161e-06   3.95288712903098e-06
-1.7693048326168582e-05   2.716055568231161e-06   3.95288712903098e-06
-1.7693048326168582e-05   2.716055568231161e-06   3.95288712903098e-06
-1.8095242021668313e-05   2.973955541841263e-06   1.7315535138157047e-05
-1.8095242021668313e-05   2.973955541841263e-06   1.7315535138157047e-05
-1.8095242021668313e-05   2.973955541841263e-06   1.7315535138157047e-05
-1.8095242021668313e-05   2.973955541841263e-06   1.7315535138157047e-05
-1.0360525613516635e-05   2.4235010106661006e-06   4.754613843276328e-06
-1.0360525613516635e-05   2.4235010106661006e-06   4.754613843276328e-06
-1.0360525613516635e-05   2.4235010106661006e-06   4.754613843276328e-06
-1.0360525613516635e-05   2.4235010106661006e-06   4.754613843276328e-06
-1.3890698540509315e-05   2.8598604698387405e-06   1.0376419712760813e-05
-1.3890698540509315e-05   2.8598604698387405e-06   1.0376419712760813e-05
-1.3890698540509315e-05   2.8598604698387405e-06   1.0376419712760813e-05
-1.3890698540509315e-05   2.8598604698387405e-06   1.0376419712760813e-05
-1.0360525613516662e-05   2.973955541841263e-06   1.7645807856862187e-05
-1.0360525613516662e-05   2.973955541841263e-06   1.7645807856862187e-05
-1.0360525613516662e-05   2.973955541841263e-06   1.7645807856862187e-05
-1.0360525613516662e-05   2.973955541841263e-06   1.7645807856862187e-05
-1.8095242021668286e-05   2.4235010106661006e-06   4.424341124571133e-06
-1.8095242021668286e-05   2.4235010106661006e-06   4.424341124571133e-06
-1.8095242021668286e-05   2.4235010106661006e-06   4.424341124571133e-06
-1.8095242021668286e-05   2.4235010106661006e-06   4.424341124571133e-06
-1.845218607392365e-05   2.662091612559833e-06   1.7795923190402842e-05
-1.845218607392365e-05   2.662091612559833e-06   1.7795923190402842e-05
-1.845218607392365e-05   2.662091612559833e-06   1.7795923190402842e-05
-1.845218607392365e-05   2.662091612559833e-06   1.7795923190402842e-05
-1.0697351157550842e-05   2.0956126827928728e-06   5.211085687641798e-06
-1.0697351157550842e-05   2.0956126827928728e-06   5.211085687641798e-06
-1.0697351157550842e-05   2.0956126827928728e-06   5.211085687641798e-06
-1.0697351157550842e-05   2.0956126827928728e-06   5.211085687641798e-06
-1.4294805885700426e-05   2.6332586939854363e-06   1.0884255961175906e-05
-1.4294805885700426e-05   2.6332586939854363e-06   1.0884255961175906e-05
-1.4294805885700426e-05   2.6332586939854363e-06   1.0884255961175906e-05
-1.4294805885700426e-05   2.6332586939854363e-06   1.0884255961175906e-05
-1.7335320719242663e-05   4.873241758576556e-06   8.166511887204922e-06
-1.7335320719242663e-05   4.873241758576556e-06   8.166511887204922e-06
-1.7335320719242663e-05   4.873241758576556e-06   8.166511887204922e-06
-1.7335320719242663e-05   4.873241758576556e-06   8.166511887204922e-06
-2.4530093430921322e-05   3.988731376708887e-06   -4.3554821947134606e-06
-2.4530093430921322e-05   3.988731376708887e-06   -4.3554821947134606e-06
-2.4530093430921322e-05   3.988731376708887e-06   -4.3554821947134606e-06
-2.4530093430921322e-05   3.988731376708887e-06   -4.3554821947134606e-06
-2.5279700808906877e-05   4.852759896071916e-06   1.0492469233676404e-05
-2.5279700808906877e-05   4.852759896071916e-06   1.0492469233676404e-05
-2.5279700808906877e-05   4.852759896071916e-06   1.0492469233676404e-05
-2.5279700808906877e-05   4.852759896071916e-06   1.0492469233676404e-05
-1.7693048326168555e-05   3.8897897519784164e-06   -1.574169484431327e-06
-1.7693048326168555e-05   3.8897897519784164e-06   -1.574169484431327e-06
-1.7693048326168555e-05   3.8897897519784164e-06   -1.574169484431327e-06
-1.7693048326168555e-05   3.8897897519784164e-06   -1.574169484431327e-06
-2.041410438253404e-05   4.319614222882324e-06   2.703029260302573e-06
-2.041410438253404e-05   4.319614222882324e-06   2.703029260302573e-06
-2.041410438253404e-05   4.319614222882324e-06   2.703029260302573e-06
-2.041410438253404e-05   4.319614222882324e-06   2.703029260302573e-06
-1.769304832616861e-05   4.852759896071916e-06   1.1070251320132634e-05
-1.769304832616861e-05   4.852759896071916e-06   1.1070251320132634e-05
-1.769304832616861e-05   4.852759896071916e-06   1.1070251320132634e-05
-1.769304832616861e-05   4.852759896071916e-06   1.1070251320132634e-05
-2.527970080890693e-05   3.889789751978308e-06   -2.1519515708874485e-06
-2.527970080890693e-05   3.889789751978308e-06   -2.1519515708874485e-06
-2.527970080890693e-05   3.889789751978308e-06   -2.1519515708874485e-06
-2.527970080890693e-05   3.889789751978308e-06   -2.1519515708874485e-06
-2.5932623053476645e-05   4.755161546460621e-06   1.2498274555700442e-05
-2.5932623053476645e-05   4.755161546460621e-06   1.2498274555700442e-05
-2.5932623053476645e-05   4.755161546460621e-06   1.2498274555700442e-05
-2.5932623053476645e-05   4.755161546460621e-06   1.2498274555700442e-05
-1.809524202166826e-05   3.765574496994656e-06   2.9725065699343946e-08
-1.809524202166826e-05   3.765574496994656e-06   2.9725065699343946e-08
-1.809524202166826e-05   3.765574496994656e-06   2.9725065699343946e-08
-1.809524202166826e-05   3.765574496994656e-06   2.9725065699343946e-08
-2.12116508195771e-05   4.324022111335869e-06   4.8886711602767535e-06
-2.12116508195771e-05   4.324022111335869e-06   4.8886711602767535e-06
-2.12116508195771e-05   4.324022111335869e-06   4.8886711602767535e-06
-2.12116508195771e-05   4.324022111335869e-06   4.8886711602767535e-06
-1.8095242021668313e-05   4.755161546460621e-06   1.3092026785379933e-05
-1.8095242021668313e-05   4.755161546460621e-06   1.3092026785379933e-05
-1.8095242021668313e-05   4.755161546460621e-06   1.3092026785379933e-05
-1.8095242021668313e-05   4.755161546460621e-06   1.3092026785379933e-05
-2.5932623053476645e-05   3.765574496994656e-06   -5.640271639802022e-07
-2.5932623053476645e-05   3.765574496994656e-06   -5.640271639802022e-07
-2.5932623053476645e-05   3.765574496994656e-06   -5.640271639802022e-07
-2.5932623053476645e-05   3.765574496994656e-06   -5.640271639802022e-07
-2.6689054585703594e-05   4.321534903936521e-06   1.5979943488629513e-05
-2.6689054585703594e-05   4.321534903936521e-06   1.5979943488629513e-05
-2.6689054585703594e-05   4.321534903936521e-06   1.5979943488629513e-05
-2.6689054585703594e-05   4.321534903936521e-06   1.5979943488629513e-05
-1.8452186073923568e-05   3.346184660362405e-06   2.8370394484740014e-06
-1.8452186073923568e-05   3.346184660362405e-06   2.8370394484740014e-06
-1.8452186073923568e-05   3.346184660362405e-06   2.8370394484740014e-06
-1.8452186073923568e-05   3.346184660362405e-06   2.8370394484740014e-06
-2.138277670652182e-05   4.141135485784091e-06   7.24438667421809e-06
-2.138277670652182e-05   4.141135485784091e-06   7.24438667421809e-06
-2.138277670652182e-05   4.141135485784091e-06   7.24438667421809e-06
-2.138277670652182e-05   4.141135485784091e-06   7.24438667421809e-06
8.110094230133559e-06   -9.314541064867022e-07   1.1356219791237854e-05
8.110094230133559e-06   -9.314541064867022e-07   1.1356219791237854e-05
8.110094230133559e-06   -9.314541064867022e-07   1.1356219791237854e-05
8.110094230133559e-06   -9.314541064867022e-07   1.1356219791237854e-05
2.1600767424102168e-06   -1.091152073318287e-09   1.9977417510135854e-06
2.1600767424102168e-06   -1.091152073318287e-09   1.9977417510135854e-06
2.1600767424102168e-06   -1.091152073318287e-09   1.9977417510135854e-06
2.1600767424102168e-06   -1.091152073318287e-09   1.9977417510135854e-06
1.8841999974003573e-06   -1.2858039447288892e-06   1.0574561403508599e-05
1.8841999974003573e-06   -1.2858039447288892e-06   1.0574561403508599e-05
1.8841999974003573e-06   -1.2858039447288892e-06   1.0574561403508599e-05
1.8841999974003573e-06   -1.2858039447288892e-06   1.0574561403508599e-05
7.427016953488799e-06   -3.1959373680292245e-07   7.568070186058496e-07
7.427016953488799e-06   -3.1959373680292245e-07   7.568070186058496e-07
7.427016953488799e-06   -3.1959373680292245e-07   7.568070186058496e-07
7.427016953488799e-06   -3.1959373680292245e-07   7.568070186058496e-07
4.608180304447611e-06   -6.795476561608296e-07   5.670840451956177e-06
4.608180304447611e-06   -6.795476561608296e-07   5.670840451956177e-06
4.608180304447611e-06   -6.795476561608296e-07   5.670840451956177e-06
4.608180304447611e-06   -6.795476561608296e-07   5.670840451956177e-06
7.427016953488813e-06   -1.2858039447287807e-06   9.994835278753105e-06
7.427016953488813e-06   -1.2858039447287807e-06   9.994835278753105e-06
7.427016953488813e-06   -1.2858039447287807e-06   9.994835278753105e-06
7.427016953488813e-06   -1.2858039447287807e-06   9.994835278753105e-06
1.884199997400354e-06   -3.1959373680292245e-07   1.3365331433613835e-06
1.884199997400354e-06   -3.1959373680292245e-07   1.3365331433613835e-06
1.884199997400354e-06   -3.1959373680292245e-07   1.3365331433613835e-06
1.884199997400354e-06   -3.1959373680292245e-07   1.3365331433613835e-06
1.5619891511115616e-06   -1.4069989921802317e-06   9.915684794061669e-06
1.5619891511115616e-06   -1.4069989921802317e-06   9.915684794061669e-06
1.5619891511115616e-06   -1.4069989921802317e-06   9.915684794061669e-06
1.5619891511115616e-06   -1.4069989921802317e-06   9.915684794061669e-06
6.847859052731013e-06   -4.5580251378720283e-07   5.351837376601582e-07
6.847859052731013e-06   -4.5580251378720283e-07   5.351837376601582e-07
6.847859052731013e-06   -4.5580251378720283e-07   5.351837376601582e-07
6.847859052731013e-06   -4.5580251378720283e-07   5.351837376601582e-07
4.280780059979261e-06   -8.186852270281996e-07   5.031378353524332e-06
4.280780059979261e-06   -8.186852270281996e-07   5.031378353524332e-06
4.280780059979261e-06   -8.186852270281996e-07   5.031378353524332e-06
4.280780059979261e-06   -8.186852270281996e-07   5.031378353524332e-06
6.847859052731027e-06   -1.4069989921801232e-06   9.344966907025905e-06
6.847859052731027e-06   -1.4069989921801232e-06   9.344966907025905e-06
6.847859052731027e-06   -1.4069989921801232e-06   9.344966907025905e-06
6.847859052731027e-06   -1.4069989921801232e-06   9.344966907025905e-06
1.5619891511115548e-06   -4.5580251378720283e-07   1.105901624695962e-06
1.5619891511115548e-06   -4.5580251378720283e-07   1.105901624695962e-06
1.5619891511115548e-06   -4.5580251378720283e-07   1.105901624695962e-06
1.5619891511115548e-06   -4.5580251378720283e-07   1.105901624695962e-06
1.2824570026290216e-06   -1.564672175286149e-06   9.147391564063765e-06
1.2824570026290216e-06   -1.564672175286149e-06   9.147391564063765e-06
1.2824570026290216e-06   -1.564672175286149e-06   9.147391564063765e-06
1.2824570026290216e-06   -1.564672175286149e-06   9.147391564063765e-06
6.168511946132831e-06   -6.805756454878473e-07   4.7350874034524104e-07
6.168511946132831e-06   -6.805756454878473e-07   4.7350874034524104e-07
6.168511946132831e-06   -6.805756454878473e-07   4.7350874034524104e-07
6.168511946132831e-06   -6.805756454878473e-07   4.7350874034524104e-07
3.7908168520828016e-06   -8.884228817644321e-07   4.561042238861401e-06
3.7908168520828016e-06   -8.884228817644321e-07   4.561042238861401e-06
3.7908168520828016e-06   -8.884228817644321e-07   4.561042238861401e-06
3.7908168520828016e-06   -8.884228817644321e-07   4.561042238861401e-06
2.160076742410222e-06   4.610183196258671e-07   1.554556528928256e-05
2.160076742410222e-06   4.610183196258671e-07   1.554556528928256e-05
2.160076742410222e-06   4.610183196258671e-07   1.554556528928256e-05
2.160076742410222e-06   4.610183196258671e-07   1.554556528928256e-05
-3.2540065274206325e-06   8.845740211884789e-07   6.776226593835442e-06
-3.2540065274206325e-06   8.845740211884789e-07   6.776226593835442e-06
-3.2540065274206325e-06   8.845740211884789e-07   6.776226593835442e-06
-3.2540065274206325e-06   8.845740211884789e-07   6.776226593835442e-06
-3.496737951372381e-06   1.0368664781206394e-07   1.5591548690812424e-05
-3.496737951372381e-06   1.0368664781206394e-07   1.5591548690812424e-05
-3.496737951372381e-06   1.0368664781206394e-07   1.5591548690812424e-05
-3.496737951372381e-06   1.0368664781206394e-07   1.5591548690812424e-05
1.884199997400354e-06   5.261505043925195e-07   6.369840462243224e-06
1.884199997400354e-06   5.261505043925195e-07   6.369840462243224e-06
1.884199997400354e-06   5.261505043925195e-07   6.369840462243224e-06
1.884199997400354e-06   5.261505043925195e-07   6.369840462243224e-06
-7.175830394127707e-07   4.574843042494132e-07   1.0747345243684712e-05
-7.175830394127707e-07   4.574843042494132e-07   1.0747345243684712e-05
-7.175830394127707e-07   4.574843042494132e-07   1.0747345243684712e-05
-7.175830394127707e-07   4.574843042494132e-07   1.0747345243684712e-05
1.884199997400354e-06   1.0368664781217236e-07   1.5338070376864216e-05
1.884199997400354e-06   1.0368664781217236e-07   1.5338070376864216e-05
1.884199997400354e-06   1.0368664781217236e-07   1.5338070376864216e-05
1.884199997400354e-06   1.0368664781217236e-07   1.5338070376864216e-05
-3.496737951372381e-06   5.261505043924111e-07   6.623318776191459e-06
-3.496737951372381e-06   5.261505043924111e-07   6.623318776191459e-06
-3.496737951372381e-06   5.261505043924111e-07   6.623318776191459e-06
-3.496737951372381e-06   5.261505043924111e-07   6.623318776191459e-06
-3.746717164392638e-06   -1.8765321180063896e-07   1.5485338248490393e-05
-3.746717164392638e-06   -1.8765321180063896e-07   1.5485338248490393e-05
-3.746717164392638e-06   -1.8765321180063896e-07   1.5485338248490393e-05
-3.746717164392638e-06   -1.8765321180063896e-07   1.5485338248490393e-05
1.5619891511115548e-06   2.2348984910099384e-07   6.390808552775912e-06
1.5619891511115548e-06   2.2348984910099384e-07   6.390808552775912e-06
1.5619891511115548e-06   2.2348984910099384e-07   6.390808552775912e-06
1.5619891511115548e-06   2.2348984910099384e-07   6.390808552775912e-06
-9.771439824573987e-07   2.0819938592001475e-07   1.0631871386632922e-05
-9.771439824573987e-07   2.0819938592001475e-07   1.0631871386632922e-05
-9.771439824573987e-07   2.0819938592001475e-07   1.0631871386632922e-05
-9.771439824573987e-07   2.0819938592001475e-07   1.0631871386632922e-05
1.5619891511115616e-06   -1.8765321180053054e-07   1.5238652411949543e-05
1.5619891511115616e-06   -1.8765321180053054e-07   1.5238652411949543e-05
1.5619891511115616e-06   -1.8765321180053054e-07   1.5238652411949543e-05
1.5619891511115616e-06   -1.8765321180053054e-07   1.5238652411949543e-05
-3.7467171643926515e-06   2.2348984910099384e-07   6.637494389316904e-06
-3.7467171643926515e-06   2.2348984910099384e-07   6.637494389316904e-06
-3.7467171643926515e-06   2.2348984910099384e-07   6.637494389316904e-06
-3.7467171643926515e-06   2.2348984910099384e-07   6.637494389316904e-06
-3.993149331642687e-06   -4.734194981578571e-07   1.5682855004965092e-05
-3.993149331642687e-06   -4.734194981578571e-07   1.5682855004965092e-05
-3.993149331642687e-06   -4.734194981578571e-07   1.5682855004965092e-05
-3.993149331642687e-06   -4.734194981578571e-07   1.5682855004965092e-05
1.2824570026290182e-06   -8.445668580410372e-08   6.656800093766646e-06
1.2824570026290182e-06   -8.445668580410372e-08   6.656800093766646e-06
1.2824570026290182e-06   -8.445668580410372e-08   6.656800093766646e-06
1.2824570026290182e-06   -8.445668580410372e-08   6.656800093766646e-06
-1.1961858251824172e-06   -1.4240486030181812e-08   1.0745741753588286e-05
-1.1961858251824172e-06   -1.4240486030181812e-08   1.0745741753588286e-05
-1.1961858251824172e-06   -1.4240486030181812e-08   1.0745741753588286e-05
-1.1961858251824172e-06   -1.4240486030181812e-08   1.0745741753588286e-05
-3.2540065274206325e-06   1.7633961623488058e-06   1.7225446498484722e-05
-3.2540065274206325e-06   1.7633961623488058e-06   1.7225446498484722e-05
-3.2540065274206325e-06   1.7633961623488058e-06   1.7225446498484722e-05
-3.2540065274206325e-06   1.7633961623488058e-06   1.7225446498484722e-05
-8.572033067477628e-06   1.665814616474623e-06   8.303520004198587e-06
-8.572033067477628e-06   1.665814616474623e-06   8.303520004198587e-06
-8.572033067477628e-06   1.665814616474623e-06   8.303520004198587e-06
-8.572033067477628e-06   1.665814616474623e-06   8.303520004198587e-06
-8.805270213509792e-06   1.4398634592103794e-06   1.7072911035557353e-05
-8.805270213509792e-06   1.4398634592103794e-06   1.7072911035557353e-05
-8.805270213509792e-06   1.4398634592103794e-06   1.7072911035557353e-05
-8.805270213509792e-06   1.4398634592103794e-06   1.7072911035557353e-05
-3.4967379513723676e-06   1.336499538430588e-06   8.287375617796344e-06
-3.4967379513723676e-06   1.336499538430588e-06   8.287375617796344e-06
-3.4967379513723676e-06   1.336499538430588e-06   8.287375617796344e-06
-3.4967379513723676e-06   1.336499538430588e-06   8.287375617796344e-06
-6.043600932712455e-06   1.5133018201387302e-06   1.2426065884338735e-05
-6.043600932712455e-06   1.5133018201387302e-06   1.2426065884338735e-05
-6.043600932712455e-06   1.5133018201387302e-06   1.2426065884338735e-05
-6.043600932712455e-06   1.5133018201387302e-06   1.2426065884338735e-05
-3.496737951372381e-06   1.4398634592103794e-06   1.7134929388025228e-05
-3.496737951372381e-06   1.4398634592103794e-06   1.7134929388025228e-05
-3.496737951372381e-06   1.4398634592103794e-06   1.7134929388025228e-05
-3.496737951372381e-06   1.4398634592103794e-06   1.7134929388025228e-05
-8.805270213509779e-06   1.336499538430588e-06   8.225357265328483e-06
-8.805270213509779e-06   1.336499538430588e-06   8.225357265328483e-06
-8.805270213509779e-06   1.336499538430588e-06   8.225357265328483e-06
-8.805270213509779e-06   1.336499538430588e-06   8.225357265328483e-06
-9.046023646966432e-06   1.1200790774140669e-06   1.718290538290203e-05
-9.046023646966432e-06   1.1200790774140669e-06   1.718290538290203e-05
-9.046023646966432e-06   1.1200790774140669e-06   1.718290538290203e-05
-9.046023646966432e-06   1.1200790774140669e-06   1.718290538290203e-05
-3.746717164392638e-06   1.008903839766419e-06   8.417433054534287e-06
-3.746717164392638e-06   1.008903839766419e-06   8.417433054534287e-06
-3.746717164392638e-06   1.008903839766419e-06   8.417433054534287e-06
-3.746717164392638e-06   1.008903839766419e-06   8.417433054534287e-06
-6.2509987241944466e-06   1.2633343891123652e-06   1.2438577324596365e-05
-6.2509987241944466e-06   1.2633343891123652e-06   1.2438577324596365e-05
-6.2509987241944466e-06   1.2633343891123652e-06   1.2438577324596365e-05
-6.2509987241944466e-06   1.2633343891123652e-06   1.2438577324596365e-05
-3.7467171643926515e-06   1.1200790774140669e-06   1.724961052549062e-05
-3.7467171643926515e-06   1.1200790774140669e-06   1.724961052549062e-05
-3.7467171643926515e-06   1.1200790774140669e-06   1.724961052549062e-05
-3.7467171643926515e-06   1.1200790774140669e-06   1.724961052549062e-05
-9.046023646966405e-06   1.0089038397663105e-06   8.350727911945685e-06
-9.046023646966405e-06   1.0089038397663105e-06   8.350727911945685e-06
-9.046023646966405e-06   1.0089038397663105e-06   8.350727911945685e-06
-9.046023646966405e-06   1.0089038397663105e-06   8.350727911945685e-06
-9.282927694518071e-06   8.123814525611527e-07   1.7455929853155616e-05
-9.282927694518071e-06   8.123814525611527e-07   1.7455929853155616e-05
-9.282927694518071e-06   8.123814525611527e-07   1.7455929853155616e-05
-9.282927694518071e-06   8.123814525611527e-07   1.7455929853155616e-05
-3.993149331642674e-06   6.955149069543063e-07   8.709752509060707e-06
-3.993149331642674e-06   6.955149069543063e-07   8.709752509060707e-06
-3.993149331642674e-06   6.955149069543063e-07   8.709752509060707e-06
-3.993149331642674e-06   6.955149069543063e-07   8.709752509060707e-06
-6.471751414805879e-06   1.0185213306824906e-06   1.2646952126762768e-05
-6.471751414805879e-06   1.0185213306824906e-06   1.2646952126762768e-05
-6.471751414805879e-06   1.0185213306824906e-06   1.2646952126762768e-05
-6.471751414805879e-06   1.0185213306824906e-06   1.2646952126762768e-05
-8.572033067477628e-06   3.0312975494789984e-06   1.5184337084474275e-05
-8.572033067477628e-06   3.0312975494789984e-06   1.5184337084474275e-05
-8.572033067477628e-06   3.0312975494789984e-06   1.5184337084474275e-05
-8.572033067477628e-06   3.0312975494789984e-06   1.5184337084474275e-05
-1.3799383111815785e-05   2.482180135077801e-06   6.142616561936485e-06
-1.3799383111815785e-05   2.482180135077801e-06   6.142616561936485e-06
-1.3799383111815785e-05   2.482180135077801e-06   6.142616561936485e-06
-1.3799383111815785e-05   2.482180135077801e-06   6.142616561936485e-06
-1.4053978682323153e-05   2.7160555682310527e-06   1.4906803872549008e-05
-1.4053978682323153e-05   2.7160555682310527e-06   1.4906803872549008e-05
-1.4053978682323153e-05   2.7160555682310527e-06   1.4906803872549008e-05
-1.4053978682323153e-05   2.7160555682310527e-06   1.4906803872549008e-05
-8.805270213509765e-06   2.1505821133406284e-06   6.498240497461211e-06
-8.805270213509765e-06   2.1505821133406284e-06   6.498240497461211e-06
-8.805270213509765e-06   2.1505821133406284e-06   6.498240497461211e-06
-8.805270213509765e-06   2.1505821133406284e-06   6.498240497461211e-06
-1.1280247218224008e-05   2.5514026137060967e-06   1.0382709871766346e-05
-1.1280247218224008e-05   2.5514026137060967e-06   1.0382709871766346e-05
-1.1280247218224008e-05   2.5514026137060967e-06   1.0382709871766346e-05
-1.1280247218224008e-05   2.5514026137060967e-06   1.0382709871766346e-05
-8.805270213509792e-06   2.7160555682310527e-06   1.524608794548337e-05
-8.805270213509792e-06   2.7160555682310527e-06   1.524608794548337e-05
-8.805270213509792e-06   2.7160555682310527e-06   1.524608794548337e-05
-8.805270213509792e-06   2.7160555682310527e-06   1.524608794548337e-05
-1.4053978682323099e-05   2.1505821133406284e-06   6.1589564245270105e-06
-1.4053978682323099e-05   2.1505821133406284e-06   6.1589564245270105e-06
-1.4053978682323099e-05   2.1505821133406284e-06   6.1589564245270105e-06
-1.4053978682323099e-05   2.1505821133406284e-06   6.1589564245270105e-06
-1.4355046217234894e-05   2.4235010106661006e-06   1.5396699590853333e-05
-1.4355046217234894e-05   2.4235010106661006e-06   1.5396699590853333e-05
-1.4355046217234894e-05   2.4235010106661006e-06   1.5396699590853333e-05
-1.4355046217234894e-05   2.4235010106661006e-06   1.5396699590853333e-05
-9.046023646966392e-06   1.848383427606546e-06   6.893399190241684e-06
-9.046023646966392e-06   1.848383427606546e-06   6.893399190241684e-06
-9.046023646966392e-06   1.848383427606546e-06   6.893399190241684e-06
-9.046023646966392e-06   1.848383427606546e-06   6.893399190241684e-06
-1.1444069786039016e-05   2.3172645791089998e-06   1.0608814064461217e-05
-1.1444069786039016e-05   2.3172645791089998e-06   1.0608814064461217e-05
-1.1444069786039016e-05   2.3172645791089998e-06   1.0608814064461217e-05
-1.1444069786039016e-05   2.3172645791089998e-06   1.0608814064461217e-05
-9.046023646966419e-06   2.4235010106661006e-06   1.5741770140688957e-05
-9.046023646966419e-06   2.4235010106661006e-06   1.5741770140688957e-05
-9.046023646966419e-06   2.4235010106661006e-06   1.5741770140688957e-05
-9.046023646966419e-06   2.4235010106661006e-06   1.5741770140688957e-05
-1.4355046217234813e-05   1.848383427606546e-06   6.548328640405978e-06
-1.4355046217234813e-05   1.848383427606546e-06   6.548328640405978e-06
-1.4355046217234813e-05   1.848383427606546e-06   6.548328640405978e-06
-1.4355046217234813e-05   1.848383427606546e-06   6.548328640405978e-06
-1.4612837571465799e-05   2.0956126827928728e-06   1.5866963582315515e-05
-1.4612837571465799e-05   2.0956126827928728e-06   1.5866963582315515e-05
-1.4612837571465799e-05   2.0956126827928728e-06   1.5866963582315515e-05
-1.4612837571465799e-05   2.0956126827928728e-06   1.5866963582315515e-05
-9.282927694518044e-06   1.5246738058608596e-06   7.326343780228586e-06
-9.282927694518044e-06   1.5246738058608596e-06   7.326343780228586e-06
-9.282927694518044e-06   1.5246738058608596e-06   7.326343780228586e-06
-9.282927694518044e-06   1.5246738058608596e-06   7.326343780228586e-06
-1.1727939905306944e-05   2.0819660927822933e-06   1.1066988759391127e-05
-1.1727939905306944e-05   2.0819660927822933e-06   1.1066988759391127e-05
-1.1727939905306944e-05   2.0819660927822933e-06   1.1066988759391127e-05
-1.1727939905306944e-05   2.0819660927822933e-06   1.1066988759391127e-05
-1.3799383111815812e-05   3.988731376708887e-06   7.112117224589284e-06
-1.3799383111815812e-05   3.988731376708887e-06   7.112117224589284e-06
-1.3799383111815812e-05   3.988731376708887e-06   7.112117224589284e-06
-1.3799383111815812e-05   3.988731376708887e-06   7.112117224589284e-06
-1.853666676195461e-05   3.065661066657373e-06   -1.3371977116728435e-06
-1.853666676195461e-05   3.065661066657373e-06   -1.3371977116728435e-06
-1.853666676195461e-05   3.065661066657373e-06   -1.3371977116728435e-06
-1.853666676195461e-05   3.065661066657373e-06   -1.3371977116728435e-06
-1.919034246357479e-05   3.889789751978308e-06   8.783990458654492e-06
-1.919034246357479e-05   3.889789751978308e-06   8.783990458654492e-06
-1.919034246357479e-05   3.889789751978308e-06   8.783990458654492e-06
-1.919034246357479e-05   3.889789751978308e-06   8.783990458654492e-06
-1.4053978682323072e-05   2.8968617512577623e-06   8.191409570007307e-07
-1.4053978682323072e-05   2.8968617512577623e-06   8.191409570007307e-07
-1.4053978682323072e-05   2.8968617512577623e-06   8.191409570007307e-07
-1.4053978682323072e-05   2.8968617512577623e-06   8.191409570007307e-07
-1.579739629168439e-05   3.395081326034886e-06   3.425905227737321e-06
-1.579739629168439e-05   3.395081326034886e-06   3.425905227737321e-06
-1.579739629168439e-05   3.395081326034886e-06   3.425905227737321e-06
-1.579739629168439e-05   3.395081326034886e-06   3.425905227737321e-06
-1.4053978682323099e-05   3.8897897519784164e-06   9.379747259086755e-06
-1.4053978682323099e-05   3.8897897519784164e-06   9.379747259086755e-06
-1.4053978682323099e-05   3.8897897519784164e-06   9.379747259086755e-06
-1.4053978682323099e-05   3.8897897519784164e-06   9.379747259086755e-06
-1.9190342463574843e-05   2.8968617512577623e-06   2.2338415656838703e-07
-1.9190342463574843e-05   2.8968617512577623e-06   2.2338415656838703e-07
-1.9190342463574843e-05   2.8968617512577623e-06   2.2338415656838703e-07
-1.9190342463574843e-05   2.8968617512577623e-06   2.2338415656838703e-07
-1.975212612819236e-05   3.765574496994656e-06   1.0395353276038697e-05
-1.975212612819236e-05   3.765574496994656e-06   1.0395353276038697e-05
-1.975212612819236e-05   3.765574496994656e-06   1.0395353276038697e-05
-1.975212612819236e-05   3.765574496994656e-06   1.0395353276038697e-05
-1.4355046217234813e-05   2.754357403756541e-06   2.00695034705239e-06
-1.4355046217234813e-05   2.754357403756541e-06   2.00695034705239e-06
-1.4355046217234813e-05   2.754357403756541e-06   2.00695034705239e-06
-1.4355046217234813e-05   2.754357403756541e-06   2.00695034705239e-06
-1.6427231809547222e-05   3.3522965949729514e-06   5.101829486176771e-06
-1.6427231809547222e-05   3.3522965949729514e-06   5.101829486176771e-06
-1.6427231809547222e-05   3.3522965949729514e-06   5.101829486176771e-06
-1.6427231809547222e-05   3.3522965949729514e-06   5.101829486176771e-06
-1.4355046217234867e-05   3.7655744969947646e-06   1.1002083531981544e-05
-1.4355046217234867e-05   3.7655744969947646e-06   1.1002083531981544e-05
-1.4355046217234867e-05   3.7655744969947646e-06   1.1002083531981544e-05
-1.4355046217234867e-05   3.7655744969947646e-06   1.1002083531981544e-05
-1.9752126128192414e-05   2.754357403756541e-06   1.4002200911095966e-06
-1.9752126128192414e-05   2.754357403756541e-06   1.4002200911095966e-06
-1.9752126128192414e-05   2.754357403756541e-06   1.4002200911095966e-06
-1.9752126128192414e-05   2.754357403756541e-06   1.4002200911095966e-06
-2.042335637030587e-05   3.346184660362405e-06   1.3243715187412895e-05
-2.042335637030587e-05   3.346184660362405e-06   1.3243715187412895e-05
-2.042335637030587e-05   3.346184660362405e-06   1.3243715187412895e-05
-2.042335637030587e-05   3.346184660362405e-06   1.3243715187412895e-05
-1.4612837571465772e-05   2.3643688043708654e-06   4.148606702941129e-06
-1.4612837571465772e-05   2.3643688043708654e-06   4.148606702941129e-06
-1.4612837571465772e-05   2.3643688043708654e-06   4.148606702941129e-06
-1.4612837571465772e-05   2.3643688043708654e-06   4.148606702941129e-06
-1.657957343659204e-05   3.1749396882652364e-06   6.940157281148593e-06
-1.657957343659204e-05   3.1749396882652364e-06   6.940157281148593e-06
-1.657957343659204e-05   3.1749396882652364e-06   6.940157281148593e-06
-1.657957343659204e-05   3.1749396882652364e-06   6.940157281148593e-06
1.7713464295601218e-06   -1.091152073318287e-09   8.526719342189513e-06
1.7713464295601218e-06   -1.091152073318287e-09   8.526719342189513e-06
1.7713464295601218e-06   -1.091152073318287e-09   8.526719342189513e-06
1.7713464295601218e-06   -1.091152073318287e-09   8.526719342189513e-06
-1.6771270699260834e-06   8.957942232902137e-07   3.317394734930637e-06
-1.6771270699260834e-06   8.957942232902137e-07   3.317394734930637e-06
-1.6771270699260834e-06   8.957942232902137e-07   3.317394734930637e-06
-1.6771270699260834e-06   8.957942232902137e-07   3.317394734930637e-06
-1.8747451297778657e-06   -3.1959373680292245e-07   8.391607949704584e-06
-1.8747451297778657e-06   -3.1959373680292245e-07   8.391607949704584e-06
-1.8747451297778657e-06   -3.1959373680292245e-07   8.391607949704584e-06
-1.8747451297778657e-06   -3.1959373680292245e-07   8.391607949704584e-06
1.1717496274343041e-06   5.985192303096642e-07   2.7632489074167865e-06
1.1717496274343041e-06   5.985192303096642e-07   2.7632489074167865e-06
1.1717496274343041e-06   5.985192303096642e-07   2.7632489074167865e-06
1.1717496274343041e-06   5.985192303096642e-07   2.7632489074167865e-06
-2.3706589361077817e-07   2.4197179377424913e-07   5.325203237746518e-06
-2.3706589361077817e-07   2.4197179377424913e-07   5.325203237746518e-06
-2.3706589361077817e-07   2.4197179377424913e-07   5.325203237746518e-06
-2.3706589361077817e-07   2.4197179377424913e-07   5.325203237746518e-06
1.1717496274343041e-06   -3.1959373680292245e-07   7.840740169437032e-06
1.1717496274343041e-06   -3.1959373680292245e-07   7.840740169437032e-06
1.1717496274343041e-06   -3.1959373680292245e-07   7.840740169437032e-06
1.1717496274343041e-06   -3.1959373680292245e-07   7.840740169437032e-06
-1.8747451297778657e-06   5.985192303096642e-07   3.31411668768423e-06
-1.8747451297778657e-06   5.985192303096642e-07   3.31411668768423e-06
-1.8747451297778657e-06   5.985192303096642e-07   3.31411668768423e-06
-1.8747451297778657e-06   5.985192303096642e-07   3.31411668768423e-06
-2.1192413272489892e-06   -4.558025137870944e-07   8.160319893033398e-06
-2.1192413272489892e-06   -4.558025137870944e-07   8.160319893033398e-06
-2.1192413272489892e-06   -4.558025137870944e-07   8.160319893033398e-06
-2.1192413272489892e-06   -4.558025137870944e-07   8.160319893033398e-06
6.504732142534293e-07   4.364611794789716e-07   3.008770774569667e-06
6.504732142534293e-07   4.364611794789716e-07   3.008770774569667e-06
6.504732142534293e-07   4.364611794789716e-07   3.008770774569667e-06
6.504732142534293e-07   4.364611794789716e-07   3.008770774569667e-06
-5.589953149937719e-07   1.1542238071988575e-07   5.217174935903858e-06
-5.589953149937719e-07   1.1542238071988575e-07   5.217174935903858e-06
-5.589953149937719e-07   1.1542238071988575e-07   5.217174935903858e-06
-5.589953149937719e-07   1.1542238071988575e-07   5.217174935903858e-06
6.504732142534361e-07   -4.5580251378720283e-07   7.624961677073715e-06
6.504732142534361e-07   -4.5580251378720283e-07   7.624961677073715e-06
6.504732142534361e-07   -4.5580251378720283e-07   7.624961677073715e-06
6.504732142534361e-07   -4.5580251378720283e-07   7.624961677073715e-06
-2.119241327248986e-06   4.364611794789716e-07   3.5441289905293227e-06
-2.119241327248986e-06   4.364611794789716e-07   3.5441289905293227e-06
-2.119241327248986e-06   4.364611794789716e-07   3.5441289905293227e-06
-2.119241327248986e-06   4.364611794789716e-07   3.5441289905293227e-06
-2.3242154327258325e-06   -6.805756454878473e-07   8.060762393078194e-06
-2.3242154327258325e-06   -6.805756454878473e-07   8.060762393078194e-06
-2.3242154327258325e-06   -6.805756454878473e-07   8.060762393078194e-06
-2.3242154327258325e-06   -6.805756454878473e-07   8.060762393078194e-06
-4.274752383362881e-09   9.427344507080201e-08   3.7292851381722875e-06
-4.274752383362881e-09   9.427344507080201e-08   3.7292851381722875e-06
-4.274752383362881e-09   9.427344507080201e-08   3.7292851381722875e-06
-4.274752383362881e-09   9.427344507080201e-08   3.7292851381722875e-06
-9.113048057756031e-07   1.738451864668339e-09   5.296522889749713e-06
-9.113048057756031e-07   1.738451864668339e-09   5.296522889749713e-06
-9.113048057756031e-07   1.738451864668339e-09   5.296522889749713e-06
-9.113048057756031e-07   1.738451864668339e-09   5.296522889749713e-06
-1.6771270699260834e-06   8.845740211884789e-07   1.3589201989291932e-05
-1.6771270699260834e-06   8.845740211884789e-07   1.3589201989291932e-05
-1.6771270699260834e-06   8.845740211884789e-07   1.3589201989291932e-05
-1.6771270699260834e-06   8.845740211884789e-07   1.3589201989291932e-05
-4.5604143619678845e-06   1.0645422399467933e-06   8.891704100477162e-06
-4.5604143619678845e-06   1.0645422399467933e-06   8.891704100477162e-06
-4.5604143619678845e-06   1.0645422399467933e-06   8.891704100477162e-06
-4.5604143619678845e-06   1.0645422399467933e-06   8.891704100477162e-06
-4.71023535854842e-06   5.261505043924111e-07   1.3549274195105926e-05
-4.71023535854842e-06   5.261505043924111e-07   1.3549274195105926e-05
-4.71023535854842e-06   5.261505043924111e-07   1.3549274195105926e-05
-4.71023535854842e-06   5.261505043924111e-07   1.3549274195105926e-05
-1.8747451297778657e-06   7.334153819249772e-07   8.699098220635471e-06
-1.8747451297778657e-06   7.334153819249772e-07   8.699098220635471e-06
-1.8747451297778657e-06   7.334153819249772e-07   8.699098220635471e-06
-1.8747451297778657e-06   7.334153819249772e-07   8.699098220635471e-06
-3.2263609886398848e-06   7.628662520872773e-07   1.0934120796641503e-05
-3.2263609886398848e-06   7.628662520872773e-07   1.0934120796641503e-05
-3.2263609886398848e-06   7.628662520872773e-07   1.0934120796641503e-05
-3.2263609886398848e-06   7.628662520872773e-07   1.0934120796641503e-05
-1.8747451297778657e-06   5.261505043924111e-07   1.3424915268586343e-05
-1.8747451297778657e-06   5.261505043924111e-07   1.3424915268586343e-05
-1.8747451297778657e-06   5.261505043924111e-07   1.3424915268586343e-05
-1.8747451297778657e-06   5.261505043924111e-07   1.3424915268586343e-05
-4.71023535854842e-06   7.334153819249772e-07   8.823457147155017e-06
-4.71023535854842e-06   7.334153819249772e-07   8.823457147155017e-06
-4.71023535854842e-06   7.334153819249772e-07   8.823457147155017e-06
-4.71023535854842e-06   7.334153819249772e-07   8.823457147155017e-06
-4.864880012962755e-06   2.2348984910099384e-07   1.3568635714188582e-05
-4.864880012962755e-06   2.2348984910099384e-07   1.3568635714188582e-05
-4.864880012962755e-06   2.2348984910099384e-07   1.3568635714188582e-05
-4.864880012962755e-06   2.2348984910099384e-07   1.3568635714188582e-05
-2.119241327248986e-06   4.291713375598411e-07   8.86916234492368e-06
-2.119241327248986e-06   4.291713375598411e-07   8.86916234492368e-06
-2.119241327248986e-06   4.291713375598411e-07   8.86916234492368e-06
-2.119241327248986e-06   4.291713375598411e-07   8.86916234492368e-06
-3.3795821536972976e-06   5.217249434347811e-07   1.0914198225479458e-05
-3.3795821536972976e-06   5.217249434347811e-07   1.0914198225479458e-05
-3.3795821536972976e-06   5.217249434347811e-07   1.0914198225479458e-05
-3.3795821536972976e-06   5.217249434347811e-07   1.0914198225479458e-05
-2.1192413272489892e-06   2.2348984910099384e-07   1.344522682111322e-05
-2.1192413272489892e-06   2.2348984910099384e-07   1.344522682111322e-05
-2.1192413272489892e-06   2.2348984910099384e-07   1.344522682111322e-05
-2.1192413272489892e-06   2.2348984910099384e-07   1.344522682111322e-05
-4.864880012962755e-06   4.291713375598411e-07   8.992571237998945e-06
-4.864880012962755e-06   4.291713375598411e-07   8.992571237998945e-06
-4.864880012962755e-06   4.291713375598411e-07   8.992571237998945e-06
-4.864880012962755e-06   4.291713375598411e-07   8.992571237998945e-06
-5.016875473917395e-06   -8.445668580410372e-08   1.382490770831553e-05
-5.016875473917395e-06   -8.445668580410372e-08   1.382490770831553e-05
-5.016875473917395e-06   -8.445668580410372e-08   1.382490770831553e-05
-5.016875473917395e-06   -8.445668580410372e-08   1.382490770831553e-05
-2.3242154327258308e-06   1.0106311368720047e-07   9.225829093301508e-06
-2.3242154327258308e-06   1.0106311368720047e-07   9.225829093301508e-06
-2.3242154327258308e-06   1.0106311368720047e-07   9.225829093301508e-06
-2.3242154327258308e-06   1.0106311368720047e-07   9.225829093301508e-06
-3.532114144883813e-06   2.8607216626325756e-07   1.1127988182019221e-05
-3.532114144883813e-06   2.8607216626325756e-07   1.1127988182019221e-05
-3.532114144883813e-06   2.8607216626325756e-07   1.1127988182019221e-05
-3.532114144883813e-06   2.8607216626325756e-07   1.1127988182019221e-05
-4.5604143619678845e-06   1.665814616474623e-06   1.52830252584345e-05
-4.5604143619678845e-06   1.665814616474623e-06   1.52830252584345e-05
-4.5604143619678845e-06   1.665814616474623e-06   1.52830252584345e-05
-4.5604143619678845e-06   1.665814616474623e-06   1.52830252584345e-05
-7.42590619602385e-06   1.2859623759235933e-06   1.0279294190677245e-05
-7.42590619602385e-06   1.2859623759235933e-06   1.0279294190677245e-05
-7.42590619602385e-06   1.2859623759235933e-06   1.0279294190677245e-05
-7.42590619602385e-06   1.2859623759235933e-06   1.0279294190677245e-05
-7.553225850073818e-06   1.336499538430588e-06   1.4999569855876378e-05
-7.553225850073818e-06   1.336499538430588e-06   1.4999569855876378e-05
-7.553225850073818e-06   1.336499538430588e-06   1.4999569855876378e-05
-7.553225850073818e-06   1.336499538430588e-06   1.4999569855876378e-05
-4.71023535854842e-06   9.80230903706563e-07   1.0475013550835174e-05
-4.71023535854842e-06   9.80230903706563e-07   1.0475013550835174e-05
-4.71023535854842e-06   9.80230903706563e-07   1.0475013550835174e-05
-4.71023535854842e-06   9.80230903706563e-07   1.0475013550835174e-05
-6.066035529308302e-06   1.2905426400082682e-06   1.2548493460320622e-05
-6.066035529308302e-06   1.2905426400082682e-06   1.2548493460320622e-05
-6.066035529308302e-06   1.2905426400082682e-06   1.2548493460320622e-05
-6.066035529308302e-06   1.2905426400082682e-06   1.2548493460320622e-05
-4.71023535854842e-06   1.336499538430588e-06   1.5213331036710825e-05
-4.71023535854842e-06   1.336499538430588e-06   1.5213331036710825e-05
-4.71023535854842e-06   1.336499538430588e-06   1.5213331036710825e-05
-4.71023535854842e-06   1.336499538430588e-06   1.5213331036710825e-05
-7.553225850073818e-06   9.80230903706563e-07   1.0261252370000727e-05
-7.553225850073818e-06   9.80230903706563e-07   1.0261252370000727e-05
-7.553225850073818e-06   9.80230903706563e-07   1.0261252370000727e-05
-7.553225850073818e-06   9.80230903706563e-07   1.0261252370000727e-05
-7.689456192048344e-06   1.0089038397663105e-06   1.5145003271258201e-05
-7.689456192048344e-06   1.0089038397663105e-06   1.5145003271258201e-05
-7.689456192048344e-06   1.0089038397663105e-06   1.5145003271258201e-05
-7.689456192048344e-06   1.0089038397663105e-06   1.5145003271258201e-05
-4.864880012962755e-06   6.696186595197889e-07   1.0640947414263435e-05
-4.864880012962755e-06   6.696186595197889e-07   1.0640947414263435e-05
-4.864880012962755e-06   6.696186595197889e-07   1.0640947414263435e-05
-4.864880012962755e-06   6.696186595197889e-07   1.0640947414263435e-05
-6.17485081054162e-06   1.046331426896984e-06   1.2598204416468619e-05
-6.17485081054162e-06   1.046331426896984e-06   1.2598204416468619e-05
-6.17485081054162e-06   1.046331426896984e-06   1.2598204416468619e-05
-6.17485081054162e-06   1.046331426896984e-06   1.2598204416468619e-05
-4.864880012962755e-06   1.008903839766419e-06   1.5348574379406006e-05
-4.864880012962755e-06   1.008903839766419e-06   1.5348574379406006e-05
-4.864880012962755e-06   1.008903839766419e-06   1.5348574379406006e-05
-4.864880012962755e-06   1.008903839766419e-06   1.5348574379406006e-05
-7.689456192048317e-06   6.696186595197889e-07   1.0437376306115495e-05
-7.689456192048317e-06   6.696186595197889e-07   1.0437376306115495e-05
-7.689456192048317e-06   6.696186595197889e-07   1.0437376306115495e-05
-7.689456192048317e-06   6.696186595197889e-07   1.0437376306115495e-05
-7.822886122009991e-06   6.955149069543063e-07   1.54526046313979e-05
-7.822886122009991e-06   6.955149069543063e-07   1.54526046313979e-05
-7.822886122009991e-06   6.955149069543063e-07   1.54526046313979e-05
-7.822886122009991e-06   6.955149069543063e-07   1.54526046313979e-05
-5.016875473917408e-06   3.757185656219847e-07   1.0967798022709809e-05
-5.016875473917408e-06   3.757185656219847e-07   1.0967798022709809e-05
-5.016875473917408e-06   3.757185656219847e-07   1.0967798022709809e-05
-5.016875473917408e-06   3.757185656219847e-07   1.0967798022709809e-05
-6.296047992987706e-06   8.060260430794823e-07   1.2841567734685769e-05
-6.296047992987706e-06   8.060260430794823e-07   1.2841567734685769e-05
-6.296047992987706e-06   8.060260430794823e-07   1.2841567734685769e-05
-6.296047992987706e-06   8.060260430794823e-07   1.2841567734685769e-05
-7.42590619602385e-06   2.4821801350776926e-06   1.3223680920482466e-05
-7.42590619602385e-06   2.4821801350776926e-06   1.3223680920482466e-05
-7.42590619602385e-06   2.4821801350776926e-06   1.3223680920482466e-05
-7.42590619602385e-06   2.4821801350776926e-06   1.3223680920482466e-05
-1.0247966374136053e-05   1.7445690827288867e-06   8.077680658886104e-06
-1.0247966374136053e-05   1.7445690827288867e-06   8.077680658886104e-06
-1.0247966374136053e-05   1.7445690827288867e-06   8.077680658886104e-06
-1.0247966374136053e-05   1.7445690827288867e-06   8.077680658886104e-06
-1.0388039677638084e-05   2.150582113340737e-06   1.2835934082176077e-05
-1.0388039677638084e-05   2.150582113340737e-06   1.2835934082176077e-05
-1.0388039677638084e-05   2.150582113340737e-06   1.2835934082176077e-05
-1.0388039677638084e-05   2.150582113340737e-06   1.2835934082176077e-05
-7.553225850073818e-06   1.423050436951995e-06   8.547763375402114e-06
-7.553225850073818e-06   1.423050436951995e-06   8.547763375402114e-06
-7.553225850073818e-06   1.423050436951995e-06   8.547763375402114e-06
-7.553225850073818e-06   1.423050436951995e-06   8.547763375402114e-06
-8.88489349239218e-06   1.9319269688460212e-06   1.0461883526796233e-05
-8.88489349239218e-06   1.9319269688460212e-06   1.0461883526796233e-05
-8.88489349239218e-06   1.9319269688460212e-06   1.0461883526796233e-05
-8.88489349239218e-06   1.9319269688460212e-06   1.0461883526796233e-05
-7.553225850073818e-06   2.1505821133406284e-06   1.327245308800916e-05
-7.553225850073818e-06   2.1505821133406284e-06   1.327245308800916e-05
-7.553225850073818e-06   2.1505821133406284e-06   1.327245308800916e-05
-7.553225850073818e-06   2.1505821133406284e-06   1.327245308800916e-05
-1.0388039677638057e-05   1.423050436951995e-06   8.111244369568842e-06
-1.0388039677638057e-05   1.423050436951995e-06   8.111244369568842e-06
-1.0388039677638057e-05   1.423050436951995e-06   8.111244369568842e-06
-1.0388039677638057e-05   1.423050436951995e-06   8.111244369568842e-06
-1.0580545869978773e-05   1.8483834276066544e-06   1.3260519845963441e-05
-1.0580545869978773e-05   1.8483834276066544e-06   1.3260519845963441e-05
-1.0580545869978773e-05   1.8483834276066544e-06   1.3260519845963441e-05
-1.0580545869978773e-05   1.8483834276066544e-06   1.3260519845963441e-05
-7.689456192048344e-06   1.136458921621947e-06   8.869191753003449e-06
-7.689456192048344e-06   1.136458921621947e-06   8.869191753003449e-06
-7.689456192048344e-06   1.136458921621947e-06   8.869191753003449e-06
-7.689456192048344e-06   1.136458921621947e-06   8.869191753003449e-06
-8.960954481420573e-06   1.695284572641835e-06   1.0653060178011941e-05
-8.960954481420573e-06   1.695284572641835e-06   1.0653060178011941e-05
-8.960954481420573e-06   1.695284572641835e-06   1.0653060178011941e-05
-8.960954481420573e-06   1.695284572641835e-06   1.0653060178011941e-05
-7.689456192048317e-06   1.848383427606546e-06   1.368767454955393e-05
-7.689456192048317e-06   1.848383427606546e-06   1.368767454955393e-05
-7.689456192048317e-06   1.848383427606546e-06   1.368767454955393e-05
-7.689456192048317e-06   1.848383427606546e-06   1.368767454955393e-05
-1.0580545869978746e-05   1.136458921621947e-06   8.44203704941269e-06
-1.0580545869978746e-05   1.136458921621947e-06   8.44203704941269e-06
-1.0580545869978746e-05   1.136458921621947e-06   8.44203704941269e-06
-1.0580545869978746e-05   1.136458921621947e-06   8.44203704941269e-06
-1.0734624170285779e-05   1.5246738058608596e-06   1.373085808947501e-05
-1.0734624170285779e-05   1.5246738058608596e-06   1.373085808947501e-05
-1.0734624170285779e-05   1.5246738058608596e-06   1.373085808947501e-05
-1.0734624170285779e-05   1.5246738058608596e-06   1.373085808947501e-05
-7.822886122009991e-06   8.439109051026948e-07   9.286419082803595e-06
-7.822886122009991e-06   8.439109051026948e-07   9.286419082803595e-06
-7.822886122009991e-06   8.439109051026948e-07   9.286419082803595e-06
-7.822886122009991e-06   8.439109051026948e-07   9.286419082803595e-06
-9.120993130597529e-06   1.469606426197272e-06   1.1074513451126474e-05
-9.120993130597529e-06   1.469606426197272e-06   1.1074513451126474e-05
-9.120993130597529e-06   1.469606426197272e-06   1.1074513451126474e-05
-9.120993130597529e-06   1.469606426197272e-06   1.1074513451126474e-05
-1.0247966374136053e-05   3.0656610666572647e-06   5.855142201494589e-06
-1.0247966374136053e-05   3.0656610666572647e-06   5.855142201494589e-06
-1.0247966374136053e-05   3.0656610666572647e-06   5.855142201494589e-06
-1.0247966374136053e-05   3.0656610666572647e-06   5.855142201494589e-06
-1.2491078569970489e-05   2.0716976839552873e-06   1.520243845482757e-06
-1.2491078569970489e-05   2.0716976839552873e-06   1.520243845482757e-06
-1.2491078569970489e-05   2.0716976839552873e-06   1.520243845482757e-06
-1.2491078569970489e-05   2.0716976839552873e-06   1.520243845482757e-06
-1.3019043167499975e-05   2.8968617512577623e-06   6.8727468556114245e-06
-1.3019043167499975e-05   2.8968617512577623e-06   6.8727468556114245e-06
-1.3019043167499975e-05   2.8968617512577623e-06   6.8727468556114245e-06
-1.3019043167499975e-05   2.8968617512577623e-06   6.8727468556114245e-06
-1.0388039677638084e-05   1.857908819527087e-06   3.1111127982132386e-06
-1.0388039677638084e-05   1.857908819527087e-06   3.1111127982132386e-06
-1.0388039677638084e-05   1.857908819527087e-06   3.1111127982132386e-06
-1.0388039677638084e-05   1.857908819527087e-06   3.1111127982132386e-06
-1.1135578340363577e-05   2.446136313903548e-06   4.004074072796451e-06
-1.1135578340363577e-05   2.446136313903548e-06   4.004074072796451e-06
-1.1135578340363577e-05   2.446136313903548e-06   4.004074072796451e-06
-1.1135578340363577e-05   2.446136313903548e-06   4.004074072796451e-06
-1.0388039677638084e-05   2.8968617512577623e-06   7.4961186146496345e-06
-1.0388039677638084e-05   2.8968617512577623e-06   7.4961186146496345e-06
-1.0388039677638084e-05   2.8968617512577623e-06   7.4961186146496345e-06
-1.0388039677638084e-05   2.8968617512577623e-06   7.4961186146496345e-06
-1.3019043167500002e-05   1.8579088195269785e-06   2.4877410391748287e-06
-1.3019043167500002e-05   1.8579088195269785e-06   2.4877410391748287e-06
-1.3019043167500002e-05   1.8579088195269785e-06   2.4877410391748287e-06
-1.3019043167500002e-05   1.8579088195269785e-06   2.4877410391748287e-06
-1.3471516042110038e-05   2.754357403756541e-06   8.092878956096833e-06
-1.3471516042110038e-05   2.754357403756541e-06   8.092878956096833e-06
-1.3471516042110038e-05   2.754357403756541e-06   8.092878956096833e-06
-1.3471516042110038e-05   2.754357403756541e-06   8.092878956096833e-06
-1.0580545869978773e-05   1.710586409568401e-06   3.900857932390969e-06
-1.0580545869978773e-05   1.710586409568401e-06   3.900857932390969e-06
-1.0580545869978773e-05   1.710586409568401e-06   3.900857932390969e-06
-1.0580545869978773e-05   1.710586409568401e-06   3.900857932390969e-06
-1.1584315329016441e-05   2.3632917207754836e-06   5.18218384406308e-06
-1.1584315329016441e-05   2.3632917207754836e-06   5.18218384406308e-06
-1.1584315329016441e-05   2.3632917207754836e-06   5.18218384406308e-06
-1.1584315329016441e-05   2.3632917207754836e-06   5.18218384406308e-06
-1.0580545869978773e-05   2.754357403756541e-06   8.719141552609717e-06
-1.0580545869978773e-05   2.754357403756541e-06   8.719141552609717e-06
-1.0580545869978773e-05   2.754357403756541e-06   8.719141552609717e-06
-1.0580545869978773e-05   2.754357403756541e-06   8.719141552609717e-06
-1.3471516042110092e-05   1.7105864095682925e-06   3.274595335878085e-06
-1.3471516042110092e-05   1.7105864095682925e-06   3.274595335878085e-06
-1.3471516042110092e-05   1.7105864095682925e-06   3.274595335878085e-06
-1.3471516042110092e-05   1.7105864095682925e-06   3.274595335878085e-06
-1.404588236890989e-05   2.3643688043708654e-06   1.0298964429603617e-05
-1.404588236890989e-05   2.3643688043708654e-06   1.0298964429603617e-05
-1.404588236890989e-05   2.3643688043708654e-06   1.0298964429603617e-05
-1.404588236890989e-05   2.3643688043708654e-06   1.0298964429603617e-05
-1.0734624170285752e-05   1.3698356231324092e-06   5.376920673973119e-06
-1.0734624170285752e-05   1.3698356231324092e-06   5.376920673973119e-06
-1.0734624170285752e-05   1.3698356231324092e-06   5.376920673973119e-06
-1.0734624170285752e-05   1.3698356231324092e-06   5.376920673973119e-06
-1.1710305706207319e-05   2.2011365759002895e-06   6.504275995515075e-06
-1.1710305706207319e-05   2.2011365759002895e-06   6.504275995515075e-06
-1.1710305706207319e-05   2.2011365759002895e-06   6.504275995515075e-06
-1.1710305706207319e-05   2.2011365759002895e-06   6.504275995515075e-06
-4.868228215727811e-06   8.957942232902137e-07   6.132633079516817e-06
-4.868228215727811e-06   8.957942232902137e-07   6.132633079516817e-06
-4.868228215727811e-06   8.957942232902137e-07   6.132633079516817e-06
-4.868228215727811e-06   8.957942232902137e-07   6.132633079516817e-06
-5.4309296092864844e-06   1.7114491749359588e-06   5.684190394573095e-06
-5.4309296092864844e-06   1.7114491749359588e-06   5.684190394573095e-06
-5.4309296092864844e-06   1.7114491749359588e-06   5.684190394573095e-06
-5.4309296092864844e-06   1.7114491749359588e-06   5.684190394573095e-06
-5.575988416370722e-06   5.985192303096642e-07   6.558480307123596e-06
-5.575988416370722e-06   5.985192303096642e-07   6.558480307123596e-06
-5.575988416370722e-06   5.985192303096642e-07   6.558480307123596e-06
-5.575988416370722e-06   5.985192303096642e-07   6.558480307123596e-06
-5.468100099596881e-06   1.3332124829210784e-06   5.9378504942669125e-06
-5.468100099596881e-06   1.3332124829210784e-06   5.9378504942669125e-06
-5.468100099596881e-06   1.3332124829210784e-06   5.9378504942669125e-06
-5.468100099596881e-06   1.3332124829210784e-06   5.9378504942669125e-06
-5.206485488414155e-06   1.0586326730413595e-06   5.6665740282235645e-06
-5.206485488414155e-06   1.0586326730413595e-06   5.6665740282235645e-06
-5.206485488414155e-06   1.0586326730413595e-06   5.6665740282235645e-06
-5.206485488414155e-06   1.0586326730413595e-06   5.6665740282235645e-06
-5.468100099596895e-06   5.985192303095558e-07   6.117664355556607e-06
-5.468100099596895e-06   5.985192303095558e-07   6.117664355556607e-06
-5.468100099596895e-06   5.985192303095558e-07   6.117664355556607e-06
-5.468100099596895e-06   5.985192303095558e-07   6.117664355556607e-06
-5.575988416370722e-06   1.3332124829210784e-06   6.378666445833821e-06
-5.575988416370722e-06   1.3332124829210784e-06   6.378666445833821e-06
-5.575988416370722e-06   1.3332124829210784e-06   6.378666445833821e-06
-5.575988416370722e-06   1.3332124829210784e-06   6.378666445833821e-06
-5.764053389647932e-06   4.3646117947886316e-07   6.748950595710217e-06
-5.764053389647932e-06   4.3646117947886316e-07   6.748950595710217e-06
-5.764053389647932e-06   4.3646117947886316e-07   6.748950595710217e-06
-5.764053389647932e-06   4.3646117947886316e-07   6.748950595710217e-06
-6.052774705569778e-06   1.0732738414204407e-06   6.848065191748348e-06
-6.052774705569778e-06   1.0732738414204407e-06   6.848065191748348e-06
-6.052774705569778e-06   1.0732738414204407e-06   6.848065191748348e-06
-6.052774705569778e-06   1.0732738414204407e-06   6.848065191748348e-06
-5.562936101853973e-06   8.959491751094929e-07   6.138062318675056e-06
-5.562936101853973e-06   8.959491751094929e-07   6.138062318675056e-06
-5.562936101853973e-06   8.959491751094929e-07   6.138062318675056e-06
-5.562936101853973e-06   8.959491751094929e-07   6.138062318675056e-06
-6.052774705569791e-06   4.3646117947886316e-07   6.36686299854513e-06
-6.052774705569791e-06   4.3646117947886316e-07   6.36686299854513e-06
-6.052774705569791e-06   4.3646117947886316e-07   6.36686299854513e-06
-6.052774705569791e-06   4.3646117947886316e-07   6.36686299854513e-06
-5.764053389647932e-06   1.0732738414204407e-06   7.230152788913191e-06
-5.764053389647932e-06   1.0732738414204407e-06   7.230152788913191e-06
-5.764053389647932e-06   1.0732738414204407e-06   7.230152788913191e-06
-5.764053389647932e-06   1.0732738414204407e-06   7.230152788913191e-06
-5.885703923755337e-06   9.427344507080201e-08   7.387800867744547e-06
-5.885703923755337e-06   9.427344507080201e-08   7.387800867744547e-06
-5.885703923755337e-06   9.427344507080201e-08   7.387800867744547e-06
-5.885703923755337e-06   9.427344507080201e-08   7.387800867744547e-06
-6.676078405477757e-06   4.347805311994638e-07   8.500787418937931e-06
-6.676078405477757e-06   4.347805311994638e-07   8.500787418937931e-06
-6.676078405477757e-06   4.347805311994638e-07   8.500787418937931e-06
-6.676078405477757e-06   4.347805311994638e-07   8.500787418937931e-06
-5.818786080621984e-06   6.982232198277528e-07   6.913901264334423e-06
-5.818786080621984e-06   6.982232198277528e-07   6.913901264334423e-06
-5.818786080621984e-06   6.982232198277528e-07   6.913901264334423e-06
-5.818786080621984e-06   6.982232198277528e-07   6.913901264334423e-06
-5.430929609286476e-06   1.0645422399466848e-06   1.2088354484795897e-05
-5.430929609286476e-06   1.0645422399466848e-06   1.2088354484795897e-05
-5.430929609286476e-06   1.0645422399466848e-06   1.2088354484795897e-05
-5.430929609286476e-06   1.0645422399466848e-06   1.2088354484795897e-05
-5.570509247539702e-06   4.4398401055357724e-07   1.1483386816737968e-05
-5.570509247539702e-06   4.4398401055357724e-07   1.1483386816737968e-05
-5.570509247539702e-06   4.4398401055357724e-07   1.1483386816737968e-05
-5.570509247539702e-06   4.4398401055357724e-07   1.1483386816737968e-05
-5.618242901888517e-06   7.334153819250856e-07   1.162930918671923e-05
-5.618242901888517e-06   7.334153819250856e-07   1.162930918671923e-05
-5.618242901888517e-06   7.334153819250856e-07   1.162930918671923e-05
-5.618242901888517e-06   7.334153819250856e-07   1.162930918671923e-05
-5.575988416370722e-06   2.0982762633230557e-07   1.1873037697545172e-05
-5.575988416370722e-06   2.0982762633230557e-07   1.1873037697545172e-05
-5.575988416370722e-06   2.0982762633230557e-07   1.1873037697545172e-05
-5.575988416370722e-06   2.0982762633230557e-07   1.1873037697545172e-05
-5.533367498354508e-06   5.408334035580703e-07   1.1603399367849342e-05
-5.533367498354508e-06   5.408334035580703e-07   1.1603399367849342e-05
-5.533367498354508e-06   5.408334035580703e-07   1.1603399367849342e-05
-5.533367498354508e-06   5.408334035580703e-07   1.1603399367849342e-05
-5.575988416370718e-06   7.334153819249772e-07   1.1943461840074584e-05
-5.575988416370718e-06   7.334153819249772e-07   1.1943461840074584e-05
-5.575988416370718e-06   7.334153819249772e-07   1.1943461840074584e-05
-5.575988416370718e-06   7.334153819249772e-07   1.1943461840074584e-05
-5.618242901888503e-06   2.0982762633230557e-07   1.1558885044189547e-05
-5.618242901888503e-06   2.0982762633230557e-07   1.1558885044189547e-05
-5.618242901888503e-06   2.0982762633230557e-07   1.1558885044189547e-05
-5.618242901888503e-06   2.0982762633230557e-07   1.1558885044189547e-05
-5.67682275246493e-06   4.291713375598411e-07   1.1781126369390417e-05
-5.67682275246493e-06   4.291713375598411e-07   1.1781126369390417e-05
-5.67682275246493e-06   4.291713375598411e-07   1.1781126369390417e-05
-5.67682275246493e-06   4.291713375598411e-07   1.1781126369390417e-05
-5.764053389647932e-06   -5.8924630297124084e-08   1.2219368345409505e-05
-5.764053389647932e-06   -5.8924630297124084e-08   1.2219368345409505e-05
-5.764053389647932e-06   -5.8924630297124084e-08   1.2219368345409505e-05
-5.764053389647932e-06   -5.8924630297124084e-08   1.2219368345409505e-05
-5.591249395216407e-06   3.4835771972336737e-07   1.1686992278011192e-05
-5.591249395216407e-06   3.4835771972336737e-07   1.1686992278011192e-05
-5.591249395216407e-06   3.4835771972336737e-07   1.1686992278011192e-05
-5.591249395216407e-06   3.4835771972336737e-07   1.1686992278011192e-05
-5.764053389647932e-06   4.2917133755973266e-07   1.2073983950104368e-05
-5.764053389647932e-06   4.2917133755973266e-07   1.2073983950104368e-05
-5.764053389647932e-06   4.2917133755973266e-07   1.2073983950104368e-05
-5.764053389647932e-06   4.2917133755973266e-07   1.2073983950104368e-05
-5.676822752464903e-06   -5.8924630297178295e-08   1.1926510764695316e-05
-5.676822752464903e-06   -5.8924630297178295e-08   1.1926510764695316e-05
-5.676822752464903e-06   -5.8924630297178295e-08   1.1926510764695316e-05
-5.676822752464903e-06   -5.8924630297178295e-08   1.1926510764695316e-05
-5.7210804922657745e-06   1.0106311368720047e-07   1.2112567022233795e-05
-5.7210804922657745e-06   1.0106311368720047e-07   1.2112567022233795e-05
-5.7210804922657745e-06   1.0106311368720047e-07   1.2112567022233795e-05
-5.7210804922657745e-06   1.0106311368720047e-07   1.2112567022233795e-05
-5.88570392375533e-06   -4.1038413015406783e-07   1.2693807754354366e-05
-5.88570392375533e-06   -4.1038413015406783e-07   1.2693807754354366e-05
-5.88570392375533e-06   -4.1038413015406783e-07   1.2693807754354366e-05
-5.88570392375533e-06   -4.1038413015406783e-07   1.2693807754354366e-05
-5.680133362996368e-06   1.2384318028507224e-07   1.2030653766825715e-05
-5.680133362996368e-06   1.2384318028507224e-07   1.2030653766825715e-05
-5.680133362996368e-06   1.2384318028507224e-07   1.2030653766825715e-05
-5.680133362996368e-06   1.2384318028507224e-07   1.2030653766825715e-05
-5.5705092475397155e-06   1.2859623759235933e-06   1.3331520981690783e-05
-5.5705092475397155e-06   1.2859623759235933e-06   1.3331520981690783e-05
-5.5705092475397155e-06   1.2859623759235933e-06   1.3331520981690783e-05
-5.5705092475397155e-06   1.2859623759235933e-06   1.3331520981690783e-05
-6.051836627264266e-06   1.249413872207272e-07   1.1832696088928094e-05
-6.051836627264266e-06   1.249413872207272e-07   1.1832696088928094e-05
-6.051836627264266e-06   1.249413872207272e-07   1.1832696088928094e-05
-6.051836627264266e-06   1.249413872207272e-07   1.1832696088928094e-05
-6.070716063918068e-06   9.80230903706563e-07   1.2650044493022774e-05
-6.070716063918068e-06   9.80230903706563e-07   1.2650044493022774e-05
-6.070716063918068e-06   9.80230903706563e-07   1.2650044493022774e-05
-6.070716063918068e-06   9.80230903706563e-07   1.2650044493022774e-05
-5.618242901888503e-06   -7.113759192112603e-08   1.2526743653683427e-05
-5.618242901888503e-06   -7.113759192112603e-08   1.2526743653683427e-05
-5.618242901888503e-06   -7.113759192112603e-08   1.2526743653683427e-05
-5.618242901888503e-06   -7.113759192112603e-08   1.2526743653683427e-05
-5.8185774077510586e-06   5.595460993199726e-07   1.2482224282043018e-05
-5.8185774077510586e-06   5.595460993199726e-07   1.2482224282043018e-05
-5.8185774077510586e-06   5.595460993199726e-07   1.2482224282043018e-05
-5.8185774077510586e-06   5.595460993199726e-07   1.2482224282043018e-05
-5.618242901888503e-06   9.80230903706563e-07   1.3280865590399279e-05
-5.618242901888503e-06   9.80230903706563e-07   1.3280865590399279e-05
-5.618242901888503e-06   9.80230903706563e-07   1.3280865590399279e-05
-5.618242901888503e-06   9.80230903706563e-07   1.3280865590399279e-05
-6.070716063918041e-06   -7.113759192107182e-08   1.1895922556306827e-05
-6.070716063918041e-06   -7.113759192107182e-08   1.1895922556306827e-05
-6.070716063918041e-06   -7.113759192107182e-08   1.1895922556306827e-05
-6.070716063918041e-06   -7.113759192107182e-08   1.1895922556306827e-05
-6.101758640572646e-06   6.696186595197889e-07   1.2844247406484e-05
-6.101758640572646e-06   6.696186595197889e-07   1.2844247406484e-05
-6.101758640572646e-06   6.696186595197889e-07   1.2844247406484e-05
-6.101758640572646e-06   6.696186595197889e-07   1.2844247406484e-05
-5.676822752464903e-06   -3.0580657243176e-07   1.2721276065475265e-05
-5.676822752464903e-06   -3.0580657243176e-07   1.2721276065475265e-05
-5.676822752464903e-06   -3.0580657243176e-07   1.2721276065475265e-05
-5.676822752464903e-06   -3.0580657243176e-07   1.2721276065475265e-05
-5.825798650253894e-06   3.6607040341466845e-07   1.2566443042948643e-05
-5.825798650253894e-06   3.6607040341466845e-07   1.2566443042948643e-05
-5.825798650253894e-06   3.6607040341466845e-07   1.2566443042948643e-05
-5.825798650253894e-06   3.6607040341466845e-07   1.2566443042948643e-05
-5.67682275246493e-06   6.696186595197889e-07   1.3429502545654745e-05
-5.67682275246493e-06   6.696186595197889e-07   1.3429502545654745e-05
-5.67682275246493e-06   6.696186595197889e-07   1.3429502545654745e-05
-5.67682275246493e-06   6.696186595197889e-07   1.3429502545654745e-05
-6.101758640572646e-06   -3.058065724317058e-07   1.213602092630429e-05
-6.101758640572646e-06   -3.058065724317058e-07   1.213602092630429e-05
-6.101758640572646e-06   -3.058065724317058e-07   1.213602092630429e-05
-6.101758640572646e-06   -3.058065724317058e-07   1.213602092630429e-05
-6.123260357294286e-06   3.757185656219847e-07   1.3193567737448519e-05
-6.123260357294286e-06   3.757185656219847e-07   1.3193567737448519e-05
-6.123260357294286e-06   3.757185656219847e-07   1.3193567737448519e-05
-6.123260357294286e-06   3.757185656219847e-07   1.3193567737448519e-05
-5.721080492265747e-06   -5.403753252092715e-07   1.3072924296899556e-05
-5.721080492265747e-06   -5.403753252092715e-07   1.3072924296899556e-05
-5.721080492265747e-06   -5.403753252092715e-07   1.3072924296899556e-05
-5.721080492265747e-06   -5.403753252092715e-07   1.3072924296899556e-05
-5.842923714884411e-06   1.6739560574523856e-07   1.2851333776024238e-05
-5.842923714884411e-06   1.6739560574523856e-07   1.2851333776024238e-05
-5.842923714884411e-06   1.6739560574523856e-07   1.2851333776024238e-05
-5.842923714884411e-06   1.6739560574523856e-07   1.2851333776024238e-05
-6.051836627264266e-06   1.7445690827288867e-06   1.0875861488087227e-05
-6.051836627264266e-06   1.7445690827288867e-06   1.0875861488087227e-05
-6.051836627264266e-06   1.7445690827288867e-06   1.0875861488087227e-05
-6.051836627264266e-06   1.7445690827288867e-06   1.0875861488087227e-05
-6.724104183335487e-06   5.75820036338747e-07   9.054166133467956e-06
-6.724104183335487e-06   5.75820036338747e-07   9.054166133467956e-06
-6.724104183335487e-06   5.75820036338747e-07   9.054166133467956e-06
-6.724104183335487e-06   5.75820036338747e-07   9.054166133467956e-06
-6.739413260217162e-06   1.4230504369521033e-06   1.0272868510588723e-05
-6.739413260217162e-06   1.4230504369521033e-06   1.0272868510588723e-05
-6.739413260217162e-06   1.4230504369521033e-06   1.0272868510588723e-05
-6.739413260217162e-06   1.4230504369521033e-06   1.0272868510588723e-05
-6.070716063918068e-06   3.16905457226329e-07   9.822060171258941e-06
-6.070716063918068e-06   3.16905457226329e-07   9.822060171258941e-06
-6.070716063918068e-06   3.16905457226329e-07   9.822060171258941e-06
-6.070716063918068e-06   3.16905457226329e-07   9.822060171258941e-06
-6.379922324027944e-06   1.0376972238339624e-06   9.904928878144194e-06
-6.379922324027944e-06   1.0376972238339624e-06   9.904928878144194e-06
-6.379922324027944e-06   1.0376972238339624e-06   9.904928878144194e-06
-6.379922324027944e-06   1.0376972238339624e-06   9.904928878144194e-06
-6.070716063918068e-06   1.423050436951995e-06   1.0936555498424025e-05
-6.070716063918068e-06   1.423050436951995e-06   1.0936555498424025e-05
-6.070716063918068e-06   1.423050436951995e-06   1.0936555498424025e-05
-6.070716063918068e-06   1.423050436951995e-06   1.0936555498424025e-05
-6.739413260217162e-06   3.169054572262748e-07   9.158373183423533e-06
-6.739413260217162e-06   3.169054572262748e-07   9.158373183423533e-06
-6.739413260217162e-06   3.169054572262748e-07   9.158373183423533e-06
-6.739413260217162e-06   3.169054572262748e-07   9.158373183423533e-06
-6.815952146567721e-06   1.136458921621947e-06   1.065111362199536e-05
-6.815952146567721e-06   1.136458921621947e-06   1.065111362199536e-05
-6.815952146567721e-06   1.136458921621947e-06   1.065111362199536e-05
-6.815952146567721e-06   1.136458921621947e-06   1.065111362199536e-05
-6.1017586405726185e-06   9.487686932781571e-08   1.0085740343380008e-05
-6.1017586405726185e-06   9.487686932781571e-08   1.0085740343380008e-05
-6.1017586405726185e-06   9.487686932781571e-08   1.0085740343380008e-05
-6.1017586405726185e-06   9.487686932781571e-08   1.0085740343380008e-05
-6.3655406518202265e-06   8.257935227552965e-07   1.008682703673567e-05
-6.3655406518202265e-06   8.257935227552965e-07   1.008682703673567e-05
-6.3655406518202265e-06   8.257935227552965e-07   1.008682703673567e-05
-6.3655406518202265e-06   8.257935227552965e-07   1.008682703673567e-05
-6.101758640572646e-06   1.136458921621947e-06   1.1276062853371601e-05
-6.101758640572646e-06   1.136458921621947e-06   1.1276062853371601e-05
-6.101758640572646e-06   1.136458921621947e-06   1.1276062853371601e-05
-6.101758640572646e-06   1.136458921621947e-06   1.1276062853371601e-05
-6.815952146567721e-06   9.487686932781571e-08   9.460791112003507e-06
-6.815952146567721e-06   9.487686932781571e-08   9.460791112003507e-06
-6.815952146567721e-06   9.487686932781571e-08   9.460791112003507e-06
-6.815952146567721e-06   9.487686932781571e-08   9.460791112003507e-06
-6.86274816102245e-06   8.439109051026948e-07   1.1120226989531218e-05
-6.86274816102245e-06   8.439109051026948e-07   1.1120226989531218e-05
-6.86274816102245e-06   8.439109051026948e-07   1.1120226989531218e-05
-6.86274816102245e-06   8.439109051026948e-07   1.1120226989531218e-05
-6.123260357294259e-06   -1.2915511624815926e-07   1.0471586929461238e-05
-6.123260357294259e-06   -1.2915511624815926e-07   1.0471586929461238e-05
-6.123260357294259e-06   -1.2915511624815926e-07   1.0471586929461238e-05
-6.123260357294259e-06   -1.2915511624815926e-07   1.0471586929461238e-05
-6.401530535400708e-06   6.360915118371014e-07   1.0476222582787365e-05
-6.401530535400708e-06   6.360915118371014e-07   1.0476222582787365e-05
-6.401530535400708e-06   6.360915118371014e-07   1.0476222582787365e-05
-6.401530535400708e-06   6.360915118371014e-07   1.0476222582787365e-05
-6.72410418333546e-06   2.0716976839552873e-06   4.213553276471115e-06
-6.72410418333546e-06   2.0716976839552873e-06   4.213553276471115e-06
-6.72410418333546e-06   2.0716976839552873e-06   4.213553276471115e-06
-6.72410418333546e-06   2.0716976839552873e-06   4.213553276471115e-06
-6.701303120925186e-06   9.562274573937223e-07   3.5822729112179916e-06
-6.701303120925186e-06   9.562274573937223e-07   3.5822729112179916e-06
-6.701303120925186e-06   9.562274573937223e-07   3.5822729112179916e-06
-6.701303120925186e-06   9.562274573937223e-07   3.5822729112179916e-06
-7.0461971719010664e-06   1.857908819527087e-06   4.6212431921675845e-06
-7.0461971719010664e-06   1.857908819527087e-06   4.6212431921675845e-06
-7.0461971719010664e-06   1.857908819527087e-06   4.6212431921675845e-06
-7.0461971719010664e-06   1.857908819527087e-06   4.6212431921675845e-06
-6.739413260217135e-06   7.720859077512483e-07   4.7614304197598285e-06
-6.739413260217135e-06   7.720859077512483e-07   4.7614304197598285e-06
-6.739413260217135e-06   7.720859077512483e-07   4.7614304197598285e-06
-6.739413260217135e-06   7.720859077512483e-07   4.7614304197598285e-06
-6.581169894177553e-06   1.4601537830418593e-06   4.084850751186143e-06
-6.581169894177553e-06   1.4601537830418593e-06   4.084850751186143e-06
-6.581169894177553e-06   1.4601537830418593e-06   4.084850751186143e-06
-6.581169894177553e-06   1.4601537830418593e-06   4.084850751186143e-06
-6.739413260217135e-06   1.857908819527087e-06   5.272736939232903e-06
-6.739413260217135e-06   1.857908819527087e-06   5.272736939232903e-06
-6.739413260217135e-06   1.857908819527087e-06   5.272736939232903e-06
-6.739413260217135e-06   1.857908819527087e-06   5.272736939232903e-06
-7.046197171901121e-06   7.720859077513026e-07   4.109936672694361e-06
-7.046197171901121e-06   7.720859077513026e-07   4.109936672694361e-06
-7.046197171901121e-06   7.720859077513026e-07   4.109936672694361e-06
-7.046197171901121e-06   7.720859077513026e-07   4.109936672694361e-06
-7.348584768292286e-06   1.7105864095682925e-06   5.474727906024839e-06
-7.348584768292286e-06   1.7105864095682925e-06   5.474727906024839e-06
-7.348584768292286e-06   1.7105864095682925e-06   5.474727906024839e-06
-7.348584768292286e-06   1.7105864095682925e-06   5.474727906024839e-06
-6.815952146567694e-06   6.519087446536418e-07   5.222213468765978e-06
-6.815952146567694e-06   6.519087446536418e-07   5.222213468765978e-06
-6.815952146567694e-06   6.519087446536418e-07   5.222213468765978e-06
-6.815952146567694e-06   6.519087446536418e-07   5.222213468765978e-06
-6.828519824531777e-06   1.35402011542155e-06   4.821892776245035e-06
-6.828519824531777e-06   1.35402011542155e-06   4.821892776245035e-06
-6.828519824531777e-06   1.35402011542155e-06   4.821892776245035e-06
-6.828519824531777e-06   1.35402011542155e-06   4.821892776245035e-06
-6.815952146567721e-06   1.710586409568401e-06   6.1099345049734776e-06
-6.815952146567721e-06   1.710586409568401e-06   6.1099345049734776e-06
-6.815952146567721e-06   1.710586409568401e-06   6.1099345049734776e-06
-6.815952146567721e-06   1.710586409568401e-06   6.1099345049734776e-06
-7.348584768292286e-06   6.519087446536418e-07   4.587006869817095e-06
-7.348584768292286e-06   6.519087446536418e-07   4.587006869817095e-06
-7.348584768292286e-06   6.519087446536418e-07   4.587006869817095e-06
-7.348584768292286e-06   6.519087446536418e-07   4.587006869817095e-06
-7.794579774702192e-06   1.3698356231324092e-06   7.041814349364149e-06
-7.794579774702192e-06   1.3698356231324092e-06   7.041814349364149e-06
-7.794579774702192e-06   1.3698356231324092e-06   7.041814349364149e-06
-7.794579774702192e-06   1.3698356231324092e-06   7.041814349364149e-06
-6.86274816102245e-06   4.0754900348000415e-07   6.066133631689203e-06
-6.86274816102245e-06   4.0754900348000415e-07   6.066133631689203e-06
-6.86274816102245e-06   4.0754900348000415e-07   6.066133631689203e-06
-6.86274816102245e-06   4.0754900348000415e-07   6.066133631689203e-06
-6.912501560644367e-06   1.2257653311460487e-06   5.658126167792216e-06
-6.912501560644367e-06   1.2257653311460487e-06   5.658126167792216e-06
-6.912501560644367e-06   1.2257653311460487e-06   5.658126167792216e-06
-6.912501560644367e-06   1.2257653311460487e-06   5.658126167792216e-06
-1.291506317791637e-05   1.7114491749359588e-06   5.168665560760613e-06
-1.291506317791637e-05   1.7114491749359588e-06   5.168665560760613e-06
-1.291506317791637e-05   1.7114491749359588e-06   5.168665560760613e-06
-1.291506317791637e-05   1.7114491749359588e-06   5.168665560760613e-06
-8.767398237890655e-06   2.3638961562745585e-06   1.2472908649606673e-05
-8.767398237890655e-06   2.3638961562745585e-06   1.2472908649606673e-05
-8.767398237890655e-06   2.3638961562745585e-06   1.2472908649606673e-05
-8.767398237890655e-06   2.3638961562745585e-06   1.2472908649606673e-05
-8.766546515807297e-06   1.3332124829210784e-06   5.826326048168968e-06
-8.766546515807297e-06   1.3332124829210784e-06   5.826326048168968e-06
-8.766546515807297e-06   1.3332124829210784e-06   5.826326048168968e-06
-8.766546515807297e-06   1.3332124829210784e-06   5.826326048168968e-06
-1.425284983074483e-05   9.339044979941619e-07   1.5209749697354465e-05
-1.425284983074483e-05   9.339044979941619e-07   1.5209749697354465e-05
-1.425284983074483e-05   9.339044979941619e-07   1.5209749697354465e-05
-1.425284983074483e-05   9.339044979941619e-07   1.5209749697354465e-05
-1.0597775480834323e-05   1.395299662803641e-06   8.8411220152846e-06
-1.0597775480834323e-05   1.395299662803641e-06   8.8411220152846e-06
-1.0597775480834323e-05   1.395299662803641e-06   8.8411220152846e-06
-1.0597775480834323e-05   1.395299662803641e-06   8.8411220152846e-06
-1.4252849830744854e-05   1.3332124829210784e-06   6.065910839125156e-06
-1.4252849830744854e-05   1.3332124829210784e-06   6.065910839125156e-06
-1.4252849830744854e-05   1.3332124829210784e-06   6.065910839125156e-06
-1.4252849830744854e-05   1.3332124829210784e-06   6.065910839125156e-06
-8.766546515807297e-06   9.339044979941619e-07   1.4970164906398325e-05
-8.766546515807297e-06   9.339044979941619e-07   1.4970164906398325e-05
-8.766546515807297e-06   9.339044979941619e-07   1.4970164906398325e-05
-8.766546515807297e-06   9.339044979941619e-07   1.4970164906398325e-05
-8.894607924204124e-06   1.0732738414204407e-06   6.495740254559254e-06
-8.894607924204124e-06   1.0732738414204407e-06   6.495740254559254e-06
-8.894607924204124e-06   1.0732738414204407e-06   6.495740254559254e-06
-8.894607924204124e-06   1.0732738414204407e-06   6.495740254559254e-06
-1.4310696465883744e-05   6.617285313820307e-07   1.5769481676714984e-05
-1.4310696465883744e-05   6.617285313820307e-07   1.5769481676714984e-05
-1.4310696465883744e-05   6.617285313820307e-07   1.5769481676714984e-05
-1.4310696465883744e-05   6.617285313820307e-07   1.5769481676714984e-05
-1.1322283418358199e-05   8.62974733042564e-07   1.066804554317596e-05
-1.1322283418358199e-05   8.62974733042564e-07   1.066804554317596e-05
-1.1322283418358199e-05   8.62974733042564e-07   1.066804554317596e-05
-1.1322283418358199e-05   8.62974733042564e-07   1.066804554317596e-05
-1.4310696465883775e-05   1.0732738414204407e-06   6.742667440582306e-06
-1.4310696465883775e-05   1.0732738414204407e-06   6.742667440582306e-06
-1.4310696465883775e-05   1.0732738414204407e-06   6.742667440582306e-06
-1.4310696465883775e-05   1.0732738414204407e-06   6.742667440582306e-06
-8.894607924204107e-06   6.617285313820307e-07   1.5522554490691933e-05
-8.894607924204107e-06   6.617285313820307e-07   1.5522554490691933e-05
-8.894607924204107e-06   6.617285313820307e-07   1.5522554490691933e-05
-8.894607924204107e-06   6.617285313820307e-07   1.5522554490691933e-05
-8.808009168969784e-06   4.347805311994638e-07   7.664964993257123e-06
-8.808009168969784e-06   4.347805311994638e-07   7.664964993257123e-06
-8.808009168969784e-06   4.347805311994638e-07   7.664964993257123e-06
-8.808009168969784e-06   4.347805311994638e-07   7.664964993257123e-06
-1.4478830384516928e-05   -5.007107688358625e-07   1.767762846585685e-05
-1.4478830384516928e-05   -5.007107688358625e-07   1.767762846585685e-05
-1.4478830384516928e-05   -5.007107688358625e-07   1.767762846585685e-05
-1.4478830384516928e-05   -5.007107688358625e-07   1.767762846585685e-05
-1.115807300048592e-05   4.079423220365477e-07   1.1597840971281712e-05
-1.115807300048592e-05   4.079423220365477e-07   1.1597840971281712e-05
-1.115807300048592e-05   4.079423220365477e-07   1.1597840971281712e-05
-1.115807300048592e-05   4.079423220365477e-07   1.1597840971281712e-05
-8.767398237890672e-06   4.4398401055363145e-07   1.1731665109364489e-05
-8.767398237890672e-06   4.4398401055363145e-07   1.1731665109364489e-05
-8.767398237890672e-06   4.4398401055363145e-07   1.1731665109364489e-05
-8.767398237890672e-06   4.4398401055363145e-07   1.1731665109364489e-05
-5.402777980843633e-06   -2.745651998107266e-06   1.5425583932579708e-05
-5.402777980843633e-06   -2.745651998107266e-06   1.5425583932579708e-05
-5.402777980843633e-06   -2.745651998107266e-06   1.5425583932579708e-05
-5.402777980843633e-06   -2.745651998107266e-06   1.5425583932579708e-05
-5.4191744563188675e-06   2.0982762633235978e-07   9.841093583571762e-06
-5.4191744563188675e-06   2.0982762633235978e-07   9.841093583571762e-06
-5.4191744563188675e-06   2.0982762633235978e-07   9.841093583571762e-06
-5.4191744563188675e-06   2.0982762633235978e-07   9.841093583571762e-06
-8.766546515807297e-06   -2.256178567515253e-06   1.689965073236116e-05
-8.766546515807297e-06   -2.256178567515253e-06   1.689965073236116e-05
-8.766546515807297e-06   -2.256178567515253e-06   1.689965073236116e-05
-8.766546515807297e-06   -2.256178567515253e-06   1.689965073236116e-05
-7.0534050135040544e-06   -1.3593519352750696e-06   1.3506318915844975e-05
-7.0534050135040544e-06   -1.3593519352750696e-06   1.3506318915844975e-05
-7.0534050135040544e-06   -1.3593519352750696e-06   1.3506318915844975e-05
-7.0534050135040544e-06   -1.3593519352750696e-06   1.3506318915844975e-05
-8.7665465158073e-06   2.0982762633235978e-07   1.1320697299880238e-05
-8.7665465158073e-06   2.0982762633235978e-07   1.1320697299880238e-05
-8.7665465158073e-06   2.0982762633235978e-07   1.1320697299880238e-05
-8.7665465158073e-06   2.0982762633235978e-07   1.1320697299880238e-05
-5.419174456318854e-06   -2.256178567515253e-06   1.542004701605259e-05
-5.419174456318854e-06   -2.256178567515253e-06   1.542004701605259e-05
-5.419174456318854e-06   -2.256178567515253e-06   1.542004701605259e-05
-5.419174456318854e-06   -2.256178567515253e-06   1.542004701605259e-05
-5.4482367770908465e-06   -5.8924630297124084e-08   1.013750824556132e-05
-5.4482367770908465e-06   -5.8924630297124084e-08   1.013750824556132e-05
-5.4482367770908465e-06   -5.8924630297124084e-08   1.013750824556132e-05
-5.4482367770908465e-06   -5.8924630297124084e-08   1.013750824556132e-05
-8.894607924204107e-06   -2.304670572787494e-06   1.7228907722910893e-05
-8.894607924204107e-06   -2.304670572787494e-06   1.7228907722910893e-05
-8.894607924204107e-06   -2.304670572787494e-06   1.7228907722910893e-05
-8.894607924204107e-06   -2.304670572787494e-06   1.7228907722910893e-05
-7.007492895897268e-06   -1.1880359098923586e-06   1.3413735211328993e-05
-7.007492895897268e-06   -1.1880359098923586e-06   1.3413735211328993e-05
-7.007492895897268e-06   -1.1880359098923586e-06   1.3413735211328993e-05
-7.007492895897268e-06   -1.1880359098923586e-06   1.3413735211328993e-05
-8.894607924204124e-06   -5.8924630297124084e-08   1.1484955811055548e-05
-8.894607924204124e-06   -5.8924630297124084e-08   1.1484955811055548e-05
-8.894607924204124e-06   -5.8924630297124084e-08   1.1484955811055548e-05
-8.894607924204124e-06   -5.8924630297124084e-08   1.1484955811055548e-05
-5.448236777090833e-06   -2.304670572787494e-06   1.5881460157416693e-05
-5.448236777090833e-06   -2.304670572787494e-06   1.5881460157416693e-05
-5.448236777090833e-06   -2.304670572787494e-06   1.5881460157416693e-05
-5.448236777090833e-06   -2.304670572787494e-06   1.5881460157416693e-05
-5.4043840657769075e-06   -4.1038413015406783e-07   1.050904039116157e-05
-5.4043840657769075e-06   -4.1038413015406783e-07   1.050904039116157e-05
-5.4043840657769075e-06   -4.1038413015406783e-07   1.050904039116157e-05
-5.4043840657769075e-06   -4.1038413015406783e-07   1.050904039116157e-05
-8.808009168969763e-06   -2.318118606545389e-06   1.7326389582317757e-05
-8.808009168969763e-06   -2.318118606545389e-06   1.7326389582317757e-05
-8.808009168969763e-06   -2.318118606545389e-06   1.7326389582317757e-05
-8.808009168969763e-06   -2.318118606545389e-06   1.7326389582317757e-05
-7.048366019876747e-06   -1.3288338276755103e-06   1.3800080133174154e-05
-7.048366019876747e-06   -1.3288338276755103e-06   1.3800080133174154e-05
-7.048366019876747e-06   -1.3288338276755103e-06   1.3800080133174154e-05
-7.048366019876747e-06   -1.3288338276755103e-06   1.3800080133174154e-05
-5.402777980843633e-06   1.249413872207272e-07   1.0863805369579763e-05
-5.402777980843633e-06   1.249413872207272e-07   1.0863805369579763e-05
-5.402777980843633e-06   1.249413872207272e-07   1.0863805369579763e-05
-5.402777980843633e-06   1.249413872207272e-07   1.0863805369579763e-05
-4.003683257823348e-06   -2.14576584121461e-06   1.183320557088577e-05
-4.003683257823348e-06   -2.14576584121461e-06   1.183320557088577e-05
-4.003683257823348e-06   -2.14576584121461e-06   1.183320557088577e-05
-4.003683257823348e-06   -2.14576584121461e-06   1.183320557088577e-05
-3.974236901960898e-06   -7.113759192112603e-08   9.587177066656938e-06
-3.974236901960898e-06   -7.113759192112603e-08   9.587177066656938e-06
-3.974236901960898e-06   -7.113759192112603e-08   9.587177066656938e-06
-3.974236901960898e-06   -7.113759192112603e-08   9.587177066656938e-06
-5.419174456318854e-06   -2.10742946926893e-06   1.3217181450328984e-05
-5.419174456318854e-06   -2.10742946926893e-06   1.3217181450328984e-05
-5.419174456318854e-06   -2.10742946926893e-06   1.3217181450328984e-05
-5.419174456318854e-06   -2.10742946926893e-06   1.3217181450328984e-05
-4.6720450845769395e-06   -1.082683790411623e-06   1.1357118423444858e-05
-4.6720450845769395e-06   -1.082683790411623e-06   1.1357118423444858e-05
-4.6720450845769395e-06   -1.082683790411623e-06   1.1357118423444858e-05
-4.6720450845769395e-06   -1.082683790411623e-06   1.1357118423444858e-05
-5.419174456318854e-06   -7.113759192112603e-08   1.0808952193065615e-05
-5.419174456318854e-06   -7.113759192112603e-08   1.0808952193065615e-05
-5.419174456318854e-06   -7.113759192112603e-08   1.0808952193065615e-05
-5.419174456318854e-06   -7.113759192112603e-08   1.0808952193065615e-05
-3.974236901960898e-06   -2.10742946926893e-06   1.1995406323920337e-05
-3.974236901960898e-06   -2.10742946926893e-06   1.1995406323920337e-05
-3.974236901960898e-06   -2.10742946926893e-06   1.1995406323920337e-05
-3.974236901960898e-06   -2.10742946926893e-06   1.1995406323920337e-05
-3.9511102122056574e-06   -3.0580657243176e-07   9.813617276305871e-06
-3.9511102122056574e-06   -3.0580657243176e-07   9.813617276305871e-06
-3.9511102122056574e-06   -3.0580657243176e-07   9.813617276305871e-06
-3.9511102122056574e-06   -3.0580657243176e-07   9.813617276305871e-06
-5.448236777090833e-06   -2.170233689157341e-06   1.342748448781653e-05
-5.448236777090833e-06   -2.170233689157341e-06   1.342748448781653e-05
-5.448236777090833e-06   -2.170233689157341e-06   1.342748448781653e-05
-5.448236777090833e-06   -2.170233689157341e-06   1.342748448781653e-05
-4.637171576324671e-06   -1.1511699515254171e-06   1.1464270910626788e-05
-4.637171576324671e-06   -1.1511699515254171e-06   1.1464270910626788e-05
-4.637171576324671e-06   -1.1511699515254171e-06   1.1464270910626788e-05
-4.637171576324671e-06   -1.1511699515254171e-06   1.1464270910626788e-05
-5.448236777090833e-06   -3.058065724317058e-07   1.0932273546341242e-05
-5.448236777090833e-06   -3.058065724317058e-07   1.0932273546341242e-05
-5.448236777090833e-06   -3.058065724317058e-07   1.0932273546341242e-05
-5.448236777090833e-06   -3.058065724317058e-07   1.0932273546341242e-05
-3.9511102122056574e-06   -2.1702336891573683e-06   1.2308828217781183e-05
-3.9511102122056574e-06   -2.1702336891573683e-06   1.2308828217781183e-05
-3.9511102122056574e-06   -2.1702336891573683e-06   1.2308828217781183e-05
-3.9511102122056574e-06   -2.1702336891573683e-06   1.2308828217781183e-05
-3.882519277849264e-06   -5.403753252093257e-07   1.0165242544697565e-05
-3.882519277849264e-06   -5.403753252093257e-07   1.0165242544697565e-05
-3.882519277849264e-06   -5.403753252093257e-07   1.0165242544697565e-05
-3.882519277849264e-06   -5.403753252093257e-07   1.0165242544697565e-05
-5.404384065776894e-06   -2.2566798840659976e-06   1.373146659322427e-05
-5.404384065776894e-06   -2.2566798840659976e-06   1.373146659322427e-05
-5.404384065776894e-06   -2.2566798840659976e-06   1.373146659322427e-05
-5.404384065776894e-06   -2.2566798840659976e-06   1.373146659322427e-05
-4.596882175935283e-06   -1.2525497044535406e-06   1.1783152002387394e-05
-4.596882175935283e-06   -1.2525497044535406e-06   1.1783152002387394e-05
-4.596882175935283e-06   -1.2525497044535406e-06   1.1783152002387394e-05
-4.596882175935283e-06   -1.2525497044535406e-06   1.1783152002387394e-05
-4.003683257823348e-06   5.758200363388012e-07   7.424100504892429e-06
-4.003683257823348e-06   5.758200363388012e-07   7.424100504892429e-06
-4.003683257823348e-06   5.758200363388012e-07   7.424100504892429e-06
-4.003683257823348e-06   5.758200363388012e-07   7.424100504892429e-06
-3.372016889096371e-06   -8.833950560687212e-07   7.601348730659527e-06
-3.372016889096371e-06   -8.833950560687212e-07   7.601348730659527e-06
-3.372016889096371e-06   -8.833950560687212e-07   7.601348730659527e-06
-3.372016889096371e-06   -8.833950560687212e-07   7.601348730659527e-06
-3.3068715871384933e-06   3.16905457226329e-07   6.704349548993058e-06
-3.3068715871384933e-06   3.16905457226329e-07   6.704349548993058e-06
-3.3068715871384933e-06   3.16905457226329e-07   6.704349548993058e-06
-3.3068715871384933e-06   3.16905457226329e-07   6.704349548993058e-06
-3.974236901960898e-06   -1.0313697638003052e-06   8.625590206313164e-06
-3.974236901960898e-06   -1.0313697638003052e-06   8.625590206313164e-06
-3.974236901960898e-06   -1.0313697638003052e-06   8.625590206313164e-06
-3.974236901960898e-06   -1.0313697638003052e-06   8.625590206313164e-06
-3.637789622882101e-06   -2.0200693757452043e-07   7.567227045446453e-06
-3.637789622882101e-06   -2.0200693757452043e-07   7.567227045446453e-06
-3.637789622882101e-06   -2.0200693757452043e-07   7.567227045446453e-06
-3.637789622882101e-06   -2.0200693757452043e-07   7.567227045446453e-06
-3.974236901960898e-06   3.16905457226329e-07   7.513314681609066e-06
-3.974236901960898e-06   3.16905457226329e-07   7.513314681609066e-06
-3.974236901960898e-06   3.16905457226329e-07   7.513314681609066e-06
-3.974236901960898e-06   3.16905457226329e-07   7.513314681609066e-06
-3.3068715871384933e-06   -1.0313697638003052e-06   7.816625073697197e-06
-3.3068715871384933e-06   -1.0313697638003052e-06   7.816625073697197e-06
-3.3068715871384933e-06   -1.0313697638003052e-06   7.816625073697197e-06
-3.3068715871384933e-06   -1.0313697638003052e-06   7.816625073697197e-06
-3.2817555619210506e-06   9.48768693277615e-08   7.019308767710654e-06
-3.2817555619210506e-06   9.48768693277615e-08   7.019308767710654e-06
-3.2817555619210506e-06   9.48768693277615e-08   7.019308767710654e-06
-3.2817555619210506e-06   9.48768693277615e-08   7.019308767710654e-06
-3.951110212205603e-06   -1.1451696734570912e-06   8.878927777189092e-06
-3.951110212205603e-06   -1.1451696734570912e-06   8.878927777189092e-06
-3.951110212205603e-06   -1.1451696734570912e-06   8.878927777189092e-06
-3.951110212205603e-06   -1.1451696734570912e-06   8.878927777189092e-06
-3.5729509333663376e-06   -3.58684038790399e-07   7.776770931656649e-06
-3.5729509333663376e-06   -3.58684038790399e-07   7.776770931656649e-06
-3.5729509333663376e-06   -3.58684038790399e-07   7.776770931656649e-06
-3.5729509333663376e-06   -3.58684038790399e-07   7.776770931656649e-06
-3.95111021220563e-06   9.48768693277615e-08   7.763336693381468e-06
-3.95111021220563e-06   9.48768693277615e-08   7.763336693381468e-06
-3.95111021220563e-06   9.48768693277615e-08   7.763336693381468e-06
-3.95111021220563e-06   9.48768693277615e-08   7.763336693381468e-06
-3.2817555619210777e-06   -1.1451696734570912e-06   8.134899851518142e-06
-3.2817555619210777e-06   -1.1451696734570912e-06   8.134899851518142e-06
-3.2817555619210777e-06   -1.1451696734570912e-06   8.134899851518142e-06
-3.2817555619210777e-06   -1.1451696734570912e-06   8.134899851518142e-06
-3.235646080477887e-06   -1.2915511624810505e-07   7.414813424458724e-06
-3.235646080477887e-06   -1.2915511624810505e-07   7.414813424458724e-06
-3.235646080477887e-06   -1.2915511624810505e-07   7.414813424458724e-06
-3.235646080477887e-06   -1.2915511624810505e-07   7.414813424458724e-06
-3.882519277849264e-06   -1.293735261746889e-06   9.191683507376837e-06
-3.882519277849264e-06   -1.293735261746889e-06   9.191683507376837e-06
-3.882519277849264e-06   -1.293735261746889e-06   9.191683507376837e-06
-3.882519277849264e-06   -1.293735261746889e-06   9.191683507376837e-06
-3.5253024298114908e-06   -4.966743934797574e-07   8.118085573020504e-06
-3.5253024298114908e-06   -4.966743934797574e-07   8.118085573020504e-06
-3.5253024298114908e-06   -4.966743934797574e-07   8.118085573020504e-06
-3.5253024298114908e-06   -4.966743934797574e-07   8.118085573020504e-06
-3.372016889096371e-06   9.562274573937223e-07   1.7459603631349546e-06
-3.372016889096371e-06   9.562274573937223e-07   1.7459603631349546e-06
-3.372016889096371e-06   9.562274573937223e-07   1.7459603631349546e-06
-3.372016889096371e-06   9.562274573937223e-07   1.7459603631349546e-06
-2.002733129341115e-06   -9.414407214439484e-08   3.3978770450042027e-06
-2.002733129341115e-06   -9.414407214439484e-08   3.3978770450042027e-06
-2.002733129341115e-06   -9.414407214439484e-08   3.3978770450042027e-06
-2.002733129341115e-06   -9.414407214439484e-08   3.3978770450042027e-06
-2.122204173628814e-06   7.720859077513026e-07   1.7642160332818858e-06
-2.122204173628814e-06   7.720859077513026e-07   1.7642160332818858e-06
-2.122204173628814e-06   7.720859077513026e-07   1.7642160332818858e-06
-2.122204173628814e-06   7.720859077513026e-07   1.7642160332818858e-06
-3.3068715871384933e-06   -1.3323201232794948e-07   4.281852474512227e-06
-3.3068715871384933e-06   -1.3323201232794948e-07   4.281852474512227e-06
-3.3068715871384933e-06   -1.3323201232794948e-07   4.281852474512227e-06
-3.3068715871384933e-06   -1.3323201232794948e-07   4.281852474512227e-06
-2.6079222349689854e-06   4.92735584379535e-07   2.7413563295387985e-06
-2.6079222349689854e-06   4.92735584379535e-07   2.7413563295387985e-06
-2.6079222349689854e-06   4.92735584379535e-07   2.7413563295387985e-06
-2.6079222349689854e-06   4.92735584379535e-07   2.7413563295387985e-06
-3.3068715871384933e-06   7.720859077512483e-07   2.3074067853292744e-06
-3.3068715871384933e-06   7.720859077512483e-07   2.3074067853292744e-06
-3.3068715871384933e-06   7.720859077512483e-07   2.3074067853292744e-06
-3.3068715871384933e-06   7.720859077512483e-07   2.3074067853292744e-06
-2.122204173628814e-06   -1.3323201232794948e-07   3.73866172246473e-06
-2.122204173628814e-06   -1.3323201232794948e-07   3.73866172246473e-06
-2.122204173628814e-06   -1.3323201232794948e-07   3.73866172246473e-06
-2.122204173628814e-06   -1.3323201232794948e-07   3.73866172246473e-06
-2.2212049954848387e-06   6.519087446536418e-07   2.2782907828200038e-06
-2.2212049954848387e-06   6.519087446536418e-07   2.2782907828200038e-06
-2.2212049954848387e-06   6.519087446536418e-07   2.2782907828200038e-06
-2.2212049954848387e-06   6.519087446536418e-07   2.2782907828200038e-06
-3.2817555619210506e-06   -1.8549182476809895e-07   4.548315401866785e-06
-3.2817555619210506e-06   -1.8549182476809895e-07   4.548315401866785e-06
-3.2817555619210506e-06   -1.8549182476809895e-07   4.548315401866785e-06
-3.2817555619210506e-06   -1.8549182476809895e-07   4.548315401866785e-06
-2.661483456609036e-06   4.028594499373662e-07   3.161517794856531e-06
-2.661483456609036e-06   4.028594499373662e-07   3.161517794856531e-06
-2.661483456609036e-06   4.028594499373662e-07   3.161517794856531e-06
-2.661483456609036e-06   4.028594499373662e-07   3.161517794856531e-06
-3.2817555619210506e-06   6.51908744653696e-07   2.7807311244730808e-06
-3.2817555619210506e-06   6.51908744653696e-07   2.7807311244730808e-06
-3.2817555619210506e-06   6.51908744653696e-07   2.7807311244730808e-06
-3.2817555619210506e-06   6.51908744653696e-07   2.7807311244730808e-06
-2.2212049954848387e-06   -1.8549182476809895e-07   4.045875060213681e-06
-2.2212049954848387e-06   -1.8549182476809895e-07   4.045875060213681e-06
-2.2212049954848387e-06   -1.8549182476809895e-07   4.045875060213681e-06
-2.2212049954848387e-06   -1.8549182476809895e-07   4.045875060213681e-06
-2.4523394731925676e-06   4.0754900348000415e-07   3.197991984184821e-06
-2.4523394731925676e-06   4.0754900348000415e-07   3.197991984184821e-06
-2.4523394731925676e-06   4.0754900348000415e-07   3.197991984184821e-06
-2.4523394731925676e-06   4.0754900348000415e-07   3.197991984184821e-06
-3.235646080477887e-06   -2.5113058870735003e-07   4.898710751639326e-06
-3.235646080477887e-06   -2.5113058870735003e-07   4.898710751639326e-06
-3.235646080477887e-06   -2.5113058870735003e-07   4.898710751639326e-06
-3.235646080477887e-06   -2.5113058870735003e-07   4.898710751639326e-06
-2.6738826135438217e-06   3.4087707934598666e-07   3.6072337059171755e-06
-2.6738826135438217e-06   3.4087707934598666e-07   3.6072337059171755e-06
-2.6738826135438217e-06   3.4087707934598666e-07   3.6072337059171755e-06
-2.6738826135438217e-06   3.4087707934598666e-07   3.6072337059171755e-06
-3.052097683304314e-05   2.3638961562745585e-06   1.3389542854866775e-05
-3.052097683304314e-05   2.3638961562745585e-06   1.3389542854866775e-05
-3.052097683304314e-05   2.3638961562745585e-06   1.3389542854866775e-05
-3.052097683304314e-05   2.3638961562745585e-06   1.3389542854866775e-05
-7.1393924739850475e-06   -1.529473270802472e-05   4.176367280138405e-05
-7.1393924739850475e-06   -1.529473270802472e-05   4.176367280138405e-05
-7.1393924739850475e-06   -1.529473270802472e-05   4.176367280138405e-05
-7.1393924739850475e-06   -1.529473270802472e-05   4.176367280138405e-05
-8.404291337182961e-06   9.339044979941619e-07   7.318730233612829e-06
-8.404291337182961e-06   9.339044979941619e-07   7.318730233612829e-06
-8.404291337182961e-06   9.339044979941619e-07   7.318730233612829e-06
-8.404291337182961e-06   9.339044979941619e-07   7.318730233612829e-06
-2.7836264414888516e-05   -1.1945301459999738e-05   4.743287560458503e-05
-2.7836264414888516e-05   -1.1945301459999738e-05   4.743287560458503e-05
-2.7836264414888516e-05   -1.1945301459999738e-05   4.743287560458503e-05
-2.7836264414888516e-05   -1.1945301459999738e-05   4.743287560458503e-05
-1.855028553162958e-05   -5.944411728031317e-06   2.835571029330575e-05
-1.855028553162958e-05   -5.944411728031317e-06   2.835571029330575e-05
-1.855028553162958e-05   -5.944411728031317e-06   2.835571029330575e-05
-1.855028553162958e-05   -5.944411728031317e-06   2.835571029330575e-05
-2.783626441488847e-05   9.339044979941619e-07   1.5046253808409163e-05
-2.783626441488847e-05   9.339044979941619e-07   1.5046253808409163e-05
-2.783626441488847e-05   9.339044979941619e-07   1.5046253808409163e-05
-2.783626441488847e-05   9.339044979941619e-07   1.5046253808409163e-05
-8.404291337182971e-06   -1.1945301459999738e-05   3.970535202978869e-05
-8.404291337182971e-06   -1.1945301459999738e-05   3.970535202978869e-05
-8.404291337182971e-06   -1.1945301459999738e-05   3.970535202978869e-05
-8.404291337182971e-06   -1.1945301459999738e-05   3.970535202978869e-05
-8.60655906388735e-06   6.617285313820307e-07   8.044623880382942e-06
-8.60655906388735e-06   6.617285313820307e-07   8.044623880382942e-06
-8.60655906388735e-06   6.617285313820307e-07   8.044623880382942e-06
-8.60655906388735e-06   6.617285313820307e-07   8.044623880382942e-06
-2.6266982329300066e-05   -1.0339027929622098e-05   4.407911653267322e-05
-2.6266982329300066e-05   -1.0339027929622098e-05   4.407911653267322e-05
-2.6266982329300066e-05   -1.0339027929622098e-05   4.407911653267322e-05
-2.6266982329300066e-05   -1.0339027929622098e-05   4.407911653267322e-05
-1.8005073666900563e-05   -5.637814182243015e-06   2.748854051357997e-05
-1.8005073666900563e-05   -5.637814182243015e-06   2.748854051357997e-05
-1.8005073666900563e-05   -5.637814182243015e-06   2.748854051357997e-05
-1.8005073666900563e-05   -5.637814182243015e-06   2.748854051357997e-05
-2.6266982329300018e-05   6.617285313820307e-07   1.4645077756985414e-05
-2.6266982329300018e-05   6.617285313820307e-07   1.4645077756985414e-05
-2.6266982329300018e-05   6.617285313820307e-07   1.4645077756985414e-05
-2.6266982329300018e-05   6.617285313820307e-07   1.4645077756985414e-05
-8.606559063887366e-06   -1.0339027929622098e-05   3.7478662656070745e-05
-8.606559063887366e-06   -1.0339027929622098e-05   3.7478662656070745e-05
-8.606559063887366e-06   -1.0339027929622098e-05   3.7478662656070745e-05
-8.606559063887366e-06   -1.0339027929622098e-05   3.7478662656070745e-05
-9.45248484464229e-06   -5.007107688358896e-07   1.0062313585416233e-05
-9.45248484464229e-06   -5.007107688358896e-07   1.0062313585416233e-05
-9.45248484464229e-06   -5.007107688358896e-07   1.0062313585416233e-05
-9.45248484464229e-06   -5.007107688358896e-07   1.0062313585416233e-05
-2.4251322237581855e-05   -8.200989738003257e-06   3.93472099551492e-05
-2.4251322237581855e-05   -8.200989738003257e-06   3.93472099551492e-05
-2.4251322237581855e-05   -8.200989738003257e-06   3.93472099551492e-05
-2.4251322237581855e-05   -8.200989738003257e-06   3.93472099551492e-05
-1.7331087433096537e-05   -5.206922800241837e-06   2.6017045118350176e-05
-1.7331087433096537e-05   -5.206922800241837e-06   2.6017045118350176e-05
-1.7331087433096537e-05   -5.206922800241837e-06   2.6017045118350176e-05
-1.7331087433096537e-05   -5.206922800241837e-06   2.6017045118350176e-05
-7.139392473985027e-06   -2.745651998107266e-06   7.660822424456788e-06
-7.139392473985027e-06   -2.745651998107266e-06   7.660822424456788e-06
-7.139392473985027e-06   -2.745651998107266e-06   7.660822424456788e-06
-7.139392473985027e-06   -2.745651998107266e-06   7.660822424456788e-06
-2.476483185678461e-06   -4.846465503002058e-06   1.4171849802030913e-05
-2.476483185678461e-06   -4.846465503002058e-06   1.4171849802030913e-05
-2.476483185678461e-06   -4.846465503002058e-06   1.4171849802030913e-05
-2.476483185678461e-06   -4.846465503002058e-06   1.4171849802030913e-05
-2.7808705347971723e-06   -2.256178567515253e-06   6.772934875350523e-06
-2.7808705347971723e-06   -2.256178567515253e-06   6.772934875350523e-06
-2.7808705347971723e-06   -2.256178567515253e-06   6.772934875350523e-06
-2.7808705347971723e-06   -2.256178567515253e-06   6.772934875350523e-06
-8.404291337182971e-06   -6.381647207890498e-06   1.8620584063551925e-05
-8.404291337182971e-06   -6.381647207890498e-06   1.8620584063551925e-05
-8.404291337182971e-06   -6.381647207890498e-06   1.8620584063551925e-05
-8.404291337182971e-06   -6.381647207890498e-06   1.8620584063551925e-05
-4.928874269569682e-06   -3.3276472260149333e-06   1.0995822295071063e-05
-4.928874269569682e-06   -3.3276472260149333e-06   1.0995822295071063e-05
-4.928874269569682e-06   -3.3276472260149333e-06   1.0995822295071063e-05
-4.928874269569682e-06   -3.3276472260149333e-06   1.0995822295071063e-05
-8.404291337182954e-06   -2.256178567515253e-06   9.248216059575548e-06
-8.404291337182954e-06   -2.256178567515253e-06   9.248216059575548e-06
-8.404291337182954e-06   -2.256178567515253e-06   9.248216059575548e-06
-8.404291337182954e-06   -2.256178567515253e-06   9.248216059575548e-06
-2.7808705347971723e-06   -6.381647207890498e-06   1.6145302879326805e-05
-2.7808705347971723e-06   -6.381647207890498e-06   1.6145302879326805e-05
-2.7808705347971723e-06   -6.381647207890498e-06   1.6145302879326805e-05
-2.7808705347971723e-06   -6.381647207890498e-06   1.6145302879326805e-05
-3.042759306021774e-06   -2.304670572787494e-06   7.617279314469982e-06
-3.042759306021774e-06   -2.304670572787494e-06   7.617279314469982e-06
-3.042759306021774e-06   -2.304670572787494e-06   7.617279314469982e-06
-3.042759306021774e-06   -2.304670572787494e-06   7.617279314469982e-06
-8.606559063887366e-06   -5.860833569674118e-06   1.902397670904453e-05
-8.606559063887366e-06   -5.860833569674118e-06   1.902397670904453e-05
-8.606559063887366e-06   -5.860833569674118e-06   1.902397670904453e-05
-8.606559063887366e-06   -5.860833569674118e-06   1.902397670904453e-05
-5.574127027238134e-06   -4.054533786528893e-06   1.2886143444742099e-05
-5.574127027238134e-06   -4.054533786528893e-06   1.2886143444742099e-05
-5.574127027238134e-06   -4.054533786528893e-06   1.2886143444742099e-05
-5.574127027238134e-06   -4.054533786528893e-06   1.2886143444742099e-05
-8.60655906388735e-06   -2.304670572787494e-06   9.750977112601923e-06
-8.60655906388735e-06   -2.304670572787494e-06   9.750977112601923e-06
-8.60655906388735e-06   -2.304670572787494e-06   9.750977112601923e-06
-8.60655906388735e-06   -2.304670572787494e-06   9.750977112601923e-06
-3.042759306021774e-06   -5.860833569674118e-06   1.6890278910912584e-05
-3.042759306021774e-06   -5.860833569674118e-06   1.6890278910912584e-05
-3.042759306021774e-06   -5.860833569674118e-06   1.6890278910912584e-05
-3.042759306021774e-06   -5.860833569674118e-06   1.6890278910912584e-05
-3.4711725348644823e-06   -2.318118606545389e-06   8.345387906878428e-06
-3.4711725348644823e-06   -2.318118606545389e-06   8.345387906878428e-06
-3.4711725348644823e-06   -2.318118606545389e-06   8.345387906878428e-06
-3.4711725348644823e-06   -2.318118606545389e-06   8.345387906878428e-06
-9.452484844642303e-06   -5.52975456491199e-06   2.0241223331528033e-05
-9.452484844642303e-06   -5.52975456491199e-06   2.0241223331528033e-05
-9.452484844642303e-06   -5.52975456491199e-06   2.0241223331528033e-05
-9.452484844642303e-06   -5.52975456491199e-06   2.0241223331528033e-05
-5.959108846222344e-06   -3.7042660198626225e-06   1.3323636873798498e-05
-5.959108846222344e-06   -3.7042660198626225e-06   1.3323636873798498e-05
-5.959108846222344e-06   -3.7042660198626225e-06   1.3323636873798498e-05
-5.959108846222344e-06   -3.7042660198626225e-06   1.3323636873798498e-05
-2.4764831856784474e-06   -2.145765841214583e-06   4.17038029688713e-06
-2.4764831856784474e-06   -2.145765841214583e-06   4.17038029688713e-06
-2.4764831856784474e-06   -2.145765841214583e-06   4.17038029688713e-06
-2.4764831856784474e-06   -2.145765841214583e-06   4.17038029688713e-06
-1.3881650938995778e-06   -1.4134651304295148e-06   6.423624209656324e-06
-1.3881650938995778e-06   -1.4134651304295148e-06   6.423624209656324e-06
-1.3881650938995778e-06   -1.4134651304295148e-06   6.423624209656324e-06
-1.3881650938995778e-06   -1.4134651304295148e-06   6.423624209656324e-06
-1.341792472671035e-06   -2.10742946926893e-06   4.736140957743663e-06
-1.341792472671035e-06   -2.10742946926893e-06   4.736140957743663e-06
-1.341792472671035e-06   -2.10742946926893e-06   4.736140957743663e-06
-1.341792472671035e-06   -2.10742946926893e-06   4.736140957743663e-06
-2.7808705347971723e-06   -1.8306433890744674e-06   6.9685327465038045e-06
-2.7808705347971723e-06   -1.8306433890744674e-06   6.9685327465038045e-06
-2.7808705347971723e-06   -1.8306433890744674e-06   6.9685327465038045e-06
-2.7808705347971723e-06   -1.8306433890744674e-06   6.9685327465038045e-06
-1.8697540566805728e-06   -1.7645298059008028e-06   5.410337133071803e-06
-1.8697540566805728e-06   -1.7645298059008028e-06   5.410337133071803e-06
-1.8697540566805728e-06   -1.7645298059008028e-06   5.410337133071803e-06
-1.8697540566805728e-06   -1.7645298059008028e-06   5.410337133071803e-06
-2.7808705347971723e-06   -2.107429469268903e-06   4.570069309626986e-06
-2.7808705347971723e-06   -2.107429469268903e-06   4.570069309626986e-06
-2.7808705347971723e-06   -2.107429469268903e-06   4.570069309626986e-06
-2.7808705347971723e-06   -2.107429469268903e-06   4.570069309626986e-06
-1.341792472671062e-06   -1.8306433890744674e-06   7.134604394620455e-06
-1.341792472671062e-06   -1.8306433890744674e-06   7.134604394620455e-06
-1.341792472671062e-06   -1.8306433890744674e-06   7.134604394620455e-06
-1.341792472671062e-06   -1.8306433890744674e-06   7.134604394620455e-06
-1.3519218617828407e-06   -2.1702336891573683e-06   5.068986509543488e-06
-1.3519218617828407e-06   -2.1702336891573683e-06   5.068986509543488e-06
-1.3519218617828407e-06   -2.1702336891573683e-06   5.068986509543488e-06
-1.3519218617828407e-06   -2.1702336891573683e-06   5.068986509543488e-06
-3.042759306021774e-06   -2.3274289147012887e-06   7.981366051934536e-06
-3.042759306021774e-06   -2.3274289147012887e-06   7.981366051934536e-06
-3.042759306021774e-06   -2.3274289147012887e-06   7.981366051934536e-06
-3.042759306021774e-06   -2.3274289147012887e-06   7.981366051934536e-06
-1.992330935088805e-06   -1.92880408817499e-06   5.99147720446391e-06
-1.992330935088805e-06   -1.92880408817499e-06   5.99147720446391e-06
-1.992330935088805e-06   -1.92880408817499e-06   5.99147720446391e-06
-1.992330935088805e-06   -1.92880408817499e-06   5.99147720446391e-06
-3.0427593060217606e-06   -2.1702336891573683e-06   5.163303644869778e-06
-3.0427593060217606e-06   -2.1702336891573683e-06   5.163303644869778e-06
-3.0427593060217606e-06   -2.1702336891573683e-06   5.163303644869778e-06
-3.0427593060217606e-06   -2.1702336891573683e-06   5.163303644869778e-06
-1.3519218617828407e-06   -2.3274289147012887e-06   7.887048916608192e-06
-1.3519218617828407e-06   -2.3274289147012887e-06   7.887048916608192e-06
-1.3519218617828407e-06   -2.3274289147012887e-06   7.887048916608192e-06
-1.3519218617828407e-06   -2.3274289147012887e-06   7.887048916608192e-06
-1.3866780848706731e-06   -2.2566798840660247e-06   5.570090142851343e-06
-1.3866780848706731e-06   -2.2566798840660247e-06   5.570090142851343e-06
-1.3866780848706731e-06   -2.2566798840660247e-06   5.570090142851343e-06
-1.3866780848706731e-06   -2.2566798840660247e-06   5.570090142851343e-06
-3.4711725348644823e-06   -2.79837231867997e-06   9.3692630202759e-06
-3.4711725348644823e-06   -2.79837231867997e-06   9.3692630202759e-06
-3.4711725348644823e-06   -2.79837231867997e-06   9.3692630202759e-06
-3.4711725348644823e-06   -2.79837231867997e-06   9.3692630202759e-06
-2.133853732390224e-06   -2.099092935671523e-06   6.72083071968048e-06
-2.133853732390224e-06   -2.099092935671523e-06   6.72083071968048e-06
-2.133853732390224e-06   -2.099092935671523e-06   6.72083071968048e-06
-2.133853732390224e-06   -2.099092935671523e-06   6.72083071968048e-06
-1.3881650938995778e-06   -8.833950560687212e-07   1.2534329385764919e-06
-1.3881650938995778e-06   -8.833950560687212e-07   1.2534329385764919e-06
-1.3881650938995778e-06   -8.833950560687212e-07   1.2534329385764919e-06
-1.3881650938995778e-06   -8.833950560687212e-07   1.2534329385764919e-06
-1.045765159072632e-06   1.7533801164843312e-07   2.459339337251696e-06
-1.045765159072632e-06   1.7533801164843312e-07   2.459339337251696e-06
-1.045765159072632e-06   1.7533801164843312e-07   2.459339337251696e-06
-1.045765159072632e-06   1.7533801164843312e-07   2.459339337251696e-06
-8.528161150546572e-07   -1.0313697638003052e-06   1.997448527945526e-06
-8.528161150546572e-07   -1.0313697638003052e-06   1.997448527945526e-06
-8.528161150546572e-07   -1.0313697638003052e-06   1.997448527945526e-06
-8.528161150546572e-07   -1.0313697638003052e-06   1.997448527945526e-06
-1.341792472671062e-06   2.050304921481899e-08   2.18128543616369e-06
-1.341792472671062e-06   2.050304921481899e-08   2.18128543616369e-06
-1.341792472671062e-06   2.050304921481899e-08   2.18128543616369e-06
-1.341792472671062e-06   2.050304921481899e-08   2.18128543616369e-06
-1.085153331830584e-06   -4.355285094785231e-07   2.0271724699788226e-06
-1.085153331830584e-06   -4.355285094785231e-07   2.0271724699788226e-06
-1.085153331830584e-06   -4.355285094785231e-07   2.0271724699788226e-06
-1.085153331830584e-06   -4.355285094785231e-07   2.0271724699788226e-06
-1.341792472671062e-06   -1.0313697638003052e-06   1.3663248401364386e-06
-1.341792472671062e-06   -1.0313697638003052e-06   1.3663248401364386e-06
-1.341792472671062e-06   -1.0313697638003052e-06   1.3663248401364386e-06
-1.341792472671062e-06   -1.0313697638003052e-06   1.3663248401364386e-06
-8.528161150546572e-07   2.050304921481899e-08   2.8124091239727772e-06
-8.528161150546572e-07   2.050304921481899e-08   2.8124091239727772e-06
-8.528161150546572e-07   2.050304921481899e-08   2.8124091239727772e-06
-8.528161150546572e-07   2.050304921481899e-08   2.8124091239727772e-06
-7.497976093503143e-07   -1.1451696734570912e-06   2.1949974371192403e-06
-7.497976093503143e-07   -1.1451696734570912e-06   2.1949974371192403e-06
-7.497976093503143e-07   -1.1451696734570912e-06   2.1949974371192403e-06
-7.497976093503143e-07   -1.1451696734570912e-06   2.1949974371192403e-06
-1.3519218617828407e-06   -2.1865072651061973e-07   2.6426264896721712e-06
-1.3519218617828407e-06   -2.1865072651061973e-07   2.6426264896721712e-06
-1.3519218617828407e-06   -2.1865072651061973e-07   2.6426264896721712e-06
-1.3519218617828407e-06   -2.1865072651061973e-07   2.6426264896721712e-06
-9.89755074704937e-07   -5.533757942145464e-07   2.2398502184979986e-06
-9.89755074704937e-07   -5.533757942145464e-07   2.2398502184979986e-06
-9.89755074704937e-07   -5.533757942145464e-07   2.2398502184979986e-06
-9.89755074704937e-07   -5.533757942145464e-07   2.2398502184979986e-06
-1.3519218617828678e-06   -1.1451696734570912e-06   1.6390860689512984e-06
-1.3519218617828678e-06   -1.1451696734570912e-06   1.6390860689512984e-06
-1.3519218617828678e-06   -1.1451696734570912e-06   1.6390860689512984e-06
-1.3519218617828678e-06   -1.1451696734570912e-06   1.6390860689512984e-06
-7.497976093503143e-07   -2.1865072651061973e-07   3.1985378578400453e-06
-7.497976093503143e-07   -2.1865072651061973e-07   3.1985378578400453e-06
-7.497976093503143e-07   -2.1865072651061973e-07   3.1985378578400453e-06
-7.497976093503143e-07   -2.1865072651061973e-07   3.1985378578400453e-06
-5.921917762744368e-07   -1.293735261746889e-06   2.41515811180129e-06
-5.921917762744368e-07   -1.293735261746889e-06   2.41515811180129e-06
-5.921917762744368e-07   -1.293735261746889e-06   2.41515811180129e-06
-5.921917762744368e-07   -1.293735261746889e-06   2.41515811180129e-06
-1.3866780848706731e-06   -7.019547292745935e-07   3.3842336399782344e-06
-1.3866780848706731e-06   -7.019547292745935e-07   3.3842336399782344e-06
-1.3866780848706731e-06   -7.019547292745935e-07   3.3842336399782344e-06
-1.3866780848706731e-06   -7.019547292745935e-07   3.3842336399782344e-06
-9.152218289549586e-07   -7.306007376537153e-07   2.615660818479663e-06
-9.152218289549586e-07   -7.306007376537153e-07   2.615660818479663e-06
-9.152218289549586e-07   -7.306007376537153e-07   2.615660818479663e-06
-9.152218289549586e-07   -7.306007376537153e-07   2.615660818479663e-06
-1.045765159072632e-06   -9.414407214439484e-08   -1.684575988725729e-06
-1.045765159072632e-06   -9.414407214439484e-08   -1.684575988725729e-06
-1.045765159072632e-06   -9.414407214439484e-08   -1.684575988725729e-06
-1.045765159072632e-06   -9.414407214439484e-08   -1.684575988725729e-06
-2.1028893558324964e-07   1.4340106794310335e-07   -1.4958853219087858e-07
-2.1028893558324964e-07   1.4340106794310335e-07   -1.4958853219087858e-07
-2.1028893558324964e-07   1.4340106794310335e-07   -1.4958853219087858e-07
-2.1028893558324964e-07   1.4340106794310335e-07   -1.4958853219087858e-07
-2.139831299473446e-08   -1.3323201232794948e-07   -1.3100347037300962e-06
-2.139831299473446e-08   -1.3323201232794948e-07   -1.3100347037300962e-06
-2.139831299473446e-08   -1.3323201232794948e-07   -1.3100347037300962e-06
-2.139831299473446e-08   -1.3323201232794948e-07   -1.3100347037300962e-06
-8.528161150546572e-07   2.455836001874819e-07   -1.5162773447290143e-07
-8.528161150546572e-07   2.455836001874819e-07   -1.5162773447290143e-07
-8.528161150546572e-07   2.455836001874819e-07   -1.5162773447290143e-07
-8.528161150546572e-07   2.455836001874819e-07   -1.5162773447290143e-07
-4.867016127628915e-07   6.820713061895817e-08   -6.553926898849086e-07
-4.867016127628915e-07   6.820713061895817e-08   -6.553926898849086e-07
-4.867016127628915e-07   6.820713061895817e-08   -6.553926898849086e-07
-4.867016127628915e-07   6.820713061895817e-08   -6.553926898849086e-07
-8.5281611505463e-07   -1.3323201232794948e-07   -1.5373240712394709e-06
-8.5281611505463e-07   -1.3323201232794948e-07   -1.5373240712394709e-06
-8.5281611505463e-07   -1.3323201232794948e-07   -1.5373240712394709e-06
-8.5281611505463e-07   -1.3323201232794948e-07   -1.5373240712394709e-06
-2.139831299473446e-08   2.455836001874819e-07   7.566163303632419e-08
-2.139831299473446e-08   2.455836001874819e-07   7.566163303632419e-08
-2.139831299473446e-08   2.455836001874819e-07   7.566163303632419e-08
-2.139831299473446e-08   2.455836001874819e-07   7.566163303632419e-08
7.455221285234889e-08   -1.8549182476809895e-07   -1.1583323858607155e-06
7.455221285234889e-08   -1.8549182476809895e-07   -1.1583323858607155e-06
7.455221285234889e-08   -1.8549182476809895e-07   -1.1583323858607155e-06
7.455221285234889e-08   -1.8549182476809895e-07   -1.1583323858607155e-06
-7.497976093503143e-07   2.0326588635099642e-07   -1.7670642194443902e-08
-7.497976093503143e-07   2.0326588635099642e-07   -1.7670642194443902e-08
-7.497976093503143e-07   2.0326588635099642e-07   -1.7670642194443902e-08
-7.497976093503143e-07   2.0326588635099642e-07   -1.7670642194443902e-08
-3.4863553993524444e-07   4.397445491810981e-08   -5.906992323596958e-07
-3.4863553993524444e-07   4.397445491810981e-08   -5.906992323596958e-07
-3.4863553993524444e-07   4.397445491810981e-08   -5.906992323596958e-07
-3.4863553993524444e-07   4.397445491810981e-08   -5.906992323596958e-07
-7.497976093503143e-07   -1.8549182476807185e-07   -1.3915870125321843e-06
-7.497976093503143e-07   -1.8549182476807185e-07   -1.3915870125321843e-06
-7.497976093503143e-07   -1.8549182476807185e-07   -1.3915870125321843e-06
-7.497976093503143e-07   -1.8549182476807185e-07   -1.3915870125321843e-06
7.455221285234889e-08   2.0326588635099642e-07   2.155839844770113e-07
7.455221285234889e-08   2.0326588635099642e-07   2.155839844770113e-07
7.455221285234889e-08   2.0326588635099642e-07   2.155839844770113e-07
7.455221285234889e-08   2.0326588635099642e-07   2.155839844770113e-07
1.9197657885735783e-07   -2.511305887073229e-07   -9.318455692202961e-07
1.9197657885735783e-07   -2.511305887073229e-07   -9.318455692202961e-07
1.9197657885735783e-07   -2.511305887073229e-07   -9.318455692202961e-07
1.9197657885735783e-07   -2.511305887073229e-07   -9.318455692202961e-07
-5.921917762744368e-07   1.6090439032032548e-07   1.2788070191601135e-07
-5.921917762744368e-07   1.6090439032032548e-07   1.2788070191601135e-07
-5.921917762744368e-07   1.6090439032032548e-07   1.2788070191601135e-07
-5.921917762744368e-07   1.6090439032032548e-07   1.2788070191601135e-07
-2.2436759080892354e-07   1.3298539251155686e-08   -3.965960965516234e-07
-2.2436759080892354e-07   1.3298539251155686e-08   -3.965960965516234e-07
-2.2436759080892354e-07   1.3298539251155686e-08   -3.965960965516234e-07
-2.2436759080892354e-07   1.3298539251155686e-08   -3.965960965516234e-07
              </DataArray>   
             <DataArray type="Float64" NumberOfComponents="3" Name="Stress" format="ascii">   
-1.589929792968153   -0.39748244824203827   -0.39748244824203827
-1.589929792968153   -0.39748244824203827   -0.39748244824203827
-1.589929792968153   -0.39748244824203827   -0.39748244824203827
-1.589929792968153   -0.39748244824203827   -0.39748244824203827
-0.9198453352214677   -0.029633153454247912   -0.01863473568719308
-0.9198453352214677   -0.029633153454247912   -0.01863473568719308
-0.9198453352214677   -0.029633153454247912   -0.01863473568719308
-0.9198453352214677   -0.029633153454247912   -0.01863473568719308
-0.991064181818628   -0.247766045454657   -0.247766045454657
-0.991064181818628   -0.247766045454657   -0.247766045454657
-0.991064181818628   -0.247766045454657   -0.247766045454657
-0.991064181818628   -0.247766045454657   -0.247766045454657
-1.5321743000674302   -0.12621071421426205   -0.0483880883417598
-1.5321743000674302   -0.12621071421426205   -0.0483880883417598
-1.5321743000674302   -0.12621071421426205   -0.0483880883417598
-1.5321743000674302   -0.12621071421426205   -0.0483880883417598
-1.2015597223449999   -0.19721752976630078   -0.0033446386884513433
-1.2015597223449999   -0.19721752976630078   -0.0033446386884513433
-1.2015597223449999   -0.19721752976630078   -0.0033446386884513433
-1.2015597223449999   -0.19721752976630078   -0.0033446386884513433
-1.6636161550624764   -0.4159040387656191   -0.4159040387656191
-1.6636161550624764   -0.4159040387656191   -0.4159040387656191
-1.6636161550624764   -0.4159040387656191   -0.4159040387656191
-1.6636161550624764   -0.4159040387656191   -0.4159040387656191
-0.8908337028217299   0.010715903098554802   -0.005095599023377993
-0.8908337028217299   0.010715903098554802   -0.005095599023377993
-0.8908337028217299   0.010715903098554802   -0.005095599023377993
-0.8908337028217299   0.010715903098554802   -0.005095599023377993
-0.9935787982481965   -0.24839469956204913   -0.24839469956204913
-0.9935787982481965   -0.24839469956204913   -0.24839469956204913
-0.9935787982481965   -0.24839469956204913   -0.24839469956204913
-0.9935787982481965   -0.24839469956204913   -0.24839469956204913
-1.5833528825957384   -0.12733325114075353   -0.07086620315291961
-1.5833528825957384   -0.12733325114075353   -0.07086620315291961
-1.5833528825957384   -0.12733325114075353   -0.07086620315291961
-1.5833528825957384   -0.12733325114075353   -0.07086620315291961
-1.2460743568110073   -0.18558216890081553   -0.06610097020521685
-1.2460743568110073   -0.18558216890081553   -0.06610097020521685
-1.2460743568110073   -0.18558216890081553   -0.06610097020521685
-1.2460743568110073   -0.18558216890081553   -0.06610097020521685
-1.7152366574855626   -0.42880916437139066   -0.42880916437139066
-1.7152366574855626   -0.42880916437139066   -0.42880916437139066
-1.7152366574855626   -0.42880916437139066   -0.42880916437139066
-1.7152366574855626   -0.42880916437139066   -0.42880916437139066
-0.8879830414989855   0.026793195527977237   0.0043961890939794995
-0.8879830414989855   0.026793195527977237   0.0043961890939794995
-0.8879830414989855   0.026793195527977237   0.0043961890939794995
-0.8879830414989855   0.026793195527977237   0.0043961890939794995
-0.9927405073342007   -0.24818512683355018   -0.24818512683355018
-0.9927405073342007   -0.24818512683355018   -0.24818512683355018
-0.9927405073342007   -0.24818512683355018   -0.24818512683355018
-0.9927405073342007   -0.24818512683355018   -0.24818512683355018
-1.6748773654024653   -0.11148271216883643   -0.04266561161767227
-1.6748773654024653   -0.11148271216883643   -0.04266561161767227
-1.6748773654024653   -0.11148271216883643   -0.04266561161767227
-1.6748773654024653   -0.11148271216883643   -0.04266561161767227
-1.2789931469893827   -0.1826086558238575   -0.11940845827859928
-1.2789931469893827   -0.1826086558238575   -0.11940845827859928
-1.2789931469893827   -0.1826086558238575   -0.11940845827859928
-1.2789931469893827   -0.1826086558238575   -0.11940845827859928
-1.0113241748813124   -0.2528310437203281   -0.2528310437203281
-1.0113241748813124   -0.2528310437203281   -0.2528310437203281
-1.0113241748813124   -0.2528310437203281   -0.2528310437203281
-1.0113241748813124   -0.2528310437203281   -0.2528310437203281
-0.42232428230644803   -0.02842343776278955   -0.009207761262600644
-0.42232428230644803   -0.02842343776278955   -0.009207761262600644
-0.42232428230644803   -0.02842343776278955   -0.009207761262600644
-0.42232428230644803   -0.02842343776278955   -0.009207761262600644
-0.4430010715959959   -0.11075026789899897   -0.11075026789899897
-0.4430010715959959   -0.11075026789899897   -0.11075026789899897
-0.4430010715959959   -0.11075026789899897   -0.11075026789899897
-0.4430010715959959   -0.11075026789899897   -0.11075026789899897
-0.9205588778014826   -0.10846229775936776   -0.03454327306421966
-0.9205588778014826   -0.10846229775936776   -0.03454327306421966
-0.9205588778014826   -0.10846229775936776   -0.03454327306421966
-0.9205588778014826   -0.10846229775936776   -0.03454327306421966
-0.679147704568574   -0.12876658856997278   0.005259870301041655
-0.679147704568574   -0.12876658856997278   0.005259870301041655
-0.679147704568574   -0.12876658856997278   0.005259870301041655
-0.679147704568574   -0.12876658856997278   0.005259870301041655
-0.9910641818186269   -0.24776604545465672   -0.24776604545465672
-0.9910641818186269   -0.24776604545465672   -0.24776604545465672
-0.9910641818186269   -0.24776604545465672   -0.24776604545465672
-0.9910641818186269   -0.24776604545465672   -0.24776604545465672
-0.39819519747554943   0.0028540498995914265   -0.00032521509535695867
-0.39819519747554943   0.0028540498995914265   -0.00032521509535695867
-0.39819519747554943   0.0028540498995914265   -0.00032521509535695867
-0.39819519747554943   0.0028540498995914265   -0.00032521509535695867
-0.4328413400996988   -0.1082103350249247   -0.1082103350249247
-0.4328413400996988   -0.1082103350249247   -0.1082103350249247
-0.4328413400996988   -0.1082103350249247   -0.1082103350249247
-0.4328413400996988   -0.1082103350249247   -0.1082103350249247
-0.9179720465954044   -0.08840766038526168   -0.03034798047487621
-0.9179720465954044   -0.08840766038526168   -0.03034798047487621
-0.9179720465954044   -0.08840766038526168   -0.03034798047487621
-0.9179720465954044   -0.08840766038526168   -0.03034798047487621
-0.6694211102931252   -0.10834805017122194   -0.03497007697817604
-0.6694211102931252   -0.10834805017122194   -0.03497007697817604
-0.6694211102931252   -0.10834805017122194   -0.03497007697817604
-0.6694211102931252   -0.10834805017122194   -0.03497007697817604
-0.9935787982481965   -0.24839469956204913   -0.24839469956204913
-0.9935787982481965   -0.24839469956204913   -0.24839469956204913
-0.9935787982481965   -0.24839469956204913   -0.24839469956204913
-0.9935787982481965   -0.24839469956204913   -0.24839469956204913
-0.38212643425720394   0.02688485834156558   0.010269000821059589
-0.38212643425720394   0.02688485834156558   0.010269000821059589
-0.38212643425720394   0.02688485834156558   0.010269000821059589
-0.38212643425720394   0.02688485834156558   0.010269000821059589
-0.4235437948938488   -0.1058859487234622   -0.1058859487234622
-0.4235437948938488   -0.1058859487234622   -0.1058859487234622
-0.4235437948938488   -0.1058859487234622   -0.1058859487234622
-0.4235437948938488   -0.1058859487234622   -0.1058859487234622
-0.910930067241733   -0.06813849837050609   -0.01917955483426706
-0.910930067241733   -0.06813849837050609   -0.01917955483426706
-0.910930067241733   -0.06813849837050609   -0.01917955483426706
-0.910930067241733   -0.06813849837050609   -0.01917955483426706
-0.672440038819979   -0.09580398701871487   -0.07787037251158005
-0.672440038819979   -0.09580398701871487   -0.07787037251158005
-0.672440038819979   -0.09580398701871487   -0.07787037251158005
-0.672440038819979   -0.09580398701871487   -0.07787037251158005
-0.4608867138904119   -0.11522167847260298   -0.11522167847260298
-0.4608867138904119   -0.11522167847260298   -0.11522167847260298
-0.4608867138904119   -0.11522167847260298   -0.11522167847260298
-0.4608867138904119   -0.11522167847260298   -0.11522167847260298
0.05380490475119265   0.0033695652104418026   0.0004534029002291732
0.05380490475119265   0.0033695652104418026   0.0004534029002291732
0.05380490475119265   0.0033695652104418026   0.0004534029002291732
0.05380490475119265   0.0033695652104418026   0.0004534029002291732
0.07048001752390745   0.017620004380976863   0.017620004380976863
0.07048001752390745   0.017620004380976863   0.017620004380976863
0.07048001752390745   0.017620004380976863   0.017620004380976863
0.07048001752390745   0.017620004380976863   0.017620004380976863
-0.416443481433895   -0.07197139287663705   -0.01674119211085943
-0.416443481433895   -0.07197139287663705   -0.01674119211085943
-0.416443481433895   -0.07197139287663705   -0.01674119211085943
-0.416443481433895   -0.07197139287663705   -0.01674119211085943
-0.1787240460935258   -0.04531964851927025   0.030114484876272676
-0.1787240460935258   -0.04531964851927025   0.030114484876272676
-0.1787240460935258   -0.04531964851927025   0.030114484876272676
-0.1787240460935258   -0.04531964851927025   0.030114484876272676
-0.4430010715959959   -0.11075026789899897   -0.11075026789899897
-0.4430010715959959   -0.11075026789899897   -0.11075026789899897
-0.4430010715959959   -0.11075026789899897   -0.11075026789899897
-0.4430010715959959   -0.11075026789899897   -0.11075026789899897
0.07177799702352855   0.03113926874085939   0.01059063751919927
0.07177799702352855   0.03113926874085939   0.01059063751919927
0.07177799702352855   0.03113926874085939   0.01059063751919927
0.07177799702352855   0.03113926874085939   0.01059063751919927
0.07963017615492832   0.01990754403873208   0.01990754403873208
0.07963017615492832   0.01990754403873208   0.01990754403873208
0.07963017615492832   0.01990754403873208   0.01990754403873208
0.07963017615492832   0.01990754403873208   0.01990754403873208
-0.40147417717255784   -0.048360861999561744   -0.011223993414589465
-0.40147417717255784   -0.048360861999561744   -0.011223993414589465
-0.40147417717255784   -0.048360861999561744   -0.011223993414589465
-0.40147417717255784   -0.048360861999561744   -0.011223993414589465
-0.1711864389034625   -0.027971930500490905   -0.010375749274421198
-0.1711864389034625   -0.027971930500490905   -0.010375749274421198
-0.1711864389034625   -0.027971930500490905   -0.010375749274421198
-0.1711864389034625   -0.027971930500490905   -0.010375749274421198
-0.4328413400996988   -0.1082103350249247   -0.1082103350249247
-0.4328413400996988   -0.1082103350249247   -0.1082103350249247
-0.4328413400996988   -0.1082103350249247   -0.1082103350249247
-0.4328413400996988   -0.1082103350249247   -0.1082103350249247
0.08624677899192366   0.05500645697395043   0.017891645288489903
0.08624677899192366   0.05500645697395043   0.017891645288489903
0.08624677899192366   0.05500645697395043   0.017891645288489903
0.08624677899192366   0.05500645697395043   0.017891645288489903
0.09184869111725225   0.02296217277931306   0.02296217277931306
0.09184869111725225   0.02296217277931306   0.02296217277931306
0.09184869111725225   0.02296217277931306   0.02296217277931306
0.09184869111725225   0.02296217277931306   0.02296217277931306
-0.38518757831883216   -0.020225512426888956   0.00023469785504284801
-0.38518757831883216   -0.020225512426888956   0.00023469785504284801
-0.38518757831883216   -0.020225512426888956   0.00023469785504284801
-0.38518757831883216   -0.020225512426888956   0.00023469785504284801
-0.16579705476615517   -0.011247765925959469   -0.05050404769431317
-0.16579705476615517   -0.011247765925959469   -0.05050404769431317
-0.16579705476615517   -0.011247765925959469   -0.05050404769431317
-0.16579705476615517   -0.011247765925959469   -0.05050404769431317
0.05893367903228727   0.014733419758071818   0.014733419758071818
0.05893367903228727   0.014733419758071818   0.014733419758071818
0.05893367903228727   0.014733419758071818   0.014733419758071818
0.05893367903228727   0.014733419758071818   0.014733419758071818
0.5752284603006378   0.05281389890652441   0.017896221614766637
0.5752284603006378   0.05281389890652441   0.017896221614766637
0.5752284603006378   0.05281389890652441   0.017896221614766637
0.5752284603006378   0.05281389890652441   0.017896221614766637
0.6248805939121842   0.15622014847804605   0.15622014847804605
0.6248805939121842   0.15622014847804605   0.15622014847804605
0.6248805939121842   0.15622014847804605   0.15622014847804605
0.6248805939121842   0.15622014847804605   0.15622014847804605
0.05366802262677936   -0.040476732630788326   -0.00834323309289951
0.05366802262677936   -0.040476732630788326   -0.00834323309289951
0.05366802262677936   -0.040476732630788326   -0.00834323309289951
0.05366802262677936   -0.040476732630788326   -0.00834323309289951
0.3277777404286525   0.04082444358724196   0.05948214443095979
0.3277777404286525   0.04082444358724196   0.05948214443095979
0.3277777404286525   0.04082444358724196   0.05948214443095979
0.3277777404286525   0.04082444358724196   0.05948214443095979
0.0704800175239077   0.017620004380976925   0.017620004380976925
0.0704800175239077   0.017620004380976925   0.017620004380976925
0.0704800175239077   0.017620004380976925   0.017620004380976925
0.0704800175239077   0.017620004380976925   0.017620004380976925
0.582385795482884   0.07244060793410895   0.027525696875482203
0.582385795482884   0.07244060793410895   0.027525696875482203
0.582385795482884   0.07244060793410895   0.027525696875482203
0.582385795482884   0.07244060793410895   0.027525696875482203
0.6224996171476916   0.1556249042869229   0.1556249042869229
0.6224996171476916   0.1556249042869229   0.1556249042869229
0.6224996171476916   0.1556249042869229   0.1556249042869229
0.6224996171476916   0.1556249042869229   0.1556249042869229
0.0682269217758643   -0.017378127116125894   0.00017694329826936118
0.0682269217758643   -0.017378127116125894   0.00017694329826936118
0.0682269217758643   -0.017378127116125894   0.00017694329826936118
0.0682269217758643   -0.017378127116125894   0.00017694329826936118
0.32565952495338973   0.05369073374608389   0.015402713009766181
0.32565952495338973   0.05369073374608389   0.015402713009766181
0.32565952495338973   0.05369073374608389   0.015402713009766181
0.32565952495338973   0.05369073374608389   0.015402713009766181
0.07963017615492839   0.019907544038732097   0.019907544038732097
0.07963017615492839   0.019907544038732097   0.019907544038732097
0.07963017615492839   0.019907544038732097   0.019907544038732097
0.07963017615492839   0.019907544038732097   0.019907544038732097
0.5856620548461431   0.09290492520958055   0.034157071856522746
0.5856620548461431   0.09290492520958055   0.034157071856522746
0.5856620548461431   0.09290492520958055   0.034157071856522746
0.5856620548461431   0.09290492520958055   0.034157071856522746
0.6348393020371361   0.15870982550928403   0.15870982550928403
0.6348393020371361   0.15870982550928403   0.15870982550928403
0.6348393020371361   0.15870982550928403   0.15870982550928403
0.6348393020371361   0.15870982550928403   0.15870982550928403
0.08723831501043955   0.013153169939299155   0.009719295085262827
0.08723831501043955   0.013153169939299155   0.009719295085262827
0.08723831501043955   0.013153169939299155   0.009719295085262827
0.08723831501043955   0.013153169939299155   0.009719295085262827
0.3309999611728873   0.07291048390692972   -0.025467003974637064
0.3309999611728873   0.07291048390692972   -0.025467003974637064
0.3309999611728873   0.07291048390692972   -0.025467003974637064
0.3309999611728873   0.07291048390692972   -0.025467003974637064
0.6234293735515328   0.1558573433878832   0.1558573433878832
0.6234293735515328   0.1558573433878832   0.1558573433878832
0.6234293735515328   0.1558573433878832   0.1558573433878832
0.6234293735515328   0.1558573433878832   0.1558573433878832
1.294973234506144   0.09880533071612899   0.03424413664041768
1.294973234506144   0.09880533071612899   0.03424413664041768
1.294973234506144   0.09880533071612899   0.03424413664041768
1.294973234506144   0.09880533071612899   0.03424413664041768
1.3239982699966324   0.3309995674991581   0.3309995674991581
1.3239982699966324   0.3309995674991581   0.3309995674991581
1.3239982699966324   0.3309995674991581   0.3309995674991581
1.3239982699966324   0.3309995674991581   0.3309995674991581
0.5555271924281032   -0.03143324893605676   -0.002893461528256522
0.5555271924281032   -0.03143324893605676   -0.002893461528256522
0.5555271924281032   -0.03143324893605676   -0.002893461528256522
0.5555271924281032   -0.03143324893605676   -0.002893461528256522
0.9233217729029243   0.13078472973534933   0.10411193679589939
0.9233217729029243   0.13078472973534933   0.10411193679589939
0.9233217729029243   0.13078472973534933   0.10411193679589939
0.9233217729029243   0.13078472973534933   0.10411193679589939
0.6248805939121836   0.1562201484780459   0.1562201484780459
0.6248805939121836   0.1562201484780459   0.1562201484780459
0.6248805939121836   0.1562201484780459   0.1562201484780459
0.6248805939121836   0.1562201484780459   0.1562201484780459
1.2271059539888214   0.11580725556132898   0.061730299397951924
1.2271059539888214   0.11580725556132898   0.061730299397951924
1.2271059539888214   0.11580725556132898   0.061730299397951924
1.2271059539888214   0.11580725556132898   0.061730299397951924
1.284799025754169   0.32119975643854226   0.32119975643854226
1.284799025754169   0.32119975643854226   0.32119975643854226
1.284799025754169   0.32119975643854226   0.32119975643854226
1.284799025754169   0.32119975643854226   0.32119975643854226
0.5577492626224526   -0.01717686064076948   0.004674896588420047
0.5577492626224526   -0.01717686064076948   0.004674896588420047
0.5577492626224526   -0.01717686064076948   0.004674896588420047
0.5577492626224526   -0.01717686064076948   0.004674896588420047
0.8962672751960374   0.13465265547179112   0.04990457625910383
0.8962672751960374   0.13465265547179112   0.04990457625910383
0.8962672751960374   0.13465265547179112   0.04990457625910383
0.8962672751960374   0.13465265547179112   0.04990457625910383
0.6224996171476916   0.1556249042869229   0.1556249042869229
0.6224996171476916   0.1556249042869229   0.1556249042869229
0.6224996171476916   0.1556249042869229   0.1556249042869229
0.6224996171476916   0.1556249042869229   0.1556249042869229
1.1879247123236805   0.11627403260560401   0.04175391311905693
1.1879247123236805   0.11627403260560401   0.04175391311905693
1.1879247123236805   0.11627403260560401   0.04175391311905693
1.1879247123236805   0.11627403260560401   0.04175391311905693
1.226235981687517   0.30655899542187925   0.30655899542187925
1.226235981687517   0.30655899542187925   0.30655899542187925
1.226235981687517   0.30655899542187925   0.30655899542187925
1.226235981687517   0.30655899542187925   0.30655899542187925
0.5786890071272689   0.018738915998666464   0.017929260470565065
0.5786890071272689   0.018738915998666464   0.017929260470565065
0.5786890071272689   0.018738915998666464   0.017929260470565065
0.5786890071272689   0.018738915998666464   0.017929260470565065
0.8585173654921616   0.14610899407254554   -0.013177263990962506
0.8585173654921616   0.14610899407254554   -0.013177263990962506
0.8585173654921616   0.14610899407254554   -0.013177263990962506
0.8585173654921616   0.14610899407254554   -0.013177263990962506
-1.254056248750322   -0.08984672507258099   0.014508319749997688
-1.254056248750322   -0.08984672507258099   0.014508319749997688
-1.254056248750322   -0.08984672507258099   0.014508319749997688
-1.254056248750322   -0.08984672507258099   0.014508319749997688
-0.7986106891617957   -0.01879380268858133   -0.005301727087681063
-0.7986106891617957   -0.01879380268858133   -0.005301727087681063
-0.7986106891617957   -0.01879380268858133   -0.005301727087681063
-0.7986106891617957   -0.01879380268858133   -0.005301727087681063
-0.8037106585549381   0.03256603939997982   0.017032038216958215
-0.8037106585549381   0.03256603939997982   0.017032038216958215
-0.8037106585549381   0.03256603939997982   0.017032038216958215
-0.8037106585549381   0.03256603939997982   0.017032038216958215
-1.2725701722678862   -0.0870030072629607   -0.01524143340022694
-1.2725701722678862   -0.0870030072629607   -0.01524143340022694
-1.2725701722678862   -0.0870030072629607   -0.01524143340022694
-1.2725701722678862   -0.0870030072629607   -0.01524143340022694
-0.9916565533786192   -0.03398324905532793   -0.0041317125306998825
-0.9916565533786192   -0.03398324905532793   -0.0041317125306998825
-0.9916565533786192   -0.03398324905532793   -0.0041317125306998825
-0.9916565533786192   -0.03398324905532793   -0.0041317125306998825
-1.2631423192997335   -0.061456446297379785   0.006351270474955581
-1.2631423192997335   -0.061456446297379785   0.006351270474955581
-1.2631423192997335   -0.061456446297379785   0.006351270474955581
-1.2631423192997335   -0.061456446297379785   0.006351270474955581
-0.8144549955396005   0.005702994417891988   -0.009826601724252912
-0.8144549955396005   0.005702994417891988   -0.009826601724252912
-0.8144549955396005   0.005702994417891988   -0.009826601724252912
-0.8144549955396005   0.005702994417891988   -0.009826601724252912
-0.8044842707910221   0.046479097086858434   0.019326926180423885
-0.8044842707910221   0.046479097086858434   0.019326926180423885
-0.8044842707910221   0.046479097086858434   0.019326926180423885
-0.8044842707910221   0.046479097086858434   0.019326926180423885
-1.2800255967192902   -0.07656601124739268   -0.020101781976064097
-1.2800255967192902   -0.07656601124739268   -0.020101781976064097
-1.2800255967192902   -0.07656601124739268   -0.020101781976064097
-1.2800255967192902   -0.07656601124739268   -0.020101781976064097
-1.0192734317681544   -0.022675328124671268   -0.009763175252188554
-1.0192734317681544   -0.022675328124671268   -0.009763175252188554
-1.0192734317681544   -0.022675328124671268   -0.009763175252188554
-1.0192734317681544   -0.022675328124671268   -0.009763175252188554
-1.2568475506646724   -0.036678713928360224   0.05590115097798106
-1.2568475506646724   -0.036678713928360224   0.05590115097798106
-1.2568475506646724   -0.036678713928360224   0.05590115097798106
-1.2568475506646724   -0.036678713928360224   0.05590115097798106
-0.8180545518061789   0.016199564807286182   -0.018244946615780987
-0.8180545518061789   0.016199564807286182   -0.018244946615780987
-0.8180545518061789   0.016199564807286182   -0.018244946615780987
-0.8180545518061789   0.016199564807286182   -0.018244946615780987
-0.7896438706331924   0.08108144368839657   0.03492167289922152
-0.7896438706331924   0.08108144368839657   0.03492167289922152
-0.7896438706331924   0.08108144368839657   0.03492167289922152
-0.7896438706331924   0.08108144368839657   0.03492167289922152
-1.24426331387327   -0.06161856273005248   -0.032793278454701404
-1.24426331387327   -0.06161856273005248   -0.032793278454701404
-1.24426331387327   -0.06161856273005248   -0.032793278454701404
-1.24426331387327   -0.06161856273005248   -0.032793278454701404
-0.9800047067814739   0.009312714073267864   0.021782155255763762
-0.9800047067814739   0.009312714073267864   0.021782155255763762
-0.9800047067814739   0.009312714073267864   0.021782155255763762
-0.9800047067814739   0.009312714073267864   0.021782155255763762
-0.8183395555075564   -0.10861076037625353   -0.014129101128812133
-0.8183395555075564   -0.10861076037625353   -0.014129101128812133
-0.8183395555075564   -0.10861076037625353   -0.014129101128812133
-0.8183395555075564   -0.10861076037625353   -0.014129101128812133
-0.3774900322804149   -0.008633852266968806   0.0039489220863249755
-0.3774900322804149   -0.008633852266968806   0.0039489220863249755
-0.3774900322804149   -0.008633852266968806   0.0039489220863249755
-0.3774900322804149   -0.008633852266968806   0.0039489220863249755
-0.38281388310280173   0.007157455228489248   0.005810497176384478
-0.38281388310280173   0.007157455228489248   0.005810497176384478
-0.38281388310280173   0.007157455228489248   0.005810497176384478
-0.38281388310280173   0.007157455228489248   0.005810497176384478
-0.8344439751175078   -0.07946573454566937   -0.024602770650241062
-0.8344439751175078   -0.07946573454566937   -0.024602770650241062
-0.8344439751175078   -0.07946573454566937   -0.024602770650241062
-0.8344439751175078   -0.07946573454566937   -0.024602770650241062
-0.6032731813799707   -0.04909779710295144   -0.013928178592493224
-0.6032731813799707   -0.04909779710295144   -0.013928178592493224
-0.6032731813799707   -0.04909779710295144   -0.013928178592493224
-0.6032731813799707   -0.04909779710295144   -0.013928178592493224
-0.8336208341606306   -0.08679716208388262   -0.013155638327646029
-0.8336208341606306   -0.08679716208388262   -0.013155638327646029
-0.8336208341606306   -0.08679716208388262   -0.013155638327646029
-0.8336208341606306   -0.08679716208388262   -0.013155638327646029
-0.3821539689121795   0.01597193791420233   0.000295585443785433
-0.3821539689121795   0.01597193791420233   0.000295585443785433
-0.3821539689121795   0.01597193791420233   0.000295585443785433
-0.3821539689121795   0.01597193791420233   0.000295585443785433
-0.3812071597317994   0.026578364142842814   0.007817255302043136
-0.3812071597317994   0.026578364142842814   0.007817255302043136
-0.3812071597317994   0.026578364142842814   0.007817255302043136
-0.3812071597317994   0.026578364142842814   0.007817255302043136
-0.8345982006113414   -0.05813982017677827   -0.026623805657535693
-0.8345982006113414   -0.05813982017677827   -0.026623805657535693
-0.8345982006113414   -0.05813982017677827   -0.026623805657535693
-0.8345982006113414   -0.05813982017677827   -0.026623805657535693
-0.6019376007436382   -0.02728490710374311   -0.0066289851998869685
-0.6019376007436382   -0.02728490710374311   -0.0066289851998869685
-0.6019376007436382   -0.02728490710374311   -0.0066289851998869685
-0.6019376007436382   -0.02728490710374311   -0.0066289851998869685
-0.8313031662391498   -0.06555164917808934   -0.002736804795267153
-0.8313031662391498   -0.06555164917808934   -0.002736804795267153
-0.8313031662391498   -0.06555164917808934   -0.002736804795267153
-0.8313031662391498   -0.06555164917808934   -0.002736804795267153
-0.38174604678722046   0.03674634046092547   -0.005045156293137912
-0.38174604678722046   0.03674634046092547   -0.005045156293137912
-0.38174604678722046   0.03674634046092547   -0.005045156293137912
-0.38174604678722046   0.03674634046092547   -0.005045156293137912
-0.3746667150766164   0.04606966419494103   0.01559790582785199
-0.3746667150766164   0.04606966419494103   0.01559790582785199
-0.3746667150766164   0.04606966419494103   0.01559790582785199
-0.3746667150766164   0.04606966419494103   0.01559790582785199
-0.8254775107165908   -0.03349636039171364   -0.02966872343766331
-0.8254775107165908   -0.03349636039171364   -0.02966872343766331
-0.8254775107165908   -0.03349636039171364   -0.02966872343766331
-0.8254775107165908   -0.03349636039171364   -0.02966872343766331
-0.5992441676492369   -0.006639705915541999   0.0029998068268226943
-0.5992441676492369   -0.006639705915541999   0.0029998068268226943
-0.5992441676492369   -0.006639705915541999   0.0029998068268226943
-0.5992441676492369   -0.006639705915541999   0.0029998068268226943
-0.3979868051515938   -0.09042768021455802   -0.016741114321983497
-0.3979868051515938   -0.09042768021455802   -0.016741114321983497
-0.3979868051515938   -0.09042768021455802   -0.016741114321983497
-0.3979868051515938   -0.09042768021455802   -0.016741114321983497
0.04033012856086882   0.009157806282143988   0.015502998849784769
0.04033012856086882   0.009157806282143988   0.015502998849784769
0.04033012856086882   0.009157806282143988   0.015502998849784769
0.04033012856086882   0.009157806282143988   0.015502998849784769
0.03861918596215476   0.022643591921678363   0.0012710644846689071
0.03861918596215476   0.022643591921678363   0.0012710644846689071
0.03861918596215476   0.022643591921678363   0.0012710644846689071
0.03861918596215476   0.022643591921678363   0.0012710644846689071
-0.39951496135868686   -0.0598401213321805   -0.010697317542371576
-0.39951496135868686   -0.0598401213321805   -0.010697317542371576
-0.39951496135868686   -0.0598401213321805   -0.010697317542371576
-0.39951496135868686   -0.0598401213321805   -0.010697317542371576
-0.18137841912151106   -0.030047231325025642   -0.0057894518177393
-0.18137841912151106   -0.030047231325025642   -0.0057894518177393
-0.18137841912151106   -0.030047231325025642   -0.0057894518177393
-0.18137841912151106   -0.030047231325025642   -0.0057894518177393
-0.40228370502304384   -0.06888952550963544   -0.015491631686701503
-0.40228370502304384   -0.06888952550963544   -0.015491631686701503
-0.40228370502304384   -0.06888952550963544   -0.015491631686701503
-0.40228370502304384   -0.06888952550963544   -0.015491631686701503
0.042912304272208004   0.033217370744829576   0.012162877211783937
0.042912304272208004   0.033217370744829576   0.012162877211783937
0.042912304272208004   0.033217370744829576   0.012162877211783937
0.042912304272208004   0.033217370744829576   0.012162877211783937
0.041911985632104104   0.04399904744045527   0.0071893909808336525
0.041911985632104104   0.04399904744045527   0.0071893909808336525
0.041911985632104104   0.04399904744045527   0.0071893909808336525
0.041911985632104104   0.04399904744045527   0.0071893909808336525
-0.39804158763585296   -0.03641682849299327   -0.013359691582388554
-0.39804158763585296   -0.03641682849299327   -0.013359691582388554
-0.39804158763585296   -0.03641682849299327   -0.013359691582388554
-0.39804158763585296   -0.03641682849299327   -0.013359691582388554
-0.1783753097048409   -0.0073638009836338655   0.0020917304961264403
-0.1783753097048409   -0.0073638009836338655   0.0020917304961264403
-0.1783753097048409   -0.0073638009836338655   0.0020917304961264403
-0.1783753097048409   -0.0073638009836338655   0.0020917304961264403
-0.3991247351002921   -0.047237188651421846   -0.00795506874615572
-0.3991247351002921   -0.047237188651421846   -0.00795506874615572
-0.3991247351002921   -0.047237188651421846   -0.00795506874615572
-0.3991247351002921   -0.047237188651421846   -0.00795506874615572
0.044637109624585544   0.056461384126926736   0.008352674256769103
0.044637109624585544   0.056461384126926736   0.008352674256769103
0.044637109624585544   0.056461384126926736   0.008352674256769103
0.044637109624585544   0.056461384126926736   0.008352674256769103
0.04307090952505592   0.0677398766364014   0.01180315532760655
0.04307090952505592   0.0677398766364014   0.01180315532760655
0.04307090952505592   0.0677398766364014   0.01180315532760655
0.04307090952505592   0.0677398766364014   0.01180315532760655
-0.3926489053870966   -0.011390321186923666   -0.016853060342683173
-0.3926489053870966   -0.011390321186923666   -0.016853060342683173
-0.3926489053870966   -0.011390321186923666   -0.016853060342683173
-0.3926489053870966   -0.011390321186923666   -0.016853060342683173
-0.1737320889734857   0.01635719317684175   0.010720131224968276
-0.1737320889734857   0.01635719317684175   0.010720131224968276
-0.1737320889734857   0.01635719317684175   0.010720131224968276
-0.1737320889734857   0.01635719317684175   0.010720131224968276
0.017999817102577254   -0.06634102040662236   -0.02064973175290674
0.017999817102577254   -0.06634102040662236   -0.02064973175290674
0.017999817102577254   -0.06634102040662236   -0.02064973175290674
0.017999817102577254   -0.06634102040662236   -0.02064973175290674
0.47211089257919747   0.03247671860166945   0.028512767047802996
0.47211089257919747   0.03247671860166945   0.028512767047802996
0.47211089257919747   0.03247671860166945   0.028512767047802996
0.47211089257919747   0.03247671860166945   0.028512767047802996
0.47170043820801316   0.04387912977815198   -0.00459633662943267
0.47170043820801316   0.04387912977815198   -0.00459633662943267
0.47170043820801316   0.04387912977815198   -0.00459633662943267
0.47170043820801316   0.04387912977815198   -0.00459633662943267
0.02648037342611153   -0.03973407736689448   0.0029546710930256157
0.02648037342611153   -0.03973407736689448   0.0029546710930256157
0.02648037342611153   -0.03973407736689448   0.0029546710930256157
0.02648037342611153   -0.03973407736689448   0.0029546710930256157
0.24401692559067803   -0.005763241679670801   0.0004572676458584942
0.24401692559067803   -0.005763241679670801   0.0004572676458584942
0.24401692559067803   -0.005763241679670801   0.0004572676458584942
0.24401692559067803   -0.005763241679670801   0.0004572676458584942
0.021058475708971798   -0.04842314530640282   -0.015465749553164428
0.021058475708971798   -0.04842314530640282   -0.015465749553164428
0.021058475708971798   -0.04842314530640282   -0.015465749553164428
0.021058475708971798   -0.04842314530640282   -0.015465749553164428
0.4798731433146451   0.05531900510715177   0.024827313574723307
0.4798731433146451   0.05531900510715177   0.024827313574723307
0.4798731433146451   0.05531900510715177   0.024827313574723307
0.4798731433146451   0.05531900510715177   0.024827313574723307
0.47566149808831654   0.06501244025902089   0.004695203861551098
0.47566149808831654   0.06501244025902089   0.004695203861551098
0.47566149808831654   0.06501244025902089   0.004695203861551098
0.47566149808831654   0.06501244025902089   0.004695203861551098
0.027658768889426595   -0.018788617731967   -0.0012890275601316597
0.027658768889426595   -0.018788617731967   -0.0012890275601316597
0.027658768889426595   -0.018788617731967   -0.0012890275601316597
0.027658768889426595   -0.018788617731967   -0.0012890275601316597
0.247504061569572   0.014430005121990122   0.010144797503054116
0.247504061569572   0.014430005121990122   0.010144797503054116
0.247504061569572   0.014430005121990122   0.010144797503054116
0.247504061569572   0.014430005121990122   0.010144797503054116
0.023688691598818798   -0.028588973466846974   -0.01133905827829055
0.023688691598818798   -0.028588973466846974   -0.01133905827829055
0.023688691598818798   -0.028588973466846974   -0.01133905827829055
0.023688691598818798   -0.028588973466846974   -0.01133905827829055
0.4816239975928695   0.07680521820784472   0.02271492343548403
0.4816239975928695   0.07680521820784472   0.02271492343548403
0.4816239975928695   0.07680521820784472   0.02271492343548403
0.4816239975928695   0.07680521820784472   0.02271492343548403
0.4682143284257638   0.08939773115772669   0.00996608776207621
0.4682143284257638   0.08939773115772669   0.00996608776207621
0.4682143284257638   0.08939773115772669   0.00996608776207621
0.4682143284257638   0.08939773115772669   0.00996608776207621
0.027600681241768687   0.00711564899395949   -0.004923758446387716
0.027600681241768687   0.00711564899395949   -0.004923758446387716
0.027600681241768687   0.00711564899395949   -0.004923758446387716
0.027600681241768687   0.00711564899395949   -0.004923758446387716
0.2513889434911683   0.0375085798313511   0.019123848814343695
0.2513889434911683   0.0375085798313511   0.019123848814343695
0.2513889434911683   0.0375085798313511   0.019123848814343695
0.2513889434911683   0.0375085798313511   0.019123848814343695
0.4346948855714897   -0.08776439689724894   -0.03832615249181744
0.4346948855714897   -0.08776439689724894   -0.03832615249181744
0.4346948855714897   -0.08776439689724894   -0.03832615249181744
0.4346948855714897   -0.08776439689724894   -0.03832615249181744
0.8960190066481925   0.05919473067636152   0.02795771275289142
0.8960190066481925   0.05919473067636152   0.02795771275289142
0.8960190066481925   0.05919473067636152   0.02795771275289142
0.8960190066481925   0.05919473067636152   0.02795771275289142
0.9064027172841704   0.02778577265767454   -0.05767387841566833
0.9064027172841704   0.02778577265767454   -0.05767387841566833
0.9064027172841704   0.02778577265767454   -0.05767387841566833
0.9064027172841704   0.02778577265767454   -0.05767387841566833
0.46365536046623274   -0.017724093720889025   0.016781498160698148
0.46365536046623274   -0.017724093720889025   0.016781498160698148
0.46365536046623274   -0.017724093720889025   0.016781498160698148
0.46365536046623274   -0.017724093720889025   0.016781498160698148
0.641588289142286   -0.011411045555521498   -0.016203352539590946
0.641588289142286   -0.011411045555521498   -0.016203352539590946
0.641588289142286   -0.011411045555521498   -0.016203352539590946
0.641588289142286   -0.011411045555521498   -0.016203352539590946
0.4472155387192046   -0.05762102352604129   -0.025520680769283537
0.4472155387192046   -0.05762102352604129   -0.025520680769283537
0.4472155387192046   -0.05762102352604129   -0.025520680769283537
0.4472155387192046   -0.05762102352604129   -0.025520680769283537
0.9311135118538385   0.07595367528546829   0.017712191804878798
0.9311135118538385   0.07595367528546829   0.017712191804878798
0.9311135118538385   0.07595367528546829   0.017712191804878798
0.9311135118538385   0.07595367528546829   0.017712191804878798
0.916740692969615   0.05102667221598761   -0.01329886947495798
0.916740692969615   0.05102667221598761   -0.01329886947495798
0.916740692969615   0.05102667221598761   -0.01329886947495798
0.916740692969615   0.05102667221598761   -0.01329886947495798
0.46201667207334673   -0.007257253549431922   0.008740767595146894
0.46201667207334673   -0.007257253549431922   0.008740767595146894
0.46201667207334673   -0.007257253549431922   0.008740767595146894
0.46201667207334673   -0.007257253549431922   0.008740767595146894
0.6755583196032063   0.016895463414849127   0.01113970642742177
0.6755583196032063   0.016895463414849127   0.01113970642742177
0.6755583196032063   0.016895463414849127   0.01113970642742177
0.6755583196032063   0.016895463414849127   0.01113970642742177
0.4487949612275684   -0.044023090228387046   -0.020601949954785516
0.4487949612275684   -0.044023090228387046   -0.020601949954785516
0.4487949612275684   -0.044023090228387046   -0.020601949954785516
0.4487949612275684   -0.044023090228387046   -0.020601949954785516
0.9288897585093874   0.08671986358893755   0.011753266850953549
0.9288897585093874   0.08671986358893755   0.011753266850953549
0.9288897585093874   0.08671986358893755   0.011753266850953549
0.9288897585093874   0.08671986358893755   0.011753266850953549
0.9156069022098827   0.07848307482928278   -0.02026784045896723
0.9156069022098827   0.07848307482928278   -0.02026784045896723
0.9156069022098827   0.07848307482928278   -0.02026784045896723
0.9156069022098827   0.07848307482928278   -0.02026784045896723
0.452684626963305   0.01679108828291577   0.004924223324585347
0.452684626963305   0.01679108828291577   0.004924223324585347
0.452684626963305   0.01679108828291577   0.004924223324585347
0.452684626963305   0.01679108828291577   0.004924223324585347
0.6585614496200994   0.029748623795524412   0.008380202956126136
0.6585614496200994   0.029748623795524412   0.008380202956126136
0.6585614496200994   0.029748623795524412   0.008380202956126136
0.6585614496200994   0.029748623795524412   0.008380202956126136
-0.9835572643855892   -0.04451085665629051   0.051059578297566466
-0.9835572643855892   -0.04451085665629051   0.051059578297566466
-0.9835572643855892   -0.04451085665629051   0.051059578297566466
-0.9835572643855892   -0.04451085665629051   0.051059578297566466
-0.653857976361141   -0.025117331053949477   -0.013285655937218317
-0.653857976361141   -0.025117331053949477   -0.013285655937218317
-0.653857976361141   -0.025117331053949477   -0.013285655937218317
-0.653857976361141   -0.025117331053949477   -0.013285655937218317
-0.6300435714656365   0.05310905309936251   0.04279226760913956
-0.6300435714656365   0.05310905309936251   0.04279226760913956
-0.6300435714656365   0.05310905309936251   0.04279226760913956
-0.6300435714656365   0.05310905309936251   0.04279226760913956
-0.9880021742191216   -0.07063419946685959   -0.020791178840406585
-0.9880021742191216   -0.07063419946685959   -0.020791178840406585
-0.9880021742191216   -0.07063419946685959   -0.020791178840406585
-0.9880021742191216   -0.07063419946685959   -0.020791178840406585
-0.7808627003029793   -0.012068075891216501   -0.0016326778681403642
-0.7808627003029793   -0.012068075891216501   -0.0016326778681403642
-0.7808627003029793   -0.012068075891216501   -0.0016326778681403642
-0.7808627003029793   -0.012068075891216501   -0.0016326778681403642
-0.9603034835396498   -0.01007313984937458   0.05714121493946738
-0.9603034835396498   -0.01007313984937458   0.05714121493946738
-0.9603034835396498   -0.01007313984937458   0.05714121493946738
-0.9603034835396498   -0.01007313984937458   0.05714121493946738
-0.6533839854938467   -0.003093729866860878   -0.01770701956568789
-0.6533839854938467   -0.003093729866860878   -0.01770701956568789
-0.6533839854938467   -0.003093729866860878   -0.01770701956568789
-0.6533839854938467   -0.003093729866860878   -0.01770701956568789
-0.6273755056526099   0.06591052378653067   0.03963080212687237
-0.6273755056526099   0.06591052378653067   0.03963080212687237
-0.6273755056526099   0.06591052378653067   0.03963080212687237
-0.6273755056526099   0.06591052378653067   0.03963080212687237
-0.9724846077719347   -0.0590193084244417   -0.028436097611581085
-0.9724846077719347   -0.0590193084244417   -0.028436097611581085
-0.9724846077719347   -0.0590193084244417   -0.028436097611581085
-0.9724846077719347   -0.0590193084244417   -0.028436097611581085
-0.782346465967627   0.0029696971470128397   0.008923021578846599
-0.782346465967627   0.0029696971470128397   0.008923021578846599
-0.782346465967627   0.0029696971470128397   0.008923021578846599
-0.782346465967627   0.0029696971470128397   0.008923021578846599
-0.946703206917022   0.002007618963318164   0.03944397927522209
-0.946703206917022   0.002007618963318164   0.03944397927522209
-0.946703206917022   0.002007618963318164   0.03944397927522209
-0.946703206917022   0.002007618963318164   0.03944397927522209
-0.65172175831946   0.006318744586834485   -0.022508682007674877
-0.65172175831946   0.006318744586834485   -0.022508682007674877
-0.65172175831946   0.006318744586834485   -0.022508682007674877
-0.65172175831946   0.006318744586834485   -0.022508682007674877
-0.6278935565756267   0.07450365866061548   0.031448071200995124
-0.6278935565756267   0.07450365866061548   0.031448071200995124
-0.6278935565756267   0.07450365866061548   0.031448071200995124
-0.6278935565756267   0.07450365866061548   0.031448071200995124
-0.9524007728891414   -0.046622878523238404   -0.0362352199681031
-0.9524007728891414   -0.046622878523238404   -0.0362352199681031
-0.9524007728891414   -0.046622878523238404   -0.0362352199681031
-0.9524007728891414   -0.046622878523238404   -0.0362352199681031
-0.759710342436931   0.01646219794778883   0.01873201318365616
-0.759710342436931   0.01646219794778883   0.01873201318365616
-0.759710342436931   0.01646219794778883   0.01873201318365616
-0.759710342436931   0.01646219794778883   0.01873201318365616
-0.6556822152214964   -0.06213909127586649   0.014614909982921798
-0.6556822152214964   -0.06213909127586649   0.014614909982921798
-0.6556822152214964   -0.06213909127586649   0.014614909982921798
-0.6556822152214964   -0.06213909127586649   0.014614909982921798
-0.3317411523027368   -0.0121506763957729   0.0006060596097180182
-0.3317411523027368   -0.0121506763957729   0.0006060596097180182
-0.3317411523027368   -0.0121506763957729   0.0006060596097180182
-0.3317411523027368   -0.0121506763957729   0.0006060596097180182
-0.32221225120677455   0.0325493897056405   0.023241126695575088
-0.32221225120677455   0.0325493897056405   0.023241126695575088
-0.32221225120677455   0.0325493897056405   0.023241126695575088
-0.32221225120677455   0.0325493897056405   0.023241126695575088
-0.6660717847500167   -0.0612789952576684   -0.022960750455737266
-0.6660717847500167   -0.0612789952576684   -0.022960750455737266
-0.6660717847500167   -0.0612789952576684   -0.022960750455737266
-0.6660717847500167   -0.0612789952576684   -0.022960750455737266
-0.4921942927849092   -0.024155310545727546   -0.010065189356130044
-0.4921942927849092   -0.024155310545727546   -0.010065189356130044
-0.4921942927849092   -0.024155310545727546   -0.010065189356130044
-0.4921942927849092   -0.024155310545727546   -0.010065189356130044
-0.6535077581448265   -0.035534882965479506   0.01411527027802702
-0.6535077581448265   -0.035534882965479506   0.01411527027802702
-0.6535077581448265   -0.035534882965479506   0.01411527027802702
-0.6535077581448265   -0.035534882965479506   0.01411527027802702
-0.33223745285576317   0.00934410236965548   -0.0036795942133791143
-0.33223745285576317   0.00934410236965548   -0.0036795942133791143
-0.33223745285576317   0.00934410236965548   -0.0036795942133791143
-0.33223745285576317   0.00934410236965548   -0.0036795942133791143
-0.32110361620181727   0.053902199497121994   0.020091708302441627
-0.32110361620181727   0.053902199497121994   0.020091708302441627
-0.32110361620181727   0.053902199497121994   0.020091708302441627
-0.32110361620181727   0.053902199497121994   0.020091708302441627
-0.6621808774405805   -0.041364900870656224   -0.02712063215579373
-0.6621808774405805   -0.041364900870656224   -0.02712063215579373
-0.6621808774405805   -0.041364900870656224   -0.02712063215579373
-0.6621808774405805   -0.041364900870656224   -0.02712063215579373
-0.4867248098742918   -0.0025803178009798228   -8.640930389290993e-05
-0.4867248098742918   -0.0025803178009798228   -8.640930389290993e-05
-0.4867248098742918   -0.0025803178009798228   -8.640930389290993e-05
-0.4867248098742918   -0.0025803178009798228   -8.640930389290993e-05
-0.64936234763338   -0.01387205437314018   0.009479170382693358
-0.64936234763338   -0.01387205437314018   0.009479170382693358
-0.64936234763338   -0.01387205437314018   0.009479170382693358
-0.64936234763338   -0.01387205437314018   0.009479170382693358
-0.3318554335129602   0.028476065495665892   -0.008241244251811133
-0.3318554335129602   0.028476065495665892   -0.008241244251811133
-0.3318554335129602   0.028476065495665892   -0.008241244251811133
-0.3318554335129602   0.028476065495665892   -0.008241244251811133
-0.3209225713002916   0.0763566940848877   0.015041609529040295
-0.3209225713002916   0.0763566940848877   0.015041609529040295
-0.3209225713002916   0.0763566940848877   0.015041609529040295
-0.3209225713002916   0.0763566940848877   0.015041609529040295
-0.658890073501412   -0.019853967338238937   -0.029176887429080138
-0.658890073501412   -0.019853967338238937   -0.029176887429080138
-0.658890073501412   -0.019853967338238937   -0.029176887429080138
-0.658890073501412   -0.019853967338238937   -0.029176887429080138
-0.4869359529468553   0.01723477458806258   0.007554463052308093
-0.4869359529468553   0.01723477458806258   0.007554463052308093
-0.4869359529468553   0.01723477458806258   0.007554463052308093
-0.4869359529468553   0.01723477458806258   0.007554463052308093
-0.34404556555174576   -0.07119272409712979   -0.0018739589339733945
-0.34404556555174576   -0.07119272409712979   -0.0018739589339733945
-0.34404556555174576   -0.07119272409712979   -0.0018739589339733945
-0.34404556555174576   -0.07119272409712979   -0.0018739589339733945
-0.012562337293884496   0.0033171538244791627   0.014685337180349419
-0.012562337293884496   0.0033171538244791627   0.014685337180349419
-0.012562337293884496   0.0033171538244791627   0.014685337180349419
-0.012562337293884496   0.0033171538244791627   0.014685337180349419
-0.013736388249345578   0.02086112879627572   0.007030359990568236
-0.013736388249345578   0.02086112879627572   0.007030359990568236
-0.013736388249345578   0.02086112879627572   0.007030359990568236
-0.013736388249345578   0.02086112879627572   0.007030359990568236
-0.34419012073449745   -0.04553769369993297   -0.008561137537466129
-0.34419012073449745   -0.04553769369993297   -0.008561137537466129
-0.34419012073449745   -0.04553769369993297   -0.008561137537466129
-0.34419012073449745   -0.04553769369993297   -0.008561137537466129
-0.1791863632493002   -0.02237947672530692   -0.005653404799038416
-0.1791863632493002   -0.02237947672530692   -0.005653404799038416
-0.1791863632493002   -0.02237947672530692   -0.005653404799038416
-0.1791863632493002   -0.02237947672530692   -0.005653404799038416
-0.3438186366268496   -0.047508062514308905   -0.0047333481848508266
-0.3438186366268496   -0.047508062514308905   -0.0047333481848508266
-0.3438186366268496   -0.047508062514308905   -0.0047333481848508266
-0.3438186366268496   -0.047508062514308905   -0.0047333481848508266
-0.012216838321873128   0.024722531645771994   0.010766706778434321
-0.012216838321873128   0.024722531645771994   0.010766706778434321
-0.012216838321873128   0.024722531645771994   0.010766706778434321
-0.012216838321873128   0.024722531645771994   0.010766706778434321
-0.012077918313823169   0.04411678687188829   0.0033447159199894473
-0.012077918313823169   0.04411678687188829   0.0033447159199894473
-0.012077918313823169   0.04411678687188829   0.0033447159199894473
-0.012077918313823169   0.04411678687188829   0.0033447159199894473
-0.3432338376119567   -0.024091256343818035   -0.012565942907312527
-0.3432338376119567   -0.024091256343818035   -0.012565942907312527
-0.3432338376119567   -0.024091256343818035   -0.012565942907312527
-0.3432338376119567   -0.024091256343818035   -0.012565942907312527
-0.1773610139167939   -0.0008880434789172234   0.002413812979957417
-0.1773610139167939   -0.0008880434789172234   0.002413812979957417
-0.1773610139167939   -0.0008880434789172234   0.002413812979957417
-0.1773610139167939   -0.0008880434789172234   0.002413812979957417
-0.34271982742337387   -0.024581639829718484   -0.009505508478497586
-0.34271982742337387   -0.024581639829718484   -0.009505508478497586
-0.34271982742337387   -0.024581639829718484   -0.009505508478497586
-0.34271982742337387   -0.024581639829718484   -0.009505508478497586
-0.011031166458293558   0.046167932401901916   0.006527329667624063
-0.011031166458293558   0.046167932401901916   0.006527329667624063
-0.011031166458293558   0.046167932401901916   0.006527329667624063
-0.011031166458293558   0.046167932401901916   0.006527329667624063
-0.011654777454851134   0.06806200049079307   -0.0005855798863449654
-0.011654777454851134   0.06806200049079307   -0.0005855798863449654
-0.011654777454851134   0.06806200049079307   -0.0005855798863449654
-0.011654777454851134   0.06806200049079307   -0.0005855798863449654
-0.3429830414752008   -0.002285056931022697   -0.016618990329596975
-0.3429830414752008   -0.002285056931022697   -0.016618990329596975
-0.3429830414752008   -0.002285056931022697   -0.016618990329596975
-0.3429830414752008   -0.002285056931022697   -0.016618990329596975
-0.17592332179771838   0.02062429084337053   0.00981318994763228
-0.17592332179771838   0.02062429084337053   0.00981318994763228
-0.17592332179771838   0.02062429084337053   0.00981318994763228
-0.17592332179771838   0.02062429084337053   0.00981318994763228
-0.03519276206165267   -0.07809707691905299   -0.01705255591495912
-0.03519276206165267   -0.07809707691905299   -0.01705255591495912
-0.03519276206165267   -0.07809707691905299   -0.01705255591495912
-0.03519276206165267   -0.07809707691905299   -0.01705255591495912
0.30526227451678645   0.02139738336924124   0.027930910863860656
0.30526227451678645   0.02139738336924124   0.027930910863860656
0.30526227451678645   0.02139738336924124   0.027930910863860656
0.30526227451678645   0.02139738336924124   0.027930910863860656
0.29525135683441545   0.011206550345691325   -0.011113173752349237
0.29525135683441545   0.011206550345691325   -0.011113173752349237
0.29525135683441545   0.011206550345691325   -0.011113173752349237
0.29525135683441545   0.011206550345691325   -0.011113173752349237
-0.02379476801896889   -0.028479858609757658   0.006079448548485177
-0.02379476801896889   -0.028479858609757658   0.006079448548485177
-0.02379476801896889   -0.028479858609757658   0.006079448548485177
-0.02379476801896889   -0.028479858609757658   0.006079448548485177
0.13345574056326895   -0.018202417458178934   -0.0032109714394492096
0.13345574056326895   -0.018202417458178934   -0.0032109714394492096
0.13345574056326895   -0.018202417458178934   -0.0032109714394492096
0.13345574056326895   -0.018202417458178934   -0.0032109714394492096
-0.03498413558033413   -0.056906135800340395   -0.02144111206775829
-0.03498413558033413   -0.056906135800340395   -0.02144111206775829
-0.03498413558033413   -0.056906135800340395   -0.02144111206775829
-0.03498413558033413   -0.056906135800340395   -0.02144111206775829
0.3085921306329673   0.04178423377346071   0.025013011812640824
0.3085921306329673   0.04178423377346071   0.025013011812640824
0.3085921306329673   0.04178423377346071   0.025013011812640824
0.3085921306329673   0.04178423377346071   0.025013011812640824
0.30017180639155333   0.03285046282731288   -0.015606662265862825
0.30017180639155333   0.03285046282731288   -0.015606662265862825
0.30017180639155333   0.03285046282731288   -0.015606662265862825
0.30017180639155333   0.03285046282731288   -0.015606662265862825
-0.02306247195375448   -0.009261949275568426   0.0018006838677899668
-0.02306247195375448   -0.009261949275568426   0.0018006838677899668
-0.02306247195375448   -0.009261949275568426   0.0018006838677899668
-0.02306247195375448   -0.009261949275568426   0.0018006838677899668
0.13474881386914725   0.0012603744304518806   0.0048127328263884795
0.13474881386914725   0.0012603744304518806   0.0048127328263884795
0.13474881386914725   0.0012603744304518806   0.0048127328263884795
0.13474881386914725   0.0012603744304518806   0.0048127328263884795
-0.03394735166115403   -0.03602430759917673   -0.025861356345599697
-0.03394735166115403   -0.03602430759917673   -0.025861356345599697
-0.03394735166115403   -0.03602430759917673   -0.025861356345599697
-0.03394735166115403   -0.03602430759917673   -0.025861356345599697
0.3134018898381347   0.061958024890102326   0.021436192904254556
0.3134018898381347   0.061958024890102326   0.021436192904254556
0.3134018898381347   0.061958024890102326   0.021436192904254556
0.3134018898381347   0.061958024890102326   0.021436192904254556
0.3032434831216877   0.05996303795745481   -0.016329615508830126
0.3032434831216877   0.05996303795745481   -0.016329615508830126
0.3032434831216877   0.05996303795745481   -0.016329615508830126
0.3032434831216877   0.05996303795745481   -0.016329615508830126
-0.02301004059158706   0.013168447133486447   -0.0024683422127177316
-0.02301004059158706   0.013168447133486447   -0.0024683422127177316
-0.02301004059158706   0.013168447133486447   -0.0024683422127177316
-0.02301004059158706   0.013168447133486447   -0.0024683422127177316
0.1395467827427337   0.02293269837476255   0.014328158120495467
0.1395467827427337   0.02293269837476255   0.014328158120495467
0.1395467827427337   0.02293269837476255   0.014328158120495467
0.1395467827427337   0.02293269837476255   0.014328158120495467
0.27321697063567696   -0.07761405342600716   -0.033284171746436435
0.27321697063567696   -0.07761405342600716   -0.033284171746436435
0.27321697063567696   -0.07761405342600716   -0.033284171746436435
0.27321697063567696   -0.07761405342600716   -0.033284171746436435
0.6017913397889909   0.04472756105788164   0.031192776221415683
0.6017913397889909   0.04472756105788164   0.031192776221415683
0.6017913397889909   0.04472756105788164   0.031192776221415683
0.6017913397889909   0.04472756105788164   0.031192776221415683
0.5971303333721149   -0.003247075395177712   -0.04430838311663116
0.5971303333721149   -0.003247075395177712   -0.04430838311663116
0.5971303333721149   -0.003247075395177712   -0.04430838311663116
0.5971303333721149   -0.003247075395177712   -0.04430838311663116
0.2981684351824984   -0.006294914991163358   0.020973683324922134
0.2981684351824984   -0.006294914991163358   0.020973683324922134
0.2981684351824984   -0.006294914991163358   0.020973683324922134
0.2981684351824984   -0.006294914991163358   0.020973683324922134
0.42108658665420196   -0.015243553017223757   -0.013893465528382352
0.42108658665420196   -0.015243553017223757   -0.013893465528382352
0.42108658665420196   -0.015243553017223757   -0.013893465528382352
0.42108658665420196   -0.015243553017223757   -0.013893465528382352
0.2735855956964094   -0.06728452677194183   -0.04095090232474256
0.2735855956964094   -0.06728452677194183   -0.04095090232474256
0.2735855956964094   -0.06728452677194183   -0.04095090232474256
0.2735855956964094   -0.06728452677194183   -0.04095090232474256
0.6234763610613494   0.059505724588744674   0.02466895534561902
0.6234763610613494   0.059505724588744674   0.02466895534561902
0.6234763610613494   0.059505724588744674   0.02466895534561902
0.6234763610613494   0.059505724588744674   0.02466895534561902
0.6120137495614225   0.009098238840639872   -0.05947884794256993
0.6120137495614225   0.009098238840639872   -0.05947884794256993
0.6120137495614225   0.009098238840639872   -0.05947884794256993
0.6120137495614225   0.009098238840639872   -0.05947884794256993
0.30048005362622954   0.0031260725651956756   0.015658964169640258
0.30048005362622954   0.0031260725651956756   0.015658964169640258
0.30048005362622954   0.0031260725651956756   0.015658964169640258
0.30048005362622954   0.0031260725651956756   0.015658964169640258
0.4403479018533385   -0.0018781489846471794   -0.004194382916375829
0.4403479018533385   -0.0018781489846471794   -0.004194382916375829
0.4403479018533385   -0.0018781489846471794   -0.004194382916375829
0.4403479018533385   -0.0018781489846471794   -0.004194382916375829
0.27680903441923965   -0.05496745538275502   -0.044602603917361504
0.27680903441923965   -0.05496745538275502   -0.044602603917361504
0.27680903441923965   -0.05496745538275502   -0.044602603917361504
0.27680903441923965   -0.05496745538275502   -0.044602603917361504
0.6395829237730833   0.07108992179326327   0.016375340163116748
0.6395829237730833   0.07108992179326327   0.016375340163116748
0.6395829237730833   0.07108992179326327   0.016375340163116748
0.6395829237730833   0.07108992179326327   0.016375340163116748
0.6356333401490322   0.04119540452850334   -0.056002908633203924
0.6356333401490322   0.04119540452850334   -0.056002908633203924
0.6356333401490322   0.04119540452850334   -0.056002908633203924
0.6356333401490322   0.04119540452850334   -0.056002908633203924
0.3015819851993367   0.02387110486533315   0.011454827971541305
0.3015819851993367   0.02387110486533315   0.011454827971541305
0.3015819851993367   0.02387110486533315   0.011454827971541305
0.3015819851993367   0.02387110486533315   0.011454827971541305
0.44381481587702476   0.01337614489793737   0.006566537673286431
0.44381481587702476   0.01337614489793737   0.006566537673286431
0.44381481587702476   0.01337614489793737   0.006566537673286431
0.44381481587702476   0.01337614489793737   0.006566537673286431
-0.7012439399592689   -0.022708261463691898   0.04614565561219749
-0.7012439399592689   -0.022708261463691898   0.04614565561219749
-0.7012439399592689   -0.022708261463691898   0.04614565561219749
-0.7012439399592689   -0.022708261463691898   0.04614565561219749
-0.49145752116975433   -0.03303941388564188   -0.017378632967080223
-0.49145752116975433   -0.03303941388564188   -0.017378632967080223
-0.49145752116975433   -0.03303941388564188   -0.017378632967080223
-0.49145752116975433   -0.03303941388564188   -0.017378632967080223
-0.4624436572259401   0.046499869291646206   0.03932064795894098
-0.4624436572259401   0.046499869291646206   0.03932064795894098
-0.4624436572259401   0.046499869291646206   0.03932064795894098
-0.4624436572259401   0.046499869291646206   0.03932064795894098
-0.7012890667744155   -0.05777236880740612   -0.025431436452944312
-0.7012890667744155   -0.05777236880740612   -0.025431436452944312
-0.7012890667744155   -0.05777236880740612   -0.025431436452944312
-0.7012890667744155   -0.05777236880740612   -0.025431436452944312
-0.5650192712467259   -0.008957304076278899   -0.001414549540687031
-0.5650192712467259   -0.008957304076278899   -0.001414549540687031
-0.5650192712467259   -0.008957304076278899   -0.001414549540687031
-0.5650192712467259   -0.008957304076278899   -0.001414549540687031
-0.6748900183657337   0.004920629023759143   0.04387080775929929
-0.6748900183657337   0.004920629023759143   0.04387080775929929
-0.6748900183657337   0.004920629023759143   0.04387080775929929
-0.6748900183657337   0.004920629023759143   0.04387080775929929
-0.4866909825738466   -0.014041405478742885   -0.021374704010196994
-0.4866909825738466   -0.014041405478742885   -0.021374704010196994
-0.4866909825738466   -0.014041405478742885   -0.021374704010196994
-0.4866909825738466   -0.014041405478742885   -0.021374704010196994
-0.45808086878699883   0.05619075921319891   0.033210501591693635
-0.45808086878699883   0.05619075921319891   0.033210501591693635
-0.45808086878699883   0.05619075921319891   0.033210501591693635
-0.45808086878699883   0.05619075921319891   0.033210501591693635
-0.6845863215203984   -0.046965669440788824   -0.032123607968091675
-0.6845863215203984   -0.046965669440788824   -0.032123607968091675
-0.6845863215203984   -0.046965669440788824   -0.032123607968091675
-0.6845863215203984   -0.046965669440788824   -0.032123607968091675
-0.5609946969477774   0.0038139978558293375   0.0058177272149222
-0.5609946969477774   0.0038139978558293375   0.0058177272149222
-0.5609946969477774   0.0038139978558293375   0.0058177272149222
-0.5609946969477774   0.0038139978558293375   0.0058177272149222
-0.6584276447744047   0.016516770801330544   0.03518733551975763
-0.6584276447744047   0.016516770801330544   0.03518733551975763
-0.6584276447744047   0.016516770801330544   0.03518733551975763
-0.6584276447744047   0.016516770801330544   0.03518733551975763
-0.48229791004417705   -0.005350045540104306   -0.026333899940890516
-0.48229791004417705   -0.005350045540104306   -0.026333899940890516
-0.48229791004417705   -0.005350045540104306   -0.026333899940890516
-0.48229791004417705   -0.005350045540104306   -0.026333899940890516
-0.45566866535343703   0.06568565053245533   0.028575317774653497
-0.45566866535343703   0.06568565053245533   0.028575317774653497
-0.45566866535343703   0.06568565053245533   0.028575317774653497
-0.45566866535343703   0.06568565053245533   0.028575317774653497
-0.6622452193827856   -0.032652186556666074   -0.038445299500288695
-0.6622452193827856   -0.032652186556666074   -0.038445299500288695
-0.6622452193827856   -0.032652186556666074   -0.038445299500288695
-0.6622452193827856   -0.032652186556666074   -0.038445299500288695
-0.5398899874248684   0.015805146109873755   0.015931842650181917
-0.5398899874248684   0.015805146109873755   0.015931842650181917
-0.5398899874248684   0.015805146109873755   0.015931842650181917
-0.5398899874248684   0.015805146109873755   0.015931842650181917
-0.48580830541894565   -0.03959976046724438   0.01742779236856176
-0.48580830541894565   -0.03959976046724438   0.01742779236856176
-0.48580830541894565   -0.03959976046724438   0.01742779236856176
-0.48580830541894565   -0.03959976046724438   0.01742779236856176
-0.2824555657867486   -0.021403828676709924   -0.0028080211574363356
-0.2824555657867486   -0.021403828676709924   -0.0028080211574363356
-0.2824555657867486   -0.021403828676709924   -0.0028080211574363356
-0.2824555657867486   -0.021403828676709924   -0.0028080211574363356
-0.2680854380835861   0.027149887201360134   0.02119731517297477
-0.2680854380835861   0.027149887201360134   0.02119731517297477
-0.2680854380835861   0.027149887201360134   0.02119731517297477
-0.2680854380835861   0.027149887201360134   0.02119731517297477
-0.4931528802781373   -0.04717981333230854   -0.020545784678090144
-0.4931528802781373   -0.04717981333230854   -0.020545784678090144
-0.4931528802781373   -0.04717981333230854   -0.020545784678090144
-0.4931528802781373   -0.04717981333230854   -0.020545784678090144
-0.38086032334256403   -0.018520321137861756   -0.007848517040266505
-0.38086032334256403   -0.018520321137861756   -0.007848517040266505
-0.38086032334256403   -0.018520321137861756   -0.007848517040266505
-0.38086032334256403   -0.018520321137861756   -0.007848517040266505
-0.4800875020595257   -0.016641441676576094   0.014242734759233256
-0.4800875020595257   -0.016641441676576094   0.014242734759233256
-0.4800875020595257   -0.016641441676576094   0.014242734759233256
-0.4800875020595257   -0.016641441676576094   0.014242734759233256
-0.27947369325417043   -0.0017113614063441265   -0.006882712072242619
-0.27947369325417043   -0.0017113614063441265   -0.006882712072242619
-0.27947369325417043   -0.0017113614063441265   -0.006882712072242619
-0.27947369325417043   -0.0017113614063441265   -0.006882712072242619
-0.2646786097258867   0.04703369780330813   0.01737009349932651
-0.2646786097258867   0.04703369780330813   0.01737009349932651
-0.2646786097258867   0.04703369780330813   0.01737009349932651
-0.2646786097258867   0.04703369780330813   0.01737009349932651
-0.48649177399699434   -0.02843890337167225   -0.024214361873412797
-0.48649177399699434   -0.02843890337167225   -0.024214361873412797
-0.48649177399699434   -0.02843890337167225   -0.024214361873412797
-0.48649177399699434   -0.02843890337167225   -0.024214361873412797
-0.37354150105587347   0.0009951601721120973   0.0005371651655137442
-0.37354150105587347   0.0009951601721120973   0.0005371651655137442
-0.37354150105587347   0.0009951601721120973   0.0005371651655137442
-0.37354150105587347   0.0009951601721120973   0.0005371651655137442
-0.4724381005567887   0.004609001107042543   0.013006100848900606
-0.4724381005567887   0.004609001107042543   0.013006100848900606
-0.4724381005567887   0.004609001107042543   0.013006100848900606
-0.4724381005567887   0.004609001107042543   0.013006100848900606
-0.27664967314203176   0.016068403348654434   -0.01151992912674199
-0.27664967314203176   0.016068403348654434   -0.01151992912674199
-0.27664967314203176   0.016068403348654434   -0.01151992912674199
-0.27664967314203176   0.016068403348654434   -0.01151992912674199
-0.2613861040322293   0.06824342265672292   0.013806093076546455
-0.2613861040322293   0.06824342265672292   0.013806093076546455
-0.2613861040322293   0.06824342265672292   0.013806093076546455
-0.2613861040322293   0.06824342265672292   0.013806093076546455
-0.48151490682917325   -0.008219124068084324   -0.026751115003485763
-0.48151490682917325   -0.008219124068084324   -0.026751115003485763
-0.48151490682917325   -0.008219124068084324   -0.026751115003485763
-0.48151490682917325   -0.008219124068084324   -0.026751115003485763
-0.3706945912952001   0.01938908526255119   0.008534030179046317
-0.3706945912952001   0.01938908526255119   0.008534030179046317
-0.3706945912952001   0.01938908526255119   0.008534030179046317
-0.3706945912952001   0.01938908526255119   0.008534030179046317
-0.2883821678008531   -0.05462737641160007   0.0007825165069295145
-0.2883821678008531   -0.05462737641160007   0.0007825165069295145
-0.2883821678008531   -0.05462737641160007   0.0007825165069295145
-0.2883821678008531   -0.05462737641160007   0.0007825165069295145
-0.0755383843749913   -0.0065494666644176506   0.011740936870922092
-0.0755383843749913   -0.0065494666644176506   0.011740936870922092
-0.0755383843749913   -0.0065494666644176506   0.011740936870922092
-0.0755383843749913   -0.0065494666644176506   0.011740936870922092
-0.07371873049686849   0.011069726468809805   0.004004573068618749
-0.07371873049686849   0.011069726468809805   0.004004573068618749
-0.07371873049686849   0.011069726468809805   0.004004573068618749
-0.07371873049686849   0.011069726468809805   0.004004573068618749
-0.2852224271783896   -0.03188092949938433   -0.005456813600299422
-0.2852224271783896   -0.03188092949938433   -0.005456813600299422
-0.2852224271783896   -0.03188092949938433   -0.005456813600299422
-0.2852224271783896   -0.03188092949938433   -0.005456813600299422
-0.18102723707501467   -0.01961593040143055   -0.005587329645473842
-0.18102723707501467   -0.01961593040143055   -0.005587329645473842
-0.18102723707501467   -0.01961593040143055   -0.005587329645473842
-0.18102723707501467   -0.01961593040143055   -0.005587329645473842
-0.2847521889987526   -0.03244599190465878   -0.002540560296840055
-0.2847521889987526   -0.03244599190465878   -0.002540560296840055
-0.2847521889987526   -0.03244599190465878   -0.002540560296840055
-0.2847521889987526   -0.03244599190465878   -0.002540560296840055
-0.07250746787705759   0.013316289673532166   0.007814322962950968
-0.07250746787705759   0.013316289673532166   0.007814322962950968
-0.07250746787705759   0.013316289673532166   0.007814322962950968
-0.07250746787705759   0.013316289673532166   0.007814322962950968
-0.06960283628426356   0.03335117986931452   0.0010152368306647393
-0.06960283628426356   0.03335117986931452   0.0010152368306647393
-0.06960283628426356   0.03335117986931452   0.0010152368306647393
-0.06960283628426356   0.03335117986931452   0.0010152368306647393
-0.28181079756452226   -0.01187440603124864   -0.00938274185929427
-0.28181079756452226   -0.01187440603124864   -0.00938274185929427
-0.28181079756452226   -0.01187440603124864   -0.00938274185929427
-0.28181079756452226   -0.01187440603124864   -0.00938274185929427
-0.17662991608536885   0.00039501885173875984   0.002321025842095311
-0.17662991608536885   0.00039501885173875984   0.002321025842095311
-0.17662991608536885   0.00039501885173875984   0.002321025842095311
-0.17662991608536885   0.00039501885173875984   0.002321025842095311
-0.28075948412054796   -0.010236094331841389   -0.0057644863388303345
-0.28075948412054796   -0.010236094331841389   -0.0057644863388303345
-0.28075948412054796   -0.010236094331841389   -0.0057644863388303345
-0.28075948412054796   -0.010236094331841389   -0.0057644863388303345
-0.06910147797507456   0.03326553992307062   0.003607668322854349
-0.06910147797507456   0.03326553992307062   0.003607668322854349
-0.06910147797507456   0.03326553992307062   0.003607668322854349
-0.06910147797507456   0.03326553992307062   0.003607668322854349
-0.06590692413479998   0.05595591972225397   -0.002490224403606814
-0.06590692413479998   0.05595591972225397   -0.002490224403606814
-0.06590692413479998   0.05595591972225397   -0.002490224403606814
-0.06590692413479998   0.05595591972225397   -0.002490224403606814
-0.2788229002648836   0.008361491492533638   -0.013495956922536523
-0.2788229002648836   0.008361491492533638   -0.013495956922536523
-0.2788229002648836   0.008361491492533638   -0.013495956922536523
-0.2788229002648836   0.008361491492533638   -0.013495956922536523
-0.17261586484800526   0.02050214565735179   0.009940070606384832
-0.17261586484800526   0.02050214565735179   0.009940070606384832
-0.17261586484800526   0.02050214565735179   0.009940070606384832
-0.17261586484800526   0.02050214565735179   0.009940070606384832
-0.09305933152717427   -0.06694647760267233   -0.015466787951738836
-0.09305933152717427   -0.06694647760267233   -0.015466787951738836
-0.09305933152717427   -0.06694647760267233   -0.015466787951738836
-0.09305933152717427   -0.06694647760267233   -0.015466787951738836
0.12847661152888937   0.010092728313610126   0.025450993948594035
0.12847661152888937   0.010092728313610126   0.025450993948594035
0.12847661152888937   0.010092728313610126   0.025450993948594035
0.12847661152888937   0.010092728313610126   0.025450993948594035
0.11932627824967039   -0.003936137581675998   -0.014322992579745805
0.11932627824967039   -0.003936137581675998   -0.014322992579745805
0.11932627824967039   -0.003936137581675998   -0.014322992579745805
0.11932627824967039   -0.003936137581675998   -0.014322992579745805
-0.0779339673552477   -0.01547799863518483   0.009476113880717377
-0.0779339673552477   -0.01547799863518483   0.009476113880717377
-0.0779339673552477   -0.01547799863518483   0.009476113880717377
-0.0779339673552477   -0.01547799863518483   0.009476113880717377
0.018394191031265328   -0.01853607123560332   -0.003983805827571957
0.018394191031265328   -0.01853607123560332   -0.003983805827571957
0.018394191031265328   -0.01853607123560332   -0.003983805827571957
0.018394191031265328   -0.01853607123560332   -0.003983805827571957
-0.08989044117206199   -0.04672644476481759   -0.019057809073721368
-0.08989044117206199   -0.04672644476481759   -0.019057809073721368
-0.08989044117206199   -0.04672644476481759   -0.019057809073721368
-0.08989044117206199   -0.04672644476481759   -0.019057809073721368
0.1332831048323588   0.02931266131383054   0.022212341438187747
0.1332831048323588   0.02931266131383054   0.022212341438187747
0.1332831048323588   0.02931266131383054   0.022212341438187747
0.1332831048323588   0.02931266131383054   0.022212341438187747
0.12699680319010892   0.017142905097418396   -0.016234319411139318
0.12699680319010892   0.017142905097418396   -0.016234319411139318
0.12699680319010892   0.017142905097418396   -0.016234319411139318
0.12699680319010892   0.017142905097418396   -0.016234319411139318
-0.07496496950333069   0.002413488251378656   0.005142262353265644
-0.07496496950333069   0.002413488251378656   0.005142262353265644
-0.07496496950333069   0.002413488251378656   0.005142262353265644
-0.07496496950333069   0.002413488251378656   0.005142262353265644
0.022482123902208793   -0.0003746292187833643   0.004066704128553437
0.022482123902208793   -0.0003746292187833643   0.004066704128553437
0.022482123902208793   -0.0003746292187833643   0.004066704128553437
0.022482123902208793   -0.0003746292187833643   0.004066704128553437
-0.08650391491014195   -0.026948474938571994   -0.0231905014908404
-0.08650391491014195   -0.026948474938571994   -0.0231905014908404
-0.08650391491014195   -0.026948474938571994   -0.0231905014908404
-0.08650391491014195   -0.026948474938571994   -0.0231905014908404
0.14027106778886608   0.04824018747931584   0.019039721200747112
0.14027106778886608   0.04824018747931584   0.019039721200747112
0.14027106778886608   0.04824018747931584   0.019039721200747112
0.14027106778886608   0.04824018747931584   0.019039721200747112
0.1331785789417432   0.04114565065842421   -0.018770944121359177
0.1331785789417432   0.04114565065842421   -0.018770944121359177
0.1331785789417432   0.04114565065842421   -0.018770944121359177
0.1331785789417432   0.04114565065842421   -0.018770944121359177
-0.07179315357459885   0.023015269084430755   0.001019279035221518
-0.07179315357459885   0.023015269084430755   0.001019279035221518
-0.07179315357459885   0.023015269084430755   0.001019279035221518
-0.07179315357459885   0.023015269084430755   0.001019279035221518
0.028770554765585744   0.019350410543883752   0.012392972799263368
0.028770554765585744   0.019350410543883752   0.012392972799263368
0.028770554765585744   0.019350410543883752   0.012392972799263368
0.028770554765585744   0.019350410543883752   0.012392972799263368
0.10172255151340252   -0.0676417228371375   -0.03058485497809168
0.10172255151340252   -0.0676417228371375   -0.03058485497809168
0.10172255151340252   -0.0676417228371375   -0.03058485497809168
0.10172255151340252   -0.0676417228371375   -0.03058485497809168
0.3092776566883764   0.030593597127284378   0.03306641441051476
0.3092776566883764   0.030593597127284378   0.03306641441051476
0.3092776566883764   0.030593597127284378   0.03306641441051476
0.3092776566883764   0.030593597127284378   0.03306641441051476
0.3061296017199316   -0.01695253653068461   -0.040275590910109606
0.3061296017199316   -0.01695253653068461   -0.040275590910109606
0.3061296017199316   -0.01695253653068461   -0.040275590910109606
0.3061296017199316   -0.01695253653068461   -0.040275590910109606
0.12905937087684272   0.005714444015813527   0.024691888958625383
0.12905937087684272   0.005714444015813527   0.024691888958625383
0.12905937087684272   0.005714444015813527   0.024691888958625383
0.12905937087684272   0.005714444015813527   0.024691888958625383
0.2005086251787438   -0.014092583284975507   -0.010692093727072981
0.2005086251787438   -0.014092583284975507   -0.010692093727072981
0.2005086251787438   -0.014092583284975507   -0.010692093727072981
0.2005086251787438   -0.014092583284975507   -0.010692093727072981
0.10464633815736853   -0.05627153098813331   -0.03538729963479774
0.10464633815736853   -0.05627153098813331   -0.03538729963479774
0.10464633815736853   -0.05627153098813331   -0.03538729963479774
0.10464633815736853   -0.05627153098813331   -0.03538729963479774
0.33258204771472155   0.047072851748579086   0.027961250784582063
0.33258204771472155   0.047072851748579086   0.027961250784582063
0.33258204771472155   0.047072851748579086   0.027961250784582063
0.33258204771472155   0.047072851748579086   0.027961250784582063
0.32309121967676696   -0.005151386071285589   -0.04833949506330352
0.32309121967676696   -0.005151386071285589   -0.04833949506330352
0.32309121967676696   -0.005151386071285589   -0.04833949506330352
0.32309121967676696   -0.005151386071285589   -0.04833949506330352
0.13354210894482563   0.014361253718288114   0.019273860741572633
0.13354210894482563   0.014361253718288114   0.019273860741572633
0.13354210894482563   0.014361253718288114   0.019273860741572633
0.13354210894482563   0.014361253718288114   0.019273860741572633
0.21758397441841246   -0.002176814857354478   -0.0012229262980440261
0.21758397441841246   -0.002176814857354478   -0.0012229262980440261
0.21758397441841246   -0.002176814857354478   -0.0012229262980440261
0.21758397441841246   -0.002176814857354478   -0.0012229262980440261
0.1093118953266784   -0.04645211887901457   -0.041063834751859894
0.1093118953266784   -0.04645211887901457   -0.041063834751859894
0.1093118953266784   -0.04645211887901457   -0.041063834751859894
0.1093118953266784   -0.04645211887901457   -0.041063834751859894
0.34944971449492784   0.05779026772603293   0.02051132523018675
0.34944971449492784   0.05779026772603293   0.02051132523018675
0.34944971449492784   0.05779026772603293   0.02051132523018675
0.34944971449492784   0.05779026772603293   0.02051132523018675
0.3491689653434898   0.020742133462046362   -0.051777009189045736
0.3491689653434898   0.020742133462046362   -0.051777009189045736
0.3491689653434898   0.020742133462046362   -0.051777009189045736
0.3491689653434898   0.020742133462046362   -0.051777009189045736
0.13812755636134819   0.0317971768464231   0.015322416788664984
0.13812755636134819   0.0317971768464231   0.015322416788664984
0.13812755636134819   0.0317971768464231   0.015322416788664984
0.13812755636134819   0.0317971768464231   0.015322416788664984
0.22619437011419488   0.01092845038711307   0.0069511120500315
0.22619437011419488   0.01092845038711307   0.0069511120500315
0.22619437011419488   0.01092845038711307   0.0069511120500315
0.22619437011419488   0.01092845038711307   0.0069511120500315
-0.41880310210665045   -0.006779955657486611   0.04126423911059221
-0.41880310210665045   -0.006779955657486611   0.04126423911059221
-0.41880310210665045   -0.006779955657486611   0.04126423911059221
-0.41880310210665045   -0.006779955657486611   0.04126423911059221
-0.32771736376888944   -0.04177020651773178   -0.020334466455234547
-0.32771736376888944   -0.04177020651773178   -0.020334466455234547
-0.32771736376888944   -0.04177020651773178   -0.020334466455234547
-0.32771736376888944   -0.04177020651773178   -0.020334466455234547
-0.29659965219581685   0.03530413137486457   0.035261649879810494
-0.29659965219581685   0.03530413137486457   0.035261649879810494
-0.29659965219581685   0.03530413137486457   0.035261649879810494
-0.29659965219581685   0.03530413137486457   0.035261649879810494
-0.417085863071445   -0.045473561361449547   -0.027709936945335835
-0.417085863071445   -0.045473561361449547   -0.027709936945335835
-0.417085863071445   -0.045473561361449547   -0.027709936945335835
-0.417085863071445   -0.045473561361449547   -0.027709936945335835
-0.35112883518439936   -0.009610849190820017   -0.005332449808338465
-0.35112883518439936   -0.009610849190820017   -0.005332449808338465
-0.35112883518439936   -0.009610849190820017   -0.005332449808338465
-0.35112883518439936   -0.009610849190820017   -0.005332449808338465
-0.39112170321615003   0.017229042823978108   0.03940825814571139
-0.39112170321615003   0.017229042823978108   0.03940825814571139
-0.39112170321615003   0.017229042823978108   0.03940825814571139
-0.39112170321615003   0.017229042823978108   0.03940825814571139
-0.3207504301546265   -0.025585090914077457   -0.02460301762529396
-0.3207504301546265   -0.025585090914077457   -0.02460301762529396
-0.3207504301546265   -0.025585090914077457   -0.02460301762529396
-0.3207504301546265   -0.025585090914077457   -0.02460301762529396
-0.2892970779545455   0.044478512987377886   0.029808060606888922
-0.2892970779545455   0.044478512987377886   0.029808060606888922
-0.2892970779545455   0.044478512987377886   0.029808060606888922
-0.2892970779545455   0.044478512987377886   0.029808060606888922
-0.3978847535862122   -0.03507484738479455   -0.03459366444468258
-0.3978847535862122   -0.03507484738479455   -0.03459366444468258
-0.3978847535862122   -0.03507484738479455   -0.03459366444468258
-0.3978847535862122   -0.03507484738479455   -0.03459366444468258
-0.34108980360072294   0.0023857512231692385   0.0023387640048699206
-0.34108980360072294   0.0023857512231692385   0.0023387640048699206
-0.34108980360072294   0.0023857512231692385   0.0023387640048699206
-0.34108980360072294   0.0023857512231692385   0.0023387640048699206
-0.37191491853798697   0.028357887859700684   0.03182277555194438
-0.37191491853798697   0.028357887859700684   0.03182277555194438
-0.37191491853798697   0.028357887859700684   0.03182277555194438
-0.37191491853798697   0.028357887859700684   0.03182277555194438
-0.31355399346101404   -0.01724130271536098   -0.02975670122271287
-0.31355399346101404   -0.01724130271536098   -0.02975670122271287
-0.31355399346101404   -0.01724130271536098   -0.02975670122271287
-0.31355399346101404   -0.01724130271536098   -0.02975670122271287
-0.2833990563810448   0.055947168670510375   0.0257053136338604
-0.2833990563810448   0.055947168670510375   0.0257053136338604
-0.2833990563810448   0.055947168670510375   0.0257053136338604
-0.2833990563810448   0.055947168670510375   0.0257053136338604
-0.37209650858272636   -0.018418443266492265   -0.04002347028153072
-0.37209650858272636   -0.018418443266492265   -0.04002347028153072
-0.37209650858272636   -0.018418443266492265   -0.04002347028153072
-0.37209650858272636   -0.018418443266492265   -0.04002347028153072
-0.3208691471145757   0.014238827030043769   0.011836765638636514
-0.3208691471145757   0.014238827030043769   0.011836765638636514
-0.3208691471145757   0.014238827030043769   0.011836765638636514
-0.3208691471145757   0.014238827030043769   0.011836765638636514
-0.3161155760947385   -0.02366114452271914   0.019565409920507496
-0.3161155760947385   -0.02366114452271914   0.019565409920507496
-0.3161155760947385   -0.02366114452271914   0.019565409920507496
-0.3161155760947385   -0.02366114452271914   0.019565409920507496
-0.23300734442736565   -0.03165698197543439   -0.00601456443236507
-0.23300734442736565   -0.03165698197543439   -0.00601456443236507
-0.23300734442736565   -0.03165698197543439   -0.00601456443236507
-0.23300734442736565   -0.03165698197543439   -0.00601456443236507
-0.21569776827883402   0.016026277936530615   0.018029559666794683
-0.21569776827883402   0.016026277936530615   0.018029559666794683
-0.21569776827883402   0.016026277936530615   0.018029559666794683
-0.21569776827883402   0.016026277936530615   0.018029559666794683
-0.320884516966024   -0.03353723900436941   -0.017321303591989363
-0.320884516966024   -0.03353723900436941   -0.017321303591989363
-0.320884516966024   -0.03353723900436941   -0.017321303591989363
-0.320884516966024   -0.03353723900436941   -0.017321303591989363
-0.2706995386048435   -0.016757347787617075   -0.007346545507364126
-0.2706995386048435   -0.016757347787617075   -0.007346545507364126
-0.2706995386048435   -0.016757347787617075   -0.007346545507364126
-0.2706995386048435   -0.016757347787617075   -0.007346545507364126
-0.3079220945910408   -0.0026948211696325094   0.016648390448185862
-0.3079220945910408   -0.0026948211696325094   0.016648390448185862
-0.3079220945910408   -0.0026948211696325094   0.016648390448185862
-0.3079220945910408   -0.0026948211696325094   0.016648390448185862
-0.22719793161297122   -0.013353880857363519   -0.010091098209997264
-0.22719793161297122   -0.013353880857363519   -0.010091098209997264
-0.22719793161297122   -0.013353880857363519   -0.010091098209997264
-0.22719793161297122   -0.013353880857363519   -0.010091098209997264
-0.20940681383840787   0.03470369609704516   0.01441367531158775
-0.20940681383840787   0.03470369609704516   0.01441367531158775
-0.20940681383840787   0.03470369609704516   0.01441367531158775
-0.20940681383840787   0.03470369609704516   0.01441367531158775
-0.3114242503707929   -0.015607104167710668   -0.02074218431925389
-0.3114242503707929   -0.015607104167710668   -0.02074218431925389
-0.3114242503707929   -0.015607104167710668   -0.02074218431925389
-0.3114242503707929   -0.015607104167710668   -0.02074218431925389
-0.2615753077117523   0.0012243318392285638   0.0007067028701463925
-0.2615753077117523   0.0012243318392285638   0.0007067028701463925
-0.2615753077117523   0.0012243318392285638   0.0007067028701463925
-0.2615753077117523   0.0012243318392285638   0.0007067028701463925
-0.2976998765875613   0.017180720475612116   0.015091859953575919
-0.2976998765875613   0.017180720475612116   0.015091859953575919
-0.2976998765875613   0.017180720475612116   0.015091859953575919
-0.2976998765875613   0.017180720475612116   0.015091859953575919
-0.22144322557908283   0.0036038334962753757   -0.01466852079101835
-0.22144322557908283   0.0036038334962753757   -0.01466852079101835
-0.22144322557908283   0.0036038334962753757   -0.01466852079101835
-0.22144322557908283   0.0036038334962753757   -0.01466852079101835
-0.2031348671695477   0.0550010178584804   0.010969554969720012
-0.2031348671695477   0.0550010178584804   0.010969554969720012
-0.2031348671695477   0.0550010178584804   0.010969554969720012
-0.2031348671695477   0.0550010178584804   0.010969554969720012
-0.3036342772648215   0.0040007294382461145   -0.023524351552752936
-0.3036342772648215   0.0040007294382461145   -0.023524351552752936
-0.3036342772648215   0.0040007294382461145   -0.023524351552752936
-0.3036342772648215   0.0040007294382461145   -0.023524351552752936
-0.25498572403355707   0.01888102946129877   0.008594290806800367
-0.25498572403355707   0.01888102946129877   0.008594290806800367
-0.25498572403355707   0.01888102946129877   0.008594290806800367
-0.25498572403355707   0.01888102946129877   0.008594290806800367
-0.2326995166698805   -0.03963030168471417   0.003497894064336431
-0.2326995166698805   -0.03963030168471417   0.003497894064336431
-0.2326995166698805   -0.03963030168471417   0.003497894064336431
-0.2326995166698805   -0.03963030168471417   0.003497894064336431
-0.1395058142959153   -0.01683401020031727   0.008520406175607287
-0.1395058142959153   -0.01683401020031727   0.008520406175607287
-0.1395058142959153   -0.01683401020031727   0.008520406175607287
-0.1395058142959153   -0.01683401020031727   0.008520406175607287
-0.13484432116896075   -0.0004958510504544968   0.0010904726349208306
-0.13484432116896075   -0.0004958510504544968   0.0010904726349208306
-0.13484432116896075   -0.0004958510504544968   0.0010904726349208306
-0.13484432116896075   -0.0004958510504544968   0.0010904726349208306
-0.2265101914603211   -0.01801878405020062   -0.0019874942539094007
-0.2265101914603211   -0.01801878405020062   -0.0019874942539094007
-0.2265101914603211   -0.01801878405020062   -0.0019874942539094007
-0.2265101914603211   -0.01801878405020062   -0.0019874942539094007
-0.18368362673650862   -0.017864839931747794   -0.0053585592803388525
-0.18368362673650862   -0.017864839931747794   -0.0053585592803388525
-0.18368362673650862   -0.017864839931747794   -0.0053585592803388525
-0.18368362673650862   -0.017864839931747794   -0.0053585592803388525
-0.22622959046716148   -0.018926378420618017   0.00032310508230399843
-0.22622959046716148   -0.018926378420618017   0.00032310508230399843
-0.22622959046716148   -0.018926378420618017   0.00032310508230399843
-0.22622959046716148   -0.018926378420618017   0.00032310508230399843
-0.13367002166709116   0.0018666438149943197   0.0045994752788200465
-0.13367002166709116   0.0018666438149943197   0.0045994752788200465
-0.13367002166709116   0.0018666438149943197   0.0045994752788200465
-0.13367002166709116   0.0018666438149943197   0.0045994752788200465
-0.12800310273817458   0.020389655121963984   -0.0018701309195864532
-0.12800310273817458   0.020389655121963984   -0.0018701309195864532
-0.12800310273817458   0.020389655121963984   -0.0018701309195864532
-0.12800310273817458   0.020389655121963984   -0.0018701309195864532
-0.22020674793012587   0.0009498218766644528   -0.005832120926622598
-0.22020674793012587   0.0009498218766644528   -0.005832120926622598
-0.22020674793012587   0.0009498218766644528   -0.005832120926622598
-0.22020674793012587   0.0009498218766644528   -0.005832120926622598
-0.17646314711723066   0.0009000220683848814   0.0024573299345933327
-0.17646314711723066   0.0009000220683848814   0.0024573299345933327
-0.17646314711723066   0.0009000220683848814   0.0024573299345933327
-0.17646314711723066   0.0009000220683848814   0.0024573299345933327
-0.21943347938752414   0.0018953455905161287   -0.0029113019274685185
-0.21943347938752414   0.0018953455905161287   -0.0029113019274685185
-0.21943347938752414   0.0018953455905161287   -0.0029113019274685185
-0.21943347938752414   0.0018953455905161287   -0.0029113019274685185
-0.1274601644021304   0.020760338286754124   0.00047387759584556315
-0.1274601644021304   0.020760338286754124   0.00047387759584556315
-0.1274601644021304   0.020760338286754124   0.00047387759584556315
-0.1274601644021304   0.020760338286754124   0.00047387759584556315
-0.12154018188923507   0.04146936506588947   -0.005239307431413601
-0.12154018188923507   0.04146936506588947   -0.005239307431413601
-0.12154018188923507   0.04146936506588947   -0.005239307431413601
-0.12154018188923507   0.04146936506588947   -0.005239307431413601
-0.21430604617557666   0.020063774506357754   -0.00994909670830026
-0.21430604617557666   0.020063774506357754   -0.00994909670830026
-0.21430604617557666   0.020063774506357754   -0.00994909670830026
-0.21430604617557666   0.020063774506357754   -0.00994909670830026
-0.16963835486186785   0.019732663894728712   0.009957989132499123
-0.16963835486186785   0.019732663894728712   0.009957989132499123
-0.16963835486186785   0.019732663894728712   0.009957989132499123
-0.16963835486186785   0.019732663894728712   0.009957989132499123
-0.15108518324082568   -0.053459932649919176   -0.012750516099345091
-0.15108518324082568   -0.053459932649919176   -0.012750516099345091
-0.15108518324082568   -0.053459932649919176   -0.012750516099345091
-0.15108518324082568   -0.053459932649919176   -0.012750516099345091
-0.048812123558502195   -0.0010996697935591613   0.02232542087591646
-0.048812123558502195   -0.0010996697935591613   0.02232542087591646
-0.048812123558502195   -0.0010996697935591613   0.02232542087591646
-0.048812123558502195   -0.0010996697935591613   0.02232542087591646
-0.055253172478434545   -0.016145587644879326   -0.016542626044568257
-0.055253172478434545   -0.016145587644879326   -0.016542626044568257
-0.055253172478434545   -0.016145587644879326   -0.016542626044568257
-0.055253172478434545   -0.016145587644879326   -0.016542626044568257
-0.13280587006169076   -0.0020335999514168625   0.012820477072231887
-0.13280587006169076   -0.0020335999514168625   0.012820477072231887
-0.13280587006169076   -0.0020335999514168625   0.012820477072231887
-0.13280587006169076   -0.0020335999514168625   0.012820477072231887
-0.09695103025390106   -0.017394173027428274   -0.003869560702548321
-0.09695103025390106   -0.017394173027428274   -0.003869560702548321
-0.09695103025390106   -0.017394173027428274   -0.003869560702548321
-0.09695103025390106   -0.017394173027428274   -0.003869560702548321
-0.14499634757778856   -0.03401566628981086   -0.016149844169864216
-0.14499634757778856   -0.03401566628981086   -0.016149844169864216
-0.14499634757778856   -0.03401566628981086   -0.016149844169864216
-0.14499634757778856   -0.03401566628981086   -0.016149844169864216
-0.04143371829888598   0.01746545535696141   0.0189436018513338
-0.04143371829888598   0.01746545535696141   0.0189436018513338
-0.04143371829888598   0.01746545535696141   0.0189436018513338
-0.04143371829888598   0.01746545535696141   0.0189436018513338
-0.045209309815462694   0.0036108676744501314   -0.01862650021925263
-0.045209309815462694   0.0036108676744501314   -0.01862650021925263
-0.045209309815462694   0.0036108676744501314   -0.01862650021925263
-0.045209309815462694   0.0036108676744501314   -0.01862650021925263
-0.12699575321931234   0.014996059659426221   0.008560212137262572
-0.12699575321931234   0.014996059659426221   0.008560212137262572
-0.12699575321931234   0.014996059659426221   0.008560212137262572
-0.12699575321931234   0.014996059659426221   0.008560212137262572
-0.08925259035320746   9.659781710702822e-05   0.004100439440710686
-0.08925259035320746   9.659781710702822e-05   0.004100439440710686
-0.08925259035320746   9.659781710702822e-05   0.004100439440710686
-0.08925259035320746   9.659781710702822e-05   0.004100439440710686
-0.13879865130554184   -0.015394453588839393   -0.02006376504562111
-0.13879865130554184   -0.015394453588839393   -0.02006376504562111
-0.13879865130554184   -0.015394453588839393   -0.02006376504562111
-0.13879865130554184   -0.015394453588839393   -0.02006376504562111
-0.031889594689660794   0.03551819796229056   0.016064745121917398
-0.031889594689660794   0.03551819796229056   0.016064745121917398
-0.031889594689660794   0.03551819796229056   0.016064745121917398
-0.031889594689660794   0.03551819796229056   0.016064745121917398
-0.03671688755699501   0.02565154688338496   -0.02087559798761128
-0.03671688755699501   0.02565154688338496   -0.02087559798761128
-0.03671688755699501   0.02565154688338496   -0.02087559798761128
-0.03671688755699501   0.02565154688338496   -0.02087559798761128
-0.1210472683366399   0.034241863538215817   0.004452761859236001
-0.1210472683366399   0.034241863538215817   0.004452761859236001
-0.1210472683366399   0.034241863538215817   0.004452761859236001
-0.1210472683366399   0.034241863538215817   0.004452761859236001
-0.08130335820059204   0.018298209130022162   0.012060878805045633
-0.08130335820059204   0.018298209130022162   0.012060878805045633
-0.08130335820059204   0.018298209130022162   0.012060878805045633
-0.08130335820059204   0.018298209130022162   0.012060878805045633
-0.07010199617008198   -0.05745028226801691   -0.02777332970752564
-0.07010199617008198   -0.05745028226801691   -0.02777332970752564
-0.07010199617008198   -0.05745028226801691   -0.02777332970752564
-0.07010199617008198   -0.05745028226801691   -0.02777332970752564
0.019012195797430274   0.01667092127640488   0.03414609540277753
0.019012195797430274   0.01667092127640488   0.03414609540277753
0.019012195797430274   0.01667092127640488   0.03414609540277753
0.019012195797430274   0.01667092127640488   0.03414609540277753
0.019090363661861842   -0.0285788416072466   -0.03680553194169436
0.019090363661861842   -0.0285788416072466   -0.03680553194169436
0.019090363661861842   -0.0285788416072466   -0.03680553194169436
0.019090363661861842   -0.0285788416072466   -0.03680553194169436
-0.0395682278880093   0.01778531274495948   0.02795119651771915
-0.0395682278880093   0.01778531274495948   0.02795119651771915
-0.0395682278880093   0.01778531274495948   0.02795119651771915
-0.0395682278880093   0.01778531274495948   0.02795119651771915
-0.01848459855023744   -0.0122992559021698   -0.006417054589545996
-0.01848459855023744   -0.0122992559021698   -0.006417054589545996
-0.01848459855023744   -0.0122992559021698   -0.006417054589545996
-0.01848459855023744   -0.0122992559021698   -0.006417054589545996
-0.06394576075125266   -0.04421265926019871   -0.03193849579334039
-0.06394576075125266   -0.04421265926019871   -0.03193849579334039
-0.06394576075125266   -0.04421265926019871   -0.03193849579334039
-0.06394576075125266   -0.04421265926019871   -0.03193849579334039
0.04520788857570303   0.03515912244851182   0.03004412857175317
0.04520788857570303   0.03515912244851182   0.03004412857175317
0.04520788857570303   0.03515912244851182   0.03004412857175317
0.04520788857570303   0.03515912244851182   0.03004412857175317
0.03838439374109248   -0.01727461619035773   -0.04374777359793111
0.03838439374109248   -0.01727461619035773   -0.04374777359793111
0.03838439374109248   -0.01727461619035773   -0.04374777359793111
0.03838439374109248   -0.01727461619035773   -0.04374777359793111
-0.032522312906153046   0.025988800119382496   0.022430551882364223
-0.032522312906153046   0.025988800119382496   0.022430551882364223
-0.032522312906153046   0.025988800119382496   0.022430551882364223
-0.032522312906153046   0.025988800119382496   0.022430551882364223
-0.0026846122203862174   -0.0006541880337323186   0.0022039419411857383
-0.0026846122203862174   -0.0006541880337323186   0.0022039419411857383
-0.0026846122203862174   -0.0006541880337323186   0.0022039419411857383
-0.0026846122203862174   -0.0006541880337323186   0.0022039419411857383
-0.05658033424941377   -0.03491013167648823   -0.03696062303806967
-0.05658033424941377   -0.03491013167648823   -0.03696062303806967
-0.05658033424941377   -0.03491013167648823   -0.03696062303806967
-0.05658033424941377   -0.03491013167648823   -0.03696062303806967
0.06418658931045157   0.04536848983161022   0.02262009822689827
0.06418658931045157   0.04536848983161022   0.02262009822689827
0.06418658931045157   0.04536848983161022   0.02262009822689827
0.06418658931045157   0.04536848983161022   0.02262009822689827
0.06548184865641529   0.004828637136625529   -0.04687457405539763
0.06548184865641529   0.004828637136625529   -0.04687457405539763
0.06548184865641529   0.004828637136625529   -0.04687457405539763
0.06548184865641529   0.004828637136625529   -0.04687457405539763
-0.025944878563080413   0.04040495425880991   0.018231039606537727
-0.025944878563080413   0.04040495425880991   0.018231039606537727
-0.025944878563080413   0.04040495425880991   0.018231039606537727
-0.025944878563080413   0.04040495425880991   0.018231039606537727
0.011656020691104212   0.011554872996127544   0.01065339433643417
0.011656020691104212   0.011554872996127544   0.01065339433643417
0.011656020691104212   0.011554872996127544   0.01065339433643417
0.011656020691104212   0.011554872996127544   0.01065339433643417
-0.1371084524652405   0.008223458878837405   0.039024949223962456
-0.1371084524652405   0.008223458878837405   0.039024949223962456
-0.1371084524652405   0.008223458878837405   0.039024949223962456
-0.1371084524652405   0.008223458878837405   0.039024949223962456
-0.16494783114583225   -0.05077558601660436   -0.022907958953372318
-0.16494783114583225   -0.05077558601660436   -0.022907958953372318
-0.16494783114583225   -0.05077558601660436   -0.022907958953372318
-0.16494783114583225   -0.05077558601660436   -0.022907958953372318
-0.13169233839412503   0.023533382237223503   0.03193125637070939
-0.13169233839412503   0.023533382237223503   0.03193125637070939
-0.13169233839412503   0.023533382237223503   0.03193125637070939
-0.13169233839412503   0.023533382237223503   0.03193125637070939
-0.133197678374268   -0.03313294613487461   -0.02956218554507672
-0.133197678374268   -0.03313294613487461   -0.02956218554507672
-0.133197678374268   -0.03313294613487461   -0.02956218554507672
-0.133197678374268   -0.03313294613487461   -0.02956218554507672
-0.13821595140228912   -0.010620569635764507   -0.010763791410022622
-0.13821595140228912   -0.010620569635764507   -0.010763791410022622
-0.13821595140228912   -0.010620569635764507   -0.010763791410022622
-0.13821595140228912   -0.010620569635764507   -0.010763791410022622
-0.10754187604491178   0.02924499952190787   0.03633888044491799
-0.10754187604491178   0.02924499952190787   0.03633888044491799
-0.10754187604491178   0.02924499952190787   0.03633888044491799
-0.10754187604491178   0.02924499952190787   0.03633888044491799
-0.15572680019447466   -0.03722322289055273   -0.02748444750326065
-0.15572680019447466   -0.03722322289055273   -0.02748444750326065
-0.15572680019447466   -0.03722322289055273   -0.02748444750326065
-0.15572680019447466   -0.03722322289055273   -0.02748444750326065
-0.12152934485582532   0.03248605288924224   0.026855428195129826
-0.12152934485582532   0.03248605288924224   0.026855428195129826
-0.12152934485582532   0.03248605288924224   0.026855428195129826
-0.12152934485582532   0.03248605288924224   0.026855428195129826
-0.11125949087833359   -0.02301526342190944   -0.03679161536972346
-0.11125949087833359   -0.02301526342190944   -0.03679161536972346
-0.11125949087833359   -0.02301526342190944   -0.03679161536972346
-0.11125949087833359   -0.02301526342190944   -0.03679161536972346
-0.12203500076076149   0.0008039061999757513   -0.002324293162358179
-0.12203500076076149   0.0008039061999757513   -0.002324293162358179
-0.12203500076076149   0.0008039061999757513   -0.002324293162358179
-0.12203500076076149   0.0008039061999757513   -0.002324293162358179
-0.08547002893620383   0.04012909718161981   0.029011333737396203
-0.08547002893620383   0.04012909718161981   0.029011333737396203
-0.08547002893620383   0.04012909718161981   0.029011333737396203
-0.08547002893620383   0.04012909718161981   0.029011333737396203
-0.14579405518864605   -0.02913355610497797   -0.03284851447475366
-0.14579405518864605   -0.02913355610497797   -0.03284851447475366
-0.14579405518864605   -0.02913355610497797   -0.03284851447475366
-0.14579405518864605   -0.02913355610497797   -0.03284851447475366
-0.11224541568743095   0.04619492119155015   0.02319225911338597
-0.11224541568743095   0.04619492119155015   0.02319225911338597
-0.11224541568743095   0.04619492119155015   0.02319225911338597
-0.11224541568743095   0.04619492119155015   0.02319225911338597
-0.08196918454980784   -0.0037863712851703736   -0.04143637268402979
-0.08196918454980784   -0.0037863712851703736   -0.04143637268402979
-0.08196918454980784   -0.0037863712851703736   -0.04143637268402979
-0.08196918454980784   -0.0037863712851703736   -0.04143637268402979
-0.10262167894280624   0.012764092895245063   0.00669496143704282
-0.10262167894280624   0.012764092895245063   0.00669496143704282
-0.10262167894280624   0.012764092895245063   0.00669496143704282
-0.10262167894280624   0.012764092895245063   0.00669496143704282
-0.14753723366909532   -0.008905132045472063   0.02227457445917622
-0.14753723366909532   -0.008905132045472063   0.02227457445917622
-0.14753723366909532   -0.008905132045472063   0.02227457445917622
-0.14753723366909532   -0.008905132045472063   0.02227457445917622
-0.18445208382053419   -0.041425956372825125   -0.008947323941465858
-0.18445208382053419   -0.041425956372825125   -0.008947323941465858
-0.18445208382053419   -0.041425956372825125   -0.008947323941465858
-0.18445208382053419   -0.041425956372825125   -0.008947323941465858
-0.16462182632803193   0.004144111414733941   0.014822757865535342
-0.16462182632803193   0.004144111414733941   0.014822757865535342
-0.16462182632803193   0.004144111414733941   0.014822757865535342
-0.16462182632803193   0.004144111414733941   0.014822757865535342
-0.14936111825035533   -0.019369801251883936   -0.013509459421332847
-0.14936111825035533   -0.019369801251883936   -0.013509459421332847
-0.14936111825035533   -0.019369801251883936   -0.013509459421332847
-0.14936111825035533   -0.019369801251883936   -0.013509459421332847
-0.1616293383839607   -0.01512129674967732   -0.0075303985824784585
-0.1616293383839607   -0.01512129674967732   -0.0075303985824784585
-0.1616293383839607   -0.01512129674967732   -0.0075303985824784585
-0.1616293383839607   -0.01512129674967732   -0.0075303985824784585
-0.13677029243532365   0.010637366917130076   0.01943750148480773
-0.13677029243532365   0.010637366917130076   0.01943750148480773
-0.13677029243532365   0.010637366917130076   0.01943750148480773
-0.13677029243532365   0.010637366917130076   0.01943750148480773
-0.17594121076384214   -0.024591615375059564   -0.013038437523724194
-0.17594121076384214   -0.024591615375059564   -0.013038437523724194
-0.17594121076384214   -0.024591615375059564   -0.013038437523724194
-0.17594121076384214   -0.024591615375059564   -0.013038437523724194
-0.15555502649788802   0.021975863820436974   0.011303431748579474
-0.15555502649788802   0.021975863820436974   0.011303431748579474
-0.15555502649788802   0.021975863820436974   0.011303431748579474
-0.15555502649788802   0.021975863820436974   0.011303431748579474
-0.13719470566993805   -0.0022099491382903402   -0.01677537384790123
-0.13719470566993805   -0.0022099491382903402   -0.01677537384790123
-0.13719470566993805   -0.0022099491382903402   -0.01677537384790123
-0.13719470566993805   -0.0022099491382903402   -0.01677537384790123
-0.15077876464194626   0.0014943651635064559   0.0002514430311577002
-0.15077876464194626   0.0014943651635064559   0.0002514430311577002
-0.15077876464194626   0.0014943651635064559   0.0002514430311577002
-0.15077876464194626   0.0014943651635064559   0.0002514430311577002
-0.12398945097442725   0.029530402228071434   0.017510548263290966
-0.12398945097442725   0.029530402228071434   0.017510548263290966
-0.12398945097442725   0.029530402228071434   0.017510548263290966
-0.12398945097442725   0.029530402228071434   0.017510548263290966
-0.16740450481397007   -0.00840871116649651   -0.01755938484490007
-0.16740450481397007   -0.00840871116649651   -0.01755938484490007
-0.16740450481397007   -0.00840871116649651   -0.01755938484490007
-0.16740450481397007   -0.00840871116649651   -0.01755938484490007
-0.14644196598589904   0.04173568217734777   0.007958100863832886
-0.14644196598589904   0.04173568217734777   0.007958100863832886
-0.14644196598589904   0.04173568217734777   0.007958100863832886
-0.14644196598589904   0.04173568217734777   0.007958100863832886
-0.12671794035087108   0.0168592810616151   -0.01983472407387967
-0.12671794035087108   0.0168592810616151   -0.01983472407387967
-0.12671794035087108   0.0168592810616151   -0.01983472407387967
-0.12671794035087108   0.0168592810616151   -0.01983472407387967
-0.1405178604890723   0.01867983036706293   0.008181114385414214
-0.1405178604890723   0.01867983036706293   0.008181114385414214
-0.1405178604890723   0.01867983036706293   0.008181114385414214
-0.1405178604890723   0.01867983036706293   0.008181114385414214
-0.17811898298854392   -0.025001900337358413   0.006294124183014857
-0.17811898298854392   -0.025001900337358413   0.006294124183014857
-0.17811898298854392   -0.025001900337358413   0.006294124183014857
-0.17811898298854392   -0.025001900337358413   0.006294124183014857
-0.2038279764716543   -0.026300304676334374   0.005395546385918423
-0.2038279764716543   -0.026300304676334374   0.005395546385918423
-0.2038279764716543   -0.026300304676334374   0.005395546385918423
-0.2038279764716543   -0.026300304676334374   0.005395546385918423
-0.19658800909512023   -0.012023640495010032   -0.001933958843172638
-0.19658800909512023   -0.012023640495010032   -0.001933958843172638
-0.19658800909512023   -0.012023640495010032   -0.001933958843172638
-0.19658800909512023   -0.012023640495010032   -0.001933958843172638
-0.16875847093130034   -0.0034941197058505624   0.0017777659697758193
-0.16875847093130034   -0.0034941197058505624   0.0017777659697758193
-0.16875847093130034   -0.0034941197058505624   0.0017777659697758193
-0.16875847093130034   -0.0034941197058505624   0.0017777659697758193
-0.18710394552207402   -0.015758810024790407   -0.005011463878406906
-0.18710394552207402   -0.015758810024790407   -0.005011463878406906
-0.18710394552207402   -0.015758810024790407   -0.005011463878406906
-0.18710394552207402   -0.015758810024790407   -0.005011463878406906
-0.16887799537767306   -0.005464700980394931   0.0031507250124557006
-0.16887799537767306   -0.005464700980394931   0.0031507250124557006
-0.16887799537767306   -0.005464700980394931   0.0031507250124557006
-0.16887799537767306   -0.005464700980394931   0.0031507250124557006
-0.1952679017833301   -0.008852476355050688   0.0014954135758203074
-0.1952679017833301   -0.008852476355050688   0.0014954135758203074
-0.1952679017833301   -0.008852476355050688   0.0014954135758203074
-0.1952679017833301   -0.008852476355050688   0.0014954135758203074
-0.18705569963392443   0.00776693531845532   -0.004897602013854406
-0.18705569963392443   0.00776693531845532   -0.004897602013854406
-0.18705569963392443   0.00776693531845532   -0.004897602013854406
-0.18705569963392443   0.00776693531845532   -0.004897602013854406
-0.1597220019634753   0.014433909108099212   -0.001989490867019071
-0.1597220019634753   0.014433909108099212   -0.001989490867019071
-0.1597220019634753   0.014433909108099212   -0.001989490867019071
-0.1597220019634753   0.014433909108099212   -0.001989490867019071
-0.17714048280159966   0.0019205966125742865   0.0026781591509146586
-0.17714048280159966   0.0019205966125742865   0.0026781591509146586
-0.17714048280159966   0.0019205966125742865   0.0026781591509146586
-0.17714048280159966   0.0019205966125742865   0.0026781591509146586
-0.1593851636592237   0.014255237390530383   -0.00012662762819514242
-0.1593851636592237   0.014255237390530383   -0.00012662762819514242
-0.1593851636592237   0.014255237390530383   -0.00012662762819514242
-0.1593851636592237   0.014255237390530383   -0.00012662762819514242
-0.18634408816017167   0.008994056814030552   -0.0025666661406659706
-0.18634408816017167   0.008994056814030552   -0.0025666661406659706
-0.18634408816017167   0.008994056814030552   -0.0025666661406659706
-0.18634408816017167   0.008994056814030552   -0.0025666661406659706
-0.1779274206080275   0.027682281980195463   -0.008235184906645591
-0.1779274206080275   0.027682281980195463   -0.008235184906645591
-0.1779274206080275   0.027682281980195463   -0.008235184906645591
-0.1779274206080275   0.027682281980195463   -0.008235184906645591
-0.1511203932889577   0.0324353890270713   -0.00613374250118404
-0.1511203932889577   0.0324353890270713   -0.00613374250118404
-0.1511203932889577   0.0324353890270713   -0.00613374250118404
-0.1511203932889577   0.0324353890270713   -0.00613374250118404
-0.16764423444457655   0.019633414012460278   0.010007181902701593
-0.16764423444457655   0.019633414012460278   0.010007181902701593
-0.16764423444457655   0.019633414012460278   0.010007181902701593
-0.16764423444457655   0.019633414012460278   0.010007181902701593
-0.2096116826212426   -0.039741102990804814   -0.01008218604755607
-0.2096116826212426   -0.039741102990804814   -0.01008218604755607
-0.2096116826212426   -0.039741102990804814   -0.01008218604755607
-0.2096116826212426   -0.039741102990804814   -0.01008218604755607
-0.2249346146666645   -0.011480822647797408   0.01908685446263792
-0.2249346146666645   -0.011480822647797408   0.01908685446263792
-0.2249346146666645   -0.011480822647797408   0.01908685446263792
-0.2249346146666645   -0.011480822647797408   0.01908685446263792
-0.2286472798423392   -0.027552408965024807   -0.01893215821514407
-0.2286472798423392   -0.027552408965024807   -0.01893215821514407
-0.2286472798423392   -0.027552408965024807   -0.01893215821514407
-0.2286472798423392   -0.027552408965024807   -0.01893215821514407
-0.1881912975605197   0.011869179359506356   0.016156778975313486
-0.1881912975605197   0.011869179359506356   0.016156778975313486
-0.1881912975605197   0.011869179359506356   0.016156778975313486
-0.1881912975605197   0.011869179359506356   0.016156778975313486
-0.21194842200168537   -0.015653087805218912   -0.003155424766056381
-0.21194842200168537   -0.015653087805218912   -0.003155424766056381
-0.21194842200168537   -0.015653087805218912   -0.003155424766056381
-0.21194842200168537   -0.015653087805218912   -0.003155424766056381
-0.20062842428172833   -0.020828451053432364   -0.013331224217792727
-0.20062842428172833   -0.020828451053432364   -0.013331224217792727
-0.20062842428172833   -0.020828451053432364   -0.013331224217792727
-0.20062842428172833   -0.020828451053432364   -0.013331224217792727
-0.2149516311193427   0.006403743449704055   0.015589932985109594
-0.2149516311193427   0.006403743449704055   0.015589932985109594
-0.2149516311193427   0.006403743449704055   0.015589932985109594
-0.2149516311193427   0.006403743449704055   0.015589932985109594
-0.2161134478739595   -0.008788134089552542   -0.021243061952984074
-0.2161134478739595   -0.008788134089552542   -0.021243061952984074
-0.2161134478739595   -0.008788134089552542   -0.021243061952984074
-0.2161134478739595   -0.008788134089552542   -0.021243061952984074
-0.1796221313704077   0.028035093077306714   0.012002081544876263
-0.1796221313704077   0.028035093077306714   0.012002081544876263
-0.1796221313704077   0.028035093077306714   0.012002081544876263
-0.1796221313704077   0.028035093077306714   0.012002081544876263
-0.2005987644022508   0.001382170440719109   0.004786898006233664
-0.2005987644022508   0.001382170440719109   0.004786898006233664
-0.2005987644022508   0.001382170440719109   0.004786898006233664
-0.2005987644022508   0.001382170440719109   0.004786898006233664
-0.19167257069017185   -0.0030786255479385294   -0.01713639642870165
-0.19167257069017185   -0.0030786255479385294   -0.01713639642870165
-0.19167257069017185   -0.0030786255479385294   -0.01713639642870165
-0.19167257069017185   -0.0030786255479385294   -0.01713639642870165
-0.2027912243350571   0.02359736875483083   0.0129825528971463
-0.2027912243350571   0.02359736875483083   0.0129825528971463
-0.2027912243350571   0.02359736875483083   0.0129825528971463
-0.2027912243350571   0.02359736875483083   0.0129825528971463
-0.20515143303030692   0.01186690187490029   -0.023317881763689884
-0.20515143303030692   0.01186690187490029   -0.023317881763689884
-0.20515143303030692   0.01186690187490029   -0.023317881763689884
-0.20515143303030692   0.01186690187490029   -0.023317881763689884
-0.1710298166700909   0.04603144997390729   0.007903666789325532
-0.1710298166700909   0.04603144997390729   0.007903666789325532
-0.1710298166700909   0.04603144997390729   0.007903666789325532
-0.1710298166700909   0.04603144997390729   0.007903666789325532
-0.19099802359773274   0.018260003198185715   0.012371824313079385
-0.19099802359773274   0.018260003198185715   0.012371824313079385
-0.19099802359773274   0.018260003198185715   0.012371824313079385
-0.19099802359773274   0.018260003198185715   0.012371824313079385
-0.24096562264884297   -0.0472197192605138   -0.025329288835542616
-0.24096562264884297   -0.0472197192605138   -0.025329288835542616
-0.24096562264884297   -0.0472197192605138   -0.025329288835542616
-0.24096562264884297   -0.0472197192605138   -0.025329288835542616
-0.2678346319595094   0.0033334738227246558   0.034464264386244434
-0.2678346319595094   0.0033334738227246558   0.034464264386244434
-0.2678346319595094   0.0033334738227246558   0.034464264386244434
-0.2678346319595094   0.0033334738227246558   0.034464264386244434
-0.2644307501015973   -0.03953413188308403   -0.03378350440892576
-0.2644307501015973   -0.03953413188308403   -0.03378350440892576
-0.2644307501015973   -0.03953413188308403   -0.03378350440892576
-0.2644307501015973   -0.03953413188308403   -0.03378350440892576
-0.20721098881194952   0.02980761984053097   0.030889268131246598
-0.20721098881194952   0.02980761984053097   0.030889268131246598
-0.20721098881194952   0.02980761984053097   0.030889268131246598
-0.20721098881194952   0.02980761984053097   0.030889268131246598
-0.2352600166708383   -0.010246116017553097   -0.0014565185924775136
-0.2352600166708383   -0.010246116017553097   -0.0014565185924775136
-0.2352600166708383   -0.010246116017553097   -0.0014565185924775136
-0.2352600166708383   -0.010246116017553097   -0.0014565185924775136
-0.23154319226846617   -0.03199395441402879   -0.028970174896780658
-0.23154319226846617   -0.03199395441402879   -0.028970174896780658
-0.23154319226846617   -0.03199395441402879   -0.028970174896780658
-0.23154319226846617   -0.03199395441402879   -0.028970174896780658
-0.23876883915939112   0.023597149857163942   0.031394768561853054
-0.23876883915939112   0.023597149857163942   0.031394768561853054
-0.23876883915939112   0.023597149857163942   0.031394768561853054
-0.23876883915939112   0.023597149857163942   0.031394768561853054
-0.24269872390184768   -0.028589995978042862   -0.04028701760906791
-0.24269872390184768   -0.028589995978042862   -0.04028701760906791
-0.24269872390184768   -0.028589995978042862   -0.04028701760906791
-0.24269872390184768   -0.028589995978042862   -0.04028701760906791
-0.19754505789579588   0.037516879090336436   0.025293874757945048
-0.19754505789579588   0.037516879090336436   0.025293874757945048
-0.19754505789579588   0.037516879090336436   0.025293874757945048
-0.19754505789579588   0.037516879090336436   0.025293874757945048
-0.22064075563545407   0.0012048859828854008   0.006151007488925227
-0.22064075563545407   0.0012048859828854008   0.006151007488925227
-0.22064075563545407   0.0012048859828854008   0.006151007488925227
-0.22064075563545407   0.0012048859828854008   0.006151007488925227
-0.22141184940840974   -0.022983215250416363   -0.03353998846437339
-0.22141184940840974   -0.022983215250416363   -0.03353998846437339
-0.22141184940840974   -0.022983215250416363   -0.03353998846437339
-0.22141184940840974   -0.022983215250416363   -0.03353998846437339
-0.21743718509844143   0.03330484565350202   0.02412583477641851
-0.21743718509844143   0.03330484565350202   0.02412583477641851
-0.21743718509844143   0.03330484565350202   0.02412583477641851
-0.21743718509844143   0.03330484565350202   0.02412583477641851
-0.21411116528116547   -0.00968452201840328   -0.04405005506142784
-0.21411116528116547   -0.00968452201840328   -0.04405005506142784
-0.21411116528116547   -0.00968452201840328   -0.04405005506142784
-0.21411116528116547   -0.00968452201840328   -0.04405005506142784
-0.18890155540191794   0.04896449610028748   0.020833912152865845
-0.18890155540191794   0.04896449610028748   0.020833912152865845
-0.18890155540191794   0.04896449610028748   0.020833912152865845
-0.18890155540191794   0.04896449610028748   0.020833912152865845
-0.20045900352530235   0.012622377204877647   0.014981401278779562
-0.20045900352530235   0.012622377204877647   0.014981401278779562
-0.20045900352530235   0.012622377204877647   0.014981401278779562
-0.20045900352530235   0.012622377204877647   0.014981401278779562
0.14606055893132522   0.02353218126886262   0.03762248739678975
0.14606055893132522   0.02353218126886262   0.03762248739678975
0.14606055893132522   0.02353218126886262   0.03762248739678975
0.14606055893132522   0.02353218126886262   0.03762248739678975
-0.0029888054441996187   -0.06037784620212484   -0.02477497390289831
-0.0029888054441996187   -0.06037784620212484   -0.02477497390289831
-0.0029888054441996187   -0.06037784620212484   -0.02477497390289831
-0.0029888054441996187   -0.06037784620212484   -0.02477497390289831
0.03234778511755958   0.011697749971907949   0.029045831497008512
0.03234778511755958   0.011697749971907949   0.029045831497008512
0.03234778511755958   0.011697749971907949   0.029045831497008512
0.03234778511755958   0.011697749971907949   0.029045831497008512
0.15214064604285626   -0.020877165524829835   -0.031046962595136847
0.15214064604285626   -0.020877165524829835   -0.031046962595136847
0.15214064604285626   -0.020877165524829835   -0.031046962595136847
0.15214064604285626   -0.020877165524829835   -0.031046962595136847
0.07458997811565729   -0.011625782343772706   -0.017975101642495665
0.07458997811565729   -0.011625782343772706   -0.017975101642495665
0.07458997811565729   -0.011625782343772706   -0.017975101642495665
0.07458997811565729   -0.011625782343772706   -0.017975101642495665
0.17766229133520026   0.04174025382032023   0.03394384452142924
0.17766229133520026   0.04174025382032023   0.03394384452142924
0.17766229133520026   0.04174025382032023   0.03394384452142924
0.17766229133520026   0.04174025382032023   0.03394384452142924
0.008409484440187133   -0.0493363247582712   -0.029611597159674548
0.008409484440187133   -0.0493363247582712   -0.029611597159674548
0.008409484440187133   -0.0493363247582712   -0.029611597159674548
0.008409484440187133   -0.0493363247582712   -0.029611597159674548
0.04512890871512852   0.020465632648001858   0.024224465386370905
0.04512890871512852   0.020465632648001858   0.024224465386370905
0.04512890871512852   0.020465632648001858   0.024224465386370905
0.04512890871512852   0.020465632648001858   0.024224465386370905
0.17676552630869977   -0.010975997251644304   -0.03880011411527644
0.17676552630869977   -0.010975997251644304   -0.03880011411527644
0.17676552630869977   -0.010975997251644304   -0.03880011411527644
0.17676552630869977   -0.010975997251644304   -0.03880011411527644
0.09682790400569855   -0.0007107320569602997   -0.00849448610017748
0.09682790400569855   -0.0007107320569602997   -0.00849448610017748
0.09682790400569855   -0.0007107320569602997   -0.00849448610017748
0.09682790400569855   -0.0007107320569602997   -0.00849448610017748
0.20255352517750097   0.05244869954884935   0.026715183428235915
0.20255352517750097   0.05244869954884935   0.026715183428235915
0.20255352517750097   0.05244869954884935   0.026715183428235915
0.20255352517750097   0.05244869954884935   0.026715183428235915
0.02088366040721195   -0.041416313591604616   -0.03511982991360549
0.02088366040721195   -0.041416313591604616   -0.03511982991360549
0.02088366040721195   -0.041416313591604616   -0.03511982991360549
0.02088366040721195   -0.041416313591604616   -0.03511982991360549
0.0575267321385685   0.03659224732463315   0.020960803676611475
0.0575267321385685   0.03659224732463315   0.020960803676611475
0.0575267321385685   0.03659224732463315   0.020960803676611475
0.0575267321385685   0.03659224732463315   0.020960803676611475
0.20947037912763392   0.01117600338967711   -0.04277690658541391
0.20947037912763392   0.01117600338967711   -0.04277690658541391
0.20947037912763392   0.01117600338967711   -0.04277690658541391
0.20947037912763392   0.01117600338967711   -0.04277690658541391
0.11541510950318395   0.011544229807717474   0.00045089838184576977
0.11541510950318395   0.011544229807717474   0.00045089838184576977
0.11541510950318395   0.011544229807717474   0.00045089838184576977
0.11541510950318395   0.011544229807717474   0.00045089838184576977
0.02046046776830789   0.0064706066039465744   0.0256229393535659
0.02046046776830789   0.0064706066039465744   0.0256229393535659
0.02046046776830789   0.0064706066039465744   0.0256229393535659
0.02046046776830789   0.0064706066039465744   0.0256229393535659
-0.13753455951662524   -0.051300842429484086   -0.011373027232751833
-0.13753455951662524   -0.051300842429484086   -0.011373027232751833
-0.13753455951662524   -0.051300842429484086   -0.011373027232751833
-0.13753455951662524   -0.051300842429484086   -0.011373027232751833
-0.1152964493323274   -0.007522059101941404   0.011664582410351855
-0.1152964493323274   -0.007522059101941404   0.011664582410351855
-0.1152964493323274   -0.007522059101941404   0.011664582410351855
-0.1152964493323274   -0.007522059101941404   0.011664582410351855
0.021266251143212383   -0.005679745881523487   -0.00898434252129602
0.021266251143212383   -0.005679745881523487   -0.00898434252129602
0.021266251143212383   -0.005679745881523487   -0.00898434252129602
0.021266251143212383   -0.005679745881523487   -0.00898434252129602
-0.05392199697807873   -0.013194977744979394   -0.00861875669822536
-0.05392199697807873   -0.013194977744979394   -0.00861875669822536
-0.05392199697807873   -0.013194977744979394   -0.00861875669822536
-0.05392199697807873   -0.013194977744979394   -0.00861875669822536
0.03364059630313948   0.02447830085203765   0.02272933654478025
0.03364059630313948   0.02447830085203765   0.02272933654478025
0.03364059630313948   0.02447830085203765   0.02272933654478025
0.03364059630313948   0.02447830085203765   0.02272933654478025
-0.12651402873139092   -0.03652334007463867   -0.015422033612268623
-0.12651402873139092   -0.03652334007463867   -0.015422033612268623
-0.12651402873139092   -0.03652334007463867   -0.015422033612268623
-0.12651402873139092   -0.03652334007463867   -0.015422033612268623
-0.10364998746832388   0.009501765951761474   0.008238483400743665
-0.10364998746832388   0.009501765951761474   0.008238483400743665
-0.10364998746832388   0.009501765951761474   0.008238483400743665
-0.10364998746832388   0.009501765951761474   0.008238483400743665
0.03584832539003878   0.010453121189144678   -0.012165939780220663
0.03584832539003878   0.010453121189144678   -0.012165939780220663
0.03584832539003878   0.010453121189144678   -0.012165939780220663
0.03584832539003878   0.010453121189144678   -0.012165939780220663
-0.041573224248336364   0.0018055471184144044   -0.001066718810042971
-0.041573224248336364   0.0018055471184144044   -0.001066718810042971
-0.041573224248336364   0.0018055471184144044   -0.001066718810042971
-0.041573224248336364   0.0018055471184144044   -0.001066718810042971
0.04874573082840682   0.042406712209259775   0.020367496391504463
0.04874573082840682   0.042406712209259775   0.020367496391504463
0.04874573082840682   0.042406712209259775   0.020367496391504463
0.04874573082840682   0.042406712209259775   0.020367496391504463
-0.1154325071248864   -0.021336939286550644   -0.019835409643756775
-0.1154325071248864   -0.021336939286550644   -0.019835409643756775
-0.1154325071248864   -0.021336939286550644   -0.019835409643756775
-0.1154325071248864   -0.021336939286550644   -0.019835409643756775
-0.09193066729068464   0.028778234861499573   0.004972771865356232
-0.09193066729068464   0.028778234861499573   0.004972771865356232
-0.09193066729068464   0.028778234861499573   0.004972771865356232
-0.09193066729068464   0.028778234861499573   0.004972771865356232
0.0486652618435335   0.028771622028408557   -0.015525922502338925
0.0486652618435335   0.028771622028408557   -0.015525922502338925
0.0486652618435335   0.028771622028408557   -0.015525922502338925
0.0486652618435335   0.028771622028408557   -0.015525922502338925
-0.027890822947960633   0.01839274286972096   0.006993995007544977
-0.027890822947960633   0.01839274286972096   0.006993995007544977
-0.027890822947960633   0.01839274286972096   0.006993995007544977
-0.027890822947960633   0.01839274286972096   0.006993995007544977
-0.12510685469408192   -0.009785215589922559   0.009249870040405103
-0.12510685469408192   -0.009785215589922559   0.009249870040405103
-0.12510685469408192   -0.009785215589922559   0.009249870040405103
-0.12510685469408192   -0.009785215589922559   0.009249870040405103
-0.26962362920534766   -0.0365955660372804   0.002325507193003647
-0.26962362920534766   -0.0365955660372804   0.002325507193003647
-0.26962362920534766   -0.0365955660372804   0.002325507193003647
-0.26962362920534766   -0.0365955660372804   0.002325507193003647
-0.25945419312327883   -0.023002858895863898   -0.005070207788312377
-0.25945419312327883   -0.023002858895863898   -0.005070207788312377
-0.25945419312327883   -0.023002858895863898   -0.005070207788312377
-0.25945419312327883   -0.023002858895863898   -0.005070207788312377
-0.1130704171534539   0.009577262064167091   0.005695422138612672
-0.1130704171534539   0.009577262064167091   0.005695422138612672
-0.1130704171534539   0.009577262064167091   0.005695422138612672
-0.1130704171534539   0.009577262064167091   0.005695422138612672
-0.19209298956785953   -0.013736022467233974   -0.005036620732475225
-0.19209298956785953   -0.013736022467233974   -0.005036620732475225
-0.19209298956785953   -0.013736022467233974   -0.005036620732475225
-0.19209298956785953   -0.013736022467233974   -0.005036620732475225
-0.11320268527375889   0.008486460793292051   0.00612488280796278
-0.11320268527375889   0.008486460793292051   0.00612488280796278
-0.11320268527375889   0.008486460793292051   0.00612488280796278
-0.11320268527375889   0.008486460793292051   0.00612488280796278
-0.25832597395550394   -0.020916106577519036   -0.0015158642677832092
-0.25832597395550394   -0.020916106577519036   -0.0015158642677832092
-0.25832597395550394   -0.020916106577519036   -0.0015158642677832092
-0.25832597395550394   -0.020916106577519036   -0.0015158642677832092
-0.24720106983536105   -0.004258490880822238   -0.00797242293974058
-0.24720106983536105   -0.004258490880822238   -0.00797242293974058
-0.24720106983536105   -0.004258490880822238   -0.00797242293974058
-0.24720106983536105   -0.004258490880822238   -0.00797242293974058
-0.10154056825253986   0.02617501577749816   0.0021123296539289557
-0.10154056825253986   0.02617501577749816   0.0021123296539289557
-0.10154056825253986   0.02617501577749816   0.0021123296539289557
-0.10154056825253986   0.02617501577749816   0.0021123296539289557
-0.1794369628242013   0.0027191835171163636   0.002578337698571973
-0.1794369628242013   0.0027191835171163636   0.002578337698571973
-0.1794369628242013   0.0027191835171163636   0.002578337698571973
-0.1794369628242013   0.0027191835171163636   0.002578337698571973
-0.1012257453694194   0.02708612547476675   0.0027753343722627145
-0.1012257453694194   0.02708612547476675   0.0027753343722627145
-0.1012257453694194   0.02708612547476675   0.0027753343722627145
-0.1012257453694194   0.02708612547476675   0.0027753343722627145
-0.24671716359863485   -0.004370871458241998   -0.005440511178692179
-0.24671716359863485   -0.004370871458241998   -0.005440511178692179
-0.24671716359863485   -0.004370871458241998   -0.005440511178692179
-0.24671716359863485   -0.004370871458241998   -0.005440511178692179
-0.23544092408917133   0.014542773363969766   -0.01127629001647806
-0.23544092408917133   0.014542773363969766   -0.01127629001647806
-0.23544092408917133   0.014542773363969766   -0.01127629001647806
-0.23544092408917133   0.014542773363969766   -0.01127629001647806
-0.09052084969952269   0.04282148748670116   -0.0020213928040336768
-0.09052084969952269   0.04282148748670116   -0.0020213928040336768
-0.09052084969952269   0.04282148748670116   -0.0020213928040336768
-0.09052084969952269   0.04282148748670116   -0.0020213928040336768
-0.1674477210194498   0.019131686908552437   0.009696399153531021
-0.1674477210194498   0.019131686908552437   0.009696399153531021
-0.1674477210194498   0.019131686908552437   0.009696399153531021
-0.1674477210194498   0.019131686908552437   0.009696399153531021
-0.2694357049270686   -0.025720415902484618   -0.007610021550394095
-0.2694357049270686   -0.025720415902484618   -0.007610021550394095
-0.2694357049270686   -0.025720415902484618   -0.007610021550394095
-0.2694357049270686   -0.025720415902484618   -0.007610021550394095
-0.4005514700523812   -0.02276765753395321   0.015758421409907037
-0.4005514700523812   -0.02276765753395321   0.015758421409907037
-0.4005514700523812   -0.02276765753395321   0.015758421409907037
-0.4005514700523812   -0.02276765753395321   0.015758421409907037
-0.4008500130079692   -0.03818117881276973   -0.021436296438617483
-0.4008500130079692   -0.03818117881276973   -0.021436296438617483
-0.4008500130079692   -0.03818117881276973   -0.021436296438617483
-0.4008500130079692   -0.03818117881276973   -0.021436296438617483
-0.24512533767215428   0.0241891098869566   0.019382100684489725
-0.24512533767215428   0.0241891098869566   0.019382100684489725
-0.24512533767215428   0.0241891098869566   0.019382100684489725
-0.24512533767215428   0.0241891098869566   0.019382100684489725
-0.32714278706998223   -0.014035507768542621   -0.002135267301547769
-0.32714278706998223   -0.014035507768542621   -0.002135267301547769
-0.32714278706998223   -0.014035507768542621   -0.002135267301547769
-0.32714278706998223   -0.014035507768542621   -0.002135267301547769
-0.25743409635159153   -0.007337710632429238   -0.010634872193308073
-0.25743409635159153   -0.007337710632429238   -0.010634872193308073
-0.25743409635159153   -0.007337710632429238   -0.010634872193308073
-0.25743409635159153   -0.007337710632429238   -0.010634872193308073
-0.38771308299555257   -0.005826186960400909   0.01189336177110049
-0.38771308299555257   -0.005826186960400909   0.01189336177110049
-0.38771308299555257   -0.005826186960400909   0.01189336177110049
-0.38771308299555257   -0.005826186960400909   0.01189336177110049
-0.38546290536529626   -0.020304262647344418   -0.023853923083490814
-0.38546290536529626   -0.020304262647344418   -0.023853923083490814
-0.38546290536529626   -0.020304262647344418   -0.023853923083490814
-0.38546290536529626   -0.020304262647344418   -0.023853923083490814
-0.2338113919703579   0.0392893350497524   0.015428140454700288
-0.2338113919703579   0.0392893350497524   0.015428140454700288
-0.2338113919703579   0.0392893350497524   0.015428140454700288
-0.2338113919703579   0.0392893350497524   0.015428140454700288
-0.31192314847877756   0.0025566382963442547   0.005717798029034774
-0.31192314847877756   0.0025566382963442547   0.005717798029034774
-0.31192314847877756   0.0025566382963442547   0.005717798029034774
-0.31192314847877756   0.0025566382963442547   0.005717798029034774
-0.245710306976116   0.009551351451935003   -0.014328450976273947
-0.245710306976116   0.009551351451935003   -0.014328450976273947
-0.245710306976116   0.009551351451935003   -0.014328450976273947
-0.245710306976116   0.009551351451935003   -0.014328450976273947
-0.37263374304930336   0.010363968260705028   0.009623657588424237
-0.37263374304930336   0.010363968260705028   0.009623657588424237
-0.37263374304930336   0.010363968260705028   0.009623657588424237
-0.37263374304930336   0.010363968260705028   0.009623657588424237
-0.3717027095852495   -0.0008205266122512517   -0.02568332322630859
-0.3717027095852495   -0.0008205266122512517   -0.02568332322630859
-0.3717027095852495   -0.0008205266122512517   -0.02568332322630859
-0.3717027095852495   -0.0008205266122512517   -0.02568332322630859
-0.22261648221211994   0.055945744452074626   0.011442948280674131
-0.22261648221211994   0.055945744452074626   0.011442948280674131
-0.22261648221211994   0.055945744452074626   0.011442948280674131
-0.22261648221211994   0.055945744452074626   0.011442948280674131
-0.3005886884989505   0.018010533735427173   0.012749914271240486
-0.3005886884989505   0.018010533735427173   0.012749914271240486
-0.3005886884989505   0.018010533735427173   0.012749914271240486
-0.3005886884989505   0.018010533735427173   0.012749914271240486
-0.4111725005687166   -0.036874858764591956   -0.023239529941131414
-0.4111725005687166   -0.036874858764591956   -0.023239529941131414
-0.4111725005687166   -0.036874858764591956   -0.023239529941131414
-0.4111725005687166   -0.036874858764591956   -0.023239529941131414
-0.5499775455111805   -0.009919947403348367   0.034302118234164666
-0.5499775455111805   -0.009919947403348367   0.034302118234164666
-0.5499775455111805   -0.009919947403348367   0.034302118234164666
-0.5499775455111805   -0.009919947403348367   0.034302118234164666
-0.5425626453012711   -0.0496564288467846   -0.031079318816009744
-0.5425626453012711   -0.0496564288467846   -0.031079318816009744
-0.5425626453012711   -0.0496564288467846   -0.031079318816009744
-0.5425626453012711   -0.0496564288467846   -0.031079318816009744
-0.37397661440832014   0.04093549475112411   0.03381402299573395
-0.37397661440832014   0.04093549475112411   0.03381402299573395
-0.37397661440832014   0.04093549475112411   0.03381402299573395
-0.37397661440832014   0.04093549475112411   0.03381402299573395
-0.4491673867495296   -0.007997268667116919   0.003809215135318955
-0.4491673867495296   -0.007997268667116919   0.003809215135318955
-0.4491673867495296   -0.007997268667116919   0.003809215135318955
-0.4491673867495296   -0.007997268667116919   0.003809215135318955
-0.3981484992597389   -0.019816430981102404   -0.026293475529130934
-0.3981484992597389   -0.019816430981102404   -0.026293475529130934
-0.3981484992597389   -0.019816430981102404   -0.026293475529130934
-0.3981484992597389   -0.019816430981102404   -0.026293475529130934
-0.517635769488735   0.011850487846555832   0.032048143553322764
-0.517635769488735   0.011850487846555832   0.032048143553322764
-0.517635769488735   0.011850487846555832   0.032048143553322764
-0.517635769488735   0.011850487846555832   0.032048143553322764
-0.5181267375075712   -0.03905987499942784   -0.037008216079100945
-0.5181267375075712   -0.03905987499942784   -0.037008216079100945
-0.5181267375075712   -0.03905987499942784   -0.037008216079100945
-0.5181267375075712   -0.03905987499942784   -0.037008216079100945
-0.36147290118040026   0.047904333056191684   0.02788750213744947
-0.36147290118040026   0.047904333056191684   0.02788750213744947
-0.36147290118040026   0.047904333056191684   0.02788750213744947
-0.36147290118040026   0.047904333056191684   0.02788750213744947
-0.4354391811691275   0.0031362387007357467   0.010140541454980213
-0.4354391811691275   0.0031362387007357467   0.010140541454980213
-0.4354391811691275   0.0031362387007357467   0.010140541454980213
-0.4354391811691275   0.0031362387007357467   0.010140541454980213
-0.3849268425403941   -0.011094855926197564   -0.030383015680126774
-0.3849268425403941   -0.011094855926197564   -0.030383015680126774
-0.3849268425403941   -0.011094855926197564   -0.030383015680126774
-0.3849268425403941   -0.011094855926197564   -0.030383015680126774
-0.4937527011066224   0.020859409023916073   0.024942681902293533
-0.4937527011066224   0.020859409023916073   0.024942681902293533
-0.4937527011066224   0.020859409023916073   0.024942681902293533
-0.4937527011066224   0.020859409023916073   0.024942681902293533
-0.4879612922492685   -0.023273150892338737   -0.04129458596291467
-0.4879612922492685   -0.023273150892338737   -0.04129458596291467
-0.4879612922492685   -0.023273150892338737   -0.04129458596291467
-0.4879612922492685   -0.023273150892338737   -0.04129458596291467
-0.3505051152444732   0.05625627697339347   0.023227844891927953
-0.3505051152444732   0.05625627697339347   0.023227844891927953
-0.3505051152444732   0.05625627697339347   0.023227844891927953
-0.3505051152444732   0.05625627697339347   0.023227844891927953
-0.4094011850766952   0.013543286558818271   0.019085721318801516
-0.4094011850766952   0.013543286558818271   0.019085721318801516
-0.4094011850766952   0.013543286558818271   0.019085721318801516
-0.4094011850766952   0.013543286558818271   0.019085721318801516
0.4341885077148987   0.039500228936585426   0.0374380886315547
0.4341885077148987   0.039500228936585426   0.0374380886315547
0.4341885077148987   0.039500228936585426   0.0374380886315547
0.4341885077148987   0.039500228936585426   0.0374380886315547
0.15874897210615185   -0.07171862374870568   -0.024631311072518813
0.15874897210615185   -0.07171862374870568   -0.024631311072518813
0.15874897210615185   -0.07171862374870568   -0.024631311072518813
0.15874897210615185   -0.07171862374870568   -0.024631311072518813
0.19565685063474494   -0.0005818612257934286   0.0269133543081565
0.19565685063474494   -0.0005818612257934286   0.0269133543081565
0.19565685063474494   -0.0005818612257934286   0.0269133543081565
0.19565685063474494   -0.0005818612257934286   0.0269133543081565
0.4418510886085676   -0.009607700409866263   -0.03146253763827437
0.4418510886085676   -0.009607700409866263   -0.03146253763827437
0.4418510886085676   -0.009607700409866263   -0.03146253763827437
0.4418510886085676   -0.009607700409866263   -0.03146253763827437
0.2886946772254596   -0.01287220200785441   -0.027765601369120423
0.2886946772254596   -0.01287220200785441   -0.027765601369120423
0.2886946772254596   -0.01287220200785441   -0.027765601369120423
0.2886946772254596   -0.01287220200785441   -0.027765601369120423
0.46755739520325607   0.05492319650944815   0.03253809841585331
0.46755739520325607   0.05492319650944815   0.03253809841585331
0.46755739520325607   0.05492319650944815   0.03253809841585331
0.46755739520325607   0.05492319650944815   0.03253809841585331
0.17178118014367133   -0.06328212204149272   -0.029764737331510367
0.17178118014367133   -0.06328212204149272   -0.029764737331510367
0.17178118014367133   -0.06328212204149272   -0.029764737331510367
0.17178118014367133   -0.06328212204149272   -0.029764737331510367
0.21012207971959246   0.007890597524126818   0.0221763063526865
0.21012207971959246   0.007890597524126818   0.0221763063526865
0.21012207971959246   0.007890597524126818   0.0221763063526865
0.21012207971959246   0.007890597524126818   0.0221763063526865
0.46836217971038036   1.3776490565969857e-05   -0.03958300481362798
0.46836217971038036   1.3776490565969857e-05   -0.03958300481362798
0.46836217971038036   1.3776490565969857e-05   -0.03958300481362798
0.46836217971038036   1.3776490565969857e-05   -0.03958300481362798
0.31642768975958174   -0.0024932669207636815   -0.016848066858370443
0.31642768975958174   -0.0024932669207636815   -0.016848066858370443
0.31642768975958174   -0.0024932669207636815   -0.016848066858370443
0.31642768975958174   -0.0024932669207636815   -0.016848066858370443
0.4943413440891033   0.0653037565346673   0.02502283703587801
0.4943413440891033   0.0653037565346673   0.02502283703587801
0.4943413440891033   0.0653037565346673   0.02502283703587801
0.4943413440891033   0.0653037565346673   0.02502283703587801
0.18608064138190142   -0.055461656478943536   -0.03467863133269656
0.18608064138190142   -0.055461656478943536   -0.03467863133269656
0.18608064138190142   -0.055461656478943536   -0.03467863133269656
0.18608064138190142   -0.055461656478943536   -0.03467863133269656
0.22456957680887898   0.026595153604186034   0.01921964680588567
0.22456957680887898   0.026595153604186034   0.01921964680588567
0.22456957680887898   0.026595153604186034   0.01921964680588567
0.22456957680887898   0.026595153604186034   0.01921964680588567
0.5032007975066618   0.025100038005421862   -0.04268262538166592
0.5032007975066618   0.025100038005421862   -0.04268262538166592
0.5032007975066618   0.025100038005421862   -0.04268262538166592
0.5032007975066618   0.025100038005421862   -0.04268262538166592
0.33341172707455413   0.010158276763939163   -0.007433043784580413
0.33341172707455413   0.010158276763939163   -0.007433043784580413
0.33341172707455413   0.010158276763939163   -0.007433043784580413
0.33341172707455413   0.010158276763939163   -0.007433043784580413
0.1884596854523179   0.02217778199398007   0.030025849915625798
0.1884596854523179   0.02217778199398007   0.030025849915625798
0.1884596854523179   0.02217778199398007   0.030025849915625798
0.1884596854523179   0.02217778199398007   0.030025849915625798
-0.09233365699969673   -0.06693615873093703   -0.012921391961068816
-0.09233365699969673   -0.06693615873093703   -0.012921391961068816
-0.09233365699969673   -0.06693615873093703   -0.012921391961068816
-0.09233365699969673   -0.06693615873093703   -0.012921391961068816
-0.06701833784262165   -0.019730956309210367   0.009044194326103629
-0.06701833784262165   -0.019730956309210367   0.009044194326103629
-0.06701833784262165   -0.019730956309210367   0.009044194326103629
-0.06701833784262165   -0.019730956309210367   0.009044194326103629
0.18979024202049283   0.0008981519591778897   -0.0038997019480735175
0.18979024202049283   0.0008981519591778897   -0.0038997019480735175
0.18979024202049283   0.0008981519591778897   -0.0038997019480735175
0.18979024202049283   0.0008981519591778897   -0.0038997019480735175
0.052241797666987916   -0.014048805470210332   -0.0117926817096567
0.052241797666987916   -0.014048805470210332   -0.0117926817096567
0.052241797666987916   -0.014048805470210332   -0.0117926817096567
0.052241797666987916   -0.014048805470210332   -0.0117926817096567
0.20333329204753475   0.03789439236071887   0.026819307785593376
0.20333329204753475   0.03789439236071887   0.026819307785593376
0.20333329204753475   0.03789439236071887   0.026819307785593376
0.20333329204753475   0.03789439236071887   0.026819307785593376
-0.07944968454534658   -0.05561549338643463   -0.01722800211029672
-0.07944968454534658   -0.05561549338643463   -0.01722800211029672
-0.07944968454534658   -0.05561549338643463   -0.01722800211029672
-0.07944968454534658   -0.05561549338643463   -0.01722800211029672
-0.05354933265390501   -0.0038521955624673844   0.005705134505662819
-0.05354933265390501   -0.0038521955624673844   0.005705134505662819
-0.05354933265390501   -0.0038521955624673844   0.005705134505662819
-0.05354933265390501   -0.0038521955624673844   0.005705134505662819
0.20567325832955194   0.015127245177206983   -0.007304448250594302
0.20567325832955194   0.015127245177206983   -0.007304448250594302
0.20567325832955194   0.015127245177206983   -0.007304448250594302
0.20567325832955194   0.015127245177206983   -0.007304448250594302
0.06524220848376822   -0.0015116472636052935   -0.0046841019212097365
0.06524220848376822   -0.0015116472636052935   -0.0046841019212097365
0.06524220848376822   -0.0015116472636052935   -0.0046841019212097365
0.06524220848376822   -0.0015116472636052935   -0.0046841019212097365
0.21976059460204803   0.054433882204507414   0.02382559608458375
0.21976059460204803   0.054433882204507414   0.02382559608458375
0.21976059460204803   0.054433882204507414   0.02382559608458375
0.21976059460204803   0.054433882204507414   0.02382559608458375
-0.06652397048599941   -0.04204613414936133   -0.020974116067915202
-0.06652397048599941   -0.04204613414936133   -0.020974116067915202
-0.06652397048599941   -0.04204613414936133   -0.020974116067915202
-0.06652397048599941   -0.04204613414936133   -0.020974116067915202
-0.04024372847876452   0.014571828388512797   0.0023840996204802876
-0.04024372847876452   0.014571828388512797   0.0023840996204802876
-0.04024372847876452   0.014571828388512797   0.0023840996204802876
-0.04024372847876452   0.014571828388512797   0.0023840996204802876
0.21973844121718572   0.03209488543454865   -0.010435762982941257
0.21973844121718572   0.03209488543454865   -0.010435762982941257
0.21973844121718572   0.03209488543454865   -0.010435762982941257
0.21973844121718572   0.03209488543454865   -0.010435762982941257
0.08136160369425682   0.013887213884664108   0.003622406543261068
0.08136160369425682   0.013887213884664108   0.003622406543261068
0.08136160369425682   0.013887213884664108   0.003622406543261068
0.08136160369425682   0.013887213884664108   0.003622406543261068
-0.0728306877565344   0.0048578165988689154   0.012799478924936937
-0.0728306877565344   0.0048578165988689154   0.012799478924936937
-0.0728306877565344   0.0048578165988689154   0.012799478924936937
-0.0728306877565344   0.0048578165988689154   0.012799478924936937
-0.33844394182561255   -0.059167648981903784   -0.0017490155382417173
-0.33844394182561255   -0.059167648981903784   -0.0017490155382417173
-0.33844394182561255   -0.059167648981903784   -0.0017490155382417173
-0.33844394182561255   -0.059167648981903784   -0.0017490155382417173
-0.32250147555348413   -0.03503564980978645   -0.007938078831124854
-0.32250147555348413   -0.03503564980978645   -0.007938078831124854
-0.32250147555348413   -0.03503564980978645   -0.007938078831124854
-0.32250147555348413   -0.03503564980978645   -0.007938078831124854
-0.06136456880396686   0.009102021488252256   0.008480061721915018
-0.06136456880396686   0.009102021488252256   0.008480061721915018
-0.06136456880396686   0.009102021488252256   0.008480061721915018
-0.06136456880396686   0.009102021488252256   0.008480061721915018
-0.19913117638513986   -0.01815691488384294   -0.007370899262030911
-0.19913117638513986   -0.01815691488384294   -0.007370899262030911
-0.19913117638513986   -0.01815691488384294   -0.007370899262030911
-0.19913117638513986   -0.01815691488384294   -0.007370899262030911
-0.05869062237998006   0.021253749714299646   0.0096980656158016
-0.05869062237998006   0.021253749714299646   0.0096980656158016
-0.05869062237998006   0.021253749714299646   0.0096980656158016
-0.05869062237998006   0.021253749714299646   0.0096980656158016
-0.32442435056074326   -0.046436306619106235   -0.006151797058100993
-0.32442435056074326   -0.046436306619106235   -0.006151797058100993
-0.32442435056074326   -0.046436306619106235   -0.006151797058100993
-0.32442435056074326   -0.046436306619106235   -0.006151797058100993
-0.3076510835281356   -0.01761363143934158   -0.010720391154674044
-0.3076510835281356   -0.01761363143934158   -0.010720391154674044
-0.3076510835281356   -0.01761363143934158   -0.010720391154674044
-0.3076510835281356   -0.01761363143934158   -0.010720391154674044
-0.048258039534063074   0.023479982477631854   0.004829422064773279
-0.048258039534063074   0.023479982477631854   0.004829422064773279
-0.048258039534063074   0.023479982477631854   0.004829422064773279
-0.048258039534063074   0.023479982477631854   0.004829422064773279
-0.1841486512362091   -0.0035839331781876912   -0.00010786934100420753
-0.1841486512362091   -0.0035839331781876912   -0.00010786934100420753
-0.1841486512362091   -0.0035839331781876912   -0.00010786934100420753
-0.1841486512362091   -0.0035839331781876912   -0.00010786934100420753
-0.0450279273984515   0.03828922588468553   0.006170739335777437
-0.0450279273984515   0.03828922588468553   0.006170739335777437
-0.0450279273984515   0.03828922588468553   0.006170739335777437
-0.0450279273984515   0.03828922588468553   0.006170739335777437
-0.310185354002288   -0.031727033184936075   -0.009278341779841477
-0.310185354002288   -0.031727033184936075   -0.009278341779841477
-0.310185354002288   -0.031727033184936075   -0.009278341779841477
-0.310185354002288   -0.031727033184936075   -0.009278341779841477
-0.293824133193932   -0.00024212167978614196   -0.01403615514206083
-0.293824133193932   -0.00024212167978614196   -0.01403615514206083
-0.293824133193932   -0.00024212167978614196   -0.01403615514206083
-0.293824133193932   -0.00024212167978614196   -0.01403615514206083
-0.035759687365143365   0.03815680515914216   0.0012193284179567027
-0.035759687365143365   0.03815680515914216   0.0012193284179567027
-0.035759687365143365   0.03815680515914216   0.0012193284179567027
-0.035759687365143365   0.03815680515914216   0.0012193284179567027
-0.17039247559036086   0.010936043504253284   0.006799876115280164
-0.17039247559036086   0.010936043504253284   0.006799876115280164
-0.17039247559036086   0.010936043504253284   0.006799876115280164
-0.17039247559036086   0.010936043504253284   0.006799876115280164
-0.329800593680629   -0.01275762608385772   -0.004942297711367696
-0.329800593680629   -0.01275762608385772   -0.004942297711367696
-0.329800593680629   -0.01275762608385772   -0.004942297711367696
-0.329800593680629   -0.01275762608385772   -0.004942297711367696
-0.5792452986965135   -0.04805622970371176   0.010980657695953085
-0.5792452986965135   -0.04805622970371176   0.010980657695953085
-0.5792452986965135   -0.04805622970371176   0.010980657695953085
-0.5792452986965135   -0.04805622970371176   0.010980657695953085
-0.5716454581870035   -0.04976323259891323   -0.023859491230010178
-0.5716454581870035   -0.04976323259891323   -0.023859491230010178
-0.5716454581870035   -0.04976323259891323   -0.023859491230010178
-0.5716454581870035   -0.04976323259891323   -0.023859491230010178
-0.3051578935523196   0.02250204787676334   0.021242133488150294
-0.3051578935523196   0.02250204787676334   0.021242133488150294
-0.3051578935523196   0.02250204787676334   0.021242133488150294
-0.3051578935523196   0.02250204787676334   0.021242133488150294
-0.44337463765026597   -0.019270665626084385   -0.00257856302345303
-0.44337463765026597   -0.019270665626084385   -0.00257856302345303
-0.44337463765026597   -0.019270665626084385   -0.00257856302345303
-0.44337463765026597   -0.019270665626084385   -0.00257856302345303
-0.31443239171608206   0.004938014208747038   -0.007566323662645612
-0.31443239171608206   0.004938014208747038   -0.007566323662645612
-0.31443239171608206   0.004938014208747038   -0.007566323662645612
-0.31443239171608206   0.004938014208747038   -0.007566323662645612
-0.5623074689848239   -0.03213570789247645   0.005202930074455575
-0.5623074689848239   -0.03213570789247645   0.005202930074455575
-0.5623074689848239   -0.03213570789247645   0.005202930074455575
-0.5623074689848239   -0.03213570789247645   0.005202930074455575
-0.552210489380688   -0.03275446765210724   -0.026391775644267857
-0.552210489380688   -0.03275446765210724   -0.026391775644267857
-0.552210489380688   -0.03275446765210724   -0.026391775644267857
-0.552210489380688   -0.03275446765210724   -0.026391775644267857
-0.2913468301944429   0.0361968964462252   0.01699034762822537
-0.2913468301944429   0.0361968964462252   0.01699034762822537
-0.2913468301944429   0.0361968964462252   0.01699034762822537
-0.2913468301944429   0.0361968964462252   0.01699034762822537
-0.423572205458806   -0.0031706459912784063   0.004716211210950949
-0.423572205458806   -0.0031706459912784063   0.004716211210950949
-0.423572205458806   -0.0031706459912784063   0.004716211210950949
-0.423572205458806   -0.0031706459912784063   0.004716211210950949
-0.3000538985699344   0.0207379883985795   -0.011086086201587787
-0.3000538985699344   0.0207379883985795   -0.011086086201587787
-0.3000538985699344   0.0207379883985795   -0.011086086201587787
-0.3000538985699344   0.0207379883985795   -0.011086086201587787
-0.543017224192248   -0.016809362791513238   0.003629445437338265
-0.543017224192248   -0.016809362791513238   0.003629445437338265
-0.543017224192248   -0.016809362791513238   0.003629445437338265
-0.543017224192248   -0.016809362791513238   0.003629445437338265
-0.534835265262048   -0.014338010328436415   -0.02775704257195298
-0.534835265262048   -0.014338010328436415   -0.02775704257195298
-0.534835265262048   -0.014338010328436415   -0.02775704257195298
-0.534835265262048   -0.014338010328436415   -0.02775704257195298
-0.2779708554263962   0.05123178953625894   0.013756322479575884
-0.2779708554263962   0.05123178953625894   0.013756322479575884
-0.2779708554263962   0.05123178953625894   0.013756322479575884
-0.2779708554263962   0.05123178953625894   0.013756322479575884
-0.41026282858466673   0.010574991095420427   0.011002368266425366
-0.41026282858466673   0.010574991095420427   0.011002368266425366
-0.41026282858466673   0.010574991095420427   0.011002368266425366
-0.41026282858466673   0.010574991095420427   0.011002368266425366
-0.5815787089446149   -0.027374273655431894   -0.021368349592833905
-0.5815787089446149   -0.027374273655431894   -0.021368349592833905
-0.5815787089446149   -0.027374273655431894   -0.021368349592833905
-0.5815787089446149   -0.027374273655431894   -0.021368349592833905
-0.8295051964292844   -0.029999669240164756   0.036993138767166735
-0.8295051964292844   -0.029999669240164756   0.036993138767166735
-0.8295051964292844   -0.029999669240164756   0.036993138767166735
-0.8295051964292844   -0.029999669240164756   0.036993138767166735
-0.8139488856471444   -0.05950353766485335   -0.028408867845329106
-0.8139488856471444   -0.05950353766485335   -0.028408867845329106
-0.8139488856471444   -0.05950353766485335   -0.028408867845329106
-0.8139488856471444   -0.05950353766485335   -0.028408867845329106
-0.5401519180603644   0.0461953308669554   0.03764964593731633
-0.5401519180603644   0.0461953308669554   0.03764964593731633
-0.5401519180603644   0.0461953308669554   0.03764964593731633
-0.5401519180603644   0.0461953308669554   0.03764964593731633
-0.660612564856307   -0.008157539909878248   0.007783823856770629
-0.660612564856307   -0.008157539909878248   0.007783823856770629
-0.660612564856307   -0.008157539909878248   0.007783823856770629
-0.660612564856307   -0.008157539909878248   0.007783823856770629
-0.563365118024707   -0.008457679312325814   -0.023763343705113456
-0.563365118024707   -0.008457679312325814   -0.023763343705113456
-0.563365118024707   -0.008457679312325814   -0.023763343705113456
-0.563365118024707   -0.008457679312325814   -0.023763343705113456
-0.7903320995932297   -0.004446941395998272   0.034618466155382575
-0.7903320995932297   -0.004446941395998272   0.034618466155382575
-0.7903320995932297   -0.004446941395998272   0.034618466155382575
-0.7903320995932297   -0.004446941395998272   0.034618466155382575
-0.7844389249404273   -0.04896134285892595   -0.033474853678111684
-0.7844389249404273   -0.04896134285892595   -0.033474853678111684
-0.7844389249404273   -0.04896134285892595   -0.033474853678111684
-0.7844389249404273   -0.04896134285892595   -0.033474853678111684
-0.523871032071074   0.052694736846661885   0.02985630640503322
-0.523871032071074   0.052694736846661885   0.02985630640503322
-0.523871032071074   0.052694736846661885   0.02985630640503322
-0.523871032071074   0.052694736846661885   0.02985630640503322
-0.6455715865052332   0.003357798892498376   0.013821542248686494
-0.6455715865052332   0.003357798892498376   0.013821542248686494
-0.6455715865052332   0.003357798892498376   0.013821542248686494
-0.6455715865052332   0.003357798892498376   0.013821542248686494
-0.5457849826318679   5.0562023294398184e-05   -0.02706927157556927
-0.5457849826318679   5.0562023294398184e-05   -0.02706927157556927
-0.5457849826318679   5.0562023294398184e-05   -0.02706927157556927
-0.5457849826318679   5.0562023294398184e-05   -0.02706927157556927
-0.7621183591499991   0.004089447194078666   0.02507718522101174
-0.7621183591499991   0.004089447194078666   0.02507718522101174
-0.7621183591499991   0.004089447194078666   0.02507718522101174
-0.7621183591499991   0.004089447194078666   0.02507718522101174
-0.7521273048213908   -0.036348493801525245   -0.03817381940574804
-0.7521273048213908   -0.036348493801525245   -0.03817381940574804
-0.7521273048213908   -0.036348493801525245   -0.03817381940574804
-0.7521273048213908   -0.036348493801525245   -0.03817381940574804
-0.5095902565465363   0.05871106596032119   0.025418924716847466
-0.5095902565465363   0.05871106596032119   0.025418924716847466
-0.5095902565465363   0.05871106596032119   0.025418924716847466
-0.5095902565465363   0.05871106596032119   0.025418924716847466
-0.6128899038201482   0.012908123099738572   0.022999851040484263
-0.6128899038201482   0.012908123099738572   0.022999851040484263
-0.6128899038201482   0.012908123099738572   0.022999851040484263
-0.6128899038201482   0.012908123099738572   0.022999851040484263
0.7263071887320088   0.05436388154651352   0.03822299877768945
0.7263071887320088   0.05436388154651352   0.03822299877768945
0.7263071887320088   0.05436388154651352   0.03822299877768945
0.7263071887320088   0.05436388154651352   0.03822299877768945
0.31995966472554876   -0.08505718133010279   -0.017673836888376558
0.31995966472554876   -0.08505718133010279   -0.017673836888376558
0.31995966472554876   -0.08505718133010279   -0.017673836888376558
0.31995966472554876   -0.08505718133010279   -0.017673836888376558
0.3564108628083775   -0.015160707998656014   0.02621265021793626
0.3564108628083775   -0.015160707998656014   0.02621265021793626
0.3564108628083775   -0.015160707998656014   0.02621265021793626
0.3564108628083775   -0.015160707998656014   0.02621265021793626
0.7341173797021594   -0.0008646813827687394   -0.027626184106119528
0.7341173797021594   -0.0008646813827687394   -0.027626184106119528
0.7341173797021594   -0.0008646813827687394   -0.027626184106119528
0.7341173797021594   -0.0008646813827687394   -0.027626184106119528
0.5029313610626559   -0.015053998334930513   -0.039165865213802484
0.5029313610626559   -0.015053998334930513   -0.039165865213802484
0.5029313610626559   -0.015053998334930513   -0.039165865213802484
0.5029313610626559   -0.015053998334930513   -0.039165865213802484
0.7595329457061155   0.06661547620290163   0.03197148832798655
0.7595329457061155   0.06661547620290163   0.03197148832798655
0.7595329457061155   0.06661547620290163   0.03197148832798655
0.7595329457061155   0.06661547620290163   0.03197148832798655
0.3334403900578264   -0.08019577233092154   -0.023604649202550426
0.3334403900578264   -0.08019577233092154   -0.023604649202550426
0.3334403900578264   -0.08019577233092154   -0.023604649202550426
0.3334403900578264   -0.08019577233092154   -0.023604649202550426
0.37058701870693567   -0.007389670614065633   0.02117492066662792
0.37058701870693567   -0.007389670614065633   0.02117492066662792
0.37058701870693567   -0.007389670614065633   0.02117492066662792
0.37058701870693567   -0.007389670614065633   0.02117492066662792
0.7590078003330497   0.007696337356222244   -0.03446784349035148
0.7590078003330497   0.007696337356222244   -0.03446784349035148
0.7590078003330497   0.007696337356222244   -0.03446784349035148
0.7590078003330497   0.007696337356222244   -0.03446784349035148
0.534266854911194   -0.005921724464861125   -0.02667114381395244
0.534266854911194   -0.005921724464861125   -0.02667114381395244
0.534266854911194   -0.005921724464861125   -0.02667114381395244
0.534266854911194   -0.005921724464861125   -0.02667114381395244
0.7842676542407339   0.07584752086685553   0.02368024253743562
0.7842676542407339   0.07584752086685553   0.02368024253743562
0.7842676542407339   0.07584752086685553   0.02368024253743562
0.7842676542407339   0.07584752086685553   0.02368024253743562
0.34746271944502016   -0.07340529947892524   -0.02843094677808998
0.34746271944502016   -0.07340529947892524   -0.02843094677808998
0.34746271944502016   -0.07340529947892524   -0.02843094677808998
0.34746271944502016   -0.07340529947892524   -0.02843094677808998
0.38343958969085684   0.013397311920386137   0.018564952008960457
0.38343958969085684   0.013397311920386137   0.018564952008960457
0.38343958969085684   0.013397311920386137   0.018564952008960457
0.38343958969085684   0.013397311920386137   0.018564952008960457
0.7896685366856333   0.032761649656364716   -0.03607723979939952
0.7896685366856333   0.032761649656364716   -0.03607723979939952
0.7896685366856333   0.032761649656364716   -0.03607723979939952
0.7896685366856333   0.032761649656364716   -0.03607723979939952
0.5458288879377807   0.006402808251635986   -0.018049832302955277
0.5458288879377807   0.006402808251635986   -0.018049832302955277
0.5458288879377807   0.006402808251635986   -0.018049832302955277
0.5458288879377807   0.006402808251635986   -0.018049832302955277
0.35391692883171927   0.031924414408361565   0.035130887904008125
0.35391692883171927   0.031924414408361565   0.035130887904008125
0.35391692883171927   0.031924414408361565   0.035130887904008125
0.35391692883171927   0.031924414408361565   0.035130887904008125
-0.04459976008470548   -0.10460774988670331   -0.010093234272156765
-0.04459976008470548   -0.10460774988670331   -0.010093234272156765
-0.04459976008470548   -0.10460774988670331   -0.010093234272156765
-0.04459976008470548   -0.10460774988670331   -0.010093234272156765
-0.013291008042427496   -0.037170087238003253   0.008840352128971789
-0.013291008042427496   -0.037170087238003253   0.008840352128971789
-0.013291008042427496   -0.037170087238003253   0.008840352128971789
-0.013291008042427496   -0.037170087238003253   0.008840352128971789
0.35084735722916033   -0.0185672696293106   0.001801683952504577
0.35084735722916033   -0.0185672696293106   0.001801683952504577
0.35084735722916033   -0.0185672696293106   0.001801683952504577
0.35084735722916033   -0.0185672696293106   0.001801683952504577
0.1573318228632662   -0.028947034099210615   -0.018575332578384555
0.1573318228632662   -0.028947034099210615   -0.018575332578384555
0.1573318228632662   -0.028947034099210615   -0.018575332578384555
0.1573318228632662   -0.028947034099210615   -0.018575332578384555
0.36918260901411837   0.043782250330924054   0.0311284229170624
0.36918260901411837   0.043782250330924054   0.0311284229170624
0.36918260901411837   0.043782250330924054   0.0311284229170624
0.36918260901411837   0.043782250330924054   0.0311284229170624
-0.030328975832131667   -0.09822232320298364   -0.015297250854568673
-0.030328975832131667   -0.09822232320298364   -0.015297250854568673
-0.030328975832131667   -0.09822232320298364   -0.015297250854568673
-0.030328975832131667   -0.09822232320298364   -0.015297250854568673
0.001160172675364001   -0.023240696563832444   0.005368928698365835
0.001160172675364001   -0.023240696563832444   0.005368928698365835
0.001160172675364001   -0.023240696563832444   0.005368928698365835
0.001160172675364001   -0.023240696563832444   0.005368928698365835
0.36567139650276537   -0.008061306267425628   -0.002731554700863826
0.36567139650276537   -0.008061306267425628   -0.002731554700863826
0.36567139650276537   -0.008061306267425628   -0.002731554700863826
0.36567139650276537   -0.008061306267425628   -0.002731554700863826
0.16985273217838898   -0.02038726316210307   -0.012024085336480434
0.16985273217838898   -0.02038726316210307   -0.012024085336480434
0.16985273217838898   -0.02038726316210307   -0.012024085336480434
0.16985273217838898   -0.02038726316210307   -0.012024085336480434
0.38499192489828343   0.05801152028577692   0.027798260723523933
0.38499192489828343   0.05801152028577692   0.027798260723523933
0.38499192489828343   0.05801152028577692   0.027798260723523933
0.38499192489828343   0.05801152028577692   0.027798260723523933
-0.017380975403915647   -0.08853414280080169   -0.02204336546106316
-0.017380975403915647   -0.08853414280080169   -0.02204336546106316
-0.017380975403915647   -0.08853414280080169   -0.02204336546106316
-0.017380975403915647   -0.08853414280080169   -0.02204336546106316
0.012508998271921822   -0.006891155890841352   0.001863473335372656
0.012508998271921822   -0.006891155890841352   0.001863473335372656
0.012508998271921822   -0.006891155890841352   0.001863473335372656
0.012508998271921822   -0.006891155890841352   0.001863473335372656
0.376755877318468   0.005362464479176501   -0.006818762411779682
0.376755877318468   0.005362464479176501   -0.006818762411779682
0.376755877318468   0.005362464479176501   -0.006818762411779682
0.376755877318468   0.005362464479176501   -0.006818762411779682
0.18528025636796233   -0.007569492412025758   -0.004972141779318089
0.18528025636796233   -0.007569492412025758   -0.004972141779318089
0.18528025636796233   -0.007569492412025758   -0.004972141779318089
0.18528025636796233   -0.007569492412025758   -0.004972141779318089
-0.016342983148835793   0.009099104970997989   0.017483795549490377
-0.016342983148835793   0.009099104970997989   0.017483795549490377
-0.016342983148835793   0.009099104970997989   0.017483795549490377
-0.016342983148835793   0.009099104970997989   0.017483795549490377
-0.40630701116267043   -0.1310824609898742   -0.0080624413010021
-0.40630701116267043   -0.1310824609898742   -0.0080624413010021
-0.40630701116267043   -0.1310824609898742   -0.0080624413010021
-0.40630701116267043   -0.1310824609898742   -0.0080624413010021
-0.3747418844808571   -0.05698382171467789   -0.008571838615845453
-0.3747418844808571   -0.05698382171467789   -0.008571838615845453
-0.3747418844808571   -0.05698382171467789   -0.008571838615845453
-0.3747418844808571   -0.05698382171467789   -0.008571838615845453
-0.014873894865870443   -0.04418138164599759   0.007937212419751387
-0.014873894865870443   -0.04418138164599759   0.007937212419751387
-0.014873894865870443   -0.04418138164599759   0.007937212419751387
-0.014873894865870443   -0.04418138164599759   0.007937212419751387
-0.20397238512151525   -0.05279351491134593   -0.016568539666151027
-0.20397238512151525   -0.05279351491134593   -0.016568539666151027
-0.20397238512151525   -0.05279351491134593   -0.016568539666151027
-0.20397238512151525   -0.05279351491134593   -0.016568539666151027
-0.00028785769493236933   0.022465462242809268   0.014220554385634902
-0.00028785769493236933   0.022465462242809268   0.014220554385634902
-0.00028785769493236933   0.022465462242809268   0.014220554385634902
-0.00028785769493236933   0.022465462242809268   0.014220554385634902
-0.3883877116589545   -0.12269045561063899   -0.011094340610371506
-0.3883877116589545   -0.12269045561063899   -0.011094340610371506
-0.3883877116589545   -0.12269045561063899   -0.011094340610371506
-0.3883877116589545   -0.12269045561063899   -0.011094340610371506
-0.35680972965725893   -0.04152558569862349   -0.011646728693307571
-0.35680972965725893   -0.04152558569862349   -0.011646728693307571
-0.35680972965725893   -0.04152558569862349   -0.011646728693307571
-0.35680972965725893   -0.04152558569862349   -0.011646728693307571
-0.0014184757214275763   -0.03407860304799448   0.00331359319856998
-0.0014184757214275763   -0.03407860304799448   0.00331359319856998
-0.0014184757214275763   -0.03407860304799448   0.00331359319856998
-0.0014184757214275763   -0.03407860304799448   0.00331359319856998
-0.18656445740638852   -0.041667305322685325   -0.009169334218283656
-0.18656445740638852   -0.041667305322685325   -0.009169334218283656
-0.18656445740638852   -0.041667305322685325   -0.009169334218283656
-0.18656445740638852   -0.041667305322685325   -0.009169334218283656
0.01440103217346557   0.03726034860932598   0.011072181015715254
0.01440103217346557   0.03726034860932598   0.011072181015715254
0.01440103217346557   0.03726034860932598   0.011072181015715254
0.01440103217346557   0.03726034860932598   0.011072181015715254
-0.37261562473005694   -0.11285092453384833   -0.019350865222069885
-0.37261562473005694   -0.11285092453384833   -0.019350865222069885
-0.37261562473005694   -0.11285092453384833   -0.019350865222069885
-0.37261562473005694   -0.11285092453384833   -0.019350865222069885
-0.3441332508460575   -0.02677737096141003   -0.015077988703890162
-0.3441332508460575   -0.02677737096141003   -0.015077988703890162
-0.3441332508460575   -0.02677737096141003   -0.015077988703890162
-0.3441332508460575   -0.02677737096141003   -0.015077988703890162
0.00740516969281022   -0.025972931307892487   -0.0045738941431361455
0.00740516969281022   -0.025972931307892487   -0.0045738941431361455
0.00740516969281022   -0.025972931307892487   -0.0045738941431361455
0.00740516969281022   -0.025972931307892487   -0.0045738941431361455
-0.1738012302588709   -0.031273316784945604   -0.004513388001459777
-0.1738012302588709   -0.031273316784945604   -0.004513388001459777
-0.1738012302588709   -0.031273316784945604   -0.004513388001459777
-0.1738012302588709   -0.031273316784945604   -0.004513388001459777
-0.3807061449161971   -0.010643870582113052   -0.0004967004764004739
-0.3807061449161971   -0.010643870582113052   -0.0004967004764004739
-0.3807061449161971   -0.010643870582113052   -0.0004967004764004739
-0.3807061449161971   -0.010643870582113052   -0.0004967004764004739
-0.7698728572368707   -0.14092923663007192   -0.006430628137918291
-0.7698728572368707   -0.14092923663007192   -0.006430628137918291
-0.7698728572368707   -0.14092923663007192   -0.006430628137918291
-0.7698728572368707   -0.14092923663007192   -0.006430628137918291
-0.7360832990959701   -0.07300687418566888   -0.02537707128032966
-0.7360832990959701   -0.07300687418566888   -0.02537707128032966
-0.7360832990959701   -0.07300687418566888   -0.02537707128032966
-0.7360832990959701   -0.07300687418566888   -0.02537707128032966
-0.36747053052990375   -0.045933531332737906   0.016734640756978496
-0.36747053052990375   -0.045933531332737906   0.016734640756978496
-0.36747053052990375   -0.045933531332737906   0.016734640756978496
-0.36747053052990375   -0.045933531332737906   0.016734640756978496
-0.558626135886176   -0.06357340954000495   -0.011664243821581299
-0.558626135886176   -0.06357340954000495   -0.011664243821581299
-0.558626135886176   -0.06357340954000495   -0.011664243821581299
-0.558626135886176   -0.06357340954000495   -0.011664243821581299
-0.3608937431643187   0.00653621708930037   -0.002851170837134761
-0.3608937431643187   0.00653621708930037   -0.002851170837134761
-0.3608937431643187   0.00653621708930037   -0.002851170837134761
-0.3608937431643187   0.00653621708930037   -0.002851170837134761
-0.7429250416006287   -0.12574157774677464   -0.006851080242510781
-0.7429250416006287   -0.12574157774677464   -0.006851080242510781
-0.7429250416006287   -0.12574157774677464   -0.006851080242510781
-0.7429250416006287   -0.12574157774677464   -0.006851080242510781
-0.7104195858816955   -0.056889786002244896   -0.029370308926872445
-0.7104195858816955   -0.056889786002244896   -0.029370308926872445
-0.7104195858816955   -0.056889786002244896   -0.029370308926872445
-0.7104195858816955   -0.056889786002244896   -0.029370308926872445
-0.3500784704356904   -0.0338513475337455   0.014335329249660021
-0.3500784704356904   -0.0338513475337455   0.014335329249660021
-0.3500784704356904   -0.0338513475337455   0.014335329249660021
-0.3500784704356904   -0.0338513475337455   0.014335329249660021
-0.5322021996851016   -0.048108245656607415   -0.0037633430550200013
-0.5322021996851016   -0.048108245656607415   -0.0037633430550200013
-0.5322021996851016   -0.048108245656607415   -0.0037633430550200013
-0.5322021996851016   -0.048108245656607415   -0.0037633430550200013
-0.3429246495828936   0.021444900199057204   -0.005191814219163933
-0.3429246495828936   0.021444900199057204   -0.005191814219163933
-0.3429246495828936   0.021444900199057204   -0.005191814219163933
-0.3429246495828936   0.021444900199057204   -0.005191814219163933
-0.7187828294498924   -0.11339545645045263   -0.01468085631964293
-0.7187828294498924   -0.11339545645045263   -0.01468085631964293
-0.7187828294498924   -0.11339545645045263   -0.01468085631964293
-0.7187828294498924   -0.11339545645045263   -0.01468085631964293
-0.689650440457674   -0.039919226059798724   -0.03031917046940403
-0.689650440457674   -0.039919226059798724   -0.03031917046940403
-0.689650440457674   -0.039919226059798724   -0.03031917046940403
-0.689650440457674   -0.039919226059798724   -0.03031917046940403
-0.3400983912588405   -0.026169856756795895   0.00448879502758389
-0.3400983912588405   -0.026169856756795895   0.00448879502758389
-0.3400983912588405   -0.026169856756795895   0.00448879502758389
-0.3400983912588405   -0.026169856756795895   0.00448879502758389
-0.5177644239091612   -0.038690620129230247   -0.0011692236820730305
-0.5177644239091612   -0.038690620129230247   -0.0011692236820730305
-0.5177644239091612   -0.038690620129230247   -0.0011692236820730305
-0.5177644239091612   -0.038690620129230247   -0.0011692236820730305
-0.7490721754068971   -0.024985819927287628   -0.018370635690834962
-0.7490721754068971   -0.024985819927287628   -0.018370635690834962
-0.7490721754068971   -0.024985819927287628   -0.018370635690834962
-0.7490721754068971   -0.024985819927287628   -0.018370635690834962
-1.1296273977773448   -0.09576606412868802   0.04218029202619846
-1.1296273977773448   -0.09576606412868802   0.04218029202619846
-1.1296273977773448   -0.09576606412868802   0.04218029202619846
-1.1296273977773448   -0.09576606412868802   0.04218029202619846
-1.0914759863669226   -0.07654128026695714   -0.024709341425718963
-1.0914759863669226   -0.07654128026695714   -0.024709341425718963
-1.0914759863669226   -0.07654128026695714   -0.024709341425718963
-1.0914759863669226   -0.07654128026695714   -0.024709341425718963
-0.7045445319209092   0.02040750513167669   0.038902385277623346
-0.7045445319209092   0.02040750513167669   0.038902385277623346
-0.7045445319209092   0.02040750513167669   0.038902385277623346
-0.7045445319209092   0.02040750513167669   0.038902385277623346
-0.8775220772731314   -0.02991002099465842   0.004493599246817255
-0.8775220772731314   -0.02991002099465842   0.004493599246817255
-0.8775220772731314   -0.02991002099465842   0.004493599246817255
-0.8775220772731314   -0.02991002099465842   0.004493599246817255
-0.7207885247971093   -0.0015366120518242599   -0.020373461919867615
-0.7207885247971093   -0.0015366120518242599   -0.020373461919867615
-0.7207885247971093   -0.0015366120518242599   -0.020373461919867615
-0.7207885247971093   -0.0015366120518242599   -0.020373461919867615
-1.0726142856534617   -0.0519794552461941   0.045037337120822106
-1.0726142856534617   -0.0519794552461941   0.045037337120822106
-1.0726142856534617   -0.0519794552461941   0.045037337120822106
-1.0726142856534617   -0.0519794552461941   0.045037337120822106
-1.0505128678082816   -0.06449015773278319   -0.029426330754984416
-1.0505128678082816   -0.06449015773278319   -0.029426330754984416
-1.0505128678082816   -0.06449015773278319   -0.029426330754984416
-1.0505128678082816   -0.06449015773278319   -0.029426330754984416
-0.6791881349110142   0.03237711939960236   0.037520040524687145
-0.6791881349110142   0.03237711939960236   0.037520040524687145
-0.6791881349110142   0.03237711939960236   0.037520040524687145
-0.6791881349110142   0.03237711939960236   0.037520040524687145
-0.8536021085376156   -0.012061377669343037   0.017559195766054317
-0.8536021085376156   -0.012061377669343037   0.017559195766054317
-0.8536021085376156   -0.012061377669343037   0.017559195766054317
-0.8536021085376156   -0.012061377669343037   0.017559195766054317
-0.6959938396582027   0.007893867738250127   -0.02202523154989692
-0.6959938396582027   0.007893867738250127   -0.02202523154989692
-0.6959938396582027   0.007893867738250127   -0.02202523154989692
-0.6959938396582027   0.007893867738250127   -0.02202523154989692
-1.0331600807683217   -0.03945982377866453   0.032307270490690626
-1.0331600807683217   -0.03945982377866453   0.032307270490690626
-1.0331600807683217   -0.03945982377866453   0.032307270490690626
-1.0331600807683217   -0.03945982377866453   0.032307270490690626
-1.0081210779699592   -0.0531949300667626   -0.035580233995148716
-1.0081210779699592   -0.0531949300667626   -0.035580233995148716
-1.0081210779699592   -0.0531949300667626   -0.035580233995148716
-1.0081210779699592   -0.0531949300667626   -0.035580233995148716
-0.6604972686769945   0.04656009604097272   0.02896736633322171
-0.6604972686769945   0.04656009604097272   0.02896736633322171
-0.6604972686769945   0.04656009604097272   0.02896736633322171
-0.6604972686769945   0.04656009604097272   0.02896736633322171
-0.8078746379766609   0.0031639743039220125   0.030734508399888373
-0.8078746379766609   0.0031639743039220125   0.030734508399888373
-0.8078746379766609   0.0031639743039220125   0.030734508399888373
-0.8078746379766609   0.0031639743039220125   0.030734508399888373
0.9897901317395087   0.059562437464526385   0.03559379007080935
0.9897901317395087   0.059562437464526385   0.03559379007080935
0.9897901317395087   0.059562437464526385   0.03559379007080935
0.9897901317395087   0.059562437464526385   0.03559379007080935
0.47128121608009194   -0.08792543771056803   0.007670914763785494
0.47128121608009194   -0.08792543771056803   0.007670914763785494
0.47128121608009194   -0.08792543771056803   0.007670914763785494
0.47128121608009194   -0.08792543771056803   0.007670914763785494
0.49702836801996075   -0.037298936344457495   0.0272915527676353
0.49702836801996075   -0.037298936344457495   0.0272915527676353
0.49702836801996075   -0.037298936344457495   0.0272915527676353
0.49702836801996075   -0.037298936344457495   0.0272915527676353
0.994848741829079   0.009022414849221089   -0.008167407150887443
0.994848741829079   0.009022414849221089   -0.008167407150887443
0.994848741829079   0.009022414849221089   -0.008167407150887443
0.994848741829079   0.009022414849221089   -0.008167407150887443
0.6955594329324628   -0.018721861455411465   -0.04602591724074958
0.6955594329324628   -0.018721861455411465   -0.04602591724074958
0.6955594329324628   -0.018721861455411465   -0.04602591724074958
0.6955594329324628   -0.018721861455411465   -0.04602591724074958
1.0135387137854073   0.06617149645924988   0.02813337102072558
1.0135387137854073   0.06617149645924988   0.02813337102072558
1.0135387137854073   0.06617149645924988   0.02813337102072558
1.0135387137854073   0.06617149645924988   0.02813337102072558
0.4828034798737303   -0.08998293414438842   0.008851109836413781
0.4828034798737303   -0.08998293414438842   0.008851109836413781
0.4828034798737303   -0.08998293414438842   0.008851109836413781
0.4828034798737303   -0.08998293414438842   0.008851109836413781
0.5067178749025342   -0.031718831859676486   0.02074623586063977
0.5067178749025342   -0.031718831859676486   0.02074623586063977
0.5067178749025342   -0.031718831859676486   0.02074623586063977
0.5067178749025342   -0.031718831859676486   0.02074623586063977
1.0120776311969666   0.01530269665009143   -0.0027291060955326255
1.0120776311969666   0.01530269665009143   -0.0027291060955326255
1.0120776311969666   0.01530269665009143   -0.0027291060955326255
1.0120776311969666   0.01530269665009143   -0.0027291060955326255
0.7240465627811576   -0.014763547479696076   -0.03149967761769137
0.7240465627811576   -0.014763547479696076   -0.03149967761769137
0.7240465627811576   -0.014763547479696076   -0.03149967761769137
0.7240465627811576   -0.014763547479696076   -0.03149967761769137
1.0279102003511413   0.07226472776916965   0.01947170855626308
1.0279102003511413   0.07226472776916965   0.01947170855626308
1.0279102003511413   0.07226472776916965   0.01947170855626308
1.0279102003511413   0.07226472776916965   0.01947170855626308
0.4939907626296962   -0.08557540609741791   0.010967248734191172
0.4939907626296962   -0.08557540609741791   0.010967248734191172
0.4939907626296962   -0.08557540609741791   0.010967248734191172
0.4939907626296962   -0.08557540609741791   0.010967248734191172
0.5210076314032753   -0.009961733685782848   0.018966748772189908
0.5210076314032753   -0.009961733685782848   0.018966748772189908
0.5210076314032753   -0.009961733685782848   0.018966748772189908
0.5210076314032753   -0.009961733685782848   0.018966748772189908
1.0300419893087875   0.029798943020963947   -0.000699965101822464
1.0300419893087875   0.029798943020963947   -0.000699965101822464
1.0300419893087875   0.029798943020963947   -0.000699965101822464
1.0300419893087875   0.029798943020963947   -0.000699965101822464
0.7273998569748255   -0.006687905935785388   -0.02362406808376946
0.7273998569748255   -0.006687905935785388   -0.02362406808376946
0.7273998569748255   -0.006687905935785388   -0.02362406808376946
0.7273998569748255   -0.006687905935785388   -0.02362406808376946
0.4975013883597216   0.013333661955738804   0.037512676495626715
0.4975013883597216   0.013333661955738804   0.037512676495626715
0.4975013883597216   0.013333661955738804   0.037512676495626715
0.4975013883597216   0.013333661955738804   0.037512676495626715
0.02479917637809219   -0.17431969870640748   0.01761984724138979
0.02479917637809219   -0.17431969870640748   0.01761984724138979
0.02479917637809219   -0.17431969870640748   0.01761984724138979
0.02479917637809219   -0.17431969870640748   0.01761984724138979
0.05823959784194918   -0.07413533420744872   0.016569120449025084
0.05823959784194918   -0.07413533420744872   0.016569120449025084
0.05823959784194918   -0.07413533420744872   0.016569120449025084
0.05823959784194918   -0.07413533420744872   0.016569120449025084
0.48481555096351847   -0.08252861511801755   0.011457146258980512
0.48481555096351847   -0.08252861511801755   0.011457146258980512
0.48481555096351847   -0.08252861511801755   0.011457146258980512
0.48481555096351847   -0.08252861511801755   0.011457146258980512
0.25772015508555646   -0.07771621696989714   -0.029224613974982508
0.25772015508555646   -0.07771621696989714   -0.029224613974982508
0.25772015508555646   -0.07771621696989714   -0.029224613974982508
0.25772015508555646   -0.07771621696989714   -0.029224613974982508
0.5091024245354793   0.018996655701338655   0.03136624329943183
0.5091024245354793   0.018996655701338655   0.03136624329943183
0.5091024245354793   0.018996655701338655   0.03136624329943183
0.5091024245354793   0.018996655701338655   0.03136624329943183
0.04036757980591068   -0.16924574949087692   0.022319445552260737
0.04036757980591068   -0.16924574949087692   0.022319445552260737
0.04036757980591068   -0.16924574949087692   0.022319445552260737
0.04036757980591068   -0.16924574949087692   0.022319445552260737
0.07164429739530587   -0.06392920985671645   0.011956026460172273
0.07164429739530587   -0.06392920985671645   0.011956026460172273
0.07164429739530587   -0.06392920985671645   0.011956026460172273
0.07164429739530587   -0.06392920985671645   0.011956026460172273
0.4963068766826913   -0.07714663593777894   0.014119048839527873
0.4963068766826913   -0.07714663593777894   0.014119048839527873
0.4963068766826913   -0.07714663593777894   0.014119048839527873
0.4963068766826913   -0.07714663593777894   0.014119048839527873
0.2690873520084125   -0.07378061329336827   -0.014617313890447257
0.2690873520084125   -0.07378061329336827   -0.014617313890447257
0.2690873520084125   -0.07378061329336827   -0.014617313890447257
0.2690873520084125   -0.07378061329336827   -0.014617313890447257
0.5199327419472921   0.02863135133883589   0.026470387885917015
0.5199327419472921   0.02863135133883589   0.026470387885917015
0.5199327419472921   0.02863135133883589   0.026470387885917015
0.5199327419472921   0.02863135133883589   0.026470387885917015
0.054186386289454075   -0.16353924297457717   0.02427650404877403
0.054186386289454075   -0.16353924297457717   0.02427650404877403
0.054186386289454075   -0.16353924297457717   0.02427650404877403
0.054186386289454075   -0.16353924297457717   0.02427650404877403
0.09224572412392601   -0.04860213862130103   0.007868375280405304
0.09224572412392601   -0.04860213862130103   0.007868375280405304
0.09224572412392601   -0.04860213862130103   0.007868375280405304
0.09224572412392601   -0.04860213862130103   0.007868375280405304
0.5088622027082483   -0.06898228863175927   0.017260160243033326
0.5088622027082483   -0.06898228863175927   0.017260160243033326
0.5088622027082483   -0.06898228863175927   0.017260160243033326
0.5088622027082483   -0.06898228863175927   0.017260160243033326
0.28917086987940044   -0.06429534651235512   0.0023987605256979017
0.28917086987940044   -0.06429534651235512   0.0023987605256979017
0.28917086987940044   -0.06429534651235512   0.0023987605256979017
0.28917086987940044   -0.06429534651235512   0.0023987605256979017
0.054471189974822795   -0.032485240998711834   0.024145457517347185
0.054471189974822795   -0.032485240998711834   0.024145457517347185
0.054471189974822795   -0.032485240998711834   0.024145457517347185
0.054471189974822795   -0.032485240998711834   0.024145457517347185
-0.425141386352927   -0.29881368918231765   0.02573261395706576
-0.425141386352927   -0.29881368918231765   0.02573261395706576
-0.425141386352927   -0.29881368918231765   0.02573261395706576
-0.425141386352927   -0.29881368918231765   0.02573261395706576
-0.3723839578878487   -0.11696156710829392   0.0015463481302786866
-0.3723839578878487   -0.11696156710829392   0.0015463481302786866
-0.3723839578878487   -0.11696156710829392   0.0015463481302786866
-0.3723839578878487   -0.11696156710829392   0.0015463481302786866
0.028579792186132234   -0.21592096015149007   0.01005571811398167
0.028579792186132234   -0.21592096015149007   0.01005571811398167
0.028579792186132234   -0.21592096015149007   0.01005571811398167
0.028579792186132234   -0.21592096015149007   0.01005571811398167
-0.18408479972368846   -0.16722149876064152   -0.03505593958763546
-0.18408479972368846   -0.16722149876064152   -0.03505593958763546
-0.18408479972368846   -0.16722149876064152   -0.03505593958763546
-0.18408479972368846   -0.16722149876064152   -0.03505593958763546
0.06850842393616949   -0.025280647522508713   0.019058564235186544
0.06850842393616949   -0.025280647522508713   0.019058564235186544
0.06850842393616949   -0.025280647522508713   0.019058564235186544
0.06850842393616949   -0.025280647522508713   0.019058564235186544
-0.402995173397871   -0.29828446349725474   0.029813166969130965
-0.402995173397871   -0.29828446349725474   0.029813166969130965
-0.402995173397871   -0.29828446349725474   0.029813166969130965
-0.402995173397871   -0.29828446349725474   0.029813166969130965
-0.3520272898657947   -0.104916580773442   -0.00026748128430051366
-0.3520272898657947   -0.104916580773442   -0.00026748128430051366
-0.3520272898657947   -0.104916580773442   -0.00026748128430051366
-0.3520272898657947   -0.104916580773442   -0.00026748128430051366
0.042722380155012785   -0.21101860426522145   0.014435834667211878
0.042722380155012785   -0.21101860426522145   0.014435834667211878
0.042722380155012785   -0.21101860426522145   0.014435834667211878
0.042722380155012785   -0.21101860426522145   0.014435834667211878
-0.1634375618208827   -0.16136482654560466   -0.0129838083320419
-0.1634375618208827   -0.16136482654560466   -0.0129838083320419
-0.1634375618208827   -0.16136482654560466   -0.0129838083320419
-0.1634375618208827   -0.16136482654560466   -0.0129838083320419
0.08134382442636548   -0.01573664275533256   0.01226109451408651
0.08134382442636548   -0.01573664275533256   0.01226109451408651
0.08134382442636548   -0.01573664275533256   0.01226109451408651
0.08134382442636548   -0.01573664275533256   0.01226109451408651
-0.3822696632802345   -0.291819471426417   0.0354235422964813
-0.3822696632802345   -0.291819471426417   0.0354235422964813
-0.3822696632802345   -0.291819471426417   0.0354235422964813
-0.3822696632802345   -0.291819471426417   0.0354235422964813
-0.31842697668041064   -0.091055387390608   -0.004154028183492926
-0.31842697668041064   -0.091055387390608   -0.004154028183492926
-0.31842697668041064   -0.091055387390608   -0.004154028183492926
-0.31842697668041064   -0.091055387390608   -0.004154028183492926
0.06479014659015905   -0.19759729642796747   0.019585645418236958
0.06479014659015905   -0.19759729642796747   0.019585645418236958
0.06479014659015905   -0.19759729642796747   0.019585645418236958
0.06479014659015905   -0.19759729642796747   0.019585645418236958
-0.13667592745017007   -0.1484753611656408   0.010028739160538945
-0.13667592745017007   -0.1484753611656408   0.010028739160538945
-0.13667592745017007   -0.1484753611656408   0.010028739160538945
-0.13667592745017007   -0.1484753611656408   0.010028739160538945
-0.3800982699047513   -0.059384410110778   0.011518917126401353
-0.3800982699047513   -0.059384410110778   0.011518917126401353
-0.3800982699047513   -0.059384410110778   0.011518917126401353
-0.3800982699047513   -0.059384410110778   0.011518917126401353
-0.9429981061531327   -0.4642619865798515   -0.021215003964531562
-0.9429981061531327   -0.4642619865798515   -0.021215003964531562
-0.9429981061531327   -0.4642619865798515   -0.021215003964531562
-0.9429981061531327   -0.4642619865798515   -0.021215003964531562
-0.8560519653604941   -0.15218006972663672   -0.025916616381955925
-0.8560519653604941   -0.15218006972663672   -0.025916616381955925
-0.8560519653604941   -0.15218006972663672   -0.025916616381955925
-0.8560519653604941   -0.15218006972663672   -0.025916616381955925
-0.42510611812396404   -0.38710702133159397   0.008081001173002311
-0.42510611812396404   -0.38710702133159397   0.008081001173002311
-0.42510611812396404   -0.38710702133159397   0.008081001173002311
-0.42510611812396404   -0.38710702133159397   0.008081001173002311
-0.6503530934249051   -0.27466471269865234   -0.03689232148501208
-0.6503530934249051   -0.27466471269865234   -0.03689232148501208
-0.6503530934249051   -0.27466471269865234   -0.03689232148501208
-0.6503530934249051   -0.27466471269865234   -0.03689232148501208
-0.3560746435843285   -0.0448125096559127   0.010943862195498592
-0.3560746435843285   -0.0448125096559127   0.010943862195498592
-0.3560746435843285   -0.0448125096559127   0.010943862195498592
-0.3560746435843285   -0.0448125096559127   0.010943862195498592
-0.9228115527969276   -0.4922026942991161   -0.019691928991644764
-0.9228115527969276   -0.4922026942991161   -0.019691928991644764
-0.9228115527969276   -0.4922026942991161   -0.019691928991644764
-0.9228115527969276   -0.4922026942991161   -0.019691928991644764
-0.8288733945688739   -0.1377665471538348   -0.02644574471757223
-0.8288733945688739   -0.1377665471538348   -0.02644574471757223
-0.8288733945688739   -0.1377665471538348   -0.02644574471757223
-0.8288733945688739   -0.1377665471538348   -0.02644574471757223
-0.4053155408443612   -0.3838594192748799   0.012234102324307508
-0.4053155408443612   -0.3838594192748799   0.012234102324307508
-0.4053155408443612   -0.3838594192748799   0.012234102324307508
-0.4053155408443612   -0.3838594192748799   0.012234102324307508
-0.6217093024633579   -0.26699224572726044   -0.02553967311266072
-0.6217093024633579   -0.26699224572726044   -0.02553967311266072
-0.6217093024633579   -0.26699224572726044   -0.02553967311266072
-0.6217093024633579   -0.26699224572726044   -0.02553967311266072
-0.33692282902300574   -0.033349697224921565   0.0036879393811257155
-0.33692282902300574   -0.033349697224921565   0.0036879393811257155
-0.33692282902300574   -0.033349697224921565   0.0036879393811257155
-0.33692282902300574   -0.033349697224921565   0.0036879393811257155
-0.8971022653084555   -0.4881124281220183   -0.01724421744729028
-0.8971022653084555   -0.4881124281220183   -0.01724421744729028
-0.8971022653084555   -0.4881124281220183   -0.01724421744729028
-0.8971022653084555   -0.4881124281220183   -0.01724421744729028
-0.786402682773698   -0.12232668875431973   -0.029991073445177867
-0.786402682773698   -0.12232668875431973   -0.029991073445177867
-0.786402682773698   -0.12232668875431973   -0.029991073445177867
-0.786402682773698   -0.12232668875431973   -0.029991073445177867
-0.36248696776431777   -0.3443777888988155   0.028868417905184574
-0.36248696776431777   -0.3443777888988155   0.028868417905184574
-0.36248696776431777   -0.3443777888988155   0.028868417905184574
-0.36248696776431777   -0.3443777888988155   0.028868417905184574
-0.5898621110747313   -0.24155979412410616   -0.013788830567109507
-0.5898621110747313   -0.24155979412410616   -0.013788830567109507
-0.5898621110747313   -0.24155979412410616   -0.013788830567109507
-0.5898621110747313   -0.24155979412410616   -0.013788830567109507
-0.8572660234777797   -0.05091096925627672   -0.005905607911341058
-0.8572660234777797   -0.05091096925627672   -0.005905607911341058
-0.8572660234777797   -0.05091096925627672   -0.005905607911341058
-0.8572660234777797   -0.05091096925627672   -0.005905607911341058
-1.5096004861139902   -0.2988298428942203   0.01545127164288862
-1.5096004861139902   -0.2988298428942203   0.01545127164288862
-1.5096004861139902   -0.2988298428942203   0.01545127164288862
-1.5096004861139902   -0.2988298428942203   0.01545127164288862
-1.4506357323139323   -0.14288004626409243   -0.03144417130819913
-1.4506357323139323   -0.14288004626409243   -0.03144417130819913
-1.4506357323139323   -0.14288004626409243   -0.03144417130819913
-1.4506357323139323   -0.14288004626409243   -0.03144417130819913
-0.8393037494369531   -0.15560989265464142   0.06125428616374598
-0.8393037494369531   -0.15560989265464142   0.06125428616374598
-0.8393037494369531   -0.15560989265464142   0.06125428616374598
-0.8393037494369531   -0.15560989265464142   0.06125428616374598
-1.117115706936475   -0.1730606049140173   0.015568143559731754
-1.117115706936475   -0.1730606049140173   0.015568143559731754
-1.117115706936475   -0.1730606049140173   0.015568143559731754
-1.117115706936475   -0.1730606049140173   0.015568143559731754
-0.8225867595743893   -0.010946290741803949   0.00017563356373121591
-0.8225867595743893   -0.010946290741803949   0.00017563356373121591
-0.8225867595743893   -0.010946290741803949   0.00017563356373121591
-0.8225867595743893   -0.010946290741803949   0.00017563356373121591
-1.472872635007365   -0.2930635610078055   0.007554829968337506
-1.472872635007365   -0.2930635610078055   0.007554829968337506
-1.472872635007365   -0.2930635610078055   0.007554829968337506
-1.472872635007365   -0.2930635610078055   0.007554829968337506
-1.4184453336184244   -0.13096346326187852   -0.039925674075306936
-1.4184453336184244   -0.13096346326187852   -0.039925674075306936
-1.4184453336184244   -0.13096346326187852   -0.039925674075306936
-1.4184453336184244   -0.13096346326187852   -0.039925674075306936
-0.811336895653003   -0.1479777821575083   0.07144798486546172
-0.811336895653003   -0.1479777821575083   0.07144798486546172
-0.811336895653003   -0.1479777821575083   0.07144798486546172
-0.811336895653003   -0.1479777821575083   0.07144798486546172
-1.1003679614687452   -0.14263221140475524   0.015067528259565512
-1.1003679614687452   -0.14263221140475524   0.015067528259565512
-1.1003679614687452   -0.14263221140475524   0.015067528259565512
-1.1003679614687452   -0.14263221140475524   0.015067528259565512
-0.7976828349003003   -0.00039810617408239657   -0.00786138735445048
-0.7976828349003003   -0.00039810617408239657   -0.00786138735445048
-0.7976828349003003   -0.00039810617408239657   -0.00786138735445048
-0.7976828349003003   -0.00039810617408239657   -0.00786138735445048
-1.4340408996142513   -0.28048464448843036   0.031617677172099345
-1.4340408996142513   -0.28048464448843036   0.031617677172099345
-1.4340408996142513   -0.28048464448843036   0.031617677172099345
-1.4340408996142513   -0.28048464448843036   0.031617677172099345
-1.3515699358092939   -0.10640047687966617   -0.044762831137704
-1.3515699358092939   -0.10640047687966617   -0.044762831137704
-1.3515699358092939   -0.10640047687966617   -0.044762831137704
-1.3515699358092939   -0.10640047687966617   -0.044762831137704
-0.7677660555823317   -0.13781678030416528   0.07868215406150528
-0.7677660555823317   -0.13781678030416528   0.07868215406150528
-0.7677660555823317   -0.13781678030416528   0.07868215406150528
-0.7677660555823317   -0.13781678030416528   0.07868215406150528
-1.0352347069625973   -0.1091150636544687   0.031302899273224674
-1.0352347069625973   -0.1091150636544687   0.031302899273224674
-1.0352347069625973   -0.1091150636544687   0.031302899273224674
-1.0352347069625973   -0.1091150636544687   0.031302899273224674
1.0841902103998655   0.03614735304095282   0.015125874201616193
1.0841902103998655   0.03614735304095282   0.015125874201616193
1.0841902103998655   0.03614735304095282   0.015125874201616193
1.0841902103998655   0.03614735304095282   0.015125874201616193
0.5526517779559463   -0.029495080294257237   0.010878861231721035
0.5526517779559463   -0.029495080294257237   0.010878861231721035
0.5526517779559463   -0.029495080294257237   0.010878861231721035
0.5526517779559463   -0.029495080294257237   0.010878861231721035
0.5313518013839262   -0.07769736243364456   0.021730646879937046
0.5313518013839262   -0.07769736243364456   0.021730646879937046
0.5313518013839262   -0.07769736243364456   0.021730646879937046
0.5313518013839262   -0.07769736243364456   0.021730646879937046
1.076357601934279   0.060601255953217775   0.007781346626170783
1.076357601934279   0.060601255953217775   0.007781346626170783
1.076357601934279   0.060601255953217775   0.007781346626170783
1.076357601934279   0.060601255953217775   0.007781346626170783
0.7679134000272965   -0.010743680507798281   -0.02841138393209125
0.7679134000272965   -0.010743680507798281   -0.02841138393209125
0.7679134000272965   -0.010743680507798281   -0.02841138393209125
0.7679134000272965   -0.010743680507798281   -0.02841138393209125
1.0706125838672897   0.028116805946607787   0.011540706297835282
1.0706125838672897   0.028116805946607787   0.011540706297835282
1.0706125838672897   0.028116805946607787   0.011540706297835282
1.0706125838672897   0.028116805946607787   0.011540706297835282
0.5353704411483552   -0.04693929072959477   0.011065773998031735
0.5353704411483552   -0.04693929072959477   0.011065773998031735
0.5353704411483552   -0.04693929072959477   0.011065773998031735
0.5353704411483552   -0.04693929072959477   0.011065773998031735
0.5177206784975649   -0.07943400561736533   0.017944335266585308
0.5177206784975649   -0.07943400561736533   0.017944335266585308
0.5177206784975649   -0.07943400561736533   0.017944335266585308
0.5177206784975649   -0.07943400561736533   0.017944335266585308
1.0639396344132044   0.058045051079046145   0.01362993588242245
1.0639396344132044   0.058045051079046145   0.01362993588242245
1.0639396344132044   0.058045051079046145   0.01362993588242245
1.0639396344132044   0.058045051079046145   0.01362993588242245
0.7658416182069195   -0.014809002701014623   -0.03274628567941825
0.7658416182069195   -0.014809002701014623   -0.03274628567941825
0.7658416182069195   -0.014809002701014623   -0.03274628567941825
0.7658416182069195   -0.014809002701014623   -0.03274628567941825
1.0553287189293563   0.02518568110343289   0.003434728438785055
1.0553287189293563   0.02518568110343289   0.003434728438785055
1.0553287189293563   0.02518568110343289   0.003434728438785055
1.0553287189293563   0.02518568110343289   0.003434728438785055
0.5232103131092349   -0.04969591651393174   0.015654419221502416
0.5232103131092349   -0.04969591651393174   0.015654419221502416
0.5232103131092349   -0.04969591651393174   0.015654419221502416
0.5232103131092349   -0.04969591651393174   0.015654419221502416
0.5033678995639318   -0.07229617754118571   0.015498521832285117
0.5033678995639318   -0.07229617754118571   0.015498521832285117
0.5033678995639318   -0.07229617754118571   0.015498521832285117
0.5033678995639318   -0.07229617754118571   0.015498521832285117
1.0448359402800471   0.05889451121376252   0.01973210545283509
1.0448359402800471   0.05889451121376252   0.01973210545283509
1.0448359402800471   0.05889451121376252   0.01973210545283509
1.0448359402800471   0.05889451121376252   0.01973210545283509
0.7372745459288591   -0.014846686527451608   -0.04408554247024212
0.7372745459288591   -0.014846686527451608   -0.04408554247024212
0.7372745459288591   -0.014846686527451608   -0.04408554247024212
0.7372745459288591   -0.014846686527451608   -0.04408554247024212
0.5482489840926087   -0.06773312023968919   0.027102931860464613
0.5482489840926087   -0.06773312023968919   0.027102931860464613
0.5482489840926087   -0.06773312023968919   0.027102931860464613
0.5482489840926087   -0.06773312023968919   0.027102931860464613
0.10424874104116283   -0.0652441798120251   0.005527755274850162
0.10424874104116283   -0.0652441798120251   0.005527755274850162
0.10424874104116283   -0.0652441798120251   0.005527755274850162
0.10424874104116283   -0.0652441798120251   0.005527755274850162
0.06749254289611553   -0.16258349367295094   0.028505761551685764
0.06749254289611553   -0.16258349367295094   0.028505761551685764
0.06749254289611553   -0.16258349367295094   0.028505761551685764
0.06749254289611553   -0.16258349367295094   0.028505761551685764
0.5511087503896492   0.02195729808132861   0.02086073139357877
0.5511087503896492   0.02195729808132861   0.02086073139357877
0.5511087503896492   0.02195729808132861   0.02086073139357877
0.5511087503896492   0.02195729808132861   0.02086073139357877
0.3128799809379371   -0.06868000705062854   -0.0012469938383510987
0.3128799809379371   -0.06868000705062854   -0.0012469938383510987
0.3128799809379371   -0.06868000705062854   -0.0012469938383510987
0.3128799809379371   -0.06868000705062854   -0.0012469938383510987
0.5329678955851949   -0.07063902029579325   0.022752775748425734
0.5329678955851949   -0.07063902029579325   0.022752775748425734
0.5329678955851949   -0.07063902029579325   0.022752775748425734
0.5329678955851949   -0.07063902029579325   0.022752775748425734
0.0810465043557419   -0.07457406864066274   0.008266143817529405
0.0810465043557419   -0.07457406864066274   0.008266143817529405
0.0810465043557419   -0.07457406864066274   0.008266143817529405
0.0810465043557419   -0.07457406864066274   0.008266143817529405
0.05099184271339387   -0.16393204468037234   0.02550703909585829
0.05099184271339387   -0.16393204468037234   0.02550703909585829
0.05099184271339387   -0.16393204468037234   0.02550703909585829
0.05099184271339387   -0.16393204468037234   0.02550703909585829
0.5385425462246767   0.017943012604636432   0.024676655680142264
0.5385425462246767   0.017943012604636432   0.024676655680142264
0.5385425462246767   0.017943012604636432   0.024676655680142264
0.5385425462246767   0.017943012604636432   0.024676655680142264
0.2904346030807695   -0.0731642332284606   -0.014889322666039762
0.2904346030807695   -0.0731642332284606   -0.014889322666039762
0.2904346030807695   -0.0731642332284606   -0.014889322666039762
0.2904346030807695   -0.0731642332284606   -0.014889322666039762
0.5194796685156667   -0.07156235949262046   0.018867639232344774
0.5194796685156667   -0.07156235949262046   0.018867639232344774
0.5194796685156667   -0.07156235949262046   0.018867639232344774
0.5194796685156667   -0.07156235949262046   0.018867639232344774
0.06506540426863   -0.07941598873689001   0.011358790928556631
0.06506540426863   -0.07941598873689001   0.011358790928556631
0.06506540426863   -0.07941598873689001   0.011358790928556631
0.06506540426863   -0.07941598873689001   0.011358790928556631
0.03253800428933007   -0.16371690116189236   0.01991129601128619
0.03253800428933007   -0.16371690116189236   0.01991129601128619
0.03253800428933007   -0.16371690116189236   0.01991129601128619
0.03253800428933007   -0.16371690116189236   0.01991129601128619
0.5242807541101764   0.018299105248207312   0.02946751177411813
0.5242807541101764   0.018299105248207312   0.02946751177411813
0.5242807541101764   0.018299105248207312   0.02946751177411813
0.5242807541101764   0.018299105248207312   0.02946751177411813
0.2767956733728863   -0.07248998003909773   -0.026463027046538766
0.2767956733728863   -0.07248998003909773   -0.026463027046538766
0.2767956733728863   -0.07248998003909773   -0.026463027046538766
0.2767956733728863   -0.07248998003909773   -0.026463027046538766
0.0814889224439724   -0.19778104476581393   0.024265527242684937
0.0814889224439724   -0.19778104476581393   0.024265527242684937
0.0814889224439724   -0.19778104476581393   0.024265527242684937
0.0814889224439724   -0.19778104476581393   0.024265527242684937
-0.3269831865415756   -0.10091687141109704   0.00012754821719363277
-0.3269831865415756   -0.10091687141109704   0.00012754821719363277
-0.3269831865415756   -0.10091687141109704   0.00012754821719363277
-0.3269831865415756   -0.10091687141109704   0.00012754821719363277
-0.3934780441779024   -0.2958104864597712   0.03266592293657996
-0.3934780441779024   -0.2958104864597712   0.03266592293657996
-0.3934780441779024   -0.2958104864597712   0.03266592293657996
-0.3934780441779024   -0.2958104864597712   0.03266592293657996
0.09373902115999146   -0.01609999005242366   0.01325464925053617
0.09373902115999146   -0.01609999005242366   0.01325464925053617
0.09373902115999146   -0.01609999005242366   0.01325464925053617
0.09373902115999146   -0.01609999005242366   0.01325464925053617
-0.134528582017236   -0.15049434669329334   0.0057099339033372595
-0.134528582017236   -0.15049434669329334   0.0057099339033372595
-0.134528582017236   -0.15049434669329334   0.0057099339033372595
-0.134528582017236   -0.15049434669329334   0.0057099339033372595
0.05602204848867084   -0.20894141112123032   0.017511206962741714
0.05602204848867084   -0.20894141112123032   0.017511206962741714
0.05602204848867084   -0.20894141112123032   0.017511206962741714
0.05602204848867084   -0.20894141112123032   0.017511206962741714
-0.3622010496691438   -0.10940904355353198   0.002649452574129853
-0.3622010496691438   -0.10940904355353198   0.002649452574129853
-0.3622010496691438   -0.10940904355353198   0.002649452574129853
-0.3622010496691438   -0.10940904355353198   0.002649452574129853
-0.4164249656791443   -0.300394187628156   0.026705263686696054
-0.4164249656791443   -0.300394187628156   0.026705263686696054
-0.4164249656791443   -0.300394187628156   0.026705263686696054
-0.4164249656791443   -0.300394187628156   0.026705263686696054
0.07826967958766508   -0.02055117817100381   0.01851535695784583
0.07826967958766508   -0.02055117817100381   0.01851535695784583
0.07826967958766508   -0.02055117817100381   0.01851535695784583
0.07826967958766508   -0.02055117817100381   0.01851535695784583
-0.16322227973131426   -0.1595479571285361   -0.013431488419135891
-0.16322227973131426   -0.1595479571285361   -0.013431488419135891
-0.16322227973131426   -0.1595479571285361   -0.013431488419135891
-0.16322227973131426   -0.1595479571285361   -0.013431488419135891
0.03844561207703135   -0.21249363047294295   0.011337471706616316
0.03844561207703135   -0.21249363047294295   0.011337471706616316
0.03844561207703135   -0.21249363047294295   0.011337471706616316
0.03844561207703135   -0.21249363047294295   0.011337471706616316
-0.3842924369457234   -0.11614327410343549   0.0031169938290759418
-0.3842924369457234   -0.11614327410343549   0.0031169938290759418
-0.3842924369457234   -0.11614327410343549   0.0031169938290759418
-0.3842924369457234   -0.11614327410343549   0.0031169938290759418
-0.4413365782253123   -0.2982759997459993   0.022318853643549283
-0.4413365782253123   -0.2982759997459993   0.022318853643549283
-0.4413365782253123   -0.2982759997459993   0.022318853643549283
-0.4413365782253123   -0.2982759997459993   0.022318853643549283
0.06106808247795187   -0.022998115437747137   0.02184290123024997
0.06106808247795187   -0.022998115437747137   0.02184290123024997
0.06106808247795187   -0.022998115437747137   0.02184290123024997
0.06106808247795187   -0.022998115437747137   0.02184290123024997
-0.18653534071589603   -0.16294887338620623   -0.03261905366656774
-0.18653534071589603   -0.16294887338620623   -0.03261905366656774
-0.18653534071589603   -0.16294887338620623   -0.03261905366656774
-0.18653534071589603   -0.16294887338620623   -0.03261905366656774
-0.36894361752871846   -0.33943865307332105   0.028847174943706408
-0.36894361752871846   -0.33943865307332105   0.028847174943706408
-0.36894361752871846   -0.33943865307332105   0.028847174943706408
-0.36894361752871846   -0.33943865307332105   0.028847174943706408
-0.8161242521163724   -0.12554156425219298   -0.018736396091478758
-0.8161242521163724   -0.12554156425219298   -0.018736396091478758
-0.8161242521163724   -0.12554156425219298   -0.018736396091478758
-0.8161242521163724   -0.12554156425219298   -0.018736396091478758
-0.9324212580146622   -0.4952455176546953   -0.02529634055180624
-0.9324212580146622   -0.4952455176546953   -0.02529634055180624
-0.9324212580146622   -0.4952455176546953   -0.02529634055180624
-0.9324212580146622   -0.4952455176546953   -0.02529634055180624
-0.3440113282058907   -0.027263564858072055   0.011452581194935611
-0.3440113282058907   -0.027263564858072055   0.011452581194935611
-0.3440113282058907   -0.027263564858072055   0.011452581194935611
-0.3440113282058907   -0.027263564858072055   0.011452581194935611
-0.609421377152731   -0.2370966475191834   -0.0199653399544679
-0.609421377152731   -0.2370966475191834   -0.0199653399544679
-0.609421377152731   -0.2370966475191834   -0.0199653399544679
-0.609421377152731   -0.2370966475191834   -0.0199653399544679
-0.4158415081906395   -0.38488556358075404   0.009923679993877416
-0.4158415081906395   -0.38488556358075404   0.009923679993877416
-0.4158415081906395   -0.38488556358075404   0.009923679993877416
-0.4158415081906395   -0.38488556358075404   0.009923679993877416
-0.8588370340658019   -0.13586947496790108   -0.016751263494298355
-0.8588370340658019   -0.13586947496790108   -0.016751263494298355
-0.8588370340658019   -0.13586947496790108   -0.016751263494298355
-0.8588370340658019   -0.13586947496790108   -0.016751263494298355
-0.9597570382054085   -0.5030444131819316   -0.029249369849904047
-0.9597570382054085   -0.5030444131819316   -0.029249369849904047
-0.9597570382054085   -0.5030444131819316   -0.029249369849904047
-0.9597570382054085   -0.5030444131819316   -0.029249369849904047
-0.3652094548076393   -0.03461745820089662   0.017006088616957828
-0.3652094548076393   -0.03461745820089662   0.017006088616957828
-0.3652094548076393   -0.03461745820089662   0.017006088616957828
-0.3652094548076393   -0.03461745820089662   0.017006088616957828
-0.6428741263592153   -0.26288832372039644   -0.028656945900605295
-0.6428741263592153   -0.26288832372039644   -0.028656945900605295
-0.6428741263592153   -0.26288832372039644   -0.028656945900605295
-0.6428741263592153   -0.26288832372039644   -0.028656945900605295
-0.43937513497123976   -0.392338427204588   0.0038986568026456725
-0.43937513497123976   -0.392338427204588   0.0038986568026456725
-0.43937513497123976   -0.392338427204588   0.0038986568026456725
-0.43937513497123976   -0.392338427204588   0.0038986568026456725
-0.8858490984359851   -0.14558118457241867   -0.01717289961230658
-0.8858490984359851   -0.14558118457241867   -0.01717289961230658
-0.8858490984359851   -0.14558118457241867   -0.01717289961230658
-0.8858490984359851   -0.14558118457241867   -0.01717289961230658
-0.9830212471698582   -0.480853577083327   -0.032976243611832545
-0.9830212471698582   -0.480853577083327   -0.032976243611832545
-0.9830212471698582   -0.480853577083327   -0.032976243611832545
-0.9830212471698582   -0.480853577083327   -0.032976243611832545
-0.39198974774516226   -0.04502431682631616   0.015801323124611653
-0.39198974774516226   -0.04502431682631616   0.015801323124611653
-0.39198974774516226   -0.04502431682631616   0.015801323124611653
-0.39198974774516226   -0.04502431682631616   0.015801323124611653
-0.6737870437651441   -0.2716095044935972   -0.03704769824595297
-0.6737870437651441   -0.2716095044935972   -0.03704769824595297
-0.6737870437651441   -0.2716095044935972   -0.03704769824595297
-0.6737870437651441   -0.2716095044935972   -0.03704769824595297
-0.8024548960023546   -0.14639767929599182   0.07046649952239559
-0.8024548960023546   -0.14639767929599182   0.07046649952239559
-0.8024548960023546   -0.14639767929599182   0.07046649952239559
-0.8024548960023546   -0.14639767929599182   0.07046649952239559
-1.4086934862641627   -0.10490345927058589   -0.024544407241133014
-1.4086934862641627   -0.10490345927058589   -0.024544407241133014
-1.4086934862641627   -0.10490345927058589   -0.024544407241133014
-1.4086934862641627   -0.10490345927058589   -0.024544407241133014
-1.4942502233373203   -0.29499227720005283   0.01928883733705611
-1.4942502233373203   -0.29499227720005283   0.01928883733705611
-1.4942502233373203   -0.29499227720005283   0.01928883733705611
-1.4942502233373203   -0.29499227720005283   0.01928883733705611
-0.8244125623896575   0.012322804345178101   0.007178815573338042
-0.8244125623896575   0.012322804345178101   0.007178815573338042
-0.8244125623896575   0.012322804345178101   0.007178815573338042
-0.8244125623896575   0.012322804345178101   0.007178815573338042
-1.0785310995382091   -0.10359043170234757   0.021572995864038835
-1.0785310995382091   -0.10359043170234757   0.021572995864038835
-1.0785310995382091   -0.10359043170234757   0.021572995864038835
-1.0785310995382091   -0.10359043170234757   0.021572995864038835
-0.8472057291849655   -0.15694499054049887   0.062480776482471106
-0.8472057291849655   -0.15694499054049887   0.062480776482471106
-0.8472057291849655   -0.15694499054049887   0.062480776482471106
-0.8472057291849655   -0.15694499054049887   0.062480776482471106
-1.4677974771841686   -0.12206490295653097   -0.021374806140695958
-1.4677974771841686   -0.12206490295653097   -0.021374806140695958
-1.4677974771841686   -0.12206490295653097   -0.021374806140695958
-1.4677974771841686   -0.12206490295653097   -0.021374806140695958
-1.530271799114654   -0.3074133520346277   -0.006794961058484705
-1.530271799114654   -0.3074133520346277   -0.006794961058484705
-1.530271799114654   -0.3074133520346277   -0.006794961058484705
-1.530271799114654   -0.3074133520346277   -0.006794961058484705
-0.84989122590214   0.004019571127072158   0.013015707357428685
-0.84989122590214   0.004019571127072158   0.013015707357428685
-0.84989122590214   0.004019571127072158   0.013015707357428685
-0.84989122590214   0.004019571127072158   0.013015707357428685
-1.1423903468028498   -0.13660840893591303   0.008784793808519292
-1.1423903468028498   -0.13660840893591303   0.008784793808519292
-1.1423903468028498   -0.13660840893591303   0.008784793808519292
-1.1423903468028498   -0.13660840893591303   0.008784793808519292
-0.8759428903214879   -0.16486098898895446   0.05163794537671562
-0.8759428903214879   -0.16486098898895446   0.05163794537671562
-0.8759428903214879   -0.16486098898895446   0.05163794537671562
-0.8759428903214879   -0.16486098898895446   0.05163794537671562
-1.4967797444348685   -0.13109240165815916   -0.015655638035999453
-1.4967797444348685   -0.13109240165815916   -0.015655638035999453
-1.4967797444348685   -0.13109240165815916   -0.015655638035999453
-1.4967797444348685   -0.13109240165815916   -0.015655638035999453
-1.5613284434989598   -0.3123065304596075   -0.00020420879907778744
-1.5613284434989598   -0.3123065304596075   -0.00020420879907778744
-1.5613284434989598   -0.3123065304596075   -0.00020420879907778744
-1.5613284434989598   -0.3123065304596075   -0.00020420879907778744
-0.8857269621296976   -0.032771800048160216   0.005413404553803375
-0.8857269621296976   -0.032771800048160216   0.005413404553803375
-0.8857269621296976   -0.032771800048160216   0.005413404553803375
-0.8857269621296976   -0.032771800048160216   0.005413404553803375
-1.1558414996822974   -0.1648835196372138   0.01383224356116717
-1.1558414996822974   -0.1648835196372138   0.01383224356116717
-1.1558414996822974   -0.1648835196372138   0.01383224356116717
-1.1558414996822974   -0.1648835196372138   0.01383224356116717
0.9521036993557948   0.04414749450347316   -0.020360186179475187
0.9521036993557948   0.04414749450347316   -0.020360186179475187
0.9521036993557948   0.04414749450347316   -0.020360186179475187
0.9521036993557948   0.04414749450347316   -0.020360186179475187
0.47851233521683373   -0.01008889793640129   0.00988696458947123
0.47851233521683373   -0.01008889793640129   0.00988696458947123
0.47851233521683373   -0.01008889793640129   0.00988696458947123
0.47851233521683373   -0.01008889793640129   0.00988696458947123
0.44843365651730605   -0.07015932484879378   -0.018097611966914166
0.44843365651730605   -0.07015932484879378   -0.018097611966914166
0.44843365651730605   -0.07015932484879378   -0.018097611966914166
0.44843365651730605   -0.07015932484879378   -0.018097611966914166
0.9411800995714814   0.0685453459906763   0.011567556065914898
0.9411800995714814   0.0685453459906763   0.011567556065914898
0.9411800995714814   0.0685453459906763   0.011567556065914898
0.9411800995714814   0.0685453459906763   0.011567556065914898
0.6681023616356915   0.0016478312291784702   -0.02579603358856477
0.6681023616356915   0.0016478312291784702   -0.02579603358856477
0.6681023616356915   0.0016478312291784702   -0.02579603358856477
0.6681023616356915   0.0016478312291784702   -0.02579603358856477
0.9260101504627076   0.024856773030179358   -0.020593616517450057
0.9260101504627076   0.024856773030179358   -0.020593616517450057
0.9260101504627076   0.024856773030179358   -0.020593616517450057
0.9260101504627076   0.024856773030179358   -0.020593616517450057
0.4627716560701475   -0.02730270144422886   0.010735762392723107
0.4627716560701475   -0.02730270144422886   0.010735762392723107
0.4627716560701475   -0.02730270144422886   0.010735762392723107
0.4627716560701475   -0.02730270144422886   0.010735762392723107
0.43222277950667704   -0.07402029907877168   -0.014979960000139278
0.43222277950667704   -0.07402029907877168   -0.014979960000139278
0.43222277950667704   -0.07402029907877168   -0.014979960000139278
0.43222277950667704   -0.07402029907877168   -0.014979960000139278
0.9186918772645815   0.06304996248976066   0.0169915242920712
0.9186918772645815   0.06304996248976066   0.0169915242920712
0.9186918772645815   0.06304996248976066   0.0169915242920712
0.9186918772645815   0.06304996248976066   0.0169915242920712
0.6594194537219406   -0.006569035504252252   -0.030673497718678333
0.6594194537219406   -0.006569035504252252   -0.030673497718678333
0.6594194537219406   -0.006569035504252252   -0.030673497718678333
0.6594194537219406   -0.006569035504252252   -0.030673497718678333
0.903403186613015   0.01994281753943647   -0.016344784015436542
0.903403186613015   0.01994281753943647   -0.016344784015436542
0.903403186613015   0.01994281753943647   -0.016344784015436542
0.903403186613015   0.01994281753943647   -0.016344784015436542
0.4463448222941162   -0.03207980199257471   0.013689756850859637
0.4463448222941162   -0.03207980199257471   0.013689756850859637
0.4463448222941162   -0.03207980199257471   0.013689756850859637
0.4463448222941162   -0.03207980199257471   0.013689756850859637
0.416546236700761   -0.07276843035847583   -0.010292898829101192
0.416546236700761   -0.07276843035847583   -0.010292898829101192
0.416546236700761   -0.07276843035847583   -0.010292898829101192
0.416546236700761   -0.07276843035847583   -0.010292898829101192
0.8908696328232149   0.05945779870296694   0.022186030194140255
0.8908696328232149   0.05945779870296694   0.022186030194140255
0.8908696328232149   0.05945779870296694   0.022186030194140255
0.8908696328232149   0.05945779870296694   0.022186030194140255
0.6270892498698541   -0.011429286732631938   -0.04021155489020094
0.6270892498698541   -0.011429286732631938   -0.04021155489020094
0.6270892498698541   -0.011429286732631938   -0.04021155489020094
0.6270892498698541   -0.011429286732631938   -0.04021155489020094
0.4814608139358435   0.01000064646797015   0.004539813780145733
0.4814608139358435   0.01000064646797015   0.004539813780145733
0.4814608139358435   0.01000064646797015   0.004539813780145733
0.4814608139358435   0.01000064646797015   0.004539813780145733
0.045005942361434736   -0.029090584005777655   -0.0012392769280976344
0.045005942361434736   -0.029090584005777655   -0.0012392769280976344
0.045005942361434736   -0.029090584005777655   -0.0012392769280976344
0.045005942361434736   -0.029090584005777655   -0.0012392769280976344
0.016658772998380266   -0.09259700432281376   -0.01746080323586409
0.016658772998380266   -0.09259700432281376   -0.01746080323586409
0.016658772998380266   -0.09259700432281376   -0.01746080323586409
0.016658772998380266   -0.09259700432281376   -0.01746080323586409
0.4819670891801917   0.05567877627441008   0.0237314502243051
0.4819670891801917   0.05567877627441008   0.0237314502243051
0.4819670891801917   0.05567877627441008   0.0237314502243051
0.4819670891801917   0.05567877627441008   0.0237314502243051
0.251572794975213   -0.012805803345708425   -0.009871842239564315
0.251572794975213   -0.012805803345708425   -0.009871842239564315
0.251572794975213   -0.012805803345708425   -0.009871842239564315
0.251572794975213   -0.012805803345708425   -0.009871842239564315
0.4681342003224319   0.0026994985259610194   0.007546283683958235
0.4681342003224319   0.0026994985259610194   0.007546283683958235
0.4681342003224319   0.0026994985259610194   0.007546283683958235
0.4681342003224319   0.0026994985259610194   0.007546283683958235
0.031025335476916976   -0.03908405295358729   0.000859057787592956
0.031025335476916976   -0.03908405295358729   0.000859057787592956
0.031025335476916976   -0.03908405295358729   0.000859057787592956
0.031025335476916976   -0.03908405295358729   0.000859057787592956
0.0010273870276269852   -0.09693742036957732   -0.012210349993876872
0.0010273870276269852   -0.09693742036957732   -0.012210349993876872
0.0010273870276269852   -0.09693742036957732   -0.012210349993876872
0.0010273870276269852   -0.09693742036957732   -0.012210349993876872
0.46481184156086985   0.047783926176949786   0.026161125015103308
0.46481184156086985   0.047783926176949786   0.026161125015103308
0.46481184156086985   0.047783926176949786   0.026161125015103308
0.46481184156086985   0.047783926176949786   0.026161125015103308
0.23353940550631172   -0.02009250379306543   -0.013975247705416409
0.23353940550631172   -0.02009250379306543   -0.013975247705416409
0.23353940550631172   -0.02009250379306543   -0.013975247705416409
0.23353940550631172   -0.02009250379306543   -0.013975247705416409
0.4517616770599852   -0.0021747055223360484   0.010868934209971214
0.4517616770599852   -0.0021747055223360484   0.010868934209971214
0.4517616770599852   -0.0021747055223360484   0.010868934209971214
0.4517616770599852   -0.0021747055223360484   0.010868934209971214
0.014008713913043256   -0.04704762628575897   0.0028064903493861242
0.014008713913043256   -0.04704762628575897   0.0028064903493861242
0.014008713913043256   -0.04704762628575897   0.0028064903493861242
0.014008713913043256   -0.04704762628575897   0.0028064903493861242
-0.015739240941505268   -0.09727310853143459   -0.008373562072378951
-0.015739240941505268   -0.09727310853143459   -0.008373562072378951
-0.015739240941505268   -0.09727310853143459   -0.008373562072378951
-0.015739240941505268   -0.09727310853143459   -0.008373562072378951
0.4475014448203013   0.04281472471292859   0.02889998669719751
0.4475014448203013   0.04281472471292859   0.02889998669719751
0.4475014448203013   0.04281472471292859   0.02889998669719751
0.4475014448203013   0.04281472471292859   0.02889998669719751
0.21951076411131681   -0.022927329478425296   -0.017471848829328323
0.21951076411131681   -0.022927329478425296   -0.017471848829328323
0.21951076411131681   -0.022927329478425296   -0.017471848829328323
0.21951076411131681   -0.022927329478425296   -0.017471848829328323
0.04624132152101143   -0.025940060391013937   0.00178709525502211
0.04624132152101143   -0.025940060391013937   0.00178709525502211
0.04624132152101143   -0.025940060391013937   0.00178709525502211
0.04624132152101143   -0.025940060391013937   0.00178709525502211
-0.3741791667964103   -0.04315722756953942   -0.011748098642841737
-0.3741791667964103   -0.04315722756953942   -0.011748098642841737
-0.3741791667964103   -0.04315722756953942   -0.011748098642841737
-0.3741791667964103   -0.04315722756953942   -0.011748098642841737
-0.4056951682862047   -0.12262922141841544   -0.01995731813319587
-0.4056951682862047   -0.12262922141841544   -0.01995731813319587
-0.4056951682862047   -0.12262922141841544   -0.01995731813319587
-0.4056951682862047   -0.12262922141841544   -0.01995731813319587
0.04958815010023073   0.04091149710813114   0.013677580842443323
0.04958815010023073   0.04091149710813114   0.013677580842443323
0.04958815010023073   0.04091149710813114   0.013677580842443323
0.04958815010023073   0.04091149710813114   0.013677580842443323
-0.1715001273034148   -0.03590294108708289   -0.009767415020653272
-0.1715001273034148   -0.03590294108708289   -0.009767415020653272
-0.1715001273034148   -0.03590294108708289   -0.009767415020653272
-0.1715001273034148   -0.03590294108708289   -0.009767415020653272
0.03448729738345589   -0.028986918153753406   0.008071732520453692
0.03448729738345589   -0.028986918153753406   0.008071732520453692
0.03448729738345589   -0.028986918153753406   0.008071732520453692
0.03448729738345589   -0.028986918153753406   0.008071732520453692
-0.38943036684857535   -0.05156685743568155   -0.009695674927783273
-0.38943036684857535   -0.05156685743568155   -0.009695674927783273
-0.38943036684857535   -0.05156685743568155   -0.009695674927783273
-0.38943036684857535   -0.05156685743568155   -0.009695674927783273
-0.42401559405206857   -0.12737253521757236   -0.01330615463526318
-0.42401559405206857   -0.12737253521757236   -0.01330615463526318
-0.42401559405206857   -0.12737253521757236   -0.01330615463526318
-0.42401559405206857   -0.12737253521757236   -0.01330615463526318
0.03244064255701081   0.0324663145742798   0.015452192709185141
0.03244064255701081   0.0324663145742798   0.015452192709185141
0.03244064255701081   0.0324663145742798   0.015452192709185141
0.03244064255701081   0.0324663145742798   0.015452192709185141
-0.1866671299882089   -0.04090457697370437   -0.011706035037395294
-0.1866671299882089   -0.04090457697370437   -0.011706035037395294
-0.1866671299882089   -0.04090457697370437   -0.011706035037395294
-0.1866671299882089   -0.04090457697370437   -0.011706035037395294
0.018263468539826095   -0.03404080361052708   0.011073440808068439
0.018263468539826095   -0.03404080361052708   0.011073440808068439
0.018263468539826095   -0.03404080361052708   0.011073440808068439
0.018263468539826095   -0.03404080361052708   0.011073440808068439
-0.40958830370685645   -0.06061530070473867   -0.007926937422039957
-0.40958830370685645   -0.06061530070473867   -0.007926937422039957
-0.40958830370685645   -0.06061530070473867   -0.007926937422039957
-0.40958830370685645   -0.06061530070473867   -0.007926937422039957
-0.44433168185726946   -0.13081155064307357   -0.011824510461160885
-0.44433168185726946   -0.13081155064307357   -0.011824510461160885
-0.44433168185726946   -0.13081155064307357   -0.011824510461160885
-0.44433168185726946   -0.13081155064307357   -0.011824510461160885
0.013891359809852236   0.02526149030589603   0.01724484284707892
0.013891359809852236   0.02526149030589603   0.01724484284707892
0.013891359809852236   0.02526149030589603   0.01724484284707892
0.013891359809852236   0.02526149030589603   0.01724484284707892
-0.20635803451653223   -0.04689135207193715   -0.01639136157225849
-0.20635803451653223   -0.04689135207193715   -0.01639136157225849
-0.20635803451653223   -0.04689135207193715   -0.01639136157225849
-0.20635803451653223   -0.04689135207193715   -0.01639136157225849
-0.3682373002829531   -0.03104674449686675   0.005850750851763802
-0.3682373002829531   -0.03104674449686675   0.005850750851763802
-0.3682373002829531   -0.03104674449686675   0.005850750851763802
-0.3682373002829531   -0.03104674449686675   0.005850750851763802
-0.7837374813302065   -0.050532297990515576   -0.020614083711340662
-0.7837374813302065   -0.050532297990515576   -0.020614083711340662
-0.7837374813302065   -0.050532297990515576   -0.020614083711340662
-0.7837374813302065   -0.050532297990515576   -0.020614083711340662
-0.8195248896504153   -0.12866503701617465   -0.02004121815108365
-0.8195248896504153   -0.12866503701617465   -0.02004121815108365
-0.8195248896504153   -0.12866503701617465   -0.02004121815108365
-0.8195248896504153   -0.12866503701617465   -0.02004121815108365
-0.370112564399492   0.031358177109578805   0.003968302772365564
-0.370112564399492   0.031358177109578805   0.003968302772365564
-0.370112564399492   0.031358177109578805   0.003968302772365564
-0.370112564399492   0.031358177109578805   0.003968302772365564
-0.5806004871367568   -0.042654180402566896   -0.008143485366230104
-0.5806004871367568   -0.042654180402566896   -0.008143485366230104
-0.5806004871367568   -0.042654180402566896   -0.008143485366230104
-0.5806004871367568   -0.042654180402566896   -0.008143485366230104
-0.3812477182613174   -0.034226014161316896   0.013876724734138144
-0.3812477182613174   -0.034226014161316896   0.013876724734138144
-0.3812477182613174   -0.034226014161316896   0.013876724734138144
-0.3812477182613174   -0.034226014161316896   0.013876724734138144
-0.8061224585424417   -0.0608135684991369   -0.020880531128263175
-0.8061224585424417   -0.0608135684991369   -0.020880531128263175
-0.8061224585424417   -0.0608135684991369   -0.020880531128263175
-0.8061224585424417   -0.0608135684991369   -0.020880531128263175
-0.8448413292092215   -0.13677155865675525   -0.014132539260753106
-0.8448413292092215   -0.13677155865675525   -0.014132539260753106
-0.8448413292092215   -0.13677155865675525   -0.014132539260753106
-0.8448413292092215   -0.13677155865675525   -0.014132539260753106
-0.3904939168021618   0.022103924856715598   0.004825771539978874
-0.3904939168021618   0.022103924856715598   0.004825771539978874
-0.3904939168021618   0.022103924856715598   0.004825771539978874
-0.3904939168021618   0.022103924856715598   0.004825771539978874
-0.5965306959699496   -0.047095640684925305   -0.00813672014627264
-0.5965306959699496   -0.047095640684925305   -0.00813672014627264
-0.5965306959699496   -0.047095640684925305   -0.00813672014627264
-0.5965306959699496   -0.047095640684925305   -0.00813672014627264
-0.40147002034718177   -0.04238412774823176   0.014433306419824633
-0.40147002034718177   -0.04238412774823176   0.014433306419824633
-0.40147002034718177   -0.04238412774823176   0.014433306419824633
-0.40147002034718177   -0.04238412774823176   0.014433306419824633
-0.8323427885822605   -0.07076106896986717   -0.017650325812836293
-0.8323427885822605   -0.07076106896986717   -0.017650325812836293
-0.8323427885822605   -0.07076106896986717   -0.017650325812836293
-0.8323427885822605   -0.07076106896986717   -0.017650325812836293
-0.8734642368047072   -0.14749522639319473   -0.015078735650205458
-0.8734642368047072   -0.14749522639319473   -0.015078735650205458
-0.8734642368047072   -0.14749522639319473   -0.015078735650205458
-0.8734642368047072   -0.14749522639319473   -0.015078735650205458
-0.4125258047549307   0.01065391824846569   0.005739406158986243
-0.4125258047549307   0.01065391824846569   0.005739406158986243
-0.4125258047549307   0.01065391824846569   0.005739406158986243
-0.4125258047549307   0.01065391824846569   0.005739406158986243
-0.62503977852962   -0.05814765008669598   -0.013308551791067748
-0.62503977852962   -0.05814765008669598   -0.013308551791067748
-0.62503977852962   -0.05814765008669598   -0.013308551791067748
-0.62503977852962   -0.05814765008669598   -0.013308551791067748
-0.7574144259296205   0.03529584442063649   0.02517305088043676
-0.7574144259296205   0.03529584442063649   0.02517305088043676
-0.7574144259296205   0.03529584442063649   0.02517305088043676
-0.7574144259296205   0.03529584442063649   0.02517305088043676
-1.1739997190564075   -0.05845613234814459   -0.015515022924323878
-1.1739997190564075   -0.05845613234814459   -0.015515022924323878
-1.1739997190564075   -0.05845613234814459   -0.015515022924323878
-1.1739997190564075   -0.05845613234814459   -0.015515022924323878
-1.2024055667054458   -0.05955498534135592   0.025782871456456323
-1.2024055667054458   -0.05955498534135592   0.025782871456456323
-1.2024055667054458   -0.05955498534135592   0.025782871456456323
-1.2024055667054458   -0.05955498534135592   0.025782871456456323
-0.7860695700739463   0.02462032048088522   -0.006049977765808075
-0.7860695700739463   0.02462032048088522   -0.006049977765808075
-0.7860695700739463   0.02462032048088522   -0.006049977765808075
-0.7860695700739463   0.02462032048088522   -0.006049977765808075
-0.9342754787104882   0.0005950014718764662   0.02377204078622673
-0.9342754787104882   0.0005950014718764662   0.02377204078622673
-0.9342754787104882   0.0005950014718764662   0.02377204078622673
-0.9342754787104882   0.0005950014718764662   0.02377204078622673
-0.778104156235267   0.02652350403590248   0.03187390787256935
-0.778104156235267   0.02652350403590248   0.03187390787256935
-0.778104156235267   0.02652350403590248   0.03187390787256935
-0.778104156235267   0.02652350403590248   0.03187390787256935
-1.20983290794177   -0.06092009629402345   -0.009988723772496863
-1.20983290794177   -0.06092009629402345   -0.009988723772496863
-1.20983290794177   -0.06092009629402345   -0.009988723772496863
-1.20983290794177   -0.06092009629402345   -0.009988723772496863
-1.238211136446347   -0.06922548326419412   0.035110345945334985
-1.238211136446347   -0.06922548326419412   0.035110345945334985
-1.238211136446347   -0.06922548326419412   0.035110345945334985
-1.238211136446347   -0.06922548326419412   0.035110345945334985
-0.8123219296472197   0.018042176284902733   -0.006349276392410487
-0.8123219296472197   0.018042176284902733   -0.006349276392410487
-0.8123219296472197   0.018042176284902733   -0.006349276392410487
-0.8123219296472197   0.018042176284902733   -0.006349276392410487
-0.9807077732111158   -0.010696694046044952   0.013195773466758369
-0.9807077732111158   -0.010696694046044952   0.013195773466758369
-0.9807077732111158   -0.010696694046044952   0.013195773466758369
-0.9807077732111158   -0.010696694046044952   0.013195773466758369
-0.8050372796326344   0.01667537408547609   0.0314407758799429
-0.8050372796326344   0.01667537408547609   0.0314407758799429
-0.8050372796326344   0.01667537408547609   0.0314407758799429
-0.8050372796326344   0.01667537408547609   0.0314407758799429
-1.2468681943634945   -0.06923108896732447   -0.008169337937271627
-1.2468681943634945   -0.06923108896732447   -0.008169337937271627
-1.2468681943634945   -0.06923108896732447   -0.008169337937271627
-1.2468681943634945   -0.06923108896732447   -0.008169337937271627
-1.289175819180928   -0.10846617385404489   0.03039039257561052
-1.289175819180928   -0.10846617385404489   0.03039039257561052
-1.289175819180928   -0.10846617385404489   0.03039039257561052
-1.289175819180928   -0.10846617385404489   0.03039039257561052
-0.8425930126957362   -0.0022247372141664667   -0.005993104284391655
-0.8425930126957362   -0.0022247372141664667   -0.005993104284391655
-0.8425930126957362   -0.0022247372141664667   -0.005993104284391655
-0.8425930126957362   -0.0022247372141664667   -0.005993104284391655
-1.0000972265944652   -0.024981179542758525   0.003990651466130958
-1.0000972265944652   -0.024981179542758525   0.003990651466130958
-1.0000972265944652   -0.024981179542758525   0.003990651466130958
-1.0000972265944652   -0.024981179542758525   0.003990651466130958
0.7742437381818017   0.041639825684034265   -0.027200820273349642
0.7742437381818017   0.041639825684034265   -0.027200820273349642
0.7742437381818017   0.041639825684034265   -0.027200820273349642
0.7742437381818017   0.041639825684034265   -0.027200820273349642
0.38320801787082504   -0.0008254154295698618   0.009743094924369203
0.38320801787082504   -0.0008254154295698618   0.009743094924369203
0.38320801787082504   -0.0008254154295698618   0.009743094924369203
0.38320801787082504   -0.0008254154295698618   0.009743094924369203
0.3506705999430235   -0.056877901795625366   -0.025039183237135436
0.3506705999430235   -0.056877901795625366   -0.025039183237135436
0.3506705999430235   -0.056877901795625366   -0.025039183237135436
0.3506705999430235   -0.056877901795625366   -0.025039183237135436
0.7598766681401691   0.06240264408188741   0.012233572219955833
0.7598766681401691   0.06240264408188741   0.012233572219955833
0.7598766681401691   0.06240264408188741   0.012233572219955833
0.7598766681401691   0.06240264408188741   0.012233572219955833
0.537686349033916   0.004729363213620302   -0.01770691108902664
0.537686349033916   0.004729363213620302   -0.01770691108902664
0.537686349033916   0.004729363213620302   -0.01770691108902664
0.537686349033916   0.004729363213620302   -0.01770691108902664
0.7440101863121116   0.021548844631615188   -0.026245037470051642
0.7440101863121116   0.021548844631615188   -0.026245037470051642
0.7440101863121116   0.021548844631615188   -0.026245037470051642
0.7440101863121116   0.021548844631615188   -0.026245037470051642
0.3658654510894534   -0.0166957330269754   0.01075290372635732
0.3658654510894534   -0.0166957330269754   0.01075290372635732
0.3658654510894534   -0.0166957330269754   0.01075290372635732
0.3658654510894534   -0.0166957330269754   0.01075290372635732
0.33440105411735827   -0.06156465681239168   -0.021790749071467296
0.33440105411735827   -0.06156465681239168   -0.021790749071467296
0.33440105411735827   -0.06156465681239168   -0.021790749071467296
0.33440105411735827   -0.06156465681239168   -0.021790749071467296
0.7355548461984409   0.05593981450598963   0.016788377099383706
0.7355548461984409   0.05593981450598963   0.016788377099383706
0.7355548461984409   0.05593981450598963   0.016788377099383706
0.7355548461984409   0.05593981450598963   0.016788377099383706
0.5251159177444389   -0.003763957380858829   -0.023128596692750185
0.5251159177444389   -0.003763957380858829   -0.023128596692750185
0.5251159177444389   -0.003763957380858829   -0.023128596692750185
0.5251159177444389   -0.003763957380858829   -0.023128596692750185
0.7200196271046637   0.01577302235555228   -0.020720926219052922
0.7200196271046637   0.01577302235555228   -0.020720926219052922
0.7200196271046637   0.01577302235555228   -0.020720926219052922
0.7200196271046637   0.01577302235555228   -0.020720926219052922
0.3493262102070536   -0.02200792766603471   0.013278302230649238
0.3493262102070536   -0.02200792766603471   0.013278302230649238
0.3493262102070536   -0.02200792766603471   0.013278302230649238
0.3493262102070536   -0.02200792766603471   0.013278302230649238
0.319565509426924   -0.06280235529159586   -0.01781061638238285
0.319565509426924   -0.06280235529159586   -0.01781061638238285
0.319565509426924   -0.06280235529159586   -0.01781061638238285
0.319565509426924   -0.06280235529159586   -0.01781061638238285
0.7081364032622035   0.050389581436065214   0.02095118696126082
0.7081364032622035   0.050389581436065214   0.02095118696126082
0.7081364032622035   0.050389581436065214   0.02095118696126082
0.7081364032622035   0.050389581436065214   0.02095118696126082
0.4953015768852925   -0.00956371077663927   -0.03134952895107962
0.4953015768852925   -0.00956371077663927   -0.03134952895107962
0.4953015768852925   -0.00956371077663927   -0.03134952895107962
0.4953015768852925   -0.00956371077663927   -0.03134952895107962
0.39001563553566504   0.040625302982068075   0.0023304648369313705
0.39001563553566504   0.040625302982068075   0.0023304648369313705
0.39001563553566504   0.040625302982068075   0.0023304648369313705
0.39001563553566504   0.040625302982068075   0.0023304648369313705
0.012432125387537272   -0.01309023453957075   -0.0017070746835170254
0.012432125387537272   -0.01309023453957075   -0.0017070746835170254
0.012432125387537272   -0.01309023453957075   -0.0017070746835170254
0.012432125387537272   -0.01309023453957075   -0.0017070746835170254
-0.012098643749647694   -0.05130112065234438   -0.017102301479627848
-0.012098643749647694   -0.05130112065234438   -0.017102301479627848
-0.012098643749647694   -0.05130112065234438   -0.017102301479627848
-0.012098643749647694   -0.05130112065234438   -0.017102301479627848
0.38259420415625484   0.056596267305016684   0.021104668728372477
0.38259420415625484   0.056596267305016684   0.021104668728372477
0.38259420415625484   0.056596267305016684   0.021104668728372477
0.38259420415625484   0.056596267305016684   0.021104668728372477
0.1902208584650392   0.00806799913414502   -0.0021292378201707898
0.1902208584650392   0.00806799913414502   -0.0021292378201707898
0.1902208584650392   0.00806799913414502   -0.0021292378201707898
0.1902208584650392   0.00806799913414502   -0.0021292378201707898
0.3739991965720453   0.030236739441995425   0.0044891586703475275
0.3739991965720453   0.030236739441995425   0.0044891586703475275
0.3739991965720453   0.030236739441995425   0.0044891586703475275
0.3739991965720453   0.030236739441995425   0.0044891586703475275
-0.003347868756585698   -0.02478582538046531   0.00013627821380305955
-0.003347868756585698   -0.02478582538046531   0.00013627821380305955
-0.003347868756585698   -0.02478582538046531   0.00013627821380305955
-0.003347868756585698   -0.02478582538046531   0.00013627821380305955
-0.027509035263423885   -0.058873620150917884   -0.014805729799941336
-0.027509035263423885   -0.058873620150917884   -0.014805729799941336
-0.027509035263423885   -0.058873620150917884   -0.014805729799941336
-0.027509035263423885   -0.058873620150917884   -0.014805729799941336
0.36513418533776376   0.04697037753062561   0.0233398726875396
0.36513418533776376   0.04697037753062561   0.0233398726875396
0.36513418533776376   0.04697037753062561   0.0233398726875396
0.36513418533776376   0.04697037753062561   0.0233398726875396
0.17135542316156946   -0.0014344453831703283   -0.007522432448396055
0.17135542316156946   -0.0014344453831703283   -0.007522432448396055
0.17135542316156946   -0.0014344453831703283   -0.007522432448396055
0.17135542316156946   -0.0014344453831703283   -0.007522432448396055
0.35686517411911867   0.02229617209213957   0.006669022032803359
0.35686517411911867   0.02229617209213957   0.006669022032803359
0.35686517411911867   0.02229617209213957   0.006669022032803359
0.35686517411911867   0.02229617209213957   0.006669022032803359
-0.019226308052694038   -0.034185698720346554   0.001919984823136569
-0.019226308052694038   -0.034185698720346554   0.001919984823136569
-0.019226308052694038   -0.034185698720346554   0.001919984823136569
-0.019226308052694038   -0.034185698720346554   0.001919984823136569
-0.04275685067749553   -0.06337953248790026   -0.011813003809149892
-0.04275685067749553   -0.06337953248790026   -0.011813003809149892
-0.04275685067749553   -0.06337953248790026   -0.011813003809149892
-0.04275685067749553   -0.06337953248790026   -0.011813003809149892
0.3485264483430168   0.038893156262860024   0.02529856664362083
0.3485264483430168   0.038893156262860024   0.02529856664362083
0.3485264483430168   0.038893156262860024   0.02529856664362083
0.3485264483430168   0.038893156262860024   0.02529856664362083
0.15747301696534566   -0.007455374004982189   -0.011478410626249642
0.15747301696534566   -0.007455374004982189   -0.011478410626249642
0.15747301696534566   -0.007455374004982189   -0.011478410626249642
0.15747301696534566   -0.007455374004982189   -0.011478410626249642
0.025325618291029826   0.040856150196165064   0.008814005098209928
0.025325618291029826   0.040856150196165064   0.008814005098209928
0.025325618291029826   0.040856150196165064   0.008814005098209928
0.025325618291029826   0.040856150196165064   0.008814005098209928
-0.34696657934473685   -0.022676865202604778   -0.01190874829505468
-0.34696657934473685   -0.022676865202604778   -0.01190874829505468
-0.34696657934473685   -0.022676865202604778   -0.01190874829505468
-0.34696657934473685   -0.022676865202604778   -0.01190874829505468
-0.36610256563574844   -0.04714836331970172   -0.010931005560741829
-0.36610256563574844   -0.04714836331970172   -0.010931005560741829
-0.36610256563574844   -0.04714836331970172   -0.010931005560741829
-0.36610256563574844   -0.04714836331970172   -0.010931005560741829
0.012911203129119786   0.04636585374095978   0.01027995852090539
0.012911203129119786   0.04636585374095978   0.01027995852090539
0.012911203129119786   0.04636585374095978   0.01027995852090539
0.012911203129119786   0.04636585374095978   0.01027995852090539
-0.16849357971416498   0.005110929858293825   0.0006697959394375962
-0.16849357971416498   0.005110929858293825   0.0006697959394375962
-0.16849357971416498   0.005110929858293825   0.0006697959394375962
-0.16849357971416498   0.005110929858293825   0.0006697959394375962
0.010293698585975099   0.03252395712168308   0.011034332424458653
0.010293698585975099   0.03252395712168308   0.011034332424458653
0.010293698585975099   0.03252395712168308   0.011034332424458653
0.010293698585975099   0.03252395712168308   0.011034332424458653
-0.3630627163101229   -0.03288412191794415   -0.009996000334371586
-0.3630627163101229   -0.03288412191794415   -0.009996000334371586
-0.3630627163101229   -0.03288412191794415   -0.009996000334371586
-0.3630627163101229   -0.03288412191794415   -0.009996000334371586
-0.3826366065224205   -0.05546279589429863   -0.009116110554275709
-0.3826366065224205   -0.05546279589429863   -0.009116110554275709
-0.3826366065224205   -0.05546279589429863   -0.009116110554275709
-0.3826366065224205   -0.05546279589429863   -0.009116110554275709
-0.002988038766217397   0.036466852706004305   0.012458779829170834
-0.002988038766217397   0.036466852706004305   0.012458779829170834
-0.002988038766217397   0.036466852706004305   0.012458779829170834
-0.002988038766217397   0.036466852706004305   0.012458779829170834
-0.1843382341666366   -0.003050307823333903   -0.0033711618789167928
-0.1843382341666366   -0.003050307823333903   -0.0033711618789167928
-0.1843382341666366   -0.003050307823333903   -0.0033711618789167928
-0.1843382341666366   -0.003050307823333903   -0.0033711618789167928
-0.005219622430010635   0.024497804898566577   0.013269909317640454
-0.005219622430010635   0.024497804898566577   0.013269909317640454
-0.005219622430010635   0.024497804898566577   0.013269909317640454
-0.005219622430010635   0.024497804898566577   0.013269909317640454
-0.38004535756107   -0.04313408278930369   -0.008488578852516528
-0.38004535756107   -0.04313408278930369   -0.008488578852516528
-0.38004535756107   -0.04313408278930369   -0.008488578852516528
-0.38004535756107   -0.04313408278930369   -0.008488578852516528
-0.3990530778752132   -0.061995554399464095   -0.006095942994656218
-0.3990530778752132   -0.061995554399464095   -0.006095942994656218
-0.3990530778752132   -0.061995554399464095   -0.006095942994656218
-0.3990530778752132   -0.061995554399464095   -0.006095942994656218
-0.019462322306340256   0.027141819868541295   0.014138285690184896
-0.019462322306340256   0.027141819868541295   0.014138285690184896
-0.019462322306340256   0.027141819868541295   0.014138285690184896
-0.019462322306340256   0.027141819868541295   0.014138285690184896
-0.20138902630966157   -0.01134863290341099   -0.0077935877879344445
-0.20138902630966157   -0.01134863290341099   -0.0077935877879344445
-0.20138902630966157   -0.01134863290341099   -0.0077935877879344445
-0.20138902630966157   -0.01134863290341099   -0.0077935877879344445
-0.3272612864813002   0.048061606571199386   0.015879244248328036
-0.3272612864813002   0.048061606571199386   0.015879244248328036
-0.3272612864813002   0.048061606571199386   0.015879244248328036
-0.3272612864813002   0.048061606571199386   0.015879244248328036
-0.6948428788686858   -0.03111684521428837   -0.019464483214625752
-0.6948428788686858   -0.03111684521428837   -0.019464483214625752
-0.6948428788686858   -0.03111684521428837   -0.019464483214625752
-0.6948428788686858   -0.03111684521428837   -0.019464483214625752
-0.7097500440617933   -0.03802604865548488   -0.0033153463906514975
-0.7097500440617933   -0.03802604865548488   -0.0033153463906514975
-0.7097500440617933   -0.03802604865548488   -0.0033153463906514975
-0.7097500440617933   -0.03802604865548488   -0.0033153463906514975
-0.34755084819548115   0.035141206121314245   -0.0004619878004195471
-0.34755084819548115   0.035141206121314245   -0.0004619878004195471
-0.34755084819548115   0.035141206121314245   -0.0004619878004195471
-0.34755084819548115   0.035141206121314245   -0.0004619878004195471
-0.5160913382359968   0.0050768595214436   0.003784110043687741
-0.5160913382359968   0.0050768595214436   0.003784110043687741
-0.5160913382359968   0.0050768595214436   0.003784110043687741
-0.5160913382359968   0.0050768595214436   0.003784110043687741
-0.3430155466873799   0.03954588772484022   0.01780983813656056
-0.3430155466873799   0.03954588772484022   0.01780983813656056
-0.3430155466873799   0.03954588772484022   0.01780983813656056
-0.3430155466873799   0.03954588772484022   0.01780983813656056
-0.713720567571393   -0.041865952260510625   -0.019328060333631963
-0.713720567571393   -0.041865952260510625   -0.019328060333631963
-0.713720567571393   -0.041865952260510625   -0.019328060333631963
-0.713720567571393   -0.041865952260510625   -0.019328060333631963
-0.7301053937839201   -0.047381672648929105   -0.0029907390065169355
-0.7301053937839201   -0.047381672648929105   -0.0029907390065169355
-0.7301053937839201   -0.047381672648929105   -0.0029907390065169355
-0.7301053937839201   -0.047381672648929105   -0.0029907390065169355
-0.36428678073452087   0.025695176105489673   0.0014750463854357639
-0.36428678073452087   0.025695176105489673   0.0014750463854357639
-0.36428678073452087   0.025695176105489673   0.0014750463854357639
-0.36428678073452087   0.025695176105489673   0.0014750463854357639
-0.5302875953150172   -0.002356394285305305   0.0004748082638336322
-0.5302875953150172   -0.002356394285305305   0.0004748082638336322
-0.5302875953150172   -0.002356394285305305   0.0004748082638336322
-0.5302875953150172   -0.002356394285305305   0.0004748082638336322
-0.35931443432260735   0.031484214962279544   0.020547739588213498
-0.35931443432260735   0.031484214962279544   0.020547739588213498
-0.35931443432260735   0.031484214962279544   0.020547739588213498
-0.35931443432260735   0.031484214962279544   0.020547739588213498
-0.7339181722156445   -0.05201114352553142   -0.01742516028854604
-0.7339181722156445   -0.05201114352553142   -0.01742516028854604
-0.7339181722156445   -0.05201114352553142   -0.01742516028854604
-0.7339181722156445   -0.05201114352553142   -0.01742516028854604
-0.7488346483584679   -0.057411488019652124   0.0017212184219650706
-0.7488346483584679   -0.057411488019652124   0.0017212184219650706
-0.7488346483584679   -0.057411488019652124   0.0017212184219650706
-0.7488346483584679   -0.057411488019652124   0.0017212184219650706
-0.38202354639531166   0.014427966722416141   0.0026281932829791063
-0.38202354639531166   0.014427966722416141   0.0026281932829791063
-0.38202354639531166   0.014427966722416141   0.0026281932829791063
-0.38202354639531166   0.014427966722416141   0.0026281932829791063
-0.552597637910516   -0.012863082270534287   -0.004001315487975089
-0.552597637910516   -0.012863082270534287   -0.004001315487975089
-0.552597637910516   -0.012863082270534287   -0.004001315487975089
-0.552597637910516   -0.012863082270534287   -0.004001315487975089
-0.6703388234807782   0.04980570087830802   0.022133247632309706
-0.6703388234807782   0.04980570087830802   0.022133247632309706
-0.6703388234807782   0.04980570087830802   0.022133247632309706
-0.6703388234807782   0.04980570087830802   0.022133247632309706
-1.0260619189148315   -0.047518054361359   -0.017786578241464505
-1.0260619189148315   -0.047518054361359   -0.017786578241464505
-1.0260619189148315   -0.047518054361359   -0.017786578241464505
-1.0260619189148315   -0.047518054361359   -0.017786578241464505
-1.0398782778526598   -0.02117846579634497   0.01876479862678522
-1.0398782778526598   -0.02117846579634497   0.01876479862678522
-1.0398782778526598   -0.02117846579634497   0.01876479862678522
-1.0398782778526598   -0.02117846579634497   0.01876479862678522
-0.6991999792664595   0.021267885984879692   -0.009858957054346883
-0.6991999792664595   0.021267885984879692   -0.009858957054346883
-0.6991999792664595   0.021267885984879692   -0.009858957054346883
-0.6991999792664595   0.021267885984879692   -0.009858957054346883
-0.8208710474635823   0.010254889322445199   0.018966886627119546
-0.8208710474635823   0.010254889322445199   0.018966886627119546
-0.8208710474635823   0.010254889322445199   0.018966886627119546
-0.8208710474635823   0.010254889322445199   0.018966886627119546
-0.6862155988559369   0.05088939706189119   0.025441433921243026
-0.6862155988559369   0.05088939706189119   0.025441433921243026
-0.6862155988559369   0.05088939706189119   0.025441433921243026
-0.6862155988559369   0.05088939706189119   0.025441433921243026
-1.052097508170947   -0.05003482678111998   -0.013474991979857569
-1.052097508170947   -0.05003482678111998   -0.013474991979857569
-1.052097508170947   -0.05003482678111998   -0.013474991979857569
-1.052097508170947   -0.05003482678111998   -0.013474991979857569
-1.0651698272862247   -0.026074964209304996   0.02591291877555587
-1.0651698272862247   -0.026074964209304996   0.02591291877555587
-1.0651698272862247   -0.026074964209304996   0.02591291877555587
-1.0651698272862247   -0.026074964209304996   0.02591291877555587
-0.7186157282149049   0.01584151516655205   -0.008765598976921592
-0.7186157282149049   0.01584151516655205   -0.008765598976921592
-0.7186157282149049   0.01584151516655205   -0.008765598976921592
-0.7186157282149049   0.01584151516655205   -0.008765598976921592
-0.8558837562551049   0.0050811260625422405   0.012306862382861022
-0.8558837562551049   0.0050811260625422405   0.012306862382861022
-0.8558837562551049   0.0050811260625422405   0.012306862382861022
-0.8558837562551049   0.0050811260625422405   0.012306862382861022
-0.7042713285058072   0.047234778948909234   0.03156313578620947
-0.7042713285058072   0.047234778948909234   0.03156313578620947
-0.7042713285058072   0.047234778948909234   0.03156313578620947
-0.7042713285058072   0.047234778948909234   0.03156313578620947
-1.0787699741244432   -0.05672397512078031   -0.011438804504045254
-1.0787699741244432   -0.05672397512078031   -0.011438804504045254
-1.0787699741244432   -0.05672397512078031   -0.011438804504045254
-1.0787699741244432   -0.05672397512078031   -0.011438804504045254
-1.099482034391228   -0.04726364408985134   0.025701383032675877
-1.099482034391228   -0.04726364408985134   0.025701383032675877
-1.099482034391228   -0.04726364408985134   0.025701383032675877
-1.099482034391228   -0.04726364408985134   0.025701383032675877
-0.7394619259114883   -0.0005791458668175931   -0.008247511495971645
-0.7394619259114883   -0.0005791458668175931   -0.008247511495971645
-0.7394619259114883   -0.0005791458668175931   -0.008247511495971645
-0.7394619259114883   -0.0005791458668175931   -0.008247511495971645
-0.8657842759289447   -0.002432177097627719   0.010163752983647037
-0.8657842759289447   -0.002432177097627719   0.010163752983647037
-0.8657842759289447   -0.002432177097627719   0.010163752983647037
-0.8657842759289447   -0.002432177097627719   0.010163752983647037
0.5894587986345086   0.0329270996237315   -0.027745110572807454
0.5894587986345086   0.0329270996237315   -0.027745110572807454
0.5894587986345086   0.0329270996237315   -0.027745110572807454
0.5894587986345086   0.0329270996237315   -0.027745110572807454
0.27990610238379926   0.005243465842510363   0.010489962171648616
0.27990610238379926   0.005243465842510363   0.010489962171648616
0.27990610238379926   0.005243465842510363   0.010489962171648616
0.27990610238379926   0.005243465842510363   0.010489962171648616
0.2491248752501549   -0.047475124002996597   -0.026403475314450166
0.2491248752501549   -0.047475124002996597   -0.026403475314450166
0.2491248752501549   -0.047475124002996597   -0.026403475314450166
0.2491248752501549   -0.047475124002996597   -0.026403475314450166
0.5769165918513754   0.053980121913520515   0.01298455322611074
0.5769165918513754   0.053980121913520515   0.01298455322611074
0.5769165918513754   0.053980121913520515   0.01298455322611074
0.5769165918513754   0.053980121913520515   0.01298455322611074
0.4019613561784311   0.005421053811902124   -0.011896288680495113
0.4019613561784311   0.005421053811902124   -0.011896288680495113
0.4019613561784311   0.005421053811902124   -0.011896288680495113
0.4019613561784311   0.005421053811902124   -0.011896288680495113
0.5612679634061548   0.014982079394832454   -0.026260546481304766
0.5612679634061548   0.014982079394832454   -0.026260546481304766
0.5612679634061548   0.014982079394832454   -0.026260546481304766
0.5612679634061548   0.014982079394832454   -0.026260546481304766
0.26446807895780894   -0.008782506221875652   0.011619925442696511
0.26446807895780894   -0.008782506221875652   0.011619925442696511
0.26446807895780894   -0.008782506221875652   0.011619925442696511
0.26446807895780894   -0.008782506221875652   0.011619925442696511
0.23476244103649435   -0.052085471127129475   -0.0225456459042653
0.23476244103649435   -0.052085471127129475   -0.0225456459042653
0.23476244103649435   -0.052085471127129475   -0.0225456459042653
0.23476244103649435   -0.052085471127129475   -0.0225456459042653
0.5545796616819175   0.047377920550658204   0.01712781816610444
0.5545796616819175   0.047377920550658204   0.01712781816610444
0.5545796616819175   0.047377920550658204   0.01712781816610444
0.5545796616819175   0.047377920550658204   0.01712781816610444
0.38922808425137023   -0.0026062869010370776   -0.016598175736115793
0.38922808425137023   -0.0026062869010370776   -0.016598175736115793
0.38922808425137023   -0.0026062869010370776   -0.016598175736115793
0.38922808425137023   -0.0026062869010370776   -0.016598175736115793
0.5392864487839673   0.009113662040512727   -0.02107398781349653
0.5392864487839673   0.009113662040512727   -0.02107398781349653
0.5392864487839673   0.009113662040512727   -0.02107398781349653
0.5392864487839673   0.009113662040512727   -0.02107398781349653
0.24966264852926706   -0.014214218022166304   0.014084138454632349
0.24966264852926706   -0.014214218022166304   0.014084138454632349
0.24966264852926706   -0.014214218022166304   0.014084138454632349
0.24966264852926706   -0.014214218022166304   0.014084138454632349
0.22183540410685826   -0.05481719841509644   -0.018781713139202186
0.22183540410685826   -0.05481719841509644   -0.018781713139202186
0.22183540410685826   -0.05481719841509644   -0.018781713139202186
0.22183540410685826   -0.05481719841509644   -0.018781713139202186
0.5293755448104697   0.04030843865119779   0.020389635463867045
0.5293755448104697   0.04030843865119779   0.020389635463867045
0.5293755448104697   0.04030843865119779   0.020389635463867045
0.5293755448104697   0.04030843865119779   0.020389635463867045
0.36367990767856145   -0.00863409255010418   -0.02362078190980662
0.36367990767856145   -0.00863409255010418   -0.02362078190980662
0.36367990767856145   -0.00863409255010418   -0.02362078190980662
0.36367990767856145   -0.00863409255010418   -0.02362078190980662
0.2847413880221121   0.0414125034709892   -0.0015026472652613764
0.2847413880221121   0.0414125034709892   -0.0015026472652613764
0.2847413880221121   0.0414125034709892   -0.0015026472652613764
0.2847413880221121   0.0414125034709892   -0.0015026472652613764
-0.0190020562695333   -0.004306338394827015   -0.00025134800105179036
-0.0190020562695333   -0.004306338394827015   -0.00025134800105179036
-0.0190020562695333   -0.004306338394827015   -0.00025134800105179036
-0.0190020562695333   -0.004306338394827015   -0.00025134800105179036
-0.040688807634438745   -0.03564990799457936   -0.016843195978914142
-0.040688807634438745   -0.03564990799457936   -0.016843195978914142
-0.040688807634438745   -0.03564990799457936   -0.016843195978914142
-0.040688807634438745   -0.03564990799457936   -0.016843195978914142
0.27748031117288285   0.049118724612689214   0.018779855683501104
0.27748031117288285   0.049118724612689214   0.018779855683501104
0.27748031117288285   0.049118724612689214   0.018779855683501104
0.27748031117288285   0.049118724612689214   0.018779855683501104
0.12369121275468566   0.012071562788183023   0.0009099055752841648
0.12369121275468566   0.012071562788183023   0.0009099055752841648
0.12369121275468566   0.012071562788183023   0.0009099055752841648
0.12369121275468566   0.012071562788183023   0.0009099055752841648
0.270104953693482   0.030068201705526463   0.0009535911936635966
0.270104953693482   0.030068201705526463   0.0009535911936635966
0.270104953693482   0.030068201705526463   0.0009535911936635966
0.270104953693482   0.030068201705526463   0.0009535911936635966
-0.03318915206380197   -0.016475086996174906   0.0014802608758653093
-0.03318915206380197   -0.016475086996174906   0.0014802608758653093
-0.03318915206380197   -0.016475086996174906   0.0014802608758653093
-0.03318915206380197   -0.016475086996174906   0.0014802608758653093
-0.05421329934992183   -0.04435731511476418   -0.013951105851723749
-0.05421329934992183   -0.04435731511476418   -0.013951105851723749
-0.05421329934992183   -0.04435731511476418   -0.013951105851723749
-0.05421329934992183   -0.04435731511476418   -0.013951105851723749
0.2615298639692656   0.03868101161924649   0.020524986013212267
0.2615298639692656   0.03868101161924649   0.020524986013212267
0.2615298639692656   0.03868101161924649   0.020524986013212267
0.2615298639692656   0.03868101161924649   0.020524986013212267
0.10698704364273802   0.0017380990411978055   -0.004273884432279291
0.10698704364273802   0.0017380990411978055   -0.004273884432279291
0.10698704364273802   0.0017380990411978055   -0.004273884432279291
0.10698704364273802   0.0017380990411978055   -0.004273884432279291
0.2544013526164194   0.02072377051875085   0.0028396703494795
0.2544013526164194   0.02072377051875085   0.0028396703494795
0.2544013526164194   0.02072377051875085   0.0028396703494795
0.2544013526164194   0.02072377051875085   0.0028396703494795
-0.04719261661005927   -0.026507902627246626   0.0033028953600715057
-0.04719261661005927   -0.026507902627246626   0.0033028953600715057
-0.04719261661005927   -0.026507902627246626   0.0033028953600715057
-0.04719261661005927   -0.026507902627246626   0.0033028953600715057
-0.06755568914973649   -0.05162993218214097   -0.011234738088630803
-0.06755568914973649   -0.05162993218214097   -0.011234738088630803
-0.06755568914973649   -0.05162993218214097   -0.011234738088630803
-0.06755568914973649   -0.05162993218214097   -0.011234738088630803
0.24680249115433217   0.02906797758249276   0.02216854610057719
0.24680249115433217   0.02906797758249276   0.02216854610057719
0.24680249115433217   0.02906797758249276   0.02216854610057719
0.24680249115433217   0.02906797758249276   0.02216854610057719
0.09423126087495795   -0.006044366610442855   -0.008575625619535928
0.09423126087495795   -0.006044366610442855   -0.008575625619535928
0.09423126087495795   -0.006044366610442855   -0.008575625619535928
0.09423126087495795   -0.006044366610442855   -0.008575625619535928
-0.0068998134692186495   0.049090785960540576   0.006862741645153864
-0.0068998134692186495   0.049090785960540576   0.006862741645153864
-0.0068998134692186495   0.049090785960540576   0.006862741645153864
-0.0068998134692186495   0.049090785960540576   0.006862741645153864
-0.31157082005825537   -0.013772459620203549   -0.010331114538205356
-0.31157082005825537   -0.013772459620203549   -0.010331114538205356
-0.31157082005825537   -0.013772459620203549   -0.010331114538205356
-0.31157082005825537   -0.013772459620203549   -0.010331114538205356
-0.3255429955008921   -0.024998655610808947   -0.008088389607926372
-0.3255429955008921   -0.024998655610808947   -0.008088389607926372
-0.3255429955008921   -0.024998655610808947   -0.008088389607926372
-0.3255429955008921   -0.024998655610808947   -0.008088389607926372
-0.020614041707986572   0.03966100255712052   0.008219723101646868
-0.020614041707986572   0.03966100255712052   0.008219723101646868
-0.020614041707986572   0.03966100255712052   0.008219723101646868
-0.020614041707986572   0.03966100255712052   0.008219723101646868
-0.1657614326724436   0.012566921030561222   0.003246263673387156
-0.1657614326724436   0.012566921030561222   0.003246263673387156
-0.1657614326724436   0.012566921030561222   0.003246263673387156
-0.1657614326724436   0.012566921030561222   0.003246263673387156
-0.0203528080296645   0.039578698845914494   0.00960819520446326
-0.0203528080296645   0.039578698845914494   0.00960819520446326
-0.0203528080296645   0.039578698845914494   0.00960819520446326
-0.0203528080296645   0.039578698845914494   0.00960819520446326
-0.32554531715851365   -0.024657439878902426   -0.008441213627940786
-0.32554531715851365   -0.024657439878902426   -0.008441213627940786
-0.32554531715851365   -0.024657439878902426   -0.008441213627940786
-0.32554531715851365   -0.024657439878902426   -0.008441213627940786
-0.3393975417328551   -0.03442086672939918   -0.005570314381208851
-0.3393975417328551   -0.03442086672939918   -0.005570314381208851
-0.3393975417328551   -0.03442086672939918   -0.005570314381208851
-0.3393975417328551   -0.03442086672939918   -0.005570314381208851
-0.03471819136057049   0.0289147071371018   0.010252411843166945
-0.03471819136057049   0.0289147071371018   0.010252411843166945
-0.03471819136057049   0.0289147071371018   0.010252411843166945
-0.03471819136057049   0.0289147071371018   0.010252411843166945
-0.17975881746096078   0.003250214769333702   -0.0009505128993007057
-0.17975881746096078   0.003250214769333702   -0.0009505128993007057
-0.17975881746096078   0.003250214769333702   -0.0009505128993007057
-0.17975881746096078   0.003250214769333702   -0.0009505128993007057
-0.034175380543151335   0.030094885831875102   0.011786287235489442
-0.034175380543151335   0.030094885831875102   0.011786287235489442
-0.034175380543151335   0.030094885831875102   0.011786287235489442
-0.034175380543151335   0.030094885831875102   0.011786287235489442
-0.33986828669342584   -0.035528979567329165   -0.00681592634613251
-0.33986828669342584   -0.035528979567329165   -0.00681592634613251
-0.33986828669342584   -0.035528979567329165   -0.00681592634613251
-0.33986828669342584   -0.035528979567329165   -0.00681592634613251
-0.35308251873127566   -0.04302470360439812   -0.0030741352495767347
-0.35308251873127566   -0.04302470360439812   -0.0030741352495767347
-0.35308251873127566   -0.04302470360439812   -0.0030741352495767347
-0.35308251873127566   -0.04302470360439812   -0.0030741352495767347
-0.04888438599776463   0.018521436234256453   0.01197040925483105
-0.04888438599776463   0.018521436234256453   0.01197040925483105
-0.04888438599776463   0.018521436234256453   0.01197040925483105
-0.04888438599776463   0.018521436234256453   0.01197040925483105
-0.19440220014010665   -0.006142151942599143   -0.00562794423518621
-0.19440220014010665   -0.006142151942599143   -0.00562794423518621
-0.19440220014010665   -0.006142151942599143   -0.00562794423518621
-0.19440220014010665   -0.006142151942599143   -0.00562794423518621
-0.2925655147470844   0.05618009561037125   0.014742856787071018
-0.2925655147470844   0.05618009561037125   0.014742856787071018
-0.2925655147470844   0.05618009561037125   0.014742856787071018
-0.2925655147470844   0.05618009561037125   0.014742856787071018
-0.597742015412908   -0.023463055851053988   -0.018565882007764767
-0.597742015412908   -0.023463055851053988   -0.018565882007764767
-0.597742015412908   -0.023463055851053988   -0.018565882007764767
-0.597742015412908   -0.023463055851053988   -0.018565882007764767
-0.6053650319999584   -0.016039939624064387   0.0014464672771645204
-0.6053650319999584   -0.016039939624064387   0.0014464672771645204
-0.6053650319999584   -0.016039939624064387   0.0014464672771645204
-0.6053650319999584   -0.016039939624064387   0.0014464672771645204
-0.31367929699463476   0.028524804428329747   -0.0022933571157745768
-0.31367929699463476   0.028524804428329747   -0.0022933571157745768
-0.31367929699463476   0.028524804428329747   -0.0022933571157745768
-0.31367929699463476   0.028524804428329747   -0.0022933571157745768
-0.4493847139728583   0.011856338283859666   0.005495596883438581
-0.4493847139728583   0.011856338283859666   0.005495596883438581
-0.4493847139728583   0.011856338283859666   0.005495596883438581
-0.4493847139728583   0.011856338283859666   0.005495596883438581
-0.3060458903324566   0.047011909482242875   0.01738657114119907
-0.3060458903324566   0.047011909482242875   0.01738657114119907
-0.3060458903324566   0.047011909482242875   0.01738657114119907
-0.3060458903324566   0.047011909482242875   0.01738657114119907
-0.6129352246030227   -0.03446383061886436   -0.017980604743357224
-0.6129352246030227   -0.03446383061886436   -0.017980604743357224
-0.6129352246030227   -0.03446383061886436   -0.017980604743357224
-0.6129352246030227   -0.03446383061886436   -0.017980604743357224
-0.6215026840831375   -0.02556799216468393   0.0023751083831844745
-0.6215026840831375   -0.02556799216468393   0.0023751083831844745
-0.6215026840831375   -0.02556799216468393   0.0023751083831844745
-0.6215026840831375   -0.02556799216468393   0.0023751083831844745
-0.3277319284525797   0.01856994433478866   -0.0002330590440157744
-0.3277319284525797   0.01856994433478866   -0.0002330590440157744
-0.3277319284525797   0.01856994433478866   -0.0002330590440157744
-0.3277319284525797   0.01856994433478866   -0.0002330590440157744
-0.4611708636333001   0.0035741221107556675   0.0015957090231329546
-0.4611708636333001   0.0035741221107556675   0.0015957090231329546
-0.4611708636333001   0.0035741221107556675   0.0015957090231329546
-0.4611708636333001   0.0035741221107556675   0.0015957090231329546
-0.3197756638472419   0.038271693224458586   0.01984651509300137
-0.3197756638472419   0.038271693224458586   0.01984651509300137
-0.3197756638472419   0.038271693224458586   0.01984651509300137
-0.3197756638472419   0.038271693224458586   0.01984651509300137
-0.6290525476621666   -0.044863340028045415   -0.01607886164859919
-0.6290525476621666   -0.044863340028045415   -0.01607886164859919
-0.6290525476621666   -0.044863340028045415   -0.01607886164859919
-0.6290525476621666   -0.044863340028045415   -0.01607886164859919
-0.6361256258145789   -0.03584476279029   0.005366625138715574
-0.6361256258145789   -0.03584476279029   0.005366625138715574
-0.6361256258145789   -0.03584476279029   0.005366625138715574
-0.6361256258145789   -0.03584476279029   0.005366625138715574
-0.3421806345279062   0.007152651802030757   0.001257930360843592
-0.3421806345279062   0.007152651802030757   0.001257930360843592
-0.3421806345279062   0.007152651802030757   0.001257930360843592
-0.3421806345279062   0.007152651802030757   0.001257930360843592
-0.4792571368139312   -0.006873341019465795   -0.0033795163916826437
-0.4792571368139312   -0.006873341019465795   -0.0033795163916826437
-0.4792571368139312   -0.006873341019465795   -0.0033795163916826437
-0.4792571368139312   -0.006873341019465795   -0.0033795163916826437
-0.5751016124146411   0.05038828167789586   0.02078479545461962
-0.5751016124146411   0.05038828167789586   0.02078479545461962
-0.5751016124146411   0.05038828167789586   0.02078479545461962
-0.5751016124146411   0.05038828167789586   0.02078479545461962
-0.8704811910256477   -0.040241934842609184   -0.02029219202598085
-0.8704811910256477   -0.040241934842609184   -0.02029219202598085
-0.8704811910256477   -0.040241934842609184   -0.02029219202598085
-0.8704811910256477   -0.040241934842609184   -0.02029219202598085
-0.8799637265225473   -0.009089310243349719   0.0191188090605938
-0.8799637265225473   -0.009089310243349719   0.0191188090605938
-0.8799637265225473   -0.009089310243349719   0.0191188090605938
-0.8799637265225473   -0.009089310243349719   0.0191188090605938
-0.6018825313384585   0.014600337486052856   -0.011781306525453304
-0.6018825313384585   0.014600337486052856   -0.011781306525453304
-0.6018825313384585   0.014600337486052856   -0.011781306525453304
-0.6018825313384585   0.014600337486052856   -0.011781306525453304
-0.6994416493353329   0.011210300067148377   0.01721620822444026
-0.6994416493353329   0.011210300067148377   0.01721620822444026
-0.6994416493353329   0.011210300067148377   0.01721620822444026
-0.6994416493353329   0.011210300067148377   0.01721620822444026
-0.5874767870112574   0.050461555305086225   0.024386197291514526
-0.5874767870112574   0.050461555305086225   0.024386197291514526
-0.5874767870112574   0.050461555305086225   0.024386197291514526
-0.5874767870112574   0.050461555305086225   0.024386197291514526
-0.8941338317993777   -0.04471488901201695   -0.016106138554883194
-0.8941338317993777   -0.04471488901201695   -0.016106138554883194
-0.8941338317993777   -0.04471488901201695   -0.016106138554883194
-0.8941338317993777   -0.04471488901201695   -0.016106138554883194
-0.9011075183396642   -0.014122634160928127   0.023905444510436823
-0.9011075183396642   -0.014122634160928127   0.023905444510436823
-0.9011075183396642   -0.014122634160928127   0.023905444510436823
-0.9011075183396642   -0.014122634160928127   0.023905444510436823
-0.617051708678193   0.009144273898201327   -0.010082280654978147
-0.617051708678193   0.009144273898201327   -0.010082280654978147
-0.617051708678193   0.009144273898201327   -0.010082280654978147
-0.617051708678193   0.009144273898201327   -0.010082280654978147
-0.7291668375328487   0.005607688638268077   0.01057479858983261
-0.7291668375328487   0.005607688638268077   0.01057479858983261
-0.7291668375328487   0.005607688638268077   0.01057479858983261
-0.7291668375328487   0.005607688638268077   0.01057479858983261
-0.6017716516229845   0.04671325498681142   0.028749023532454725
-0.6017716516229845   0.04671325498681142   0.028749023532454725
-0.6017716516229845   0.04671325498681142   0.028749023532454725
-0.6017716516229845   0.04671325498681142   0.028749023532454725
-0.9159904760095022   -0.05129451586416639   -0.013337462135507468
-0.9159904760095022   -0.05129451586416639   -0.013337462135507468
-0.9159904760095022   -0.05129451586416639   -0.013337462135507468
-0.9159904760095022   -0.05129451586416639   -0.013337462135507468
-0.9290185418374318   -0.03215594933053073   0.02342508711140614
-0.9290185418374318   -0.03215594933053073   0.02342508711140614
-0.9290185418374318   -0.03215594933053073   0.02342508711140614
-0.9290185418374318   -0.03215594933053073   0.02342508711140614
-0.6330878442961692   -0.00614664757477959   -0.009142582484746538
-0.6330878442961692   -0.00614664757477959   -0.009142582484746538
-0.6330878442961692   -0.00614664757477959   -0.009142582484746538
-0.6330878442961692   -0.00614664757477959   -0.009142582484746538
-0.7365828544724817   -0.0014083274954027059   0.008403170868841708
-0.7365828544724817   -0.0014083274954027059   0.008403170868841708
-0.7365828544724817   -0.0014083274954027059   0.008403170868841708
-0.7365828544724817   -0.0014083274954027059   0.008403170868841708
0.407334420971866   0.023214120895098937   -0.02708508115347527
0.407334420971866   0.023214120895098937   -0.02708508115347527
0.407334420971866   0.023214120895098937   -0.02708508115347527
0.407334420971866   0.023214120895098937   -0.02708508115347527
0.17396798060794139   0.010742986184765189   0.01154770638375294
0.17396798060794139   0.010742986184765189   0.01154770638375294
0.17396798060794139   0.010742986184765189   0.01154770638375294
0.17396798060794139   0.010742986184765189   0.01154770638375294
0.1461094357922011   -0.039835242506844934   -0.025285112816542072
0.1461094357922011   -0.039835242506844934   -0.025285112816542072
0.1461094357922011   -0.039835242506844934   -0.025285112816542072
0.1461094357922011   -0.039835242506844934   -0.025285112816542072
0.3979889022563182   0.04601741598184816   0.014039435832045035
0.3979889022563182   0.04601741598184816   0.014039435832045035
0.3979889022563182   0.04601741598184816   0.014039435832045035
0.3979889022563182   0.04601741598184816   0.014039435832045035
0.2664588332564155   0.00588765476883038   -0.007273119937510144
0.2664588332564155   0.00588765476883038   -0.007273119937510144
0.2664588332564155   0.00588765476883038   -0.007273119937510144
0.2664588332564155   0.00588765476883038   -0.007273119937510144
0.38240175616438166   0.007420390334784116   -0.025299268980577366
0.38240175616438166   0.007420390334784116   -0.025299268980577366
0.38240175616438166   0.007420390334784116   -0.025299268980577366
0.38240175616438166   0.007420390334784116   -0.025299268980577366
0.1614031060624628   -0.0015316926814558929   0.012879688709380234
0.1614031060624628   -0.0015316926814558929   0.012879688709380234
0.1614031060624628   -0.0015316926814558929   0.012879688709380234
0.1614031060624628   -0.0015316926814558929   0.012879688709380234
0.1342641225384491   -0.04442044149022545   -0.021548452894845416
0.1342641225384491   -0.04442044149022545   -0.021548452894845416
0.1342641225384491   -0.04442044149022545   -0.021548452894845416
0.1342641225384491   -0.04442044149022545   -0.021548452894845416
0.37848661179270565   0.03950697529138671   0.018138622057730695
0.37848661179270565   0.03950697529138671   0.018138622057730695
0.37848661179270565   0.03950697529138671   0.018138622057730695
0.37848661179270565   0.03950697529138671   0.018138622057730695
0.2543074705660675   -0.0016993014977447554   -0.011749040207909926
0.2543074705660675   -0.0016993014977447554   -0.011749040207909926
0.2543074705660675   -0.0016993014977447554   -0.011749040207909926
0.2543074705660675   -0.0016993014977447554   -0.011749040207909926
0.36314423129003304   0.0015433415051755162   -0.02060964666942454
0.36314423129003304   0.0015433415051755162   -0.02060964666942454
0.36314423129003304   0.0015433415051755162   -0.02060964666942454
0.36314423129003304   0.0015433415051755162   -0.02060964666942454
0.1491687551250257   -0.0068945556201105845   0.015448824167924166
0.1491687551250257   -0.0068945556201105845   0.015448824167924166
0.1491687551250257   -0.0068945556201105845   0.015448824167924166
0.1491687551250257   -0.0068945556201105845   0.015448824167924166
0.12368923733538362   -0.048500302054724   -0.01796776059065587
0.12368923733538362   -0.048500302054724   -0.01796776059065587
0.12368923733538362   -0.048500302054724   -0.01796776059065587
0.12368923733538362   -0.048500302054724   -0.01796776059065587
0.3556962964433706   0.031006675958256215   0.020738196150900515
0.3556962964433706   0.031006675958256215   0.020738196150900515
0.3556962964433706   0.031006675958256215   0.020738196150900515
0.3556962964433706   0.031006675958256215   0.020738196150900515
0.233472073504172   -0.007891007629106037   -0.017942407095534817
0.233472073504172   -0.007891007629106037   -0.017942407095534817
0.233472073504172   -0.007891007629106037   -0.017942407095534817
0.233472073504172   -0.007891007629106037   -0.017942407095534817
0.1752899331562862   0.03365201679382924   -0.004751561483590025
0.1752899331562862   0.03365201679382924   -0.004751561483590025
0.1752899331562862   0.03365201679382924   -0.004751561483590025
0.1752899331562862   0.03365201679382924   -0.004751561483590025
-0.05335721351245698   0.0026727499137733732   0.0014868708542636502
-0.05335721351245698   0.0026727499137733732   0.0014868708542636502
-0.05335721351245698   0.0026727499137733732   0.0014868708542636502
-0.05335721351245698   0.0026727499137733732   0.0014868708542636502
-0.07240407468660787   -0.027737729684384836   -0.015618029942378459
-0.07240407468660787   -0.027737729684384836   -0.015618029942378459
-0.07240407468660787   -0.027737729684384836   -0.015618029942378459
-0.07240407468660787   -0.027737729684384836   -0.015618029942378459
0.17057607571827907   0.04041009678178199   0.01680274752522384
0.17057607571827907   0.04041009678178199   0.01680274752522384
0.17057607571827907   0.04041009678178199   0.01680274752522384
0.17057607571827907   0.04041009678178199   0.01680274752522384
0.0538234901493807   0.011649855042855659   0.0020758922698464765
0.0538234901493807   0.011649855042855659   0.0020758922698464765
0.0538234901493807   0.011649855042855659   0.0020758922698464765
0.0538234901493807   0.011649855042855659   0.0020758922698464765
0.1630232026567877   0.021967522977232756   -0.0025190439776860527
0.1630232026567877   0.021967522977232756   -0.0025190439776860527
0.1630232026567877   0.021967522977232756   -0.0025190439776860527
0.1630232026567877   0.021967522977232756   -0.0025190439776860527
-0.06496692743977639   -0.009410881694492997   0.0032408583018890044
-0.06496692743977639   -0.009410881694492997   0.0032408583018890044
-0.06496692743977639   -0.009410881694492997   0.0032408583018890044
-0.06496692743977639   -0.009410881694492997   0.0032408583018890044
-0.08341642005011143   -0.036945080678858   -0.012659191457933205
-0.08341642005011143   -0.036945080678858   -0.012659191457933205
-0.08341642005011143   -0.036945080678858   -0.012659191457933205
-0.08341642005011143   -0.036945080678858   -0.012659191457933205
0.15706289605585438   0.029755823298006048   0.018269149903950937
0.15706289605585438   0.029755823298006048   0.018269149903950937
0.15706289605585438   0.029755823298006048   0.018269149903950937
0.15706289605585438   0.029755823298006048   0.018269149903950937
0.04021434042854122   0.001196878841239181   -0.0029448393810341993
0.04021434042854122   0.001196878841239181   -0.0029448393810341993
0.04021434042854122   0.001196878841239181   -0.0029448393810341993
0.04021434042854122   0.001196878841239181   -0.0029448393810341993
0.14974891656606024   0.01209236673879982   -0.0006372909858157819
0.14974891656606024   0.01209236673879982   -0.0006372909858157819
0.14974891656606024   0.01209236673879982   -0.0006372909858157819
0.14974891656606024   0.01209236673879982   -0.0006372909858157819
-0.07639047862919716   -0.019569662188534575   0.005095097156314709
-0.07639047862919716   -0.019569662188534575   0.005095097156314709
-0.07639047862919716   -0.019569662188534575   0.005095097156314709
-0.07639047862919716   -0.019569662188534575   0.005095097156314709
-0.09427850757344829   -0.04556715817146892   -0.009926133941450758
-0.09427850757344829   -0.04556715817146892   -0.009926133941450758
-0.09427850757344829   -0.04556715817146892   -0.009926133941450758
-0.09427850757344829   -0.04556715817146892   -0.009926133941450758
0.1448687810908083   0.019551596372202985   0.019878059759543404
0.1448687810908083   0.019551596372202985   0.019878059759543404
0.1448687810908083   0.019551596372202985   0.019878059759543404
0.1448687810908083   0.019551596372202985   0.019878059759543404
0.029331937770734232   -0.007436371712527743   -0.0073664385473320715
0.029331937770734232   -0.007436371712527743   -0.0073664385473320715
0.029331937770734232   -0.007436371712527743   -0.0073664385473320715
0.029331937770734232   -0.007436371712527743   -0.0073664385473320715
-0.04492730345370759   0.04240358401725291   0.0039055870445291446
-0.04492730345370759   0.04240358401725291   0.0039055870445291446
-0.04492730345370759   0.04240358401725291   0.0039055870445291446
-0.04492730345370759   0.04240358401725291   0.0039055870445291446
-0.2772673815360822   -0.007240661588573706   -0.008456483379142303
-0.2772673815360822   -0.007240661588573706   -0.008456483379142303
-0.2772673815360822   -0.007240661588573706   -0.008456483379142303
-0.2772673815360822   -0.007240661588573706   -0.008456483379142303
-0.2881497995353362   -0.016738101386036416   -0.006240038786788103
-0.2881497995353362   -0.016738101386036416   -0.006240038786788103
-0.2881497995353362   -0.016738101386036416   -0.006240038786788103
-0.2881497995353362   -0.016738101386036416   -0.006240038786788103
-0.05626660877093562   0.030800940109822147   0.006530629841777677
-0.05626660877093562   0.030800940109822147   0.006530629841777677
-0.05626660877093562   0.030800940109822147   0.006530629841777677
-0.05626660877093562   0.030800940109822147   0.006530629841777677
-0.16624318277777167   0.012104178452615813   0.0033077984759972527
-0.16624318277777167   0.012104178452615813   0.0033077984759972527
-0.16624318277777167   0.012104178452615813   0.0033077984759972527
-0.16624318277777167   0.012104178452615813   0.0033077984759972527
-0.05593853224410324   0.032288791955599805   0.006683160630159998
-0.05593853224410324   0.032288791955599805   0.006683160630159998
-0.05593853224410324   0.032288791955599805   0.006683160630159998
-0.05593853224410324   0.032288791955599805   0.006683160630159998
-0.2885138474825554   -0.018261924652203693   -0.0065364552567164225
-0.2885138474825554   -0.018261924652203693   -0.0065364552567164225
-0.2885138474825554   -0.018261924652203693   -0.0065364552567164225
-0.2885138474825554   -0.018261924652203693   -0.0065364552567164225
-0.29927897184165586   -0.026770023589069138   -0.003610461306602376
-0.29927897184165586   -0.026770023589069138   -0.003610461306602376
-0.29927897184165586   -0.026770023589069138   -0.003610461306602376
-0.29927897184165586   -0.026770023589069138   -0.003610461306602376
-0.06782433457540288   0.0198371683525729   0.008518986884176887
-0.06782433457540288   0.0198371683525729   0.008518986884176887
-0.06782433457540288   0.0198371683525729   0.008518986884176887
-0.06782433457540288   0.0198371683525729   0.008518986884176887
-0.17768375798253594   0.0023228250827915034   -0.0010013357956156366
-0.17768375798253594   0.0023228250827915034   -0.0010013357956156366
-0.17768375798253594   0.0023228250827915034   -0.0010013357956156366
-0.17768375798253594   0.0023228250827915034   -0.0010013357956156366
-0.06725872228969378   0.02216080159641931   0.00902341506887779
-0.06725872228969378   0.02216080159641931   0.00902341506887779
-0.06725872228969378   0.02216080159641931   0.00902341506887779
-0.06725872228969378   0.02216080159641931   0.00902341506887779
-0.300029390274759   -0.02927846298030671   -0.004854114080880394
-0.300029390274759   -0.02927846298030671   -0.004854114080880394
-0.300029390274759   -0.02927846298030671   -0.004854114080880394
-0.300029390274759   -0.02927846298030671   -0.004854114080880394
-0.31021455348497173   -0.036348495700360736   -0.0010490829310478072
-0.31021455348497173   -0.036348495700360736   -0.0010490829310478072
-0.31021455348497173   -0.036348495700360736   -0.0010490829310478072
-0.31021455348497173   -0.036348495700360736   -0.0010490829310478072
-0.07928941004892061   0.009185793499699883   0.010266402010016914
-0.07928941004892061   0.009185793499699883   0.010266402010016914
-0.07928941004892061   0.009185793499699883   0.010266402010016914
-0.07928941004892061   0.009185793499699883   0.010266402010016914
-0.18960098445871695   -0.007467219716917141   -0.005675441116103705
-0.18960098445871695   -0.007467219716917141   -0.005675441116103705
-0.18960098445871695   -0.007467219716917141   -0.005675441116103705
-0.18960098445871695   -0.007467219716917141   -0.005675441116103705
-0.26165992920544145   0.049945467607574845   0.012394649077912906
-0.26165992920544145   0.049945467607574845   0.012394649077912906
-0.26165992920544145   0.049945467607574845   0.012394649077912906
-0.26165992920544145   0.049945467607574845   0.012394649077912906
-0.4974434062601843   -0.01713065875616511   -0.01713849077191947
-0.4974434062601843   -0.01713065875616511   -0.01713849077191947
-0.4974434062601843   -0.01713065875616511   -0.01713849077191947
-0.4974434062601843   -0.01713065875616511   -0.01713849077191947
-0.5015162786185687   -0.007822442884415942   0.0038073879444308865
-0.5015162786185687   -0.007822442884415942   0.0038073879444308865
-0.5015162786185687   -0.007822442884415942   0.0038073879444308865
-0.5015162786185687   -0.007822442884415942   0.0038073879444308865
-0.2802519967156536   0.020096790019103847   -0.003585916093521071
-0.2802519967156536   0.020096790019103847   -0.003585916093521071
-0.2802519967156536   0.020096790019103847   -0.003585916093521071
-0.2802519967156536   0.020096790019103847   -0.003585916093521071
-0.38291210894781513   0.011375823158254403   0.004787651821311429
-0.38291210894781513   0.011375823158254403   0.004787651821311429
-0.38291210894781513   0.011375823158254403   0.004787651821311429
-0.38291210894781513   0.011375823158254403   0.004787651821311429
-0.27247167027031427   0.040256252022338214   0.015156254129947224
-0.27247167027031427   0.040256252022338214   0.015156254129947224
-0.27247167027031427   0.040256252022338214   0.015156254129947224
-0.27247167027031427   0.040256252022338214   0.015156254129947224
-0.5096442467063453   -0.028329546530084765   -0.016325348848787762
-0.5096442467063453   -0.028329546530084765   -0.016325348848787762
-0.5096442467063453   -0.028329546530084765   -0.016325348848787762
-0.5096442467063453   -0.028329546530084765   -0.016325348848787762
-0.5146442357549237   -0.0177623265488228   0.0050178938402709004
-0.5146442357549237   -0.0177623265488228   0.0050178938402709004
-0.5146442357549237   -0.0177623265488228   0.0050178938402709004
-0.5146442357549237   -0.0177623265488228   0.0050178938402709004
-0.2915021449105548   0.009987816309754732   -0.001484166549924816
-0.2915021449105548   0.009987816309754732   -0.001484166549924816
-0.2915021449105548   0.009987816309754732   -0.001484166549924816
-0.2915021449105548   0.009987816309754732   -0.001484166549924816
-0.39250663040732847   0.0025273862533798513   0.00047330519204594884
-0.39250663040732847   0.0025273862533798513   0.00047330519204594884
-0.39250663040732847   0.0025273862533798513   0.00047330519204594884
-0.39250663040732847   0.0025273862533798513   0.00047330519204594884
-0.2834402863083222   0.03103122760553559   0.017781715165461367
-0.2834402863083222   0.03103122760553559   0.017781715165461367
-0.2834402863083222   0.03103122760553559   0.017781715165461367
-0.2834402863083222   0.03103122760553559   0.017781715165461367
-0.5227405270864584   -0.03884017057390576   -0.01438571879232374
-0.5227405270864584   -0.03884017057390576   -0.01438571879232374
-0.5227405270864584   -0.03884017057390576   -0.01438571879232374
-0.5227405270864584   -0.03884017057390576   -0.01438571879232374
-0.526318320845353   -0.028373272072450842   0.007765997305882438
-0.526318320845353   -0.028373272072450842   0.007765997305882438
-0.526318320845353   -0.028373272072450842   0.007765997305882438
-0.526318320845353   -0.028373272072450842   0.007765997305882438
-0.30295190431710683   -0.0012511737490008557   0.0001668409569110206
-0.30295190431710683   -0.0012511737490008557   0.0001668409569110206
-0.30295190431710683   -0.0012511737490008557   0.0001668409569110206
-0.30295190431710683   -0.0012511737490008557   0.0001668409569110206
-0.4070121194753913   -0.0077919298044663715   -0.004553634745879862
-0.4070121194753913   -0.0077919298044663715   -0.004553634745879862
-0.4070121194753913   -0.0077919298044663715   -0.004553634745879862
-0.4070121194753913   -0.0077919298044663715   -0.004553634745879862
-0.47743623094597926   0.046315700822590664   0.019451026220349894
-0.47743623094597926   0.046315700822590664   0.019451026220349894
-0.47743623094597926   0.046315700822590664   0.019451026220349894
-0.47743623094597926   0.046315700822590664   0.019451026220349894
-0.7051325226706092   -0.03256357095733006   -0.022090821920348593
-0.7051325226706092   -0.03256357095733006   -0.022090821920348593
-0.7051325226706092   -0.03256357095733006   -0.022090821920348593
-0.7051325226706092   -0.03256357095733006   -0.022090821920348593
-0.711799053711598   -0.0011751887525148497   0.019257584654847747
-0.711799053711598   -0.0011751887525148497   0.019257584654847747
-0.711799053711598   -0.0011751887525148497   0.019257584654847747
-0.711799053711598   -0.0011751887525148497   0.019257584654847747
-0.5019432495305391   0.0070520151457602875   -0.01320192464560535
-0.5019432495305391   0.0070520151457602875   -0.01320192464560535
-0.5019432495305391   0.0070520151457602875   -0.01320192464560535
-0.5019432495305391   0.0070520151457602875   -0.01320192464560535
-0.5726787923601092   0.010624738084293428   0.014577070243727452
-0.5726787923601092   0.010624738084293428   0.014577070243727452
-0.5726787923601092   0.010624738084293428   0.014577070243727452
-0.5726787923601092   0.010624738084293428   0.014577070243727452
-0.48722798865623096   0.04447732191827483   0.02294907295342897
-0.48722798865623096   0.04447732191827483   0.02294907295342897
-0.48722798865623096   0.04447732191827483   0.02294907295342897
-0.48722798865623096   0.04447732191827483   0.02294907295342897
-0.7268136256995276   -0.03889980663865075   -0.018090657398656722
-0.7268136256995276   -0.03889980663865075   -0.018090657398656722
-0.7268136256995276   -0.03889980663865075   -0.018090657398656722
-0.7268136256995276   -0.03889980663865075   -0.018090657398656722
-0.7303717367448125   -0.006651483262958696   0.024258961605841282
-0.7303717367448125   -0.006651483262958696   0.024258961605841282
-0.7303717367448125   -0.006651483262958696   0.024258961605841282
-0.7303717367448125   -0.006651483262958696   0.024258961605841282
-0.5140406191081668   0.0015103037903003852   -0.011236653265075183
-0.5140406191081668   0.0015103037903003852   -0.011236653265075183
-0.5140406191081668   0.0015103037903003852   -0.011236653265075183
-0.5140406191081668   0.0015103037903003852   -0.011236653265075183
-0.5978722016474842   0.0043440849732133135   0.0077434977595254445
-0.5978722016474842   0.0043440849732133135   0.0077434977595254445
-0.5978722016474842   0.0043440849732133135   0.0077434977595254445
-0.5978722016474842   0.0043440849732133135   0.0077434977595254445
-0.49864055811071506   0.04024812603765893   0.027025829474831974
-0.49864055811071506   0.04024812603765893   0.027025829474831974
-0.49864055811071506   0.04024812603765893   0.027025829474831974
-0.49864055811071506   0.04024812603765893   0.027025829474831974
-0.7459868519359816   -0.04560435970403337   -0.0148637379089291
-0.7459868519359816   -0.04560435970403337   -0.0148637379089291
-0.7459868519359816   -0.04560435970403337   -0.0148637379089291
-0.7459868519359816   -0.04560435970403337   -0.0148637379089291
-0.755217223633616   -0.02388415483626985   0.02429926054524891
-0.755217223633616   -0.02388415483626985   0.02429926054524891
-0.755217223633616   -0.02388415483626985   0.02429926054524891
-0.755217223633616   -0.02388415483626985   0.02429926054524891
-0.5267111158167064   -0.012632872666462125   -0.009938376956884612
-0.5267111158167064   -0.012632872666462125   -0.009938376956884612
-0.5267111158167064   -0.012632872666462125   -0.009938376956884612
-0.5267111158167064   -0.012632872666462125   -0.009938376956884612
-0.6047983792735803   -0.0028594500716992155   0.00453045767663527
-0.6047983792735803   -0.0028594500716992155   0.00453045767663527
-0.6047983792735803   -0.0028594500716992155   0.00453045767663527
-0.6047983792735803   -0.0028594500716992155   0.00453045767663527
0.2269279688394325   0.013698120567471331   -0.026636609934207477
0.2269279688394325   0.013698120567471331   -0.026636609934207477
0.2269279688394325   0.013698120567471331   -0.026636609934207477
0.2269279688394325   0.013698120567471331   -0.026636609934207477
0.06683858722087971   0.015871044375976348   0.012671032677376556
0.06683858722087971   0.015871044375976348   0.012671032677376556
0.06683858722087971   0.015871044375976348   0.012671032677376556
0.06683858722087971   0.015871044375976348   0.012671032677376556
0.0420857503041957   -0.032673509331019035   -0.023512038780153042
0.0420857503041957   -0.032673509331019035   -0.023512038780153042
0.0420857503041957   -0.032673509331019035   -0.023512038780153042
0.0420857503041957   -0.032673509331019035   -0.023512038780153042
0.22086860196055455   0.03817769984784142   0.015242411036266112
0.22086860196055455   0.03817769984784142   0.015242411036266112
0.22086860196055455   0.03817769984784142   0.015242411036266112
0.22086860196055455   0.03817769984784142   0.015242411036266112
0.1310874384737823   0.006385187402766536   -0.0030055081131922018
0.1310874384737823   0.006385187402766536   -0.0030055081131922018
0.1310874384737823   0.006385187402766536   -0.0030055081131922018
0.1310874384737823   0.006385187402766536   -0.0030055081131922018
0.2052472144833392   -0.00023014503295904626   -0.024456681469011955
0.2052472144833392   -0.00023014503295904626   -0.024456681469011955
0.2052472144833392   -0.00023014503295904626   -0.024456681469011955
0.2052472144833392   -0.00023014503295904626   -0.024456681469011955
0.057220121509228575   0.005247319277601303   0.014238988636391475
0.057220121509228575   0.005247319277601303   0.014238988636391475
0.057220121509228575   0.005247319277601303   0.014238988636391475
0.057220121509228575   0.005247319277601303   0.014238988636391475
0.03275125179452972   -0.037267385251435074   -0.01999782065820231
0.03275125179452972   -0.037267385251435074   -0.01999782065820231
0.03275125179452972   -0.037267385251435074   -0.01999782065820231
0.03275125179452972   -0.037267385251435074   -0.01999782065820231
0.20408719119972052   0.0318425059226659   0.019621394114498193
0.20408719119972052   0.0318425059226659   0.019621394114498193
0.20408719119972052   0.0318425059226659   0.019621394114498193
0.20408719119972052   0.0318425059226659   0.019621394114498193
0.11945523563508947   -0.0008071540501698206   -0.00764704626144833
0.11945523563508947   -0.0008071540501698206   -0.00764704626144833
0.11945523563508947   -0.0008071540501698206   -0.00764704626144833
0.11945523563508947   -0.0008071540501698206   -0.00764704626144833
0.18854365971139717   -0.006133409181090788   -0.02012034822336366
0.18854365971139717   -0.006133409181090788   -0.02012034822336366
0.18854365971139717   -0.006133409181090788   -0.02012034822336366
0.18854365971139717   -0.006133409181090788   -0.02012034822336366
0.047639243354308344   5.298992377930807e-05   0.017121761965477395
0.047639243354308344   5.298992377930807e-05   0.017121761965477395
0.047639243354308344   5.298992377930807e-05   0.017121761965477395
0.047639243354308344   5.298992377930807e-05   0.017121761965477395
0.024413304001096772   -0.042731492444736   -0.0166696534217867
0.024413304001096772   -0.042731492444736   -0.0166696534217867
0.024413304001096772   -0.042731492444736   -0.0166696534217867
0.024413304001096772   -0.042731492444736   -0.0166696534217867
0.18328445430220364   0.021760138599815966   0.021817692533406575
0.18328445430220364   0.021760138599815966   0.021817692533406575
0.18328445430220364   0.021760138599815966   0.021817692533406575
0.18328445430220364   0.021760138599815966   0.021817692533406575
0.10317262934778482   -0.007179441042112447   -0.0133579967886799
0.10317262934778482   -0.007179441042112447   -0.0133579967886799
0.10317262934778482   -0.007179441042112447   -0.0133579967886799
0.10317262934778482   -0.007179441042112447   -0.0133579967886799
0.06449250519762799   0.02442304406029696   -0.007611377123203384
0.06449250519762799   0.02442304406029696   -0.007611377123203384
0.06449250519762799   0.02442304406029696   -0.007611377123203384
0.06449250519762799   0.02442304406029696   -0.007611377123203384
-0.08995523915559861   0.007646285449099607   0.0030194424029268765
-0.08995523915559861   0.007646285449099607   0.0030194424029268765
-0.08995523915559861   0.007646285449099607   0.0030194424029268765
-0.08995523915559861   0.007646285449099607   0.0030194424029268765
-0.10590906677451993   -0.020999053310420106   -0.013757860442987636
-0.10590906677451993   -0.020999053310420106   -0.013757860442987636
-0.10590906677451993   -0.020999053310420106   -0.013757860442987636
-0.10590906677451993   -0.020999053310420106   -0.013757860442987636
0.06230850148278728   0.03028116760601918   0.014647040175767113
0.06230850148278728   0.03028116760601918   0.014647040175767113
0.06230850148278728   0.03028116760601918   0.014647040175767113
0.06230850148278728   0.03028116760601918   0.014647040175767113
-0.017814946286402233   0.009897058568297607   0.0025662100765983
-0.017814946286402233   0.009897058568297607   0.0025662100765983
-0.017814946286402233   0.009897058568297607   0.0025662100765983
-0.017814946286402233   0.009897058568297607   0.0025662100765983
0.05475866051999539   0.012768220692207441   -0.005589217724380579
0.05475866051999539   0.012768220692207441   -0.005589217724380579
0.05475866051999539   0.012768220692207441   -0.005589217724380579
0.05475866051999539   0.012768220692207441   -0.005589217724380579
-0.09877820223175093   -0.003905082816631246   0.004802491777068542
-0.09877820223175093   -0.003905082816631246   0.004802491777068542
-0.09877820223175093   -0.003905082816631246   0.004802491777068542
-0.09877820223175093   -0.003905082816631246   0.004802491777068542
-0.11425626354846162   -0.03032167199983364   -0.010799166980916172
-0.11425626354846162   -0.03032167199983364   -0.010799166980916172
-0.11425626354846162   -0.03032167199983364   -0.010799166980916172
-0.11425626354846162   -0.03032167199983364   -0.010799166980916172
0.05135762086511445   0.019791345659365387   0.015975293783921853
0.05135762086511445   0.019791345659365387   0.015975293783921853
0.05135762086511445   0.019791345659365387   0.015975293783921853
0.05135762086511445   0.019791345659365387   0.015975293783921853
-0.02814584059123973   -0.000191492820339062   -0.002271836618137667
-0.02814584059123973   -0.000191492820339062   -0.002271836618137667
-0.02814584059123973   -0.000191492820339062   -0.002271836618137667
-0.02814584059123973   -0.000191492820339062   -0.002271836618137667
0.0440279361885597   0.0027655371298828573   -0.003647321069370342
0.0440279361885597   0.0027655371298828573   -0.003647321069370342
0.0440279361885597   0.0027655371298828573   -0.003647321069370342
0.0440279361885597   0.0027655371298828573   -0.003647321069370342
-0.1074694128312708   -0.013838697429712343   0.006652112034918469
-0.1074694128312708   -0.013838697429712343   0.006652112034918469
-0.1074694128312708   -0.013838697429712343   0.006652112034918469
-0.1074694128312708   -0.013838697429712343   0.006652112034918469
-0.1225375418944329   -0.039530579988082334   -0.008126499056641989
-0.1225375418944329   -0.039530579988082334   -0.008126499056641989
-0.1225375418944329   -0.039530579988082334   -0.008126499056641989
-0.1225375418944329   -0.039530579988082334   -0.008126499056641989
0.04176870105533585   0.009532319903121395   0.017843519501551792
0.04176870105533585   0.009532319903121395   0.017843519501551792
0.04176870105533585   0.009532319903121395   0.017843519501551792
0.04176870105533585   0.009532319903121395   0.017843519501551792
-0.03705353117443945   -0.009179320259432558   -0.006828041349452619
-0.03705353117443945   -0.009179320259432558   -0.006828041349452619
-0.03705353117443945   -0.009179320259432558   -0.006828041349452619
-0.03705353117443945   -0.009179320259432558   -0.006828041349452619
-0.08522935109320667   0.033097729007189255   0.0011974391567968878
-0.08522935109320667   0.033097729007189255   0.0011974391567968878
-0.08522935109320667   0.033097729007189255   0.0011974391567968878
-0.08522935109320667   0.033097729007189255   0.0011974391567968878
-0.24456840913783326   -0.003125834591292634   -0.006773532049789106
-0.24456840913783326   -0.003125834591292634   -0.006773532049789106
-0.24456840913783326   -0.003125834591292634   -0.006773532049789106
-0.24456840913783326   -0.003125834591292634   -0.006773532049789106
-0.2521009241744071   -0.01048652172608975   -0.004072363934310293
-0.2521009241744071   -0.01048652172608975   -0.004072363934310293
-0.2521009241744071   -0.01048652172608975   -0.004072363934310293
-0.2521009241744071   -0.01048652172608975   -0.004072363934310293
-0.09403515722598323   0.019948693575203152   0.004663940414070755
-0.09403515722598323   0.019948693575203152   0.004663940414070755
-0.09403515722598323   0.019948693575203152   0.004663940414070755
-0.09403515722598323   0.019948693575203152   0.004663940414070755
-0.16857694628273734   0.009640010305336455   0.002644790259789292
-0.16857694628273734   0.009640010305336455   0.002644790259789292
-0.16857694628273734   0.009640010305336455   0.002644790259789292
-0.16857694628273734   0.009640010305336455   0.002644790259789292
-0.09360171668637693   0.022819799913199844   0.003960036774107464
-0.09360171668637693   0.022819799913199844   0.003960036774107464
-0.09360171668637693   0.022819799913199844   0.003960036774107464
-0.09360171668637693   0.022819799913199844   0.003960036774107464
-0.25290269793756215   -0.013725961287635154   -0.004841793188541825
-0.25290269793756215   -0.013725961287635154   -0.004841793188541825
-0.25290269793756215   -0.013725961287635154   -0.004841793188541825
-0.25290269793756215   -0.013725961287635154   -0.004841793188541825
-0.2604147054932074   -0.020664116243233915   -0.001397065177052674
-0.2604147054932074   -0.020664116243233915   -0.001397065177052674
-0.2604147054932074   -0.020664116243233915   -0.001397065177052674
-0.2604147054932074   -0.020664116243233915   -0.001397065177052674
-0.10284368209919781   0.009309713248886627   0.006632355016682644
-0.10284368209919781   0.009309713248886627   0.006632355016682644
-0.10284368209919781   0.009309713248886627   0.006632355016682644
-0.10284368209919781   0.009309713248886627   0.006632355016682644
-0.17724764297612486   -3.4620387305887845e-05   -0.0016872750198042557
-0.17724764297612486   -3.4620387305887845e-05   -0.0016872750198042557
-0.17724764297612486   -3.4620387305887845e-05   -0.0016872750198042557
-0.17724764297612486   -3.4620387305887845e-05   -0.0016872750198042557
-0.10226194994404689   0.012513328091894888   0.00633740094943085
-0.10226194994404689   0.012513328091894888   0.00633740094943085
-0.10226194994404689   0.012513328091894888   0.00633740094943085
-0.10226194994404689   0.012513328091894888   0.00633740094943085
-0.2615194695252914   -0.02439076296317818   -0.0031942386175324126
-0.2615194695252914   -0.02439076296317818   -0.0031942386175324126
-0.2615194695252914   -0.02439076296317818   -0.0031942386175324126
-0.2615194695252914   -0.02439076296317818   -0.0031942386175324126
-0.26856376759495343   -0.030482726876335055   0.0011981576758750435
-0.26856376759495343   -0.030482726876335055   0.0011981576758750435
-0.26856376759495343   -0.030482726876335055   0.0011981576758750435
-0.26856376759495343   -0.030482726876335055   0.0011981576758750435
-0.11150769399667466   -0.000933362369762554   0.008425522813827562
-0.11150769399667466   -0.000933362369762554   0.008425522813827562
-0.11150769399667466   -0.000933362369762554   0.008425522813827562
-0.11150769399667466   -0.000933362369762554   0.008425522813827562
-0.1863751072842522   -0.009729508369818132   -0.00639320285641092
-0.1863751072842522   -0.009729508369818132   -0.00639320285641092
-0.1863751072842522   -0.009729508369818132   -0.00639320285641092
-0.1863751072842522   -0.009729508369818132   -0.00639320285641092
-0.23225647148400638   0.04138874223255406   0.010271579395498418
-0.23225647148400638   0.04138874223255406   0.010271579395498418
-0.23225647148400638   0.04138874223255406   0.010271579395498418
-0.23225647148400638   0.04138874223255406   0.010271579395498418
-0.39600343577510844   -0.01202990253586804   -0.01537456601774061
-0.39600343577510844   -0.01202990253586804   -0.01537456601774061
-0.39600343577510844   -0.01202990253586804   -0.01537456601774061
-0.39600343577510844   -0.01202990253586804   -0.01537456601774061
-0.3967415811185254   -0.0012482733762887305   0.006178351332387779
-0.3967415811185254   -0.0012482733762887305   0.006178351332387779
-0.3967415811185254   -0.0012482733762887305   0.006178351332387779
-0.3967415811185254   -0.0012482733762887305   0.006178351332387779
-0.24809161046270267   0.010283906912185767   -0.004796224014067409
-0.24809161046270267   0.010283906912185767   -0.004796224014067409
-0.24809161046270267   0.010283906912185767   -0.004796224014067409
-0.24809161046270267   0.010283906912185767   -0.004796224014067409
-0.31662626188178067   0.009570146654570927   0.0034535253152226594
-0.31662626188178067   0.009570146654570927   0.0034535253152226594
-0.31662626188178067   0.009570146654570927   0.0034535253152226594
-0.31662626188178067   0.009570146654570927   0.0034535253152226594
-0.24029819900503732   0.031413067347684294   0.013041672838764787
-0.24029819900503732   0.031413067347684294   0.013041672838764787
-0.24029819900503732   0.031413067347684294   0.013041672838764787
-0.24029819900503732   0.031413067347684294   0.013041672838764787
-0.4052395785097866   -0.02308201974538371   -0.014477889254830872
-0.4052395785097866   -0.02308201974538371   -0.014477889254830872
-0.4052395785097866   -0.02308201974538371   -0.014477889254830872
-0.4052395785097866   -0.02308201974538371   -0.014477889254830872
-0.4069824287196225   -0.011288356594957388   0.007615252735582292
-0.4069824287196225   -0.011288356594957388   0.007615252735582292
-0.4069824287196225   -0.011288356594957388   0.007615252735582292
-0.4069824287196225   -0.011288356594957388   0.007615252735582292
-0.25644907977189796   0.00047735373678048365   -0.0027104065505258613
-0.25644907977189796   0.00047735373678048365   -0.0027104065505258613
-0.25644907977189796   0.00047735373678048365   -0.0027104065505258613
-0.25644907977189796   0.00047735373678048365   -0.0027104065505258613
-0.3239704495862892   0.0005676858584514749   -0.0010840590653768932
-0.3239704495862892   0.0005676858584514749   -0.0010840590653768932
-0.3239704495862892   0.0005676858584514749   -0.0010840590653768932
-0.3239704495862892   0.0005676858584514749   -0.0010840590653768932
-0.24844926157350422   0.02204036160232936   0.015725676575897768
-0.24844926157350422   0.02204036160232936   0.015725676575897768
-0.24844926157350422   0.02204036160232936   0.015725676575897768
-0.24844926157350422   0.02204036160232936   0.015725676575897768
-0.4154223314977355   -0.03329144904022683   -0.012581168709724888
-0.4154223314977355   -0.03329144904022683   -0.012581168709724888
-0.4154223314977355   -0.03329144904022683   -0.012581168709724888
-0.4154223314977355   -0.03329144904022683   -0.012581168709724888
-0.41581582039642795   -0.021774868566827615   0.01041228294709835
-0.41581582039642795   -0.021774868566827615   0.01041228294709835
-0.41581582039642795   -0.021774868566827615   0.01041228294709835
-0.41581582039642795   -0.021774868566827615   0.01041228294709835
-0.26491426067594975   -0.010034991958680545   -0.0010020426467646452
-0.26491426067594975   -0.010034991958680545   -0.0010020426467646452
-0.26491426067594975   -0.010034991958680545   -0.0010020426467646452
-0.26491426067594975   -0.010034991958680545   -0.0010020426467646452
-0.33496633761619843   -0.009282721161260582   -0.006045470318799023
-0.33496633761619843   -0.009282721161260582   -0.006045470318799023
-0.33496633761619843   -0.009282721161260582   -0.006045470318799023
-0.33496633761619843   -0.009282721161260582   -0.006045470318799023
-0.37873131890703826   0.040771714447335905   0.01818440133941033
-0.37873131890703826   0.040771714447335905   0.01818440133941033
-0.37873131890703826   0.040771714447335905   0.01818440133941033
-0.37873131890703826   0.040771714447335905   0.01818440133941033
-0.5341613980077348   -0.02470650004963558   -0.02316214317246141
-0.5341613980077348   -0.02470650004963558   -0.02316214317246141
-0.5341613980077348   -0.02470650004963558   -0.02316214317246141
-0.5341613980077348   -0.02470650004963558   -0.02316214317246141
-0.5380048111362336   0.006301640280560322   0.01910776263410461
-0.5380048111362336   0.006301640280560322   0.01910776263410461
-0.5380048111362336   0.006301640280560322   0.01910776263410461
-0.5380048111362336   0.006301640280560322   0.01910776263410461
-0.40074919378720064   -0.0009918735619193209   -0.014116111825369312
-0.40074919378720064   -0.0009918735619193209   -0.014116111825369312
-0.40074919378720064   -0.0009918735619193209   -0.014116111825369312
-0.40074919378720064   -0.0009918735619193209   -0.014116111825369312
-0.4429714753509094   0.009651121800303489   0.010823076718490473
-0.4429714753509094   0.009651121800303489   0.010823076718490473
-0.4429714753509094   0.009651121800303489   0.010823076718490473
-0.4429714753509094   0.009651121800303489   0.010823076718490473
-0.3859888686276354   0.03718500361464204   0.021508636795899608
-0.3859888686276354   0.03718500361464204   0.021508636795899608
-0.3859888686276354   0.03718500361464204   0.021508636795899608
-0.3859888686276354   0.03718500361464204   0.021508636795899608
-0.5535172080147372   -0.0326273086149349   -0.01952527286291068
-0.5535172080147372   -0.0326273086149349   -0.01952527286291068
-0.5535172080147372   -0.0326273086149349   -0.01952527286291068
-0.5535172080147372   -0.0326273086149349   -0.01952527286291068
-0.5539785806604021   0.0006471924169250687   0.024385751420283555
-0.5539785806604021   0.0006471924169250687   0.024385751420283555
-0.5539785806604021   0.0006471924169250687   0.024385751420283555
-0.5539785806604021   0.0006471924169250687   0.024385751420283555
-0.40996013524124103   -0.006463366512861571   -0.012098269954617422
-0.40996013524124103   -0.006463366512861571   -0.012098269954617422
-0.40996013524124103   -0.006463366512861571   -0.012098269954617422
-0.40996013524124103   -0.006463366512861571   -0.012098269954617422
-0.46348867468569044   0.002978536854243652   0.004031390768236061
-0.46348867468569044   0.002978536854243652   0.004031390768236061
-0.46348867468569044   0.002978536854243652   0.004031390768236061
-0.46348867468569044   0.002978536854243652   0.004031390768236061
-0.39458195910730154   0.03276267940328058   0.025566564798945264
-0.39458195910730154   0.03276267940328058   0.025566564798945264
-0.39458195910730154   0.03276267940328058   0.025566564798945264
-0.39458195910730154   0.03276267940328058   0.025566564798945264
-0.5700642442329961   -0.03928634093786659   -0.016109033087887387
-0.5700642442329961   -0.03928634093786659   -0.016109033087887387
-0.5700642442329961   -0.03928634093786659   -0.016109033087887387
-0.5700642442329961   -0.03928634093786659   -0.016109033087887387
-0.5760478918920262   -0.015482882585432761   0.025148349523582095
-0.5760478918920262   -0.015482882585432761   0.025148349523582095
-0.5760478918920262   -0.015482882585432761   0.025148349523582095
-0.5760478918920262   -0.015482882585432761   0.025148349523582095
-0.4194722190356562   -0.01909310200550883   -0.010551476810365421
-0.4194722190356562   -0.01909310200550883   -0.010551476810365421
-0.4194722190356562   -0.01909310200550883   -0.010551476810365421
-0.4194722190356562   -0.01909310200550883   -0.010551476810365421
-0.4700269385831558   -0.004149670721938434   2.461908393274967e-05
-0.4700269385831558   -0.004149670721938434   2.461908393274967e-05
-0.4700269385831558   -0.004149670721938434   2.461908393274967e-05
-0.4700269385831558   -0.004149670721938434   2.461908393274967e-05
0.04553296858253272   0.003732982282344094   -0.026713659152437716
0.04553296858253272   0.003732982282344094   -0.026713659152437716
0.04553296858253272   0.003732982282344094   -0.026713659152437716
0.04553296858253272   0.003732982282344094   -0.026713659152437716
-0.04076043064098081   0.019917629857370195   0.013593697332266563
-0.04076043064098081   0.019917629857370195   0.013593697332266563
-0.04076043064098081   0.019917629857370195   0.013593697332266563
-0.04076043064098081   0.019917629857370195   0.013593697332266563
-0.06253792919010316   -0.025862275505777417   -0.02155093458117039
-0.06253792919010316   -0.025862275505777417   -0.02155093458117039
-0.06253792919010316   -0.025862275505777417   -0.02155093458117039
-0.06253792919010316   -0.025862275505777417   -0.02155093458117039
0.04223421142998372   0.028715527897794302   0.016652956970170295
0.04223421142998372   0.028715527897794302   0.016652956970170295
0.04223421142998372   0.028715527897794302   0.016652956970170295
0.04223421142998372   0.028715527897794302   0.016652956970170295
-0.004988363772057704   0.006308941688772524   0.0022940633968640683
-0.004988363772057704   0.006308941688772524   0.0022940633968640683
-0.004988363772057704   0.006308941688772524   0.0022940633968640683
-0.004988363772057704   0.006308941688772524   0.0022940633968640683
0.026675836045572603   -0.008495011627688655   -0.02392838042640235
0.026675836045572603   -0.008495011627688655   -0.02392838042640235
0.026675836045572603   -0.008495011627688655   -0.02392838042640235
0.026675836045572603   -0.008495011627688655   -0.02392838042640235
-0.047889327512581854   0.010438490312815726   0.015391307987843002
-0.047889327512581854   0.010438490312815726   0.015391307987843002
-0.047889327512581854   0.010438490312815726   0.015391307987843002
-0.047889327512581854   0.010438490312815726   0.015391307987843002
-0.0697366191404818   -0.030507187123005444   -0.018303260773671566
-0.0697366191404818   -0.030507187123005444   -0.018303260773671566
-0.0697366191404818   -0.030507187123005444   -0.018303260773671566
-0.0697366191404818   -0.030507187123005444   -0.018303260773671566
0.027469562979083657   0.02242244582565269   0.02288340925290533
0.027469562979083657   0.02242244582565269   0.02288340925290533
0.027469562979083657   0.02242244582565269   0.02288340925290533
0.027469562979083657   0.02242244582565269   0.02288340925290533
-0.01656096142827855   -0.0006559441043647914   -0.0030510259654092375
-0.01656096142827855   -0.0006559441043647914   -0.0030510259654092375
-0.01656096142827855   -0.0006559441043647914   -0.0030510259654092375
-0.01656096142827855   -0.0006559441043647914   -0.0030510259654092375
0.01153975851842048   -0.01454991073453792   -0.01979325649022088
0.01153975851842048   -0.01454991073453792   -0.01979325649022088
0.01153975851842048   -0.01454991073453792   -0.01979325649022088
0.01153975851842048   -0.01454991073453792   -0.01979325649022088
-0.05507384179420789   0.005198142322793102   0.019305296511898926
-0.05507384179420789   0.005198142322793102   0.019305296511898926
-0.05507384179420789   0.005198142322793102   0.019305296511898926
-0.05507384179420789   0.005198142322793102   0.019305296511898926
-0.07632726734500277   -0.03756476236264029   -0.015195090631668268
-0.07632726734500277   -0.03756476236264029   -0.015195090631668268
-0.07632726734500277   -0.03756476236264029   -0.015195090631668268
-0.07632726734500277   -0.03756476236264029   -0.015195090631668268
0.00696225072560163   0.009286345715562352   0.026129785374691645
0.00696225072560163   0.009286345715562352   0.026129785374691645
0.00696225072560163   0.009286345715562352   0.026129785374691645
0.00696225072560163   0.009286345715562352   0.026129785374691645
-0.029166333191891235   -0.007633729699208167   -0.009248306243000168
-0.029166333191891235   -0.007633729699208167   -0.009248306243000168
-0.029166333191891235   -0.007633729699208167   -0.009248306243000168
-0.029166333191891235   -0.007633729699208167   -0.009248306243000168
-0.04685784254388694   0.013555608188231493   -0.010531340513125362
-0.04685784254388694   0.013555608188231493   -0.010531340513125362
-0.04685784254388694   0.013555608188231493   -0.010531340513125362
-0.04685784254388694   0.013555608188231493   -0.010531340513125362
-0.127283544576326   0.0053716819521618005   0.003509227384663787
-0.127283544576326   0.0053716819521618005   0.003509227384663787
-0.127283544576326   0.0053716819521618005   0.003509227384663787
-0.127283544576326   0.0053716819521618005   0.003509227384663787
-0.1385631528247637   -0.015071719557075744   -0.011245741332141209
-0.1385631528247637   -0.015071719557075744   -0.011245741332141209
-0.1385631528247637   -0.015071719557075744   -0.011245741332141209
-0.1385631528247637   -0.015071719557075744   -0.011245741332141209
-0.04825089885927468   0.013258219875050697   0.01076372169214389
-0.04825089885927468   0.013258219875050697   0.01076372169214389
-0.04825089885927468   0.013258219875050697   0.01076372169214389
-0.04825089885927468   0.013258219875050697   0.01076372169214389
-0.090071238857748   0.0040080369027342445   0.0021658487010694826
-0.090071238857748   0.0040080369027342445   0.0021658487010694826
-0.090071238857748   0.0040080369027342445   0.0021658487010694826
-0.090071238857748   0.0040080369027342445   0.0021658487010694826
-0.05432933026042313   0.0022917917787592286   -0.008662007217306896
-0.05432933026042313   0.0022917917787592286   -0.008662007217306896
-0.05432933026042313   0.0022917917787592286   -0.008662007217306896
-0.05432933026042313   0.0022917917787592286   -0.008662007217306896
-0.13323853220846846   -0.004859102245637507   0.005164744437896654
-0.13323853220846846   -0.004859102245637507   0.005164744437896654
-0.13323853220846846   -0.004859102245637507   0.005164744437896654
-0.13323853220846846   -0.004859102245637507   0.005164744437896654
-0.1441779183197447   -0.024177195739407943   -0.008331874025085648
-0.1441779183197447   -0.024177195739407943   -0.008331874025085648
-0.1441779183197447   -0.024177195739407943   -0.008331874025085648
-0.1441779183197447   -0.024177195739407943   -0.008331874025085648
-0.0569086372121793   0.003191428132895538   0.012138033611939476
-0.0569086372121793   0.003191428132895538   0.012138033611939476
-0.0569086372121793   0.003191428132895538   0.012138033611939476
-0.0569086372121793   0.003191428132895538   0.012138033611939476
-0.09716173728333148   -0.005155911575966621   -0.0024419000925231535
-0.09716173728333148   -0.005155911575966621   -0.0024419000925231535
-0.09716173728333148   -0.005155911575966621   -0.0024419000925231535
-0.09716173728333148   -0.005155911575966621   -0.0024419000925231535
-0.06277501116810198   -0.007525600925848209   -0.0064768071089296945
-0.06277501116810198   -0.007525600925848209   -0.0064768071089296945
-0.06277501116810198   -0.007525600925848209   -0.0064768071089296945
-0.06277501116810198   -0.007525600925848209   -0.0064768071089296945
-0.13912222902206933   -0.014270851338911442   0.007040228062794621
-0.13912222902206933   -0.014270851338911442   0.007040228062794621
-0.13912222902206933   -0.014270851338911442   0.007040228062794621
-0.13912222902206933   -0.014270851338911442   0.007040228062794621
-0.1498296371579417   -0.03350676073826992   -0.005753545492127222
-0.1498296371579417   -0.03350676073826992   -0.005753545492127222
-0.1498296371579417   -0.03350676073826992   -0.005753545492127222
-0.1498296371579417   -0.03350676073826992   -0.005753545492127222
-0.06415574012806512   -0.006959587741824454   0.015057370832203971
-0.06415574012806512   -0.006959587741824454   0.015057370832203971
-0.06415574012806512   -0.006959587741824454   0.015057370832203971
-0.06415574012806512   -0.006959587741824454   0.015057370832203971
-0.10421585600030721   -0.014170295495755466   -0.00711483300472106
-0.10421585600030721   -0.014170295495755466   -0.00711483300472106
-0.10421585600030721   -0.014170295495755466   -0.00711483300472106
-0.10421585600030721   -0.014170295495755466   -0.00711483300472106
-0.12489308860675166   0.021942144801517488   -0.0011089556168200655
-0.12489308860675166   0.021942144801517488   -0.0011089556168200655
-0.12489308860675166   0.021942144801517488   -0.0011089556168200655
-0.12489308860675166   0.021942144801517488   -0.0011089556168200655
-0.21284649093214159   -0.00739159044371436   -0.006075137479618688
-0.21284649093214159   -0.00739159044371436   -0.006075137479618688
-0.21284649093214159   -0.00739159044371436   -0.006075137479618688
-0.21284649093214159   -0.00739159044371436   -0.006075137479618688
-0.21512136460964848   -0.005472007530752901   -0.0013533577320442094
-0.21512136460964848   -0.005472007530752901   -0.0013533577320442094
-0.21512136460964848   -0.005472007530752901   -0.0013533577320442094
-0.21512136460964848   -0.005472007530752901   -0.0013533577320442094
-0.13265736336202466   0.0015427993228220235   0.0016686871016561048
-0.13265736336202466   0.0015427993228220235   0.0016686871016561048
-0.13265736336202466   0.0015427993228220235   0.0016686871016561048
-0.13265736336202466   0.0015427993228220235   0.0016686871016561048
-0.17101476989621472   0.002477865263501057   0.0007923126525500347
-0.17101476989621472   0.002477865263501057   0.0007923126525500347
-0.17101476989621472   0.002477865263501057   0.0007923126525500347
-0.17101476989621472   0.002477865263501057   0.0007923126525500347
-0.1305657102398196   0.012036454413935326   0.0016332976215680216
-0.1305657102398196   0.012036454413935326   0.0016332976215680216
-0.1305657102398196   0.012036454413935326   0.0016332976215680216
-0.1305657102398196   0.012036454413935326   0.0016332976215680216
-0.21794058291624366   -0.016693227806256306   -0.004228228989516564
-0.21794058291624366   -0.016693227806256306   -0.004228228989516564
-0.21794058291624366   -0.016693227806256306   -0.004228228989516564
-0.21794058291624366   -0.016693227806256306   -0.004228228989516564
-0.22039181211610784   -0.015255488032478906   0.0013544786267803803
-0.22039181211610784   -0.015255488032478906   0.0013544786267803803
-0.22039181211610784   -0.015255488032478906   0.0013544786267803803
-0.22039181211610784   -0.015255488032478906   0.0013544786267803803
-0.13860276057618223   -0.008080833550135565   0.0034475525034542865
-0.13860276057618223   -0.008080833550135565   0.0034475525034542865
-0.13860276057618223   -0.008080833550135565   0.0034475525034542865
-0.13860276057618223   -0.008080833550135565   0.0034475525034542865
-0.1767199600347045   -0.006420412268444087   -0.003437998213439167
-0.1767199600347045   -0.006420412268444087   -0.003437998213439167
-0.1767199600347045   -0.006420412268444087   -0.003437998213439167
-0.1767199600347045   -0.006420412268444087   -0.003437998213439167
-0.13645519575413312   0.0020682067727299316   0.004036336290834466
-0.13645519575413312   0.0020682067727299316   0.004036336290834466
-0.13645519575413312   0.0020682067727299316   0.004036336290834466
-0.13645519575413312   0.0020682067727299316   0.004036336290834466
-0.22341735116509973   -0.026282502582285254   -0.002746202068376646
-0.22341735116509973   -0.026282502582285254   -0.002746202068376646
-0.22341735116509973   -0.026282502582285254   -0.002746202068376646
-0.22341735116509973   -0.026282502582285254   -0.002746202068376646
-0.2255221747957118   -0.024629883862637106   0.003957396148491919
-0.2255221747957118   -0.024629883862637106   0.003957396148491919
-0.2255221747957118   -0.024629883862637106   0.003957396148491919
-0.2255221747957118   -0.024629883862637106   0.003957396148491919
-0.144321840029266   -0.017146497263462006   0.005425176676445171
-0.144321840029266   -0.017146497263462006   0.005425176676445171
-0.144321840029266   -0.017146497263462006   0.005425176676445171
-0.144321840029266   -0.017146497263462006   0.005425176676445171
-0.18285899254121346   -0.015368413190628923   -0.008035758507677918
-0.18285899254121346   -0.015368413190628923   -0.008035758507677918
-0.18285899254121346   -0.015368413190628923   -0.008035758507677918
-0.18285899254121346   -0.015368413190628923   -0.008035758507677918
-0.20211154635310138   0.03155415628871001   0.008653838683157888
-0.20211154635310138   0.03155415628871001   0.008653838683157888
-0.20211154635310138   0.03155415628871001   0.008653838683157888
-0.20211154635310138   0.03155415628871001   0.008653838683157888
-0.29521312391016813   -0.012389162719103307   -0.013589214891485868
-0.29521312391016813   -0.012389162719103307   -0.013589214891485868
-0.29521312391016813   -0.012389162719103307   -0.013589214891485868
-0.29521312391016813   -0.012389162719103307   -0.013589214891485868
-0.291342365571287   0.004360131665963524   0.008835654863390378
-0.291342365571287   0.004360131665963524   0.008835654863390378
-0.291342365571287   0.004360131665963524   0.008835654863390378
-0.291342365571287   0.004360131665963524   0.008835654863390378
-0.21577232224085063   -0.004081806471825183   -0.005998346946982563
-0.21577232224085063   -0.004081806471825183   -0.005998346946982563
-0.21577232224085063   -0.004081806471825183   -0.005998346946982563
-0.21577232224085063   -0.004081806471825183   -0.005998346946982563
-0.25021177563881375   0.004884906905387197   0.0012686440740376746
-0.25021177563881375   0.004884906905387197   0.0012686440740376746
-0.25021177563881375   0.004884906905387197   0.0012686440740376746
-0.25021177563881375   0.004884906905387197   0.0012686440740376746
-0.207133264934533   0.021714872869324386   0.011400260243456008
-0.207133264934533   0.021714872869324386   0.011400260243456008
-0.207133264934533   0.021714872869324386   0.011400260243456008
-0.207133264934533   0.021714872869324386   0.011400260243456008
-0.3010447325354543   -0.02249985733303886   -0.012816190958447334
-0.3010447325354543   -0.02249985733303886   -0.012816190958447334
-0.3010447325354543   -0.02249985733303886   -0.012816190958447334
-0.3010447325354543   -0.02249985733303886   -0.012816190958447334
-0.29839503085670155   -0.005279448255311861   0.0104515345738006
-0.29839503085670155   -0.005279448255311861   0.0104515345738006
-0.29839503085670155   -0.005279448255311861   0.0104515345738006
-0.29839503085670155   -0.005279448255311861   0.0104515345738006
-0.2209961445286078   -0.012851646431216772   -0.004071025036981582
-0.2209961445286078   -0.012851646431216772   -0.004071025036981582
-0.2209961445286078   -0.012851646431216772   -0.004071025036981582
-0.2209961445286078   -0.012851646431216772   -0.004071025036981582
-0.25499539818179195   -0.0036857604901534904   -0.0033161712977951997
-0.25499539818179195   -0.0036857604901534904   -0.0033161712977951997
-0.25499539818179195   -0.0036857604901534904   -0.0033161712977951997
-0.25499539818179195   -0.0036857604901534904   -0.0033161712977951997
-0.2122637172384563   0.012670333791737542   0.014069131190817754
-0.2122637172384563   0.012670333791737542   0.014069131190817754
-0.2122637172384563   0.012670333791737542   0.014069131190817754
-0.2122637172384563   0.012670333791737542   0.014069131190817754
-0.30796714906657213   -0.031641119397989116   -0.011047385332878966
-0.30796714906657213   -0.031641119397989116   -0.011047385332878966
-0.30796714906657213   -0.031641119397989116   -0.011047385332878966
-0.30796714906657213   -0.031641119397989116   -0.011047385332878966
-0.3041248888812834   -0.015009778277158485   0.01333465396617931
-0.3041248888812834   -0.015009778277158485   0.01333465396617931
-0.3041248888812834   -0.015009778277158485   0.01333465396617931
-0.3041248888812834   -0.015009778277158485   0.01333465396617931
-0.22624285047667345   -0.021850887253932586   -0.002424978865020809
-0.22624285047667345   -0.021850887253932586   -0.002424978865020809
-0.22624285047667345   -0.021850887253932586   -0.002424978865020809
-0.22624285047667345   -0.021850887253932586   -0.002424978865020809
-0.262221651039211   -0.012460011491466909   -0.008027715725037559
-0.262221651039211   -0.012460011491466909   -0.008027715725037559
-0.262221651039211   -0.012460011491466909   -0.008027715725037559
-0.262221651039211   -0.012460011491466909   -0.008027715725037559
-0.27974430103370723   0.03423541277833521   0.017130323993380284
-0.27974430103370723   0.03423541277833521   0.017130323993380284
-0.27974430103370723   0.03423541277833521   0.017130323993380284
-0.27974430103370723   0.03423541277833521   0.017130323993380284
-0.36165468465317296   -0.018215877998090102   -0.02256992761695064
-0.36165468465317296   -0.018215877998090102   -0.02256992761695064
-0.36165468465317296   -0.018215877998090102   -0.02256992761695064
-0.36165468465317296   -0.018215877998090102   -0.02256992761695064
-0.3619897396003861   0.013360351400317175   0.018885558798998673
-0.3619897396003861   0.013360351400317175   0.018885558798998673
-0.3619897396003861   0.013360351400317175   0.018885558798998673
-0.3619897396003861   0.013360351400317175   0.018885558798998673
-0.2987266748560129   -0.009926389464534224   -0.013799370429741085
-0.2987266748560129   -0.009926389464534224   -0.013799370429741085
-0.2987266748560129   -0.009926389464534224   -0.013799370429741085
-0.2987266748560129   -0.009926389464534224   -0.013799370429741085
-0.3123048530769427   0.00799725085285699   0.006162818923875629
-0.3123048530769427   0.00799725085285699   0.006162818923875629
-0.3123048530769427   0.00799725085285699   0.006162818923875629
-0.3123048530769427   0.00799725085285699   0.006162818923875629
-0.28409957598662033   0.029202682711506694   0.020207051741180457
-0.28409957598662033   0.029202682711506694   0.020207051741180457
-0.28409957598662033   0.029202682711506694   0.020207051741180457
-0.28409957598662033   0.029202682711506694   0.020207051741180457
-0.3777260598726208   -0.026877942178567864   -0.019557748983285966
-0.3777260598726208   -0.026877942178567864   -0.019557748983285966
-0.3777260598726208   -0.026877942178567864   -0.019557748983285966
-0.3777260598726208   -0.026877942178567864   -0.019557748983285966
-0.3748121308270897   0.007848051271263826   0.024310814551858267
-0.3748121308270897   0.007848051271263826   0.024310814551858267
-0.3748121308270897   0.007848051271263826   0.024310814551858267
-0.3748121308270897   0.007848051271263826   0.024310814551858267
-0.3048376305765445   -0.01497176098389031   -0.01206915129683577
-0.3048376305765445   -0.01497176098389031   -0.01206915129683577
-0.3048376305765445   -0.01497176098389031   -0.01206915129683577
-0.3048376305765445   -0.01497176098389031   -0.01206915129683577
-0.32762099963975977   0.0013100666178331166   -0.0002344457608055711
-0.32762099963975977   0.0013100666178331166   -0.0002344457608055711
-0.32762099963975977   0.0013100666178331166   -0.0002344457608055711
-0.32762099963975977   0.0013100666178331166   -0.0002344457608055711
-0.2896133029326165   0.02486816593964132   0.024212559999272548
-0.2896133029326165   0.02486816593964132   0.024212559999272548
-0.2896133029326165   0.02486816593964132   0.024212559999272548
-0.2896133029326165   0.02486816593964132   0.024212559999272548
-0.39116067724235837   -0.03311609442360977   -0.016467771829603874
-0.39116067724235837   -0.03311609442360977   -0.016467771829603874
-0.39116067724235837   -0.03311609442360977   -0.016467771829603874
-0.39116067724235837   -0.03311609442360977   -0.016467771829603874
-0.39370032306961644   -0.006691899566411932   0.02568263941907929
-0.39370032306961644   -0.006691899566411932   0.02568263941907929
-0.39370032306961644   -0.006691899566411932   0.02568263941907929
-0.39370032306961644   -0.006691899566411932   0.02568263941907929
-0.31097745543935174   -0.025513945311240176   -0.010424011790085006
-0.31097745543935174   -0.025513945311240176   -0.010424011790085006
-0.31097745543935174   -0.025513945311240176   -0.010424011790085006
-0.31097745543935174   -0.025513945311240176   -0.010424011790085006
-0.33341952605264424   -0.005341345566273137   -0.004748027268612402
-0.33341952605264424   -0.005341345566273137   -0.004748027268612402
-0.33341952605264424   -0.005341345566273137   -0.004748027268612402
-0.33341952605264424   -0.005341345566273137   -0.004748027268612402
-0.1453526245546279   -0.009417762034452833   -0.028491068213201458
-0.1453526245546279   -0.009417762034452833   -0.028491068213201458
-0.1453526245546279   -0.009417762034452833   -0.028491068213201458
-0.1453526245546279   -0.009417762034452833   -0.028491068213201458
-0.14681657655604619   0.021624523105199772   0.012769133828606857
-0.14681657655604619   0.021624523105199772   0.012769133828606857
-0.14681657655604619   0.021624523105199772   0.012769133828606857
-0.14681657655604619   0.021624523105199772   0.012769133828606857
-0.16569487139622596   -0.020079399395346875   -0.019392596669325884
-0.16569487139622596   -0.020079399395346875   -0.019392596669325884
-0.16569487139622596   -0.020079399395346875   -0.019392596669325884
-0.16569487139622596   -0.020079399395346875   -0.019392596669325884
-0.14857037331309358   0.011827248424621638   0.019057049102869168
-0.14857037331309358   0.011827248424621638   0.019057049102869168
-0.14857037331309358   0.011827248424621638   0.019057049102869168
-0.14857037331309358   0.011827248424621638   0.019057049102869168
-0.14398372286976138   0.003768647104564503   0.013030435157231507
-0.14398372286976138   0.003768647104564503   0.013030435157231507
-0.14398372286976138   0.003768647104564503   0.013030435157231507
-0.14398372286976138   0.003768647104564503   0.013030435157231507
-0.16365161932351388   -0.020580513459886755   -0.02394141906472204
-0.16365161932351388   -0.020580513459886755   -0.02394141906472204
-0.16365161932351388   -0.020580513459886755   -0.02394141906472204
-0.16365161932351388   -0.020580513459886755   -0.02394141906472204
-0.1524550491219951   0.010486938752969854   0.01624017655351177
-0.1524550491219951   0.010486938752969854   0.01624017655351177
-0.1524550491219951   0.010486938752969854   0.01624017655351177
-0.1524550491219951   0.010486938752969854   0.01624017655351177
-0.17146042136141604   -0.025231619439509148   -0.016456932732388813
-0.17146042136141604   -0.025231619439509148   -0.016456932732388813
-0.17146042136141604   -0.025231619439509148   -0.016456932732388813
-0.17146042136141604   -0.025231619439509148   -0.016456932732388813
-0.16321016889103718   0.004845809342148823   0.03557096704078892
-0.16321016889103718   0.004845809342148823   0.03557096704078892
-0.16321016889103718   0.004845809342148823   0.03557096704078892
-0.16321016889103718   0.004845809342148823   0.03557096704078892
-0.15739169930253857   -0.005069654854150153   0.005266616753794541
-0.15739169930253857   -0.005069654854150153   0.005266616753794541
-0.15739169930253857   -0.005069654854150153   0.005266616753794541
-0.15739169930253857   -0.005069654854150153   0.005266616753794541
-0.18053949422355267   -0.027501681267821917   -0.018728169011816034
-0.18053949422355267   -0.027501681267821917   -0.018728169011816034
-0.18053949422355267   -0.027501681267821917   -0.018728169011816034
-0.18053949422355267   -0.027501681267821917   -0.018728169011816034
-0.15853560513306825   0.002711362066294208   0.020224166903546913
-0.15853560513306825   0.002711362066294208   0.020224166903546913
-0.15853560513306825   0.002711362066294208   0.020224166903546913
-0.15853560513306825   0.002711362066294208   0.020224166903546913
-0.17619814146317184   -0.03517034184835538   -0.01299326025612356
-0.17619814146317184   -0.03517034184835538   -0.01299326025612356
-0.17619814146317184   -0.03517034184835538   -0.01299326025612356
-0.17619814146317184   -0.03517034184835538   -0.01299326025612356
-0.18592565262053187   -0.01822789603056076   0.033264727303003956
-0.18592565262053187   -0.01822789603056076   0.033264727303003956
-0.18592565262053187   -0.01822789603056076   0.033264727303003956
-0.18592565262053187   -0.01822789603056076   0.033264727303003956
-0.1691933600021256   -0.01550055733318596   -0.007108012269431232
-0.1691933600021256   -0.01550055733318596   -0.007108012269431232
-0.1691933600021256   -0.01550055733318596   -0.007108012269431232
-0.1691933600021256   -0.01550055733318596   -0.007108012269431232
-0.157470119136597   -0.004285241358848307   -0.014588814610100429
-0.157470119136597   -0.004285241358848307   -0.014588814610100429
-0.157470119136597   -0.004285241358848307   -0.014588814610100429
-0.157470119136597   -0.004285241358848307   -0.014588814610100429
-0.16181203185143073   -0.019970232514730898   -0.0008628682155549525
-0.16181203185143073   -0.019970232514730898   -0.0008628682155549525
-0.16181203185143073   -0.019970232514730898   -0.0008628682155549525
-0.16181203185143073   -0.019970232514730898   -0.0008628682155549525
-0.16314940035438985   -0.01335612582778574   -0.007409505326938435
-0.16314940035438985   -0.01335612582778574   -0.007409505326938435
-0.16314940035438985   -0.01335612582778574   -0.007409505326938435
-0.16314940035438985   -0.01335612582778574   -0.007409505326938435
-0.1631822839969959   -0.026733455656582857   -0.00017560341193961315
-0.1631822839969959   -0.026733455656582857   -0.00017560341193961315
-0.1631822839969959   -0.026733455656582857   -0.00017560341193961315
-0.1631822839969959   -0.026733455656582857   -0.00017560341193961315
-0.16003921990418582   -0.016789315300747516   -0.0004352832030187128
-0.16003921990418582   -0.016789315300747516   -0.0004352832030187128
-0.16003921990418582   -0.016789315300747516   -0.0004352832030187128
-0.16003921990418582   -0.016789315300747516   -0.0004352832030187128
-0.1632124327769145   -0.014415659867107675   -0.012644143101008158
-0.1632124327769145   -0.014415659867107675   -0.012644143101008158
-0.1632124327769145   -0.014415659867107675   -0.012644143101008158
-0.1632124327769145   -0.014415659867107675   -0.012644143101008158
-0.1641587995846161   -0.02671346962740868   0.0009008423215514417
-0.1641587995846161   -0.02671346962740868   0.0009008423215514417
-0.1641587995846161   -0.02671346962740868   0.0009008423215514417
-0.1641587995846161   -0.02671346962740868   0.0009008423215514417
-0.16602403205482466   -0.022024338098407134   -0.004825402701928513
-0.16602403205482466   -0.022024338098407134   -0.004825402701928513
-0.16602403205482466   -0.022024338098407134   -0.004825402701928513
-0.16602403205482466   -0.022024338098407134   -0.004825402701928513
-0.16931239225506603   -0.034766439013709474   0.003818032373561721
-0.16931239225506603   -0.034766439013709474   0.003818032373561721
-0.16931239225506603   -0.034766439013709474   0.003818032373561721
-0.16931239225506603   -0.034766439013709474   0.003818032373561721
-0.1638921307362828   -0.023816396275619805   -0.004482467982672696
-0.1638921307362828   -0.023816396275619805   -0.004482467982672696
-0.1638921307362828   -0.023816396275619805   -0.004482467982672696
-0.1638921307362828   -0.023816396275619805   -0.004482467982672696
-0.1697402384580621   -0.023683355308081334   -0.009404282347046777
-0.1697402384580621   -0.023683355308081334   -0.009404282347046777
-0.1697402384580621   -0.023683355308081334   -0.009404282347046777
-0.1697402384580621   -0.023683355308081334   -0.009404282347046777
-0.1669235849372345   -0.034434820889445654   0.003087315677056948
-0.1669235849372345   -0.034434820889445654   0.003087315677056948
-0.1669235849372345   -0.034434820889445654   0.003087315677056948
-0.1669235849372345   -0.034434820889445654   0.003087315677056948
-0.16862427263115196   -0.03131871925742764   -0.0022697542427250975
-0.16862427263115196   -0.03131871925742764   -0.0022697542427250975
-0.16862427263115196   -0.03131871925742764   -0.0022697542427250975
-0.16862427263115196   -0.03131871925742764   -0.0022697542427250975
-0.1740240387598783   -0.04489774696078183   0.0076046583727696964
-0.1740240387598783   -0.04489774696078183   0.0076046583727696964
-0.1740240387598783   -0.04489774696078183   0.0076046583727696964
-0.1740240387598783   -0.04489774696078183   0.0076046583727696964
-0.16911567100642869   -0.03223855752737472   -0.009600926640782624
-0.16911567100642869   -0.03223855752737472   -0.009600926640782624
-0.16911567100642869   -0.03223855752737472   -0.009600926640782624
-0.16911567100642869   -0.03223855752737472   -0.009600926640782624
-0.15730480879815595   0.004393646988520426   -0.0026906324524303745
-0.15730480879815595   0.004393646988520426   -0.0026906324524303745
-0.15730480879815595   0.004393646988520426   -0.0026906324524303745
-0.15730480879815595   0.004393646988520426   -0.0026906324524303745
-0.17983365947172092   -0.0341646446301165   -0.008668769970594481
-0.17983365947172092   -0.0341646446301165   -0.008668769970594481
-0.17983365947172092   -0.0341646446301165   -0.008668769970594481
-0.17983365947172092   -0.0341646446301165   -0.008668769970594481
-0.17263667918474362   -0.006351846531596057   0.0021747736522846643
-0.17263667918474362   -0.006351846531596057   0.0021747736522846643
-0.17263667918474362   -0.006351846531596057   0.0021747736522846643
-0.17263667918474362   -0.006351846531596057   0.0021747736522846643
-0.16736241824651918   -0.036543184686455205   -0.005287535928917504
-0.16736241824651918   -0.036543184686455205   -0.005287535928917504
-0.16736241824651918   -0.036543184686455205   -0.005287535928917504
-0.16736241824651918   -0.036543184686455205   -0.005287535928917504
-0.16916482257566465   -0.018747409867239506   -0.0037479998143089754
-0.16916482257566465   -0.018747409867239506   -0.0037479998143089754
-0.16916482257566465   -0.018747409867239506   -0.0037479998143089754
-0.16916482257566465   -0.018747409867239506   -0.0037479998143089754
-0.15985008071949028   -0.004236073470873295   -3.295950935486725e-05
-0.15985008071949028   -0.004236073470873295   -3.295950935486725e-05
-0.15985008071949028   -0.004236073470873295   -3.295950935486725e-05
-0.15985008071949028   -0.004236073470873295   -3.295950935486725e-05
-0.1810959085434079   -0.039605849578812705   -0.006867370093823953
-0.1810959085434079   -0.039605849578812705   -0.006867370093823953
-0.1810959085434079   -0.039605849578812705   -0.006867370093823953
-0.1810959085434079   -0.039605849578812705   -0.006867370093823953
-0.174741760248175   -0.015050112254328424   0.004740158654482742
-0.174741760248175   -0.015050112254328424   0.004740158654482742
-0.174741760248175   -0.015050112254328424   0.004740158654482742
-0.174741760248175   -0.015050112254328424   0.004740158654482742
-0.17005426817080263   -0.04338780325835435   -0.0036131181218750515
-0.17005426817080263   -0.04338780325835435   -0.0036131181218750515
-0.17005426817080263   -0.04338780325835435   -0.0036131181218750515
-0.17005426817080263   -0.04338780325835435   -0.0036131181218750515
-0.1713862703929944   -0.025361358543977464   -0.007219484410068494
-0.1713862703929944   -0.025361358543977464   -0.007219484410068494
-0.1713862703929944   -0.025361358543977464   -0.007219484410068494
-0.1713862703929944   -0.025361358543977464   -0.007219484410068494
-0.16276313427211922   -0.013092890972812916   0.0025476390860044943
-0.16276313427211922   -0.013092890972812916   0.0025476390860044943
-0.16276313427211922   -0.013092890972812916   0.0025476390860044943
-0.16276313427211922   -0.013092890972812916   0.0025476390860044943
-0.18309082356660675   -0.04640295395961625   -0.005652316232388139
-0.18309082356660675   -0.04640295395961625   -0.005652316232388139
-0.18309082356660675   -0.04640295395961625   -0.005652316232388139
-0.18309082356660675   -0.04640295395961625   -0.005652316232388139
-0.1764795745437529   -0.023211988278310856   0.007255456116687788
-0.1764795745437529   -0.023211988278310856   0.007255456116687788
-0.1764795745437529   -0.023211988278310856   0.007255456116687788
-0.1764795745437529   -0.023211988278310856   0.007255456116687788
-0.17209998238486446   -0.04992168552844921   -0.0010453367402696945
-0.17209998238486446   -0.04992168552844921   -0.0010453367402696945
-0.17209998238486446   -0.04992168552844921   -0.0010453367402696945
-0.17209998238486446   -0.04992168552844921   -0.0010453367402696945
-0.17401552790570704   -0.032272163927524494   -0.011031769944866678
-0.17401552790570704   -0.032272163927524494   -0.011031769944866678
-0.17401552790570704   -0.032272163927524494   -0.011031769944866678
-0.17401552790570704   -0.032272163927524494   -0.011031769944866678
-0.1660344784359819   0.017830756224689957   0.008331734353294212
-0.1660344784359819   0.017830756224689957   0.008331734353294212
-0.1660344784359819   0.017830756224689957   0.008331734353294212
-0.1660344784359819   0.017830756224689957   0.008331734353294212
-0.19786422862456254   -0.02570768244391185   -0.012152718736929424
-0.19786422862456254   -0.02570768244391185   -0.012152718736929424
-0.19786422862456254   -0.02570768244391185   -0.012152718736929424
-0.19786422862456254   -0.02570768244391185   -0.012152718736929424
-0.18741611423790827   0.0050819879536668985   0.011464417177520147
-0.18741611423790827   0.0050819879536668985   0.011464417177520147
-0.18741611423790827   0.0050819879536668985   0.011464417177520147
-0.18741611423790827   0.0050819879536668985   0.011464417177520147
-0.1789182619850687   -0.028276854444746653   -0.0073081324361901085
-0.1789182619850687   -0.028276854444746653   -0.0073081324361901085
-0.1789182619850687   -0.028276854444746653   -0.0073081324361901085
-0.1789182619850687   -0.028276854444746653   -0.0073081324361901085
-0.18251579884147812   -0.0075836045044015005   -0.0022363808530350554
-0.18251579884147812   -0.0075836045044015005   -0.0022363808530350554
-0.18251579884147812   -0.0075836045044015005   -0.0022363808530350554
-0.18251579884147812   -0.0075836045044015005   -0.0022363808530350554
-0.16784283275411127   0.008885160558074395   0.01090699871577596
-0.16784283275411127   0.008885160558074395   0.01090699871577596
-0.16784283275411127   0.008885160558074395   0.01090699871577596
-0.16784283275411127   0.008885160558074395   0.01090699871577596
-0.19975295448281374   -0.03334143806310601   -0.0117963580302342
-0.19975295448281374   -0.03334143806310601   -0.0117963580302342
-0.19975295448281374   -0.03334143806310601   -0.0117963580302342
-0.19975295448281374   -0.03334143806310601   -0.0117963580302342
-0.19097535235953153   -0.003430991334725221   0.013011458276399929
-0.19097535235953153   -0.003430991334725221   0.013011458276399929
-0.19097535235953153   -0.003430991334725221   0.013011458276399929
-0.19097535235953153   -0.003430991334725221   0.013011458276399929
-0.18076696699450642   -0.03462964621935451   -0.00580634111215202
-0.18076696699450642   -0.03462964621935451   -0.00580634111215202
-0.18076696699450642   -0.03462964621935451   -0.00580634111215202
-0.18076696699450642   -0.03462964621935451   -0.00580634111215202
-0.1843600791947328   -0.0147644482443267   -0.006311945496775159
-0.1843600791947328   -0.0147644482443267   -0.006311945496775159
-0.1843600791947328   -0.0147644482443267   -0.006311945496775159
-0.1843600791947328   -0.0147644482443267   -0.006311945496775159
-0.1698232005416172   0.0008780969668052627   0.013404747966138006
-0.1698232005416172   0.0008780969668052627   0.013404747966138006
-0.1698232005416172   0.0008780969668052627   0.013404747966138006
-0.1698232005416172   0.0008780969668052627   0.013404747966138006
-0.20301134829260767   -0.04003096400107127   -0.010568548722634605
-0.20301134829260767   -0.04003096400107127   -0.010568548722634605
-0.20301134829260767   -0.04003096400107127   -0.010568548722634605
-0.20301134829260767   -0.04003096400107127   -0.010568548722634605
-0.193362818014806   -0.011614108372021332   0.015878883082668018
-0.193362818014806   -0.011614108372021332   0.015878883082668018
-0.193362818014806   -0.011614108372021332   0.015878883082668018
-0.193362818014806   -0.011614108372021332   0.015878883082668018
-0.1823782563785213   -0.041017274443850754   -0.004432666891617945
-0.1823782563785213   -0.041017274443850754   -0.004432666891617945
-0.1823782563785213   -0.041017274443850754   -0.004432666891617945
-0.1823782563785213   -0.041017274443850754   -0.004432666891617945
-0.18752914441546342   -0.021558557801438408   -0.010270593516678462
-0.18752914441546342   -0.021558557801438408   -0.010270593516678462
-0.18752914441546342   -0.021558557801438408   -0.010270593516678462
-0.18752914441546342   -0.021558557801438408   -0.010270593516678462
-0.1818356407397975   0.02559868663047596   0.016683851612504116
-0.1818356407397975   0.02559868663047596   0.016683851612504116
-0.1818356407397975   0.02559868663047596   0.016683851612504116
-0.1818356407397975   0.02559868663047596   0.016683851612504116
-0.1962980400296387   -0.015707943890951096   -0.017547864646328515
-0.1962980400296387   -0.015707943890951096   -0.017547864646328515
-0.1962980400296387   -0.015707943890951096   -0.017547864646328515
-0.1962980400296387   -0.015707943890951096   -0.017547864646328515
-0.1921240320425784   0.017864467588602183   0.018552272022506536
-0.1921240320425784   0.017864467588602183   0.018552272022506536
-0.1921240320425784   0.017864467588602183   0.018552272022506536
-0.1921240320425784   0.017864467588602183   0.018552272022506536
-0.19680274621957056   -0.01965655750831618   -0.010730197268811983
-0.19680274621957056   -0.01965655750831618   -0.010730197268811983
-0.19680274621957056   -0.01965655750831618   -0.010730197268811983
-0.19680274621957056   -0.01965655750831618   -0.010730197268811983
-0.1851802431916818   0.004460973529409357   0.0008733505383054872
-0.1851802431916818   0.004460973529409357   0.0008733505383054872
-0.1851802431916818   0.004460973529409357   0.0008733505383054872
-0.1851802431916818   0.004460973529409357   0.0008733505383054872
-0.18289723179130882   0.019856280589325724   0.01928453677485466
-0.18289723179130882   0.019856280589325724   0.01928453677485466
-0.18289723179130882   0.019856280589325724   0.01928453677485466
-0.18289723179130882   0.019856280589325724   0.01928453677485466
-0.20706671954113126   -0.022685543579328275   -0.015611154302319439
-0.20706671954113126   -0.022685543579328275   -0.015611154302319439
-0.20706671954113126   -0.022685543579328275   -0.015611154302319439
-0.20706671954113126   -0.022685543579328275   -0.015611154302319439
-0.2005797635980423   0.013065690013169665   0.02386023670997724
-0.2005797635980423   0.013065690013169665   0.02386023670997724
-0.2005797635980423   0.013065690013169665   0.02386023670997724
-0.2005797635980423   0.013065690013169665   0.02386023670997724
-0.1995261791774487   -0.023409126492812165   -0.009764540655102471
-0.1995261791774487   -0.023409126492812165   -0.009764540655102471
-0.1995261791774487   -0.023409126492812165   -0.009764540655102471
-0.1995261791774487   -0.023409126492812165   -0.009764540655102471
-0.19431093942398034   -0.0013393725067477116   -0.003979769441907531
-0.19431093942398034   -0.0013393725067477116   -0.003979769441907531
-0.19431093942398034   -0.0013393725067477116   -0.003979769441907531
-0.19431093942398034   -0.0013393725067477116   -0.003979769441907531
-0.1850783109001797   0.01600589004869716   0.023059784189736775
-0.1850783109001797   0.01600589004869716   0.023059784189736775
-0.1850783109001797   0.01600589004869716   0.023059784189736775
-0.1850783109001797   0.01600589004869716   0.023059784189736775
-0.2163675826506824   -0.02768927730370759   -0.014323891236345868
-0.2163675826506824   -0.02768927730370759   -0.014323891236345868
-0.2163675826506824   -0.02768927730370759   -0.014323891236345868
-0.2163675826506824   -0.02768927730370759   -0.014323891236345868
-0.21533124996056982   0.0007962131716962098   0.025480575145814928
-0.21533124996056982   0.0007962131716962098   0.025480575145814928
-0.21533124996056982   0.0007962131716962098   0.025480575145814928
-0.21533124996056982   0.0007962131716962098   0.025480575145814928
-0.20202487258143226   -0.030567031118582708   -0.00847846700390186
-0.20202487258143226   -0.030567031118582708   -0.00847846700390186
-0.20202487258143226   -0.030567031118582708   -0.00847846700390186
-0.20202487258143226   -0.030567031118582708   -0.00847846700390186
-0.19862989895692754   -0.0067024380922035415   -0.008328085861256078
-0.19862989895692754   -0.0067024380922035415   -0.008328085861256078
-0.19862989895692754   -0.0067024380922035415   -0.008328085861256078
-0.19862989895692754   -0.0067024380922035415   -0.008328085861256078
-0.37976262944691164   -0.034820713125477555   -0.036510994433914305
-0.37976262944691164   -0.034820713125477555   -0.036510994433914305
-0.37976262944691164   -0.034820713125477555   -0.036510994433914305
-0.37976262944691164   -0.034820713125477555   -0.036510994433914305
-0.24237822093431677   0.020134805194746204   0.008560940795197695
-0.24237822093431677   0.020134805194746204   0.008560940795197695
-0.24237822093431677   0.020134805194746204   0.008560940795197695
-0.24237822093431677   0.020134805194746204   0.008560940795197695
-0.2546765577233176   -0.016490574669973404   -0.01642588195988205
-0.2546765577233176   -0.016490574669973404   -0.01642588195988205
-0.2546765577233176   -0.016490574669973404   -0.01642588195988205
-0.2546765577233176   -0.016490574669973404   -0.01642588195988205
-0.4045095748702174   -0.04635528528412282   0.04058566198342935
-0.4045095748702174   -0.04635528528412282   0.04058566198342935
-0.4045095748702174   -0.04635528528412282   0.04058566198342935
-0.4045095748702174   -0.04635528528412282   0.04058566198342935
-0.29430424358724044   -0.011467554783111816   0.039531567384966174
-0.29430424358724044   -0.011467554783111816   0.039531567384966174
-0.29430424358724044   -0.011467554783111816   0.039531567384966174
-0.29430424358724044   -0.011467554783111816   0.039531567384966174
-0.41901356906196785   -0.05144226616467962   -0.02684732809476285
-0.41901356906196785   -0.05144226616467962   -0.02684732809476285
-0.41901356906196785   -0.05144226616467962   -0.02684732809476285
-0.41901356906196785   -0.05144226616467962   -0.02684732809476285
-0.2503944468240146   -0.02162547708186361   0.0101195749485227
-0.2503944468240146   -0.02162547708186361   0.0101195749485227
-0.2503944468240146   -0.02162547708186361   0.0101195749485227
-0.2503944468240146   -0.02162547708186361   0.0101195749485227
-0.2588506024112199   -0.02377472410524053   -0.011891266675975178
-0.2588506024112199   -0.02377472410524053   -0.011891266675975178
-0.2588506024112199   -0.02377472410524053   -0.011891266675975178
-0.2588506024112199   -0.02377472410524053   -0.011891266675975178
-0.41776743089047275   -0.06466774137162153   0.0007941368418077389
-0.41776743089047275   -0.06466774137162153   0.0007941368418077389
-0.41776743089047275   -0.06466774137162153   0.0007941368418077389
-0.41776743089047275   -0.06466774137162153   0.0007941368418077389
-0.3263816002445587   -0.039012595507357375   0.009207697982249009
-0.3263816002445587   -0.039012595507357375   0.009207697982249009
-0.3263816002445587   -0.039012595507357375   0.009207697982249009
-0.3263816002445587   -0.039012595507357375   0.009207697982249009
-0.4209727092201729   -0.058167409472915106   -0.021732586705395004
-0.4209727092201729   -0.058167409472915106   -0.021732586705395004
-0.4209727092201729   -0.058167409472915106   -0.021732586705395004
-0.4209727092201729   -0.058167409472915106   -0.021732586705395004
-0.25871550696820966   -0.03334523889063658   -0.0016452746755305885
-0.25871550696820966   -0.03334523889063658   -0.0016452746755305885
-0.25871550696820966   -0.03334523889063658   -0.0016452746755305885
-0.25871550696820966   -0.03334523889063658   -0.0016452746755305885
-0.259270370382648   -0.041294579953656596   -0.008723974550359115
-0.259270370382648   -0.041294579953656596   -0.008723974550359115
-0.259270370382648   -0.041294579953656596   -0.008723974550359115
-0.259270370382648   -0.041294579953656596   -0.008723974550359115
-0.42823404295898165   -0.09858338868916978   0.006167673303407257
-0.42823404295898165   -0.09858338868916978   0.006167673303407257
-0.42823404295898165   -0.09858338868916978   0.006167673303407257
-0.42823404295898165   -0.09858338868916978   0.006167673303407257
-0.32633024666799465   -0.05356505197850646   0.0007811482072908322
-0.32633024666799465   -0.05356505197850646   0.0007811482072908322
-0.32633024666799465   -0.05356505197850646   0.0007811482072908322
-0.32633024666799465   -0.05356505197850646   0.0007811482072908322
-0.2616936634754945   -0.044458565449682984   -0.02342290126625928
-0.2616936634754945   -0.044458565449682984   -0.02342290126625928
-0.2616936634754945   -0.044458565449682984   -0.02342290126625928
-0.2616936634754945   -0.044458565449682984   -0.02342290126625928
-0.18098698296996168   -0.11832309521042905   -0.022118735350005372
-0.18098698296996168   -0.11832309521042905   -0.022118735350005372
-0.18098698296996168   -0.11832309521042905   -0.022118735350005372
-0.18098698296996168   -0.11832309521042905   -0.022118735350005372
-0.15889412277011464   -0.026143490320923182   -0.0015139379605301896
-0.15889412277011464   -0.026143490320923182   -0.0015139379605301896
-0.15889412277011464   -0.026143490320923182   -0.0015139379605301896
-0.15889412277011464   -0.026143490320923182   -0.0015139379605301896
-0.2786703597519322   -0.1251341823047115   -0.027751284468216928
-0.2786703597519322   -0.1251341823047115   -0.027751284468216928
-0.2786703597519322   -0.1251341823047115   -0.027751284468216928
-0.2786703597519322   -0.1251341823047115   -0.027751284468216928
-0.2175372068205547   -0.08325245505898782   -0.006376769632961998
-0.2175372068205547   -0.08325245505898782   -0.006376769632961998
-0.2175372068205547   -0.08325245505898782   -0.006376769632961998
-0.2175372068205547   -0.08325245505898782   -0.006376769632961998
-0.26161142920468433   -0.04991860568589071   -0.017672208350798115
-0.26161142920468433   -0.04991860568589071   -0.017672208350798115
-0.26161142920468433   -0.04991860568589071   -0.017672208350798115
-0.26161142920468433   -0.04991860568589071   -0.017672208350798115
-0.17700725863963387   -0.10241327226201563   -0.01580983536703597
-0.17700725863963387   -0.10241327226201563   -0.01580983536703597
-0.17700725863963387   -0.10241327226201563   -0.01580983536703597
-0.17700725863963387   -0.10241327226201563   -0.01580983536703597
-0.1609257427889267   -0.033827797993708074   0.00012458800742939105
-0.1609257427889267   -0.033827797993708074   0.00012458800742939105
-0.1609257427889267   -0.033827797993708074   0.00012458800742939105
-0.1609257427889267   -0.033827797993708074   0.00012458800742939105
-0.27988006513891456   -0.12446737593467283   -0.016345928485019128
-0.27988006513891456   -0.12446737593467283   -0.016345928485019128
-0.27988006513891456   -0.12446737593467283   -0.016345928485019128
-0.27988006513891456   -0.12446737593467283   -0.016345928485019128
-0.2152738941396298   -0.07803170021968067   -0.006777525709004801
-0.2152738941396298   -0.07803170021968067   -0.006777525709004801
-0.2152738941396298   -0.07803170021968067   -0.006777525709004801
-0.2152738941396298   -0.07803170021968067   -0.006777525709004801
-0.265874491261226   -0.0574996269132526   -0.013285808117993911
-0.265874491261226   -0.0574996269132526   -0.013285808117993911
-0.265874491261226   -0.0574996269132526   -0.013285808117993911
-0.265874491261226   -0.0574996269132526   -0.013285808117993911
-0.17713600323314438   -0.10300023358165729   -0.011754278625711701
-0.17713600323314438   -0.10300023358165729   -0.011754278625711701
-0.17713600323314438   -0.10300023358165729   -0.011754278625711701
-0.17713600323314438   -0.10300023358165729   -0.011754278625711701
-0.161119763968587   -0.04334459882014832   0.0024661242846459796
-0.161119763968587   -0.04334459882014832   0.0024661242846459796
-0.161119763968587   -0.04334459882014832   0.0024661242846459796
-0.161119763968587   -0.04334459882014832   0.0024661242846459796
-0.27941736666565925   -0.12636411423515104   -0.024389421683923395
-0.27941736666565925   -0.12636411423515104   -0.024389421683923395
-0.27941736666565925   -0.12636411423515104   -0.024389421683923395
-0.27941736666565925   -0.12636411423515104   -0.024389421683923395
-0.21876829817504434   -0.08388266397563182   -0.012615035087030081
-0.21876829817504434   -0.08388266397563182   -0.012615035087030081
-0.21876829817504434   -0.08388266397563182   -0.012615035087030081
-0.21876829817504434   -0.08388266397563182   -0.012615035087030081
-0.1590458448654098   -0.028683796435225284   -0.0020523436024495415
-0.1590458448654098   -0.028683796435225284   -0.0020523436024495415
-0.1590458448654098   -0.028683796435225284   -0.0020523436024495415
-0.1590458448654098   -0.028683796435225284   -0.0020523436024495415
-0.13459322948250302   -0.09077734374081362   -0.01566762268969773
-0.13459322948250302   -0.09077734374081362   -0.01566762268969773
-0.13459322948250302   -0.09077734374081362   -0.01566762268969773
-0.13459322948250302   -0.09077734374081362   -0.01566762268969773
-0.11604608897321349   -0.02399799691144221   0.006122073672841768
-0.11604608897321349   -0.02399799691144221   0.006122073672841768
-0.11604608897321349   -0.02399799691144221   0.006122073672841768
-0.11604608897321349   -0.02399799691144221   0.006122073672841768
-0.1764854228193145   -0.0983834368747205   -0.01723049165273433
-0.1764854228193145   -0.0983834368747205   -0.01723049165273433
-0.1764854228193145   -0.0983834368747205   -0.01723049165273433
-0.1764854228193145   -0.0983834368747205   -0.01723049165273433
-0.1459130507532614   -0.061263946899196   -0.007206927399473975
-0.1459130507532614   -0.061263946899196   -0.007206927399473975
-0.1459130507532614   -0.061263946899196   -0.007206927399473975
-0.1459130507532614   -0.061263946899196   -0.007206927399473975
-0.16010790170630715   -0.03398336565426074   0.0002570426918427944
-0.16010790170630715   -0.03398336565426074   0.0002570426918427944
-0.16010790170630715   -0.03398336565426074   0.0002570426918427944
-0.16010790170630715   -0.03398336565426074   0.0002570426918427944
-0.13336674911677276   -0.08934120716245386   -0.015138016793942943
-0.13336674911677276   -0.08934120716245386   -0.015138016793942943
-0.13336674911677276   -0.08934120716245386   -0.015138016793942943
-0.13336674911677276   -0.08934120716245386   -0.015138016793942943
-0.11629083902524417   -0.03032242818724308   0.007950328088122809
-0.11629083902524417   -0.03032242818724308   0.007950328088122809
-0.11629083902524417   -0.03032242818724308   0.007950328088122809
-0.11629083902524417   -0.03032242818724308   0.007950328088122809
-0.17724548493237252   -0.09993924544194104   -0.015362675261568818
-0.17724548493237252   -0.09993924544194104   -0.015362675261568818
-0.17724548493237252   -0.09993924544194104   -0.015362675261568818
-0.17724548493237252   -0.09993924544194104   -0.015362675261568818
-0.145826419497805   -0.0636148811796226   -0.009357438259461481
-0.145826419497805   -0.0636148811796226   -0.009357438259461481
-0.145826419497805   -0.0636148811796226   -0.009357438259461481
-0.145826419497805   -0.0636148811796226   -0.009357438259461481
-0.16167659231225182   -0.040400946652374065   0.0029434890494678487
-0.16167659231225182   -0.040400946652374065   0.0029434890494678487
-0.16167659231225182   -0.040400946652374065   0.0029434890494678487
-0.16167659231225182   -0.040400946652374065   0.0029434890494678487
-0.13238151796414646   -0.09038251329559097   -0.012442981498040778
-0.13238151796414646   -0.09038251329559097   -0.012442981498040778
-0.13238151796414646   -0.09038251329559097   -0.012442981498040778
-0.13238151796414646   -0.09038251329559097   -0.012442981498040778
-0.11515204574530671   -0.03633315086221483   0.009949399951352151
-0.11515204574530671   -0.03633315086221483   0.009949399951352151
-0.11515204574530671   -0.03633315086221483   0.009949399951352151
-0.11515204574530671   -0.03633315086221483   0.009949399951352151
-0.17537981895215654   -0.10114646200014124   -0.01103228745321097
-0.17537981895215654   -0.10114646200014124   -0.01103228745321097
-0.17537981895215654   -0.10114646200014124   -0.01103228745321097
-0.17537981895215654   -0.10114646200014124   -0.01103228745321097
-0.14561739234713678   -0.06674688489469235   -0.010881248946149023
-0.14561739234713678   -0.06674688489469235   -0.010881248946149023
-0.14561739234713678   -0.06674688489469235   -0.010881248946149023
-0.14561739234713678   -0.06674688489469235   -0.010881248946149023
-0.11188620747428943   -0.003886254786965408   0.010976398397522034
-0.11188620747428943   -0.003886254786965408   0.010976398397522034
-0.11188620747428943   -0.003886254786965408   0.010976398397522034
-0.11188620747428943   -0.003886254786965408   0.010976398397522034
-0.10698473767099138   -0.04829473944208931   -0.009488559105731115
-0.10698473767099138   -0.04829473944208931   -0.009488559105731115
-0.10698473767099138   -0.04829473944208931   -0.009488559105731115
-0.10698473767099138   -0.04829473944208931   -0.009488559105731115
-0.09244660437439081   -0.00698586241145375   0.0126751701195965
-0.09244660437439081   -0.00698586241145375   0.0126751701195965
-0.09244660437439081   -0.00698586241145375   0.0126751701195965
-0.09244660437439081   -0.00698586241145375   0.0126751701195965
-0.12490691379515467   -0.05550429712020069   -0.006675750228105588
-0.12490691379515467   -0.05550429712020069   -0.006675750228105588
-0.12490691379515467   -0.05550429712020069   -0.006675750228105588
-0.12490691379515467   -0.05550429712020069   -0.006675750228105588
-0.10941053212080812   -0.028383323792304332   -0.003922105173918912
-0.10941053212080812   -0.028383323792304332   -0.003922105173918912
-0.10941053212080812   -0.028383323792304332   -0.003922105173918912
-0.10941053212080812   -0.028383323792304332   -0.003922105173918912
-0.112122836481069   -0.010923395843570221   0.012663735065692324
-0.112122836481069   -0.010923395843570221   0.012663735065692324
-0.112122836481069   -0.010923395843570221   0.012663735065692324
-0.112122836481069   -0.010923395843570221   0.012663735065692324
-0.10624674689575717   -0.052582828895364905   -0.01072857600332416
-0.10624674689575717   -0.052582828895364905   -0.01072857600332416
-0.10624674689575717   -0.052582828895364905   -0.01072857600332416
-0.10624674689575717   -0.052582828895364905   -0.01072857600332416
-0.09277422048014931   -0.013141972309864828   0.013639281920946919
-0.09277422048014931   -0.013141972309864828   0.013639281920946919
-0.09277422048014931   -0.013141972309864828   0.013639281920946919
-0.09277422048014931   -0.013141972309864828   0.013639281920946919
-0.12507511203294658   -0.058901680994127494   -0.00739178414351248
-0.12507511203294658   -0.058901680994127494   -0.00739178414351248
-0.12507511203294658   -0.058901680994127494   -0.00739178414351248
-0.12507511203294658   -0.058901680994127494   -0.00739178414351248
-0.10911140425534428   -0.03330827665826173   -0.006676187547122897
-0.10911140425534428   -0.03330827665826173   -0.006676187547122897
-0.10911140425534428   -0.03330827665826173   -0.006676187547122897
-0.10911140425534428   -0.03330827665826173   -0.006676187547122897
-0.11231506148523479   -0.016897199479072297   0.014403987079995042
-0.11231506148523479   -0.016897199479072297   0.014403987079995042
-0.11231506148523479   -0.016897199479072297   0.014403987079995042
-0.11231506148523479   -0.016897199479072297   0.014403987079995042
-0.10615052097684871   -0.05576270377390635   -0.010621489098504659
-0.10615052097684871   -0.05576270377390635   -0.010621489098504659
-0.10615052097684871   -0.05576270377390635   -0.010621489098504659
-0.10615052097684871   -0.05576270377390635   -0.010621489098504659
-0.09219175343439365   -0.018930341527974615   0.01581549474362743
-0.09219175343439365   -0.018930341527974615   0.01581549474362743
-0.09219175343439365   -0.018930341527974615   0.01581549474362743
-0.09219175343439365   -0.018930341527974615   0.01581549474362743
-0.12333446261279642   -0.06228230623304873   -0.005013529015262424
-0.12333446261279642   -0.06228230623304873   -0.005013529015262424
-0.12333446261279642   -0.06228230623304873   -0.005013529015262424
-0.12333446261279642   -0.06228230623304873   -0.005013529015262424
-0.10900600601742064   -0.037580861493930584   -0.008618874774846633
-0.10900600601742064   -0.037580861493930584   -0.008618874774846633
-0.10900600601742064   -0.037580861493930584   -0.008618874774846633
-0.10900600601742064   -0.037580861493930584   -0.008618874774846633
-0.08946928092352818   0.012605148247863188   0.017188836941632413
-0.08946928092352818   0.012605148247863188   0.017188836941632413
-0.08946928092352818   0.012605148247863188   0.017188836941632413
-0.08946928092352818   0.012605148247863188   0.017188836941632413
-0.061072924474949955   -0.016062032542727304   -0.00591585203025469
-0.061072924474949955   -0.016062032542727304   -0.00591585203025469
-0.061072924474949955   -0.016062032542727304   -0.00591585203025469
-0.061072924474949955   -0.016062032542727304   -0.00591585203025469
-0.053758374757675115   0.01449863299487263   0.017001383785228943
-0.053758374757675115   0.01449863299487263   0.017001383785228943
-0.053758374757675115   0.01449863299487263   0.017001383785228943
-0.053758374757675115   0.01449863299487263   0.017001383785228943
-0.09903916480446483   -0.024194164831849517   -0.0030793296103778923
-0.09903916480446483   -0.024194164831849517   -0.0030793296103778923
-0.09903916480446483   -0.024194164831849517   -0.0030793296103778923
-0.09903916480446483   -0.024194164831849517   -0.0030793296103778923
-0.07472720480224145   -0.0016033578959388332   -0.0030116698671569277
-0.07472720480224145   -0.0016033578959388332   -0.0030116698671569277
-0.07472720480224145   -0.0016033578959388332   -0.0030116698671569277
-0.07472720480224145   -0.0016033578959388332   -0.0030116698671569277
-0.08824036444326872   0.007955049811214362   0.01876545755253888
-0.08824036444326872   0.007955049811214362   0.01876545755253888
-0.08824036444326872   0.007955049811214362   0.01876545755253888
-0.08824036444326872   0.007955049811214362   0.01876545755253888
-0.06467597262273828   -0.017769379152059568   -0.005318593393154703
-0.06467597262273828   -0.017769379152059568   -0.005318593393154703
-0.06467597262273828   -0.017769379152059568   -0.005318593393154703
-0.06467597262273828   -0.017769379152059568   -0.005318593393154703
-0.05629224713705923   0.011465351901206606   0.021373919274601944
-0.05629224713705923   0.011465351901206606   0.021373919274601944
-0.05629224713705923   0.011465351901206606   0.021373919274601944
-0.05629224713705923   0.011465351901206606   0.021373919274601944
-0.09880744697097221   -0.02578722716978177   -0.003881595673250639
-0.09880744697097221   -0.02578722716978177   -0.003881595673250639
-0.09880744697097221   -0.02578722716978177   -0.003881595673250639
-0.09880744697097221   -0.02578722716978177   -0.003881595673250639
-0.07717733269149896   -0.004909912478779636   -0.004376841868536541
-0.07717733269149896   -0.004909912478779636   -0.004376841868536541
-0.07717733269149896   -0.004909912478779636   -0.004376841868536541
-0.07717733269149896   -0.004909912478779636   -0.004376841868536541
-0.08750161066657285   0.005267305896814928   0.0215930527821495
-0.08750161066657285   0.005267305896814928   0.0215930527821495
-0.08750161066657285   0.005267305896814928   0.0215930527821495
-0.08750161066657285   0.005267305896814928   0.0215930527821495
-0.06837236639699544   -0.02036346412092566   -0.007197861002946851
-0.06837236639699544   -0.02036346412092566   -0.007197861002946851
-0.06837236639699544   -0.02036346412092566   -0.007197861002946851
-0.06837236639699544   -0.02036346412092566   -0.007197861002946851
-0.06432880855899512   0.0031168946825330356   0.022245097979239712
-0.06432880855899512   0.0031168946825330356   0.022245097979239712
-0.06432880855899512   0.0031168946825330356   0.022245097979239712
-0.06432880855899512   0.0031168946825330356   0.022245097979239712
-0.09767249336635238   -0.02728766968543055   -0.0032308767587103287
-0.09767249336635238   -0.02728766968543055   -0.0032308767587103287
-0.09767249336635238   -0.02728766968543055   -0.0032308767587103287
-0.09767249336635238   -0.02728766968543055   -0.0032308767587103287
-0.0784416090728103   -0.007343526315492312   -0.006510129232108384
-0.0784416090728103   -0.007343526315492312   -0.006510129232108384
-0.0784416090728103   -0.007343526315492312   -0.006510129232108384
-0.0784416090728103   -0.007343526315492312   -0.006510129232108384
-0.9048104672954486   -0.1292755459640397   -0.07605856863759985
-0.9048104672954486   -0.1292755459640397   -0.07605856863759985
-0.9048104672954486   -0.1292755459640397   -0.07605856863759985
-0.9048104672954486   -0.1292755459640397   -0.07605856863759985
-0.3154660649329485   -0.5077961721190507   -0.05931011747680755
-0.3154660649329485   -0.5077961721190507   -0.05931011747680755
-0.3154660649329485   -0.5077961721190507   -0.05931011747680755
-0.3154660649329485   -0.5077961721190507   -0.05931011747680755
-0.2422018494813235   -0.021976064368396338   0.00017404117316787912
-0.2422018494813235   -0.021976064368396338   0.00017404117316787912
-0.2422018494813235   -0.021976064368396338   0.00017404117316787912
-0.2422018494813235   -0.021976064368396338   0.00017404117316787912
-0.9691992119676035   -0.5944373356148098   -0.31272730951648264
-0.9691992119676035   -0.5944373356148098   -0.31272730951648264
-0.9691992119676035   -0.5944373356148098   -0.31272730951648264
-0.9691992119676035   -0.5944373356148098   -0.31272730951648264
-0.5926654713065587   -0.2953769474383662   -0.043085006368840995
-0.5926654713065587   -0.2953769474383662   -0.043085006368840995
-0.5926654713065587   -0.2953769474383662   -0.043085006368840995
-0.5926654713065587   -0.2953769474383662   -0.043085006368840995
-0.8409317953271982   -0.16243531179838272   -0.10339225013088943
-0.8409317953271982   -0.16243531179838272   -0.10339225013088943
-0.8409317953271982   -0.16243531179838272   -0.10339225013088943
-0.8409317953271982   -0.16243531179838272   -0.10339225013088943
-0.3411415855687663   -0.4246504076318616   -0.0918502960005791
-0.3411415855687663   -0.4246504076318616   -0.0918502960005791
-0.3411415855687663   -0.4246504076318616   -0.0918502960005791
-0.3411415855687663   -0.4246504076318616   -0.0918502960005791
-0.24750333579562167   -0.02892622000718547   0.009237648569136978
-0.24750333579562167   -0.02892622000718547   0.009237648569136978
-0.24750333579562167   -0.02892622000718547   0.009237648569136978
-0.24750333579562167   -0.02892622000718547   0.009237648569136978
-0.9072269139125203   -0.5315926559867815   -0.28776391397986034
-0.9072269139125203   -0.5315926559867815   -0.28776391397986034
-0.9072269139125203   -0.5315926559867815   -0.28776391397986034
-0.9072269139125203   -0.5315926559867815   -0.28776391397986034
-0.5584475494653185   -0.2667863466188113   0.022266523158648653
-0.5584475494653185   -0.2667863466188113   0.022266523158648653
-0.5584475494653185   -0.2667863466188113   0.022266523158648653
-0.5584475494653185   -0.2667863466188113   0.022266523158648653
-0.789767867390448   -0.15469910292602967   -0.0773622344302578
-0.789767867390448   -0.15469910292602967   -0.0773622344302578
-0.789767867390448   -0.15469910292602967   -0.0773622344302578
-0.789767867390448   -0.15469910292602967   -0.0773622344302578
-0.3323305233921301   -0.3731879141423742   -0.07063659527821387
-0.3323305233921301   -0.3731879141423742   -0.07063659527821387
-0.3323305233921301   -0.3731879141423742   -0.07063659527821387
-0.3323305233921301   -0.3731879141423742   -0.07063659527821387
-0.2853957012987011   -0.07428302934426688   -0.015168871632354895
-0.2853957012987011   -0.07428302934426688   -0.015168871632354895
-0.2853957012987011   -0.07428302934426688   -0.015168871632354895
-0.2853957012987011   -0.07428302934426688   -0.015168871632354895
-0.8270382463554884   -0.4485179049070931   -0.2551112302525163
-0.8270382463554884   -0.4485179049070931   -0.2551112302525163
-0.8270382463554884   -0.4485179049070931   -0.2551112302525163
-0.8270382463554884   -0.4485179049070931   -0.2551112302525163
-0.5175512122866346   -0.2316229963618112   0.09621580671179857
-0.5175512122866346   -0.2316229963618112   0.09621580671179857
-0.5175512122866346   -0.2316229963618112   0.09621580671179857
-0.5175512122866346   -0.2316229963618112   0.09621580671179857
-0.23135320990511915   -0.12773416368233526   -0.018807850774379034
-0.23135320990511915   -0.12773416368233526   -0.018807850774379034
-0.23135320990511915   -0.12773416368233526   -0.018807850774379034
-0.23135320990511915   -0.12773416368233526   -0.018807850774379034
-0.10828291315208673   -0.1641749961356349   -0.026817198851296523
-0.10828291315208673   -0.1641749961356349   -0.026817198851296523
-0.10828291315208673   -0.1641749961356349   -0.026817198851296523
-0.10828291315208673   -0.1641749961356349   -0.026817198851296523
-0.09469475492045802   -0.08232076935872609   0.0023401754302358885
-0.09469475492045802   -0.08232076935872609   0.0023401754302358885
-0.09469475492045802   -0.08232076935872609   0.0023401754302358885
-0.09469475492045802   -0.08232076935872609   0.0023401754302358885
-0.2851733515052281   -0.23747266078941395   0.0008131274746638745
-0.2851733515052281   -0.23747266078941395   0.0008131274746638745
-0.2851733515052281   -0.23747266078941395   0.0008131274746638745
-0.2851733515052281   -0.23747266078941395   0.0008131274746638745
-0.1525801005791743   -0.11481782946867479   0.04935303571691344
-0.1525801005791743   -0.11481782946867479   0.04935303571691344
-0.1525801005791743   -0.11481782946867479   0.04935303571691344
-0.1525801005791743   -0.11481782946867479   0.04935303571691344
-0.2640811314166927   -0.11908813859869607   -0.012110294273379344
-0.2640811314166927   -0.11908813859869607   -0.012110294273379344
-0.2640811314166927   -0.11908813859869607   -0.012110294273379344
-0.2640811314166927   -0.11908813859869607   -0.012110294273379344
-0.12398102774756267   -0.2088993442880136   -0.017512613775999816
-0.12398102774756267   -0.2088993442880136   -0.017512613775999816
-0.12398102774756267   -0.2088993442880136   -0.017512613775999816
-0.12398102774756267   -0.2088993442880136   -0.017512613775999816
-0.10266340551062694   -0.08525681288518516   0.0024902271341315056
-0.10266340551062694   -0.08525681288518516   0.0024902271341315056
-0.10266340551062694   -0.08525681288518516   0.0024902271341315056
-0.10266340551062694   -0.08525681288518516   0.0024902271341315056
-0.2996711037261891   -0.2349177441543267   -0.04560966693655662
-0.2996711037261891   -0.2349177441543267   -0.04560966693655662
-0.2996711037261891   -0.2349177441543267   -0.04560966693655662
-0.2996711037261891   -0.2349177441543267   -0.04560966693655662
-0.18268087745696293   -0.14684380353023668   0.022178390599617875
-0.18268087745696293   -0.14684380353023668   0.022178390599617875
-0.18268087745696293   -0.14684380353023668   0.022178390599617875
-0.18268087745696293   -0.14684380353023668   0.022178390599617875
-0.27297716354047086   -0.124357626625366   -0.022700083536928675
-0.27297716354047086   -0.124357626625366   -0.022700083536928675
-0.27297716354047086   -0.124357626625366   -0.022700083536928675
-0.27297716354047086   -0.124357626625366   -0.022700083536928675
-0.12861285720939758   -0.1950724419271987   -0.01744140231770812
-0.12861285720939758   -0.1950724419271987   -0.01744140231770812
-0.12861285720939758   -0.1950724419271987   -0.01744140231770812
-0.12861285720939758   -0.1950724419271987   -0.01744140231770812
-0.11507403299295701   -0.08788117785009839   0.003681926568637625
-0.11507403299295701   -0.08788117785009839   0.003681926568637625
-0.11507403299295701   -0.08788117785009839   0.003681926568637625
-0.11507403299295701   -0.08788117785009839   0.003681926568637625
-0.3211239573255086   -0.22861290156186873   -0.039480279548788334
-0.3211239573255086   -0.22861290156186873   -0.039480279548788334
-0.3211239573255086   -0.22861290156186873   -0.039480279548788334
-0.3211239573255086   -0.22861290156186873   -0.039480279548788334
-0.19166067880025528   -0.13848396881193853   0.0233944765511238
-0.19166067880025528   -0.13848396881193853   0.0233944765511238
-0.19166067880025528   -0.13848396881193853   0.0233944765511238
-0.19166067880025528   -0.13848396881193853   0.0233944765511238
-0.08425549712197228   -0.07645607974836614   0.005600964912005096
-0.08425549712197228   -0.07645607974836614   0.005600964912005096
-0.08425549712197228   -0.07645607974836614   0.005600964912005096
-0.08425549712197228   -0.07645607974836614   0.005600964912005096
-0.05255296247552431   -0.05314962167035532   -0.013189829920475968
-0.05255296247552431   -0.05314962167035532   -0.013189829920475968
-0.05255296247552431   -0.05314962167035532   -0.013189829920475968
-0.05255296247552431   -0.05314962167035532   -0.013189829920475968
-0.050590186092140665   -0.06864645859524102   0.005559163017489172
-0.050590186092140665   -0.06864645859524102   0.005559163017489172
-0.050590186092140665   -0.06864645859524102   0.005559163017489172
-0.050590186092140665   -0.06864645859524102   0.005559163017489172
-0.09414649151211098   -0.07173696799215051   -0.0055023088946044435
-0.09414649151211098   -0.07173696799215051   -0.0055023088946044435
-0.09414649151211098   -0.07173696799215051   -0.0055023088946044435
-0.09414649151211098   -0.07173696799215051   -0.0055023088946044435
-0.05931357176892149   -0.056832033188031914   0.024834373363725504
-0.05931357176892149   -0.056832033188031914   0.024834373363725504
-0.05931357176892149   -0.056832033188031914   0.024834373363725504
-0.05931357176892149   -0.056832033188031914   0.024834373363725504
-0.09287792436279332   -0.07699593923408496   0.006099498093918278
-0.09287792436279332   -0.07699593923408496   0.006099498093918278
-0.09287792436279332   -0.07699593923408496   0.006099498093918278
-0.09287792436279332   -0.07699593923408496   0.006099498093918278
-0.052752324484232144   -0.06428105859607912   -0.009616928942126336
-0.052752324484232144   -0.06428105859607912   -0.009616928942126336
-0.052752324484232144   -0.06428105859607912   -0.009616928942126336
-0.052752324484232144   -0.06428105859607912   -0.009616928942126336
-0.05140322047085241   -0.07070174106643502   0.0049825821544449145
-0.05140322047085241   -0.07070174106643502   0.0049825821544449145
-0.05140322047085241   -0.07070174106643502   0.0049825821544449145
-0.05140322047085241   -0.07070174106643502   0.0049825821544449145
-0.10034531419349882   -0.08347543913152404   0.012299309966110956
-0.10034531419349882   -0.08347543913152404   0.012299309966110956
-0.10034531419349882   -0.08347543913152404   0.012299309966110956
-0.10034531419349882   -0.08347543913152404   0.012299309966110956
-0.06490609761924458   -0.06340792281286044   0.020792262031703486
-0.06490609761924458   -0.06340792281286044   0.020792262031703486
-0.06490609761924458   -0.06340792281286044   0.020792262031703486
-0.06490609761924458   -0.06340792281286044   0.020792262031703486
-0.10044027725210228   -0.07986321478771702   0.00821227032928477
-0.10044027725210228   -0.07986321478771702   0.00821227032928477
-0.10044027725210228   -0.07986321478771702   0.00821227032928477
-0.10044027725210228   -0.07986321478771702   0.00821227032928477
-0.055737815285887435   -0.07874352328388083   -0.008648609703284387
-0.055737815285887435   -0.07874352328388083   -0.008648609703284387
-0.055737815285887435   -0.07874352328388083   -0.008648609703284387
-0.055737815285887435   -0.07874352328388083   -0.008648609703284387
-0.05242393754792278   -0.0729414799789465   0.007036741248532829
-0.05242393754792278   -0.0729414799789465   0.007036741248532829
-0.05242393754792278   -0.0729414799789465   0.007036741248532829
-0.05242393754792278   -0.0729414799789465   0.007036741248532829
-0.11800972501546983   -0.10214285325045173   0.0032651418564269077
-0.11800972501546983   -0.10214285325045173   0.0032651418564269077
-0.11800972501546983   -0.10214285325045173   0.0032651418564269077
-0.11800972501546983   -0.10214285325045173   0.0032651418564269077
-0.07290964184458415   -0.07208986638863477   0.00948196029893078
-0.07290964184458415   -0.07208986638863477   0.00948196029893078
-0.07290964184458415   -0.07208986638863477   0.00948196029893078
-0.07290964184458415   -0.07208986638863477   0.00948196029893078
-0.0424260768781143   -0.030521916819269933   0.014816893215488677
-0.0424260768781143   -0.030521916819269933   0.014816893215488677
-0.0424260768781143   -0.030521916819269933   0.014816893215488677
-0.0424260768781143   -0.030521916819269933   0.014816893215488677
-0.03054765186296609   -0.0017499687534609657   -0.003012520552592033
-0.03054765186296609   -0.0017499687534609657   -0.003012520552592033
-0.03054765186296609   -0.0017499687534609657   -0.003012520552592033
-0.03054765186296609   -0.0017499687534609657   -0.003012520552592033
-0.028933114506347446   -0.03314400472259898   0.00915191247109574
-0.028933114506347446   -0.03314400472259898   0.00915191247109574
-0.028933114506347446   -0.03314400472259898   0.00915191247109574
-0.028933114506347446   -0.03314400472259898   0.00915191247109574
-0.039822217973579134   -0.0076947485824371085   -0.0015527064025032903
-0.039822217973579134   -0.0076947485824371085   -0.0015527064025032903
-0.039822217973579134   -0.0076947485824371085   -0.0015527064025032903
-0.039822217973579134   -0.0076947485824371085   -0.0015527064025032903
-0.03272089135784874   -0.017400572630712634   0.0073453122954965765
-0.03272089135784874   -0.017400572630712634   0.0073453122954965765
-0.03272089135784874   -0.017400572630712634   0.0073453122954965765
-0.03272089135784874   -0.017400572630712634   0.0073453122954965765
-0.04213197160000291   -0.03481116938246756   0.014014946265408286
-0.04213197160000291   -0.03481116938246756   0.014014946265408286
-0.04213197160000291   -0.03481116938246756   0.014014946265408286
-0.04213197160000291   -0.03481116938246756   0.014014946265408286
-0.02592228740724697   -0.005326510449891823   -0.003611446306109034
-0.02592228740724697   -0.005326510449891823   -0.003611446306109034
-0.02592228740724697   -0.005326510449891823   -0.003611446306109034
-0.02592228740724697   -0.005326510449891823   -0.003611446306109034
-0.026735569995108628   -0.03605976117362678   0.008478272921153126
-0.026735569995108628   -0.03605976117362678   0.008478272921153126
-0.026735569995108628   -0.03605976117362678   0.008478272921153126
-0.026735569995108628   -0.03605976117362678   0.008478272921153126
-0.04039878406670338   -0.0136724731265335   0.0029754962352885666
-0.04039878406670338   -0.0136724731265335   0.0029754962352885666
-0.04039878406670338   -0.0136724731265335   0.0029754962352885666
-0.04039878406670338   -0.0136724731265335   0.0029754962352885666
-0.030297020024678774   -0.02000574199311373   0.008570984940468441
-0.030297020024678774   -0.02000574199311373   0.008570984940468441
-0.030297020024678774   -0.02000574199311373   0.008570984940468441
-0.030297020024678774   -0.02000574199311373   0.008570984940468441
-0.042593342155208234   -0.03771743638052534   0.01604766904675995
-0.042593342155208234   -0.03771743638052534   0.01604766904675995
-0.042593342155208234   -0.03771743638052534   0.01604766904675995
-0.042593342155208234   -0.03771743638052534   0.01604766904675995
-0.02482890129658442   -0.012302687309614958   -0.005745457450237676
-0.02482890129658442   -0.012302687309614958   -0.005745457450237676
-0.02482890129658442   -0.012302687309614958   -0.005745457450237676
-0.02482890129658442   -0.012302687309614958   -0.005745457450237676
-0.02274657253612693   -0.03929130640185226   0.00935358006405042
-0.02274657253612693   -0.03929130640185226   0.00935358006405042
-0.02274657253612693   -0.03929130640185226   0.00935358006405042
-0.02274657253612693   -0.03929130640185226   0.00935358006405042
-0.04405267223198942   -0.027904613095848546   0.003856200945101684
-0.04405267223198942   -0.027904613095848546   0.003856200945101684
-0.04405267223198942   -0.027904613095848546   0.003856200945101684
-0.04405267223198942   -0.027904613095848546   0.003856200945101684
-0.029490493186455035   -0.02513651244993405   0.007187935314785505
-0.029490493186455035   -0.02513651244993405   0.007187935314785505
-0.029490493186455035   -0.02513651244993405   0.007187935314785505
-0.029490493186455035   -0.02513651244993405   0.007187935314785505
-0.02763265470328425   -0.0051902574032266545   0.015002753895582845
-0.02763265470328425   -0.0051902574032266545   0.015002753895582845
-0.02763265470328425   -0.0051902574032266545   0.015002753895582845
-0.02763265470328425   -0.0051902574032266545   0.015002753895582845
-0.005429543165407259   0.0029116460844225657   -0.00030347752642903764
-0.005429543165407259   0.0029116460844225657   -0.00030347752642903764
-0.005429543165407259   0.0029116460844225657   -0.00030347752642903764
-0.005429543165407259   0.0029116460844225657   -0.00030347752642903764
0.0009217734426099585   -0.0017156379666650287   0.009352366468469748
0.0009217734426099585   -0.0017156379666650287   0.009352366468469748
0.0009217734426099585   -0.0017156379666650287   0.009352366468469748
0.0009217734426099585   -0.0017156379666650287   0.009352366468469748
-0.023928267991163356   0.0019756586266304237   -0.0009435183022132095
-0.023928267991163356   0.0019756586266304237   -0.0009435183022132095
-0.023928267991163356   0.0019756586266304237   -0.0009435183022132095
-0.023928267991163356   0.0019756586266304237   -0.0009435183022132095
-0.01422023682208968   -0.001133638957334392   -0.001099266947164861
-0.01422023682208968   -0.001133638957334392   -0.001099266947164861
-0.01422023682208968   -0.001133638957334392   -0.001099266947164861
-0.01422023682208968   -0.001133638957334392   -0.001099266947164861
-0.022019975282823567   -0.0050497835268526825   0.015623387392965003
-0.022019975282823567   -0.0050497835268526825   0.015623387392965003
-0.022019975282823567   -0.0050497835268526825   0.015623387392965003
-0.022019975282823567   -0.0050497835268526825   0.015623387392965003
-0.00017539801231907502   0.0061209254402281935   -0.0039700542130686415
-0.00017539801231907502   0.0061209254402281935   -0.0039700542130686415
-0.00017539801231907502   0.0061209254402281935   -0.0039700542130686415
-0.00017539801231907502   0.0061209254402281935   -0.0039700542130686415
0.00398899133770931   -0.0021437138828395855   0.011539532452778766
0.00398899133770931   -0.0021437138828395855   0.011539532452778766
0.00398899133770931   -0.0021437138828395855   0.011539532452778766
0.00398899133770931   -0.0021437138828395855   0.011539532452778766
-0.021246208758167677   0.0012302053487882368   -0.0013648874165571384
-0.021246208758167677   0.0012302053487882368   -0.0013648874165571384
-0.021246208758167677   0.0012302053487882368   -0.0013648874165571384
-0.021246208758167677   0.0012302053487882368   -0.0013648874165571384
-0.00966376099489705   -0.00040470861627211335   0.0014178325426239453
-0.00966376099489705   -0.00040470861627211335   0.0014178325426239453
-0.00966376099489705   -0.00040470861627211335   0.0014178325426239453
-0.00966376099489705   -0.00040470861627211335   0.0014178325426239453
-0.018990375602151586   -0.005682164182420368   0.016826647894731914
-0.018990375602151586   -0.005682164182420368   0.016826647894731914
-0.018990375602151586   -0.005682164182420368   0.016826647894731914
-0.018990375602151586   -0.005682164182420368   0.016826647894731914
0.0024375340597508647   0.0054730315264273025   -0.0038344993462803463
0.0024375340597508647   0.0054730315264273025   -0.0038344993462803463
0.0024375340597508647   0.0054730315264273025   -0.0038344993462803463
0.0024375340597508647   0.0054730315264273025   -0.0038344993462803463
0.006992793935242497   -0.0034571500998245583   0.011256433867720909
0.006992793935242497   -0.0034571500998245583   0.011256433867720909
0.006992793935242497   -0.0034571500998245583   0.011256433867720909
0.006992793935242497   -0.0034571500998245583   0.011256433867720909
-0.01688934848811079   0.0008711694407490221   -0.0015227755384701533
-0.01688934848811079   0.0008711694407490221   -0.0015227755384701533
-0.01688934848811079   0.0008711694407490221   -0.0015227755384701533
-0.01688934848811079   0.0008711694407490221   -0.0015227755384701533
-0.0056451832148337   -4.022364758349815e-05   0.00356232167287768
-0.0056451832148337   -4.022364758349815e-05   0.00356232167287768
-0.0056451832148337   -4.022364758349815e-05   0.00356232167287768
-0.0056451832148337   -4.022364758349815e-05   0.00356232167287768
              </DataArray>   
             <DataArray type="Float64" NumberOfComponents="3" Name="Displacements" format="ascii">   
0.0   0.0   0.0
-0.002528156914613667   -0.0016653255186624425   -0.0008473179693583785
0.0   0.0   0.0
0.0   0.0   0.0
-0.002528156914613667   -0.0016653255186624425   -0.0008473179693583785
-0.0016081126455709891   -0.0014977677157711165   -0.0006226061546235928
0.0   0.0   0.0
-0.001575897108898876   -0.0015725410470573767   -0.0005217457529463548
0.0   0.0   0.0
0.0   0.0   0.0
-0.001575897108898876   -0.0015725410470573767   -0.0005217457529463548
0.0   0.0   0.0
0.0   0.0   0.0
-0.001575897108898876   -0.0015725410470573767   -0.0005217457529463548
-0.0026453260416187748   -0.0017738503369523336   -0.0006804811528009116
-0.002528156914613667   -0.0016653255186624425   -0.0008473179693583785
0.0   0.0   0.0
-0.001575897108898876   -0.0015725410470573767   -0.0005217457529463548
-0.002528156914613667   -0.0016653255186624425   -0.0008473179693583785
0.0   0.0   0.0
0.0   0.0   0.0
-0.0026453260416187748   -0.0017738503369523336   -0.0006804811528009116
0.0   0.0   0.0
0.0   0.0   0.0
-0.0026453260416187748   -0.0017738503369523336   -0.0006804811528009116
-0.001575897108898876   -0.0015725410470573767   -0.0005217457529463548
0.0   0.0   0.0
-0.0015798956155890027   -0.0016109113337669713   -0.0004210814650068631
0.0   0.0   0.0
0.0   0.0   0.0
-0.0015798956155890027   -0.0016109113337669713   -0.0004210814650068631
0.0   0.0   0.0
0.0   0.0   0.0
-0.0015798956155890027   -0.0016109113337669713   -0.0004210814650068631
-0.002727408112609548   -0.0018266469161086444   -0.000520722010519181
-0.0026453260416187748   -0.0017738503369523336   -0.0006804811528009116
0.0   0.0   0.0
-0.0015798956155890027   -0.0016109113337669713   -0.0004210814650068631
-0.0026453260416187748   -0.0017738503369523336   -0.0006804811528009116
0.0   0.0   0.0
0.0   0.0   0.0
-0.002727408112609548   -0.0018266469161086444   -0.000520722010519181
0.0   0.0   0.0
0.0   0.0   0.0
-0.002727408112609548   -0.0018266469161086444   -0.000520722010519181
-0.0015798956155890027   -0.0016109113337669713   -0.0004210814650068631
0.0   0.0   0.0
-0.0015785626441709884   -0.001620841265444887   -0.00031705663680416525
0.0   0.0   0.0
0.0   0.0   0.0
-0.0015785626441709884   -0.001620841265444887   -0.00031705663680416525
0.0   0.0   0.0
0.0   0.0   0.0
-0.0015785626441709884   -0.001620841265444887   -0.00031705663680416525
-0.0029046779163342125   -0.0018668050992631108   -0.00033544144285334575
-0.002727408112609548   -0.0018266469161086444   -0.000520722010519181
0.0   0.0   0.0
-0.0015785626441709884   -0.001620841265444887   -0.00031705663680416525
-0.002727408112609548   -0.0018266469161086444   -0.000520722010519181
0.0   0.0   0.0
0.0   0.0   0.0
-0.0016081126455709891   -0.0014977677157711165   -0.0006226061546235928
0.0   0.0   0.0
0.0   0.0   0.0
-0.0016081126455709891   -0.0014977677157711165   -0.0006226061546235928
-0.0007328587323345762   -0.00143640767589371   -0.00047375828942556166
0.0   0.0   0.0
-0.0007044186650819713   -0.0014850235922017872   -0.0004260893949901983
0.0   0.0   0.0
0.0   0.0   0.0
-0.0007044186650819713   -0.0014850235922017872   -0.0004260893949901983
0.0   0.0   0.0
0.0   0.0   0.0
-0.0007044186650819713   -0.0014850235922017872   -0.0004260893949901983
-0.001575897108898876   -0.0015725410470573767   -0.0005217457529463548
-0.0016081126455709891   -0.0014977677157711165   -0.0006226061546235928
0.0   0.0   0.0
-0.0007044186650819713   -0.0014850235922017872   -0.0004260893949901983
-0.0016081126455709891   -0.0014977677157711165   -0.0006226061546235928
0.0   0.0   0.0
0.0   0.0   0.0
-0.001575897108898876   -0.0015725410470573767   -0.0005217457529463548
0.0   0.0   0.0
0.0   0.0   0.0
-0.001575897108898876   -0.0015725410470573767   -0.0005217457529463548
-0.0007044186650819713   -0.0014850235922017872   -0.0004260893949901983
0.0   0.0   0.0
-0.0006882636149995201   -0.0015035724521110056   -0.00037971541712221565
0.0   0.0   0.0
0.0   0.0   0.0
-0.0006882636149995201   -0.0015035724521110056   -0.00037971541712221565
0.0   0.0   0.0
0.0   0.0   0.0
-0.0006882636149995201   -0.0015035724521110056   -0.00037971541712221565
-0.0015798956155890027   -0.0016109113337669713   -0.0004210814650068631
-0.001575897108898876   -0.0015725410470573767   -0.0005217457529463548
0.0   0.0   0.0
-0.0006882636149995201   -0.0015035724521110056   -0.00037971541712221565
-0.001575897108898876   -0.0015725410470573767   -0.0005217457529463548
0.0   0.0   0.0
0.0   0.0   0.0
-0.0015798956155890027   -0.0016109113337669713   -0.0004210814650068631
0.0   0.0   0.0
0.0   0.0   0.0
-0.0015798956155890027   -0.0016109113337669713   -0.0004210814650068631
-0.0006882636149995201   -0.0015035724521110056   -0.00037971541712221565
0.0   0.0   0.0
-0.0006734795325167203   -0.0014958765028533385   -0.00033182536058264724
0.0   0.0   0.0
0.0   0.0   0.0
-0.0006734795325167203   -0.0014958765028533385   -0.00033182536058264724
0.0   0.0   0.0
0.0   0.0   0.0
-0.0006734795325167203   -0.0014958765028533385   -0.00033182536058264724
-0.0015785626441709884   -0.001620841265444887   -0.00031705663680416525
-0.0015798956155890027   -0.0016109113337669713   -0.0004210814650068631
0.0   0.0   0.0
-0.0006734795325167203   -0.0014958765028533385   -0.00033182536058264724
-0.0015798956155890027   -0.0016109113337669713   -0.0004210814650068631
0.0   0.0   0.0
0.0   0.0   0.0
-0.0007328587323345762   -0.00143640767589371   -0.00047375828942556166
0.0   0.0   0.0
0.0   0.0   0.0
-0.0007328587323345762   -0.00143640767589371   -0.00047375828942556166
9.371079704780648e-05   -0.001444339226762801   -0.00037904218890155543
0.0   0.0   0.0
0.00011207069924296261   -0.001469477081425483   -0.00038550949814307353
0.0   0.0   0.0
0.0   0.0   0.0
0.00011207069924296261   -0.001469477081425483   -0.00038550949814307353
0.0   0.0   0.0
0.0   0.0   0.0
0.00011207069924296261   -0.001469477081425483   -0.00038550949814307353
-0.0007044186650819713   -0.0014850235922017872   -0.0004260893949901983
-0.0007328587323345762   -0.00143640767589371   -0.00047375828942556166
0.0   0.0   0.0
0.00011207069924296261   -0.001469477081425483   -0.00038550949814307353
-0.0007328587323345762   -0.00143640767589371   -0.00047375828942556166
0.0   0.0   0.0
0.0   0.0   0.0
-0.0007044186650819713   -0.0014850235922017872   -0.0004260893949901983
0.0   0.0   0.0
0.0   0.0   0.0
-0.0007044186650819713   -0.0014850235922017872   -0.0004260893949901983
0.00011207069924296261   -0.001469477081425483   -0.00038550949814307353
0.0   0.0   0.0
0.0001266204214477659   -0.0014673405382051388   -0.00039139454857515735
0.0   0.0   0.0
0.0   0.0   0.0
0.0001266204214477659   -0.0014673405382051388   -0.00039139454857515735
0.0   0.0   0.0
0.0   0.0   0.0
0.0001266204214477659   -0.0014673405382051388   -0.00039139454857515735
-0.0006882636149995201   -0.0015035724521110056   -0.00037971541712221565
-0.0007044186650819713   -0.0014850235922017872   -0.0004260893949901983
0.0   0.0   0.0
0.0001266204214477659   -0.0014673405382051388   -0.00039139454857515735
-0.0007044186650819713   -0.0014850235922017872   -0.0004260893949901983
0.0   0.0   0.0
0.0   0.0   0.0
-0.0006882636149995201   -0.0015035724521110056   -0.00037971541712221565
0.0   0.0   0.0
0.0   0.0   0.0
-0.0006882636149995201   -0.0015035724521110056   -0.00037971541712221565
0.0001266204214477659   -0.0014673405382051388   -0.00039139454857515735
0.0   0.0   0.0
0.0001460491554867969   -0.0014357015237022406   -0.0003974952564106608
0.0   0.0   0.0
0.0   0.0   0.0
0.0001460491554867969   -0.0014357015237022406   -0.0003974952564106608
0.0   0.0   0.0
0.0   0.0   0.0
0.0001460491554867969   -0.0014357015237022406   -0.0003974952564106608
-0.0006734795325167203   -0.0014958765028533385   -0.00033182536058264724
-0.0006882636149995201   -0.0015035724521110056   -0.00037971541712221565
0.0   0.0   0.0
0.0001460491554867969   -0.0014357015237022406   -0.0003974952564106608
-0.0006882636149995201   -0.0015035724521110056   -0.00037971541712221565
0.0   0.0   0.0
0.0   0.0   0.0
9.371079704780648e-05   -0.001444339226762801   -0.00037904218890155543
0.0   0.0   0.0
0.0   0.0   0.0
9.371079704780648e-05   -0.001444339226762801   -0.00037904218890155543
0.0009913187918663936   -0.001514103577444663   -0.00033237807495442427
0.0   0.0   0.0
0.0009936263860794434   -0.0015219947745748444   -0.0003958128512952168
0.0   0.0   0.0
0.0   0.0   0.0
0.0009936263860794434   -0.0015219947745748444   -0.0003958128512952168
0.0   0.0   0.0
0.0   0.0   0.0
0.0009936263860794434   -0.0015219947745748444   -0.0003958128512952168
0.00011207069924296261   -0.001469477081425483   -0.00038550949814307353
9.371079704780648e-05   -0.001444339226762801   -0.00037904218890155543
0.0   0.0   0.0
0.0009936263860794434   -0.0015219947745748444   -0.0003958128512952168
9.371079704780648e-05   -0.001444339226762801   -0.00037904218890155543
0.0   0.0   0.0
0.0   0.0   0.0
0.00011207069924296261   -0.001469477081425483   -0.00038550949814307353
0.0   0.0   0.0
0.0   0.0   0.0
0.00011207069924296261   -0.001469477081425483   -0.00038550949814307353
0.0009936263860794434   -0.0015219947745748444   -0.0003958128512952168
0.0   0.0   0.0
0.0009898403806235367   -0.001500265167319223   -0.000456731334103177
0.0   0.0   0.0
0.0   0.0   0.0
0.0009898403806235367   -0.001500265167319223   -0.000456731334103177
0.0   0.0   0.0
0.0   0.0   0.0
0.0009898403806235367   -0.001500265167319223   -0.000456731334103177
0.0001266204214477659   -0.0014673405382051388   -0.00039139454857515735
0.00011207069924296261   -0.001469477081425483   -0.00038550949814307353
0.0   0.0   0.0
0.0009898403806235367   -0.001500265167319223   -0.000456731334103177
0.00011207069924296261   -0.001469477081425483   -0.00038550949814307353
0.0   0.0   0.0
0.0   0.0   0.0
0.0001266204214477659   -0.0014673405382051388   -0.00039139454857515735
0.0   0.0   0.0
0.0   0.0   0.0
0.0001266204214477659   -0.0014673405382051388   -0.00039139454857515735
0.0009898403806235367   -0.001500265167319223   -0.000456731334103177
0.0   0.0   0.0
0.0010094617876915577   -0.001442314617779811   -0.0005165407122861111
0.0   0.0   0.0
0.0   0.0   0.0
0.0010094617876915577   -0.001442314617779811   -0.0005165407122861111
0.0   0.0   0.0
0.0   0.0   0.0
0.0010094617876915577   -0.001442314617779811   -0.0005165407122861111
0.0001460491554867969   -0.0014357015237022406   -0.0003974952564106608
0.0001266204214477659   -0.0014673405382051388   -0.00039139454857515735
0.0   0.0   0.0
0.0010094617876915577   -0.001442314617779811   -0.0005165407122861111
0.0001266204214477659   -0.0014673405382051388   -0.00039139454857515735
0.0   0.0   0.0
0.0   0.0   0.0
0.0009913187918663936   -0.001514103577444663   -0.00033237807495442427
0.0   0.0   0.0
0.0   0.0   0.0
0.0009913187918663936   -0.001514103577444663   -0.00033237807495442427
0.0022409246308035995   -0.0016911758143844336   -0.0003140666209258451
0.0   0.0   0.0
0.0021052976024681404   -0.0016724824019063206   -0.0004580663714582581
0.0   0.0   0.0
0.0   0.0   0.0
0.0021052976024681404   -0.0016724824019063206   -0.0004580663714582581
0.0   0.0   0.0
0.0   0.0   0.0
0.0021052976024681404   -0.0016724824019063206   -0.0004580663714582581
0.0009936263860794434   -0.0015219947745748444   -0.0003958128512952168
0.0009913187918663936   -0.001514103577444663   -0.00033237807495442427
0.0   0.0   0.0
0.0021052976024681404   -0.0016724824019063206   -0.0004580663714582581
0.0009913187918663936   -0.001514103577444663   -0.00033237807495442427
0.0   0.0   0.0
0.0   0.0   0.0
0.0009936263860794434   -0.0015219947745748444   -0.0003958128512952168
0.0   0.0   0.0
0.0   0.0   0.0
0.0009936263860794434   -0.0015219947745748444   -0.0003958128512952168
0.0021052976024681404   -0.0016724824019063206   -0.0004580663714582581
0.0   0.0   0.0
0.0020429666487257075   -0.0016377157247216367   -0.0005798875390154303
0.0   0.0   0.0
0.0   0.0   0.0
0.0020429666487257075   -0.0016377157247216367   -0.0005798875390154303
0.0   0.0   0.0
0.0   0.0   0.0
0.0020429666487257075   -0.0016377157247216367   -0.0005798875390154303
0.0009898403806235367   -0.001500265167319223   -0.000456731334103177
0.0009936263860794434   -0.0015219947745748444   -0.0003958128512952168
0.0   0.0   0.0
0.0020429666487257075   -0.0016377157247216367   -0.0005798875390154303
0.0009936263860794434   -0.0015219947745748444   -0.0003958128512952168
0.0   0.0   0.0
0.0   0.0   0.0
0.0009898403806235367   -0.001500265167319223   -0.000456731334103177
0.0   0.0   0.0
0.0   0.0   0.0
0.0009898403806235367   -0.001500265167319223   -0.000456731334103177
0.0020429666487257075   -0.0016377157247216367   -0.0005798875390154303
0.0   0.0   0.0
0.0019498452005631902   -0.0015489415480139808   -0.0007089133551914023
0.0   0.0   0.0
0.0   0.0   0.0
0.0019498452005631902   -0.0015489415480139808   -0.0007089133551914023
0.0   0.0   0.0
0.0   0.0   0.0
0.0019498452005631902   -0.0015489415480139808   -0.0007089133551914023
0.0010094617876915577   -0.001442314617779811   -0.0005165407122861111
0.0009898403806235367   -0.001500265167319223   -0.000456731334103177
0.0   0.0   0.0
0.0019498452005631902   -0.0015489415480139808   -0.0007089133551914023
0.0009898403806235367   -0.001500265167319223   -0.000456731334103177
0.0   0.0   0.0
-0.002528156914613667   -0.0016653255186624425   -0.0008473179693583785
-0.004717182652574458   -0.00463906751726454   -0.001141797717061676
-0.0016081126455709891   -0.0014977677157711165   -0.0006226061546235928
-0.0026453260416187748   -0.0017738503369523336   -0.0006804811528009116
-0.004717182652574458   -0.00463906751726454   -0.001141797717061676
-0.00301057127314439   -0.004488549481333819   -0.0009403341884781231
-0.0016081126455709891   -0.0014977677157711165   -0.0006226061546235928
-0.0030134064270584647   -0.00456495705549197   -0.0008471780216451464
-0.0026453260416187748   -0.0017738503369523336   -0.0006804811528009116
-0.001575897108898876   -0.0015725410470573767   -0.0005217457529463548
-0.0030134064270584647   -0.00456495705549197   -0.0008471780216451464
-0.0016081126455709891   -0.0014977677157711165   -0.0006226061546235928
-0.0026453260416187748   -0.0017738503369523336   -0.0006804811528009116
-0.0030134064270584647   -0.00456495705549197   -0.0008471780216451464
-0.004857554458818865   -0.004745761981856629   -0.000990635642558765
-0.004717182652574458   -0.00463906751726454   -0.001141797717061676
-0.0026453260416187748   -0.0017738503369523336   -0.0006804811528009116
-0.0030134064270584647   -0.00456495705549197   -0.0008471780216451464
-0.004717182652574458   -0.00463906751726454   -0.001141797717061676
-0.0016081126455709891   -0.0014977677157711165   -0.0006226061546235928
-0.0026453260416187748   -0.0017738503369523336   -0.0006804811528009116
-0.004857554458818865   -0.004745761981856629   -0.000990635642558765
-0.001575897108898876   -0.0015725410470573767   -0.0005217457529463548
-0.002727408112609548   -0.0018266469161086444   -0.000520722010519181
-0.004857554458818865   -0.004745761981856629   -0.000990635642558765
-0.0030134064270584647   -0.00456495705549197   -0.0008471780216451464
-0.001575897108898876   -0.0015725410470573767   -0.0005217457529463548
-0.0030244989290951515   -0.004611602140774902   -0.0007577058199372027
-0.002727408112609548   -0.0018266469161086444   -0.000520722010519181
-0.0015798956155890027   -0.0016109113337669713   -0.0004210814650068631
-0.0030244989290951515   -0.004611602140774902   -0.0007577058199372027
-0.001575897108898876   -0.0015725410470573767   -0.0005217457529463548
-0.002727408112609548   -0.0018266469161086444   -0.000520722010519181
-0.0030244989290951515   -0.004611602140774902   -0.0007577058199372027
-0.00495477920461414   -0.004806082138469261   -0.00084268715044023
-0.004857554458818865   -0.004745761981856629   -0.000990635642558765
-0.002727408112609548   -0.0018266469161086444   -0.000520722010519181
-0.0030244989290951515   -0.004611602140774902   -0.0007577058199372027
-0.004857554458818865   -0.004745761981856629   -0.000990635642558765
-0.001575897108898876   -0.0015725410470573767   -0.0005217457529463548
-0.002727408112609548   -0.0018266469161086444   -0.000520722010519181
-0.00495477920461414   -0.004806082138469261   -0.00084268715044023
-0.0015798956155890027   -0.0016109113337669713   -0.0004210814650068631
-0.0029046779163342125   -0.0018668050992631108   -0.00033544144285334575
-0.00495477920461414   -0.004806082138469261   -0.00084268715044023
-0.0030244989290951515   -0.004611602140774902   -0.0007577058199372027
-0.0015798956155890027   -0.0016109113337669713   -0.0004210814650068631
-0.003014683658218193   -0.0046359181844352025   -0.0006740037876733643
-0.0029046779163342125   -0.0018668050992631108   -0.00033544144285334575
-0.0015785626441709884   -0.001620841265444887   -0.00031705663680416525
-0.003014683658218193   -0.0046359181844352025   -0.0006740037876733643
-0.0015798956155890027   -0.0016109113337669713   -0.0004210814650068631
-0.0029046779163342125   -0.0018668050992631108   -0.00033544144285334575
-0.003014683658218193   -0.0046359181844352025   -0.0006740037876733643
-0.005069661919225236   -0.004841352201115989   -0.000708185915536836
-0.00495477920461414   -0.004806082138469261   -0.00084268715044023
-0.0029046779163342125   -0.0018668050992631108   -0.00033544144285334575
-0.003014683658218193   -0.0046359181844352025   -0.0006740037876733643
-0.00495477920461414   -0.004806082138469261   -0.00084268715044023
-0.0015798956155890027   -0.0016109113337669713   -0.0004210814650068631
-0.0016081126455709891   -0.0014977677157711165   -0.0006226061546235928
-0.00301057127314439   -0.004488549481333819   -0.0009403341884781231
-0.0007328587323345762   -0.00143640767589371   -0.00047375828942556166
-0.001575897108898876   -0.0015725410470573767   -0.0005217457529463548
-0.00301057127314439   -0.004488549481333819   -0.0009403341884781231
-0.0013981467999039864   -0.004418505979808891   -0.0008028777407333149
-0.0007328587323345762   -0.00143640767589371   -0.00047375828942556166
-0.0013853505972087861   -0.004467066297957114   -0.0007550722642929133
-0.001575897108898876   -0.0015725410470573767   -0.0005217457529463548
-0.0007044186650819713   -0.0014850235922017872   -0.0004260893949901983
-0.0013853505972087861   -0.004467066297957114   -0.0007550722642929133
-0.0007328587323345762   -0.00143640767589371   -0.00047375828942556166
-0.001575897108898876   -0.0015725410470573767   -0.0005217457529463548
-0.0013853505972087861   -0.004467066297957114   -0.0007550722642929133
-0.0030134064270584647   -0.00456495705549197   -0.0008471780216451464
-0.00301057127314439   -0.004488549481333819   -0.0009403341884781231
-0.001575897108898876   -0.0015725410470573767   -0.0005217457529463548
-0.0013853505972087861   -0.004467066297957114   -0.0007550722642929133
-0.00301057127314439   -0.004488549481333819   -0.0009403341884781231
-0.0007328587323345762   -0.00143640767589371   -0.00047375828942556166
-0.001575897108898876   -0.0015725410470573767   -0.0005217457529463548
-0.0030134064270584647   -0.00456495705549197   -0.0008471780216451464
-0.0007044186650819713   -0.0014850235922017872   -0.0004260893949901983
-0.0015798956155890027   -0.0016109113337669713   -0.0004210814650068631
-0.0030134064270584647   -0.00456495705549197   -0.0008471780216451464
-0.0013853505972087861   -0.004467066297957114   -0.0007550722642929133
-0.0007044186650819713   -0.0014850235922017872   -0.0004260893949901983
-0.0013739284270503636   -0.004490643220905294   -0.0007117672044322649
-0.0015798956155890027   -0.0016109113337669713   -0.0004210814650068631
-0.0006882636149995201   -0.0015035724521110056   -0.00037971541712221565
-0.0013739284270503636   -0.004490643220905294   -0.0007117672044322649
-0.0007044186650819713   -0.0014850235922017872   -0.0004260893949901983
-0.0015798956155890027   -0.0016109113337669713   -0.0004210814650068631
-0.0013739284270503636   -0.004490643220905294   -0.0007117672044322649
-0.0030244989290951515   -0.004611602140774902   -0.0007577058199372027
-0.0030134064270584647   -0.00456495705549197   -0.0008471780216451464
-0.0015798956155890027   -0.0016109113337669713   -0.0004210814650068631
-0.0013739284270503636   -0.004490643220905294   -0.0007117672044322649
-0.0030134064270584647   -0.00456495705549197   -0.0008471780216451464
-0.0007044186650819713   -0.0014850235922017872   -0.0004260893949901983
-0.0015798956155890027   -0.0016109113337669713   -0.0004210814650068631
-0.0030244989290951515   -0.004611602140774902   -0.0007577058199372027
-0.0006882636149995201   -0.0015035724521110056   -0.00037971541712221565
-0.0015785626441709884   -0.001620841265444887   -0.00031705663680416525
-0.0030244989290951515   -0.004611602140774902   -0.0007577058199372027
-0.0013739284270503636   -0.004490643220905294   -0.0007117672044322649
-0.0006882636149995201   -0.0015035724521110056   -0.00037971541712221565
-0.0013572255202926498   -0.004490123605171099   -0.0006741024311860218
-0.0015785626441709884   -0.001620841265444887   -0.00031705663680416525
-0.0006734795325167203   -0.0014958765028533385   -0.00033182536058264724
-0.0013572255202926498   -0.004490123605171099   -0.0006741024311860218
-0.0006882636149995201   -0.0015035724521110056   -0.00037971541712221565
-0.0015785626441709884   -0.001620841265444887   -0.00031705663680416525
-0.0013572255202926498   -0.004490123605171099   -0.0006741024311860218
-0.003014683658218193   -0.0046359181844352025   -0.0006740037876733643
-0.0030244989290951515   -0.004611602140774902   -0.0007577058199372027
-0.0015785626441709884   -0.001620841265444887   -0.00031705663680416525
-0.0013572255202926498   -0.004490123605171099   -0.0006741024311860218
-0.0030244989290951515   -0.004611602140774902   -0.0007577058199372027
-0.0006882636149995201   -0.0015035724521110056   -0.00037971541712221565
-0.0007328587323345762   -0.00143640767589371   -0.00047375828942556166
-0.0013981467999039864   -0.004418505979808891   -0.0008028777407333149
9.371079704780648e-05   -0.001444339226762801   -0.00037904218890155543
-0.0007044186650819713   -0.0014850235922017872   -0.0004260893949901983
-0.0013981467999039864   -0.004418505979808891   -0.0008028777407333149
0.0001562513757306389   -0.0044206354701268975   -0.000716145054867314
9.371079704780648e-05   -0.001444339226762801   -0.00037904218890155543
0.00017185206793710628   -0.004443530254372629   -0.0007128438700138498
-0.0007044186650819713   -0.0014850235922017872   -0.0004260893949901983
0.00011207069924296261   -0.001469477081425483   -0.00038550949814307353
0.00017185206793710628   -0.004443530254372629   -0.0007128438700138498
9.371079704780648e-05   -0.001444339226762801   -0.00037904218890155543
-0.0007044186650819713   -0.0014850235922017872   -0.0004260893949901983
0.00017185206793710628   -0.004443530254372629   -0.0007128438700138498
-0.0013853505972087861   -0.004467066297957114   -0.0007550722642929133
-0.0013981467999039864   -0.004418505979808891   -0.0008028777407333149
-0.0007044186650819713   -0.0014850235922017872   -0.0004260893949901983
0.00017185206793710628   -0.004443530254372629   -0.0007128438700138498
-0.0013981467999039864   -0.004418505979808891   -0.0008028777407333149
9.371079704780648e-05   -0.001444339226762801   -0.00037904218890155543
-0.0007044186650819713   -0.0014850235922017872   -0.0004260893949901983
-0.0013853505972087861   -0.004467066297957114   -0.0007550722642929133
0.00011207069924296261   -0.001469477081425483   -0.00038550949814307353
-0.0006882636149995201   -0.0015035724521110056   -0.00037971541712221565
-0.0013853505972087861   -0.004467066297957114   -0.0007550722642929133
0.00017185206793710628   -0.004443530254372629   -0.0007128438700138498
0.00011207069924296261   -0.001469477081425483   -0.00038550949814307353
0.00018258207859943797   -0.004442024746681985   -0.0007146477909747588
-0.0006882636149995201   -0.0015035724521110056   -0.00037971541712221565
0.0001266204214477659   -0.0014673405382051388   -0.00039139454857515735
0.00018258207859943797   -0.004442024746681985   -0.0007146477909747588
0.00011207069924296261   -0.001469477081425483   -0.00038550949814307353
-0.0006882636149995201   -0.0015035724521110056   -0.00037971541712221565
0.00018258207859943797   -0.004442024746681985   -0.0007146477909747588
-0.0013739284270503636   -0.004490643220905294   -0.0007117672044322649
-0.0013853505972087861   -0.004467066297957114   -0.0007550722642929133
-0.0006882636149995201   -0.0015035724521110056   -0.00037971541712221565
0.00018258207859943797   -0.004442024746681985   -0.0007146477909747588
-0.0013853505972087861   -0.004467066297957114   -0.0007550722642929133
0.00011207069924296261   -0.001469477081425483   -0.00038550949814307353
-0.0006882636149995201   -0.0015035724521110056   -0.00037971541712221565
-0.0013739284270503636   -0.004490643220905294   -0.0007117672044322649
0.0001266204214477659   -0.0014673405382051388   -0.00039139454857515735
-0.0006734795325167203   -0.0014958765028533385   -0.00033182536058264724
-0.0013739284270503636   -0.004490643220905294   -0.0007117672044322649
0.00018258207859943797   -0.004442024746681985   -0.0007146477909747588
0.0001266204214477659   -0.0014673405382051388   -0.00039139454857515735
0.00019403909034943718   -0.0044153779458505705   -0.0007216366157648256
-0.0006734795325167203   -0.0014958765028533385   -0.00033182536058264724
0.0001460491554867969   -0.0014357015237022406   -0.0003974952564106608
0.00019403909034943718   -0.0044153779458505705   -0.0007216366157648256
0.0001266204214477659   -0.0014673405382051388   -0.00039139454857515735
-0.0006734795325167203   -0.0014958765028533385   -0.00033182536058264724
0.00019403909034943718   -0.0044153779458505705   -0.0007216366157648256
-0.0013572255202926498   -0.004490123605171099   -0.0006741024311860218
-0.0013739284270503636   -0.004490643220905294   -0.0007117672044322649
-0.0006734795325167203   -0.0014958765028533385   -0.00033182536058264724
0.00019403909034943718   -0.0044153779458505705   -0.0007216366157648256
-0.0013739284270503636   -0.004490643220905294   -0.0007117672044322649
0.0001266204214477659   -0.0014673405382051388   -0.00039139454857515735
9.371079704780648e-05   -0.001444339226762801   -0.00037904218890155543
0.0001562513757306389   -0.0044206354701268975   -0.000716145054867314
0.0009913187918663936   -0.001514103577444663   -0.00033237807495442427
0.00011207069924296261   -0.001469477081425483   -0.00038550949814307353
0.0001562513757306389   -0.0044206354701268975   -0.000716145054867314
0.001803885921635482   -0.004492347145028379   -0.0006759595581123036
0.0009913187918663936   -0.001514103577444663   -0.00033237807495442427
0.0018131385408113711   -0.004491891829924631   -0.0007186007566920271
0.00011207069924296261   -0.001469477081425483   -0.00038550949814307353
0.0009936263860794434   -0.0015219947745748444   -0.0003958128512952168
0.0018131385408113711   -0.004491891829924631   -0.0007186007566920271
0.0009913187918663936   -0.001514103577444663   -0.00033237807495442427
0.00011207069924296261   -0.001469477081425483   -0.00038550949814307353
0.0018131385408113711   -0.004491891829924631   -0.0007186007566920271
0.00017185206793710628   -0.004443530254372629   -0.0007128438700138498
0.0001562513757306389   -0.0044206354701268975   -0.000716145054867314
0.00011207069924296261   -0.001469477081425483   -0.00038550949814307353
0.0018131385408113711   -0.004491891829924631   -0.0007186007566920271
0.0001562513757306389   -0.0044206354701268975   -0.000716145054867314
0.0009913187918663936   -0.001514103577444663   -0.00033237807495442427
0.00011207069924296261   -0.001469477081425483   -0.00038550949814307353
0.00017185206793710628   -0.004443530254372629   -0.0007128438700138498
0.0009936263860794434   -0.0015219947745748444   -0.0003958128512952168
0.0001266204214477659   -0.0014673405382051388   -0.00039139454857515735
0.00017185206793710628   -0.004443530254372629   -0.0007128438700138498
0.0018131385408113711   -0.004491891829924631   -0.0007186007566920271
0.0009936263860794434   -0.0015219947745748444   -0.0003958128512952168
0.0018056000436344976   -0.004467532767174379   -0.0007670171972748517
0.0001266204214477659   -0.0014673405382051388   -0.00039139454857515735
0.0009898403806235367   -0.001500265167319223   -0.000456731334103177
0.0018056000436344976   -0.004467532767174379   -0.0007670171972748517
0.0009936263860794434   -0.0015219947745748444   -0.0003958128512952168
0.0001266204214477659   -0.0014673405382051388   -0.00039139454857515735
0.0018056000436344976   -0.004467532767174379   -0.0007670171972748517
0.00018258207859943797   -0.004442024746681985   -0.0007146477909747588
0.00017185206793710628   -0.004443530254372629   -0.0007128438700138498
0.0001266204214477659   -0.0014673405382051388   -0.00039139454857515735
0.0018056000436344976   -0.004467532767174379   -0.0007670171972748517
0.00017185206793710628   -0.004443530254372629   -0.0007128438700138498
0.0009936263860794434   -0.0015219947745748444   -0.0003958128512952168
0.0001266204214477659   -0.0014673405382051388   -0.00039139454857515735
0.00018258207859943797   -0.004442024746681985   -0.0007146477909747588
0.0009898403806235367   -0.001500265167319223   -0.000456731334103177
0.0001460491554867969   -0.0014357015237022406   -0.0003974952564106608
0.00018258207859943797   -0.004442024746681985   -0.0007146477909747588
0.0018056000436344976   -0.004467532767174379   -0.0007670171972748517
0.0009898403806235367   -0.001500265167319223   -0.000456731334103177
0.0018015846934191283   -0.004412642683198751   -0.0008194146765002101
0.0001460491554867969   -0.0014357015237022406   -0.0003974952564106608
0.0010094617876915577   -0.001442314617779811   -0.0005165407122861111
0.0018015846934191283   -0.004412642683198751   -0.0008194146765002101
0.0009898403806235367   -0.001500265167319223   -0.000456731334103177
0.0001460491554867969   -0.0014357015237022406   -0.0003974952564106608
0.0018015846934191283   -0.004412642683198751   -0.0008194146765002101
0.00019403909034943718   -0.0044153779458505705   -0.0007216366157648256
0.00018258207859943797   -0.004442024746681985   -0.0007146477909747588
0.0001460491554867969   -0.0014357015237022406   -0.0003974952564106608
0.0018015846934191283   -0.004412642683198751   -0.0008194146765002101
0.00018258207859943797   -0.004442024746681985   -0.0007146477909747588
0.0009898403806235367   -0.001500265167319223   -0.000456731334103177
0.0009913187918663936   -0.001514103577444663   -0.00033237807495442427
0.001803885921635482   -0.004492347145028379   -0.0006759595581123036
0.0022409246308035995   -0.0016911758143844336   -0.0003140666209258451
0.0009936263860794434   -0.0015219947745748444   -0.0003958128512952168
0.001803885921635482   -0.004492347145028379   -0.0006759595581123036
0.0037932011643059707   -0.004625492671392889   -0.0006657048282151748
0.0022409246308035995   -0.0016911758143844336   -0.0003140666209258451
0.0037172769989977685   -0.004612540026510788   -0.0007617501961256689
0.0009936263860794434   -0.0015219947745748444   -0.0003958128512952168
0.0021052976024681404   -0.0016724824019063206   -0.0004580663714582581
0.0037172769989977685   -0.004612540026510788   -0.0007617501961256689
0.0022409246308035995   -0.0016911758143844336   -0.0003140666209258451
0.0009936263860794434   -0.0015219947745748444   -0.0003958128512952168
0.0037172769989977685   -0.004612540026510788   -0.0007617501961256689
0.0018131385408113711   -0.004491891829924631   -0.0007186007566920271
0.001803885921635482   -0.004492347145028379   -0.0006759595581123036
0.0009936263860794434   -0.0015219947745748444   -0.0003958128512952168
0.0037172769989977685   -0.004612540026510788   -0.0007617501961256689
0.001803885921635482   -0.004492347145028379   -0.0006759595581123036
0.0022409246308035995   -0.0016911758143844336   -0.0003140666209258451
0.0009936263860794434   -0.0015219947745748444   -0.0003958128512952168
0.0018131385408113711   -0.004491891829924631   -0.0007186007566920271
0.0021052976024681404   -0.0016724824019063206   -0.0004580663714582581
0.0009898403806235367   -0.001500265167319223   -0.000456731334103177
0.0018131385408113711   -0.004491891829924631   -0.0007186007566920271
0.0037172769989977685   -0.004612540026510788   -0.0007617501961256689
0.0021052976024681404   -0.0016724824019063206   -0.0004580663714582581
0.0036493184727918017   -0.004575033199842009   -0.0008699370310037506
0.0009898403806235367   -0.001500265167319223   -0.000456731334103177
0.0020429666487257075   -0.0016377157247216367   -0.0005798875390154303
0.0036493184727918017   -0.004575033199842009   -0.0008699370310037506
0.0021052976024681404   -0.0016724824019063206   -0.0004580663714582581
0.0009898403806235367   -0.001500265167319223   -0.000456731334103177
0.0036493184727918017   -0.004575033199842009   -0.0008699370310037506
0.0018056000436344976   -0.004467532767174379   -0.0007670171972748517
0.0018131385408113711   -0.004491891829924631   -0.0007186007566920271
0.0009898403806235367   -0.001500265167319223   -0.000456731334103177
0.0036493184727918017   -0.004575033199842009   -0.0008699370310037506
0.0018131385408113711   -0.004491891829924631   -0.0007186007566920271
0.0021052976024681404   -0.0016724824019063206   -0.0004580663714582581
0.0009898403806235367   -0.001500265167319223   -0.000456731334103177
0.0018056000436344976   -0.004467532767174379   -0.0007670171972748517
0.0020429666487257075   -0.0016377157247216367   -0.0005798875390154303
0.0010094617876915577   -0.001442314617779811   -0.0005165407122861111
0.0018056000436344976   -0.004467532767174379   -0.0007670171972748517
0.0036493184727918017   -0.004575033199842009   -0.0008699370310037506
0.0020429666487257075   -0.0016377157247216367   -0.0005798875390154303
0.003546954485608808   -0.00449186248720016   -0.0009826394206201882
0.0010094617876915577   -0.001442314617779811   -0.0005165407122861111
0.0019498452005631902   -0.0015489415480139808   -0.0007089133551914023
0.003546954485608808   -0.00449186248720016   -0.0009826394206201882
0.0020429666487257075   -0.0016377157247216367   -0.0005798875390154303
0.0010094617876915577   -0.001442314617779811   -0.0005165407122861111
0.003546954485608808   -0.00449186248720016   -0.0009826394206201882
0.0018015846934191283   -0.004412642683198751   -0.0008194146765002101
0.0018056000436344976   -0.004467532767174379   -0.0007670171972748517
0.0010094617876915577   -0.001442314617779811   -0.0005165407122861111
0.003546954485608808   -0.00449186248720016   -0.0009826394206201882
0.0018056000436344976   -0.004467532767174379   -0.0007670171972748517
0.0020429666487257075   -0.0016377157247216367   -0.0005798875390154303
-0.004717182652574458   -0.00463906751726454   -0.001141797717061676
-0.006457230371150155   -0.008687240428877363   -0.0013012248865918801
-0.00301057127314439   -0.004488549481333819   -0.0009403341884781231
-0.004857554458818865   -0.004745761981856629   -0.000990635642558765
-0.006457230371150155   -0.008687240428877363   -0.0013012248865918801
-0.004152227419721965   -0.00857242269523172   -0.0011382040278024059
-0.00301057127314439   -0.004488549481333819   -0.0009403341884781231
-0.004160445005870014   -0.008638238795669417   -0.001066054790142924
-0.004857554458818865   -0.004745761981856629   -0.000990635642558765
-0.0030134064270584647   -0.00456495705549197   -0.0008471780216451464
-0.004160445005870014   -0.008638238795669417   -0.001066054790142924
-0.00301057127314439   -0.004488549481333819   -0.0009403341884781231
-0.004857554458818865   -0.004745761981856629   -0.000990635642558765
-0.004160445005870014   -0.008638238795669417   -0.001066054790142924
-0.0065708355516769365   -0.008777240001830243   -0.0011887772447209792
-0.006457230371150155   -0.008687240428877363   -0.0013012248865918801
-0.004857554458818865   -0.004745761981856629   -0.000990635642558765
-0.004160445005870014   -0.008638238795669417   -0.001066054790142924
-0.006457230371150155   -0.008687240428877363   -0.0013012248865918801
-0.00301057127314439   -0.004488549481333819   -0.0009403341884781231
-0.004857554458818865   -0.004745761981856629   -0.000990635642558765
-0.0065708355516769365   -0.008777240001830243   -0.0011887772447209792
-0.0030134064270584647   -0.00456495705549197   -0.0008471780216451464
-0.00495477920461414   -0.004806082138469261   -0.00084268715044023
-0.0065708355516769365   -0.008777240001830243   -0.0011887772447209792
-0.004160445005870014   -0.008638238795669417   -0.001066054790142924
-0.0030134064270584647   -0.00456495705549197   -0.0008471780216451464
-0.004170229972973757   -0.008684115503129586   -0.0009991593110460727
-0.00495477920461414   -0.004806082138469261   -0.00084268715044023
-0.0030244989290951515   -0.004611602140774902   -0.0007577058199372027
-0.004170229972973757   -0.008684115503129586   -0.0009991593110460727
-0.0030134064270584647   -0.00456495705549197   -0.0008471780216451464
-0.00495477920461414   -0.004806082138469261   -0.00084268715044023
-0.004170229972973757   -0.008684115503129586   -0.0009991593110460727
-0.006642046919392817   -0.008833760202054244   -0.001084027724327755
-0.0065708355516769365   -0.008777240001830243   -0.0011887772447209792
-0.00495477920461414   -0.004806082138469261   -0.00084268715044023
-0.004170229972973757   -0.008684115503129586   -0.0009991593110460727
-0.0065708355516769365   -0.008777240001830243   -0.0011887772447209792
-0.0030134064270584647   -0.00456495705549197   -0.0008471780216451464
-0.00495477920461414   -0.004806082138469261   -0.00084268715044023
-0.006642046919392817   -0.008833760202054244   -0.001084027724327755
-0.0030244989290951515   -0.004611602140774902   -0.0007577058199372027
-0.005069661919225236   -0.004841352201115989   -0.000708185915536836
-0.006642046919392817   -0.008833760202054244   -0.001084027724327755
-0.004170229972973757   -0.008684115503129586   -0.0009991593110460727
-0.0030244989290951515   -0.004611602140774902   -0.0007577058199372027
-0.004161475005476053   -0.00871441231794634   -0.0009363961068418029
-0.005069661919225236   -0.004841352201115989   -0.000708185915536836
-0.003014683658218193   -0.0046359181844352025   -0.0006740037876733643
-0.004161475005476053   -0.00871441231794634   -0.0009363961068418029
-0.0030244989290951515   -0.004611602140774902   -0.0007577058199372027
-0.005069661919225236   -0.004841352201115989   -0.000708185915536836
-0.004161475005476053   -0.00871441231794634   -0.0009363961068418029
-0.006723070317088967   -0.008874593575947979   -0.0009876970350966758
-0.006642046919392817   -0.008833760202054244   -0.001084027724327755
-0.005069661919225236   -0.004841352201115989   -0.000708185915536836
-0.004161475005476053   -0.00871441231794634   -0.0009363961068418029
-0.006642046919392817   -0.008833760202054244   -0.001084027724327755
-0.0030244989290951515   -0.004611602140774902   -0.0007577058199372027
-0.00301057127314439   -0.004488549481333819   -0.0009403341884781231
-0.004152227419721965   -0.00857242269523172   -0.0011382040278024059
-0.0013981467999039864   -0.004418505979808891   -0.0008028777407333149
-0.0030134064270584647   -0.00456495705549197   -0.0008471780216451464
-0.004152227419721965   -0.00857242269523172   -0.0011382040278024059
-0.001980182540090427   -0.008515097950910698   -0.001024984408097541
-0.0013981467999039864   -0.004418505979808891   -0.0008028777407333149
-0.0019743441563731287   -0.008557114224874205   -0.0009841219667845729
-0.0030134064270584647   -0.00456495705549197   -0.0008471780216451464
-0.0013853505972087861   -0.004467066297957114   -0.0007550722642929133
-0.0019743441563731287   -0.008557114224874205   -0.0009841219667845729
-0.0013981467999039864   -0.004418505979808891   -0.0008028777407333149
-0.0030134064270584647   -0.00456495705549197   -0.0008471780216451464
-0.0019743441563731287   -0.008557114224874205   -0.0009841219667845729
-0.004160445005870014   -0.008638238795669417   -0.001066054790142924
-0.004152227419721965   -0.00857242269523172   -0.0011382040278024059
-0.0030134064270584647   -0.00456495705549197   -0.0008471780216451464
-0.0019743441563731287   -0.008557114224874205   -0.0009841219667845729
-0.004152227419721965   -0.00857242269523172   -0.0011382040278024059
-0.0013981467999039864   -0.004418505979808891   -0.0008028777407333149
-0.0030134064270584647   -0.00456495705549197   -0.0008471780216451464
-0.004160445005870014   -0.008638238795669417   -0.001066054790142924
-0.0013853505972087861   -0.004467066297957114   -0.0007550722642929133
-0.0030244989290951515   -0.004611602140774902   -0.0007577058199372027
-0.004160445005870014   -0.008638238795669417   -0.001066054790142924
-0.0019743441563731287   -0.008557114224874205   -0.0009841219667845729
-0.0013853505972087861   -0.004467066297957114   -0.0007550722642929133
-0.0019673955609050115   -0.008581823558555078   -0.0009482567866409673
-0.0030244989290951515   -0.004611602140774902   -0.0007577058199372027
-0.0013739284270503636   -0.004490643220905294   -0.0007117672044322649
-0.0019673955609050115   -0.008581823558555078   -0.0009482567866409673
-0.0013853505972087861   -0.004467066297957114   -0.0007550722642929133
-0.0030244989290951515   -0.004611602140774902   -0.0007577058199372027
-0.0019673955609050115   -0.008581823558555078   -0.0009482567866409673
-0.004170229972973757   -0.008684115503129586   -0.0009991593110460727
-0.004160445005870014   -0.008638238795669417   -0.001066054790142924
-0.0030244989290951515   -0.004611602140774902   -0.0007577058199372027
-0.0019673955609050115   -0.008581823558555078   -0.0009482567866409673
-0.004160445005870014   -0.008638238795669417   -0.001066054790142924
-0.0013853505972087861   -0.004467066297957114   -0.0007550722642929133
-0.0030244989290951515   -0.004611602140774902   -0.0007577058199372027
-0.004170229972973757   -0.008684115503129586   -0.0009991593110460727
-0.0013739284270503636   -0.004490643220905294   -0.0007117672044322649
-0.003014683658218193   -0.0046359181844352025   -0.0006740037876733643
-0.004170229972973757   -0.008684115503129586   -0.0009991593110460727
-0.0019673955609050115   -0.008581823558555078   -0.0009482567866409673
-0.0013739284270503636   -0.004490643220905294   -0.0007117672044322649
-0.0019565227500154005   -0.008589579005386773   -0.0009173765573408214
-0.003014683658218193   -0.0046359181844352025   -0.0006740037876733643
-0.0013572255202926498   -0.004490123605171099   -0.0006741024311860218
-0.0019565227500154005   -0.008589579005386773   -0.0009173765573408214
-0.0013739284270503636   -0.004490643220905294   -0.0007117672044322649
-0.003014683658218193   -0.0046359181844352025   -0.0006740037876733643
-0.0019565227500154005   -0.008589579005386773   -0.0009173765573408214
-0.004161475005476053   -0.00871441231794634   -0.0009363961068418029
-0.004170229972973757   -0.008684115503129586   -0.0009991593110460727
-0.003014683658218193   -0.0046359181844352025   -0.0006740037876733643
-0.0019565227500154005   -0.008589579005386773   -0.0009173765573408214
-0.004170229972973757   -0.008684115503129586   -0.0009991593110460727
-0.0013739284270503636   -0.004490643220905294   -0.0007117672044322649
-0.0013981467999039864   -0.004418505979808891   -0.0008028777407333149
-0.001980182540090427   -0.008515097950910698   -0.001024984408097541
0.0001562513757306389   -0.0044206354701268975   -0.000716145054867314
-0.0013853505972087861   -0.004467066297957114   -0.0007550722642929133
-0.001980182540090427   -0.008515097950910698   -0.001024984408097541
0.0001276951292733063   -0.008512031639411916   -0.0009549705364119108
0.0001562513757306389   -0.0044206354701268975   -0.000716145054867314
0.00013772718099944832   -0.008530599145770538   -0.0009452329781820931
-0.0013853505972087861   -0.004467066297957114   -0.0007550722642929133
0.00017185206793710628   -0.004443530254372629   -0.0007128438700138498
0.00013772718099944832   -0.008530599145770538   -0.0009452329781820931
0.0001562513757306389   -0.0044206354701268975   -0.000716145054867314
-0.0013853505972087861   -0.004467066297957114   -0.0007550722642929133
0.00013772718099944832   -0.008530599145770538   -0.0009452329781820931
-0.0019743441563731287   -0.008557114224874205   -0.0009841219667845729
-0.001980182540090427   -0.008515097950910698   -0.001024984408097541
-0.0013853505972087861   -0.004467066297957114   -0.0007550722642929133
0.00013772718099944832   -0.008530599145770538   -0.0009452329781820931
-0.001980182540090427   -0.008515097950910698   -0.001024984408097541
0.0001562513757306389   -0.0044206354701268975   -0.000716145054867314
-0.0013853505972087861   -0.004467066297957114   -0.0007550722642929133
-0.0019743441563731287   -0.008557114224874205   -0.0009841219667845729
0.00017185206793710628   -0.004443530254372629   -0.0007128438700138498
-0.0013739284270503636   -0.004490643220905294   -0.0007117672044322649
-0.0019743441563731287   -0.008557114224874205   -0.0009841219667845729
0.00013772718099944832   -0.008530599145770538   -0.0009452329781820931
0.00017185206793710628   -0.004443530254372629   -0.0007128438700138498
0.00014447215126339776   -0.008531927410399563   -0.0009403651524378914
-0.0013739284270503636   -0.004490643220905294   -0.0007117672044322649
0.00018258207859943797   -0.004442024746681985   -0.0007146477909747588
0.00014447215126339776   -0.008531927410399563   -0.0009403651524378914
0.00017185206793710628   -0.004443530254372629   -0.0007128438700138498
-0.0013739284270503636   -0.004490643220905294   -0.0007117672044322649
0.00014447215126339776   -0.008531927410399563   -0.0009403651524378914
-0.0019673955609050115   -0.008581823558555078   -0.0009482567866409673
-0.0019743441563731287   -0.008557114224874205   -0.0009841219667845729
-0.0013739284270503636   -0.004490643220905294   -0.0007117672044322649
0.00014447215126339776   -0.008531927410399563   -0.0009403651524378914
-0.0019743441563731287   -0.008557114224874205   -0.0009841219667845729
0.00017185206793710628   -0.004443530254372629   -0.0007128438700138498
-0.0013739284270503636   -0.004490643220905294   -0.0007117672044322649
-0.0019673955609050115   -0.008581823558555078   -0.0009482567866409673
0.00018258207859943797   -0.004442024746681985   -0.0007146477909747588
-0.0013572255202926498   -0.004490123605171099   -0.0006741024311860218
-0.0019673955609050115   -0.008581823558555078   -0.0009482567866409673
0.00014447215126339776   -0.008531927410399563   -0.0009403651524378914
0.00018258207859943797   -0.004442024746681985   -0.0007146477909747588
0.00014960435258311064   -0.008515760613764932   -0.0009406596303655107
-0.0013572255202926498   -0.004490123605171099   -0.0006741024311860218
0.00019403909034943718   -0.0044153779458505705   -0.0007216366157648256
0.00014960435258311064   -0.008515760613764932   -0.0009406596303655107
0.00018258207859943797   -0.004442024746681985   -0.0007146477909747588
-0.0013572255202926498   -0.004490123605171099   -0.0006741024311860218
0.00014960435258311064   -0.008515760613764932   -0.0009406596303655107
-0.0019565227500154005   -0.008589579005386773   -0.0009173765573408214
-0.0019673955609050115   -0.008581823558555078   -0.0009482567866409673
-0.0013572255202926498   -0.004490123605171099   -0.0006741024311860218
0.00014960435258311064   -0.008515760613764932   -0.0009406596303655107
-0.0019673955609050115   -0.008581823558555078   -0.0009482567866409673
0.00018258207859943797   -0.004442024746681985   -0.0007146477909747588
0.0001562513757306389   -0.0044206354701268975   -0.000716145054867314
0.0001276951292733063   -0.008512031639411916   -0.0009549705364119108
0.001803885921635482   -0.004492347145028379   -0.0006759595581123036
0.00017185206793710628   -0.004443530254372629   -0.0007128438700138498
0.0001276951292733063   -0.008512031639411916   -0.0009549705364119108
0.0023257880694626297   -0.008559990565602964   -0.0009269921440672482
0.001803885921635482   -0.004492347145028379   -0.0006759595581123036
0.002334751052323291   -0.008557033910486785   -0.0009490186580327045
0.00017185206793710628   -0.004443530254372629   -0.0007128438700138498
0.0018131385408113711   -0.004491891829924631   -0.0007186007566920271
0.002334751052323291   -0.008557033910486785   -0.0009490186580327045
0.001803885921635482   -0.004492347145028379   -0.0006759595581123036
0.00017185206793710628   -0.004443530254372629   -0.0007128438700138498
0.002334751052323291   -0.008557033910486785   -0.0009490186580327045
0.00013772718099944832   -0.008530599145770538   -0.0009452329781820931
0.0001276951292733063   -0.008512031639411916   -0.0009549705364119108
0.00017185206793710628   -0.004443530254372629   -0.0007128438700138498
0.002334751052323291   -0.008557033910486785   -0.0009490186580327045
0.0001276951292733063   -0.008512031639411916   -0.0009549705364119108
0.001803885921635482   -0.004492347145028379   -0.0006759595581123036
0.00017185206793710628   -0.004443530254372629   -0.0007128438700138498
0.00013772718099944832   -0.008530599145770538   -0.0009452329781820931
0.0018131385408113711   -0.004491891829924631   -0.0007186007566920271
0.00018258207859943797   -0.004442024746681985   -0.0007146477909747588
0.00013772718099944832   -0.008530599145770538   -0.0009452329781820931
0.002334751052323291   -0.008557033910486785   -0.0009490186580327045
0.0018131385408113711   -0.004491891829924631   -0.0007186007566920271
0.002329845708438849   -0.008537237931592188   -0.0009755570921131785
0.00018258207859943797   -0.004442024746681985   -0.0007146477909747588
0.0018056000436344976   -0.004467532767174379   -0.0007670171972748517
0.002329845708438849   -0.008537237931592188   -0.0009755570921131785
0.0018131385408113711   -0.004491891829924631   -0.0007186007566920271
0.00018258207859943797   -0.004442024746681985   -0.0007146477909747588
0.002329845708438849   -0.008537237931592188   -0.0009755570921131785
0.00014447215126339776   -0.008531927410399563   -0.0009403651524378914
0.00013772718099944832   -0.008530599145770538   -0.0009452329781820931
0.00018258207859943797   -0.004442024746681985   -0.0007146477909747588
0.002329845708438849   -0.008537237931592188   -0.0009755570921131785
0.00013772718099944832   -0.008530599145770538   -0.0009452329781820931
0.0018131385408113711   -0.004491891829924631   -0.0007186007566920271
0.00018258207859943797   -0.004442024746681985   -0.0007146477909747588
0.00014447215126339776   -0.008531927410399563   -0.0009403651524378914
0.0018056000436344976   -0.004467532767174379   -0.0007670171972748517
0.00019403909034943718   -0.0044153779458505705   -0.0007216366157648256
0.00014447215126339776   -0.008531927410399563   -0.0009403651524378914
0.002329845708438849   -0.008537237931592188   -0.0009755570921131785
0.0018056000436344976   -0.004467532767174379   -0.0007670171972748517
0.0023219323941823127   -0.008496399351898132   -0.0010071447187571083
0.00019403909034943718   -0.0044153779458505705   -0.0007216366157648256
0.0018015846934191283   -0.004412642683198751   -0.0008194146765002101
0.0023219323941823127   -0.008496399351898132   -0.0010071447187571083
0.0018056000436344976   -0.004467532767174379   -0.0007670171972748517
0.00019403909034943718   -0.0044153779458505705   -0.0007216366157648256
0.0023219323941823127   -0.008496399351898132   -0.0010071447187571083
0.00014960435258311064   -0.008515760613764932   -0.0009406596303655107
0.00014447215126339776   -0.008531927410399563   -0.0009403651524378914
0.00019403909034943718   -0.0044153779458505705   -0.0007216366157648256
0.0023219323941823127   -0.008496399351898132   -0.0010071447187571083
0.00014447215126339776   -0.008531927410399563   -0.0009403651524378914
0.0018056000436344976   -0.004467532767174379   -0.0007670171972748517
0.001803885921635482   -0.004492347145028379   -0.0006759595581123036
0.0023257880694626297   -0.008559990565602964   -0.0009269921440672482
0.0037932011643059707   -0.004625492671392889   -0.0006657048282151748
0.0018131385408113711   -0.004491891829924631   -0.0007186007566920271
0.0023257880694626297   -0.008559990565602964   -0.0009269921440672482
0.004829609772668396   -0.008646777769289396   -0.0009282853443086517
0.0037932011643059707   -0.004625492671392889   -0.0006657048282151748
0.004789081636938542   -0.008631369605213974   -0.0009860656764334804
0.0018131385408113711   -0.004491891829924631   -0.0007186007566920271
0.0037172769989977685   -0.004612540026510788   -0.0007617501961256689
0.004789081636938542   -0.008631369605213974   -0.0009860656764334804
0.0037932011643059707   -0.004625492671392889   -0.0006657048282151748
0.0018131385408113711   -0.004491891829924631   -0.0007186007566920271
0.004789081636938542   -0.008631369605213974   -0.0009860656764334804
0.002334751052323291   -0.008557033910486785   -0.0009490186580327045
0.0023257880694626297   -0.008559990565602964   -0.0009269921440672482
0.0018131385408113711   -0.004491891829924631   -0.0007186007566920271
0.004789081636938542   -0.008631369605213974   -0.0009860656764334804
0.0023257880694626297   -0.008559990565602964   -0.0009269921440672482
0.0037932011643059707   -0.004625492671392889   -0.0006657048282151748
0.0018131385408113711   -0.004491891829924631   -0.0007186007566920271
0.002334751052323291   -0.008557033910486785   -0.0009490186580327045
0.0037172769989977685   -0.004612540026510788   -0.0007617501961256689
0.0018056000436344976   -0.004467532767174379   -0.0007670171972748517
0.002334751052323291   -0.008557033910486785   -0.0009490186580327045
0.004789081636938542   -0.008631369605213974   -0.0009860656764334804
0.0037172769989977685   -0.004612540026510788   -0.0007617501961256689
0.00474841718548051   -0.00860095001391796   -0.001051982909522055
0.0018056000436344976   -0.004467532767174379   -0.0007670171972748517
0.0036493184727918017   -0.004575033199842009   -0.0008699370310037506
0.00474841718548051   -0.00860095001391796   -0.001051982909522055
0.0037172769989977685   -0.004612540026510788   -0.0007617501961256689
0.0018056000436344976   -0.004467532767174379   -0.0007670171972748517
0.00474841718548051   -0.00860095001391796   -0.001051982909522055
0.002329845708438849   -0.008537237931592188   -0.0009755570921131785
0.002334751052323291   -0.008557033910486785   -0.0009490186580327045
0.0018056000436344976   -0.004467532767174379   -0.0007670171972748517
0.00474841718548051   -0.00860095001391796   -0.001051982909522055
0.002334751052323291   -0.008557033910486785   -0.0009490186580327045
0.0037172769989977685   -0.004612540026510788   -0.0007617501961256689
0.0018056000436344976   -0.004467532767174379   -0.0007670171972748517
0.002329845708438849   -0.008537237931592188   -0.0009755570921131785
0.0036493184727918017   -0.004575033199842009   -0.0008699370310037506
0.0018015846934191283   -0.004412642683198751   -0.0008194146765002101
0.002329845708438849   -0.008537237931592188   -0.0009755570921131785
0.00474841718548051   -0.00860095001391796   -0.001051982909522055
0.0036493184727918017   -0.004575033199842009   -0.0008699370310037506
0.004675213921951516   -0.008537462522677824   -0.0011260460596693772
0.0018015846934191283   -0.004412642683198751   -0.0008194146765002101
0.003546954485608808   -0.00449186248720016   -0.0009826394206201882
0.004675213921951516   -0.008537462522677824   -0.0011260460596693772
0.0036493184727918017   -0.004575033199842009   -0.0008699370310037506
0.0018015846934191283   -0.004412642683198751   -0.0008194146765002101
0.004675213921951516   -0.008537462522677824   -0.0011260460596693772
0.0023219323941823127   -0.008496399351898132   -0.0010071447187571083
0.002329845708438849   -0.008537237931592188   -0.0009755570921131785
0.0018015846934191283   -0.004412642683198751   -0.0008194146765002101
0.004675213921951516   -0.008537462522677824   -0.0011260460596693772
0.002329845708438849   -0.008537237931592188   -0.0009755570921131785
0.0036493184727918017   -0.004575033199842009   -0.0008699370310037506
-0.006457230371150155   -0.008687240428877363   -0.0013012248865918801
-0.007704459026254344   -0.013479873608595348   -0.0013887191533002103
-0.004152227419721965   -0.00857242269523172   -0.0011382040278024059
-0.0065708355516769365   -0.008777240001830243   -0.0011887772447209792
-0.007704459026254344   -0.013479873608595348   -0.0013887191533002103
-0.005002711362830109   -0.013407017265547582   -0.0012561431230696057
-0.004152227419721965   -0.00857242269523172   -0.0011382040278024059
-0.005007808540633367   -0.013463497713608275   -0.0012045996872368618
-0.0065708355516769365   -0.008777240001830243   -0.0011887772447209792
-0.004160445005870014   -0.008638238795669417   -0.001066054790142924
-0.005007808540633367   -0.013463497713608275   -0.0012045996872368618
-0.004152227419721965   -0.00857242269523172   -0.0011382040278024059
-0.0065708355516769365   -0.008777240001830243   -0.0011887772447209792
-0.005007808540633367   -0.013463497713608275   -0.0012045996872368618
-0.0077804615335185364   -0.013556329938171595   -0.001314289912626818
-0.007704459026254344   -0.013479873608595348   -0.0013887191533002103
-0.0065708355516769365   -0.008777240001830243   -0.0011887772447209792
-0.005007808540633367   -0.013463497713608275   -0.0012045996872368618
-0.007704459026254344   -0.013479873608595348   -0.0013887191533002103
-0.004152227419721965   -0.00857242269523172   -0.0011382040278024059
-0.0065708355516769365   -0.008777240001830243   -0.0011887772447209792
-0.0077804615335185364   -0.013556329938171595   -0.001314289912626818
-0.004160445005870014   -0.008638238795669417   -0.001066054790142924
-0.006642046919392817   -0.008833760202054244   -0.001084027724327755
-0.0077804615335185364   -0.013556329938171595   -0.001314289912626818
-0.005007808540633367   -0.013463497713608275   -0.0012045996872368618
-0.004160445005870014   -0.008638238795669417   -0.001066054790142924
-0.00501115068136241   -0.01350835440080575   -0.0011582087722778979
-0.006642046919392817   -0.008833760202054244   -0.001084027724327755
-0.004170229972973757   -0.008684115503129586   -0.0009991593110460727
-0.00501115068136241   -0.01350835440080575   -0.0011582087722778979
-0.004160445005870014   -0.008638238795669417   -0.001066054790142924
-0.006642046919392817   -0.008833760202054244   -0.001084027724327755
-0.00501115068136241   -0.01350835440080575   -0.0011582087722778979
-0.007823616647376248   -0.013610520107297174   -0.0012470420974182515
-0.0077804615335185364   -0.013556329938171595   -0.001314289912626818
-0.006642046919392817   -0.008833760202054244   -0.001084027724327755
-0.00501115068136241   -0.01350835440080575   -0.0011582087722778979
-0.0077804615335185364   -0.013556329938171595   -0.001314289912626818
-0.004160445005870014   -0.008638238795669417   -0.001066054790142924
-0.006642046919392817   -0.008833760202054244   -0.001084027724327755
-0.007823616647376248   -0.013610520107297174   -0.0012470420974182515
-0.004170229972973757   -0.008684115503129586   -0.0009991593110460727
-0.006723070317088967   -0.008874593575947979   -0.0009876970350966758
-0.007823616647376248   -0.013610520107297174   -0.0012470420974182515
-0.00501115068136241   -0.01350835440080575   -0.0011582087722778979
-0.004170229972973757   -0.008684115503129586   -0.0009991593110460727
-0.004999851081474037   -0.013545315971497593   -0.0011162796255311572
-0.006723070317088967   -0.008874593575947979   -0.0009876970350966758
-0.004161475005476053   -0.00871441231794634   -0.0009363961068418029
-0.004999851081474037   -0.013545315971497593   -0.0011162796255311572
-0.004170229972973757   -0.008684115503129586   -0.0009991593110460727
-0.006723070317088967   -0.008874593575947979   -0.0009876970350966758
-0.004999851081474037   -0.013545315971497593   -0.0011162796255311572
-0.007867992087709807   -0.013659258639928633   -0.0011878346877082387
-0.007823616647376248   -0.013610520107297174   -0.0012470420974182515
-0.006723070317088967   -0.008874593575947979   -0.0009876970350966758
-0.004999851081474037   -0.013545315971497593   -0.0011162796255311572
-0.007823616647376248   -0.013610520107297174   -0.0012470420974182515
-0.004170229972973757   -0.008684115503129586   -0.0009991593110460727
-0.004152227419721965   -0.00857242269523172   -0.0011382040278024059
-0.005002711362830109   -0.013407017265547582   -0.0012561431230696057
-0.001980182540090427   -0.008515097950910698   -0.001024984408097541
-0.004160445005870014   -0.008638238795669417   -0.001066054790142924
-0.005002711362830109   -0.013407017265547582   -0.0012561431230696057
-0.002470665218217492   -0.013369226924156635   -0.0011643711120628668
-0.001980182540090427   -0.008515097950910698   -0.001024984408097541
-0.0024650771573597944   -0.013404600272273711   -0.0011302345645156022
-0.004160445005870014   -0.008638238795669417   -0.001066054790142924
-0.0019743441563731287   -0.008557114224874205   -0.0009841219667845729
-0.0024650771573597944   -0.013404600272273711   -0.0011302345645156022
-0.001980182540090427   -0.008515097950910698   -0.001024984408097541
-0.004160445005870014   -0.008638238795669417   -0.001066054790142924
-0.0024650771573597944   -0.013404600272273711   -0.0011302345645156022
-0.005007808540633367   -0.013463497713608275   -0.0012045996872368618
-0.005002711362830109   -0.013407017265547582   -0.0012561431230696057
-0.004160445005870014   -0.008638238795669417   -0.001066054790142924
-0.0024650771573597944   -0.013404600272273711   -0.0011302345645156022
-0.005002711362830109   -0.013407017265547582   -0.0012561431230696057
-0.001980182540090427   -0.008515097950910698   -0.001024984408097541
-0.004160445005870014   -0.008638238795669417   -0.001066054790142924
-0.005007808540633367   -0.013463497713608275   -0.0012045996872368618
-0.0019743441563731287   -0.008557114224874205   -0.0009841219667845729
-0.004170229972973757   -0.008684115503129586   -0.0009991593110460727
-0.005007808540633367   -0.013463497713608275   -0.0012045996872368618
-0.0024650771573597944   -0.013404600272273711   -0.0011302345645156022
-0.0019743441563731287   -0.008557114224874205   -0.0009841219667845729
-0.002457783136852739   -0.013430224728930405   -0.0011011684285557317
-0.004170229972973757   -0.008684115503129586   -0.0009991593110460727
-0.0019673955609050115   -0.008581823558555078   -0.0009482567866409673
-0.002457783136852739   -0.013430224728930405   -0.0011011684285557317
-0.0019743441563731287   -0.008557114224874205   -0.0009841219667845729
-0.004170229972973757   -0.008684115503129586   -0.0009991593110460727
-0.002457783136852739   -0.013430224728930405   -0.0011011684285557317
-0.00501115068136241   -0.01350835440080575   -0.0011582087722778979
-0.005007808540633367   -0.013463497713608275   -0.0012045996872368618
-0.004170229972973757   -0.008684115503129586   -0.0009991593110460727
-0.002457783136852739   -0.013430224728930405   -0.0011011684285557317
-0.005007808540633367   -0.013463497713608275   -0.0012045996872368618
-0.0019743441563731287   -0.008557114224874205   -0.0009841219667845729
-0.004170229972973757   -0.008684115503129586   -0.0009991593110460727
-0.00501115068136241   -0.01350835440080575   -0.0011582087722778979
-0.0019673955609050115   -0.008581823558555078   -0.0009482567866409673
-0.004161475005476053   -0.00871441231794634   -0.0009363961068418029
-0.00501115068136241   -0.01350835440080575   -0.0011582087722778979
-0.002457783136852739   -0.013430224728930405   -0.0011011684285557317
-0.0019673955609050115   -0.008581823558555078   -0.0009482567866409673
-0.002447328416409187   -0.013446269243266024   -0.0010772601100445813
-0.004161475005476053   -0.00871441231794634   -0.0009363961068418029
-0.0019565227500154005   -0.008589579005386773   -0.0009173765573408214
-0.002447328416409187   -0.013446269243266024   -0.0010772601100445813
-0.0019673955609050115   -0.008581823558555078   -0.0009482567866409673
-0.004161475005476053   -0.00871441231794634   -0.0009363961068418029
-0.002447328416409187   -0.013446269243266024   -0.0010772601100445813
-0.004999851081474037   -0.013545315971497593   -0.0011162796255311572
-0.00501115068136241   -0.01350835440080575   -0.0011582087722778979
-0.004161475005476053   -0.00871441231794634   -0.0009363961068418029
-0.002447328416409187   -0.013446269243266024   -0.0010772601100445813
-0.00501115068136241   -0.01350835440080575   -0.0011582087722778979
-0.0019673955609050115   -0.008581823558555078   -0.0009482567866409673
-0.001980182540090427   -0.008515097950910698   -0.001024984408097541
-0.002470665218217492   -0.013369226924156635   -0.0011643711120628668
0.0001276951292733063   -0.008512031639411916   -0.0009549705364119108
-0.0019743441563731287   -0.008557114224874205   -0.0009841219667845729
-0.002470665218217492   -0.013369226924156635   -0.0011643711120628668
-7.599355561131981e-06   -0.013362643861079184   -0.0011111183267898369
0.0001276951292733063   -0.008512031639411916   -0.0009549705364119108
2.155466504122847e-06   -0.013376768203026693   -0.0010945349892875966
-0.0019743441563731287   -0.008557114224874205   -0.0009841219667845729
0.00013772718099944832   -0.008530599145770538   -0.0009452329781820931
2.155466504122847e-06   -0.013376768203026693   -0.0010945349892875966
0.0001276951292733063   -0.008512031639411916   -0.0009549705364119108
-0.0019743441563731287   -0.008557114224874205   -0.0009841219667845729
2.155466504122847e-06   -0.013376768203026693   -0.0010945349892875966
-0.0024650771573597944   -0.013404600272273711   -0.0011302345645156022
-0.002470665218217492   -0.013369226924156635   -0.0011643711120628668
-0.0019743441563731287   -0.008557114224874205   -0.0009841219667845729
2.155466504122847e-06   -0.013376768203026693   -0.0010945349892875966
-0.002470665218217492   -0.013369226924156635   -0.0011643711120628668
0.0001276951292733063   -0.008512031639411916   -0.0009549705364119108
-0.0019743441563731287   -0.008557114224874205   -0.0009841219667845729
-0.0024650771573597944   -0.013404600272273711   -0.0011302345645156022
0.00013772718099944832   -0.008530599145770538   -0.0009452329781820931
-0.0019673955609050115   -0.008581823558555078   -0.0009482567866409673
-0.0024650771573597944   -0.013404600272273711   -0.0011302345645156022
2.155466504122847e-06   -0.013376768203026693   -0.0010945349892875966
0.00013772718099944832   -0.008530599145770538   -0.0009452329781820931
9.355332139264245e-06   -0.013381075292336573   -0.0010829610442913329
-0.0019673955609050115   -0.008581823558555078   -0.0009482567866409673
0.00014447215126339776   -0.008531927410399563   -0.0009403651524378914
9.355332139264245e-06   -0.013381075292336573   -0.0010829610442913329
0.00013772718099944832   -0.008530599145770538   -0.0009452329781820931
-0.0019673955609050115   -0.008581823558555078   -0.0009482567866409673
9.355332139264245e-06   -0.013381075292336573   -0.0010829610442913329
-0.002457783136852739   -0.013430224728930405   -0.0011011684285557317
-0.0024650771573597944   -0.013404600272273711   -0.0011302345645156022
-0.0019673955609050115   -0.008581823558555078   -0.0009482567866409673
9.355332139264245e-06   -0.013381075292336573   -0.0010829610442913329
-0.0024650771573597944   -0.013404600272273711   -0.0011302345645156022
0.00013772718099944832   -0.008530599145770538   -0.0009452329781820931
-0.0019673955609050115   -0.008581823558555078   -0.0009482567866409673
-0.002457783136852739   -0.013430224728930405   -0.0011011684285557317
0.00014447215126339776   -0.008531927410399563   -0.0009403651524378914
-0.0019565227500154005   -0.008589579005386773   -0.0009173765573408214
-0.002457783136852739   -0.013430224728930405   -0.0011011684285557317
9.355332139264245e-06   -0.013381075292336573   -0.0010829610442913329
0.00014447215126339776   -0.008531927410399563   -0.0009403651524378914
1.4268551878995248e-05   -0.013375429741926782   -0.001076615428311795
-0.0019565227500154005   -0.008589579005386773   -0.0009173765573408214
0.00014960435258311064   -0.008515760613764932   -0.0009406596303655107
1.4268551878995248e-05   -0.013375429741926782   -0.001076615428311795
0.00014447215126339776   -0.008531927410399563   -0.0009403651524378914
-0.0019565227500154005   -0.008589579005386773   -0.0009173765573408214
1.4268551878995248e-05   -0.013375429741926782   -0.001076615428311795
-0.002447328416409187   -0.013446269243266024   -0.0010772601100445813
-0.002457783136852739   -0.013430224728930405   -0.0011011684285557317
-0.0019565227500154005   -0.008589579005386773   -0.0009173765573408214
1.4268551878995248e-05   -0.013375429741926782   -0.001076615428311795
-0.002457783136852739   -0.013430224728930405   -0.0011011684285557317
0.00014447215126339776   -0.008531927410399563   -0.0009403651524378914
0.0001276951292733063   -0.008512031639411916   -0.0009549705364119108
-7.599355561131981e-06   -0.013362643861079184   -0.0011111183267898369
0.0023257880694626297   -0.008559990565602964   -0.0009269921440672482
0.00013772718099944832   -0.008530599145770538   -0.0009452329781820931
-7.599355561131981e-06   -0.013362643861079184   -0.0011111183267898369
0.0025402189300217258   -0.013384579683816166   -0.00109620375036257
0.0023257880694626297   -0.008559990565602964   -0.0009269921440672482
0.002552026854941586   -0.013378661942892714   -0.0010975364205745286
0.00013772718099944832   -0.008530599145770538   -0.0009452329781820931
0.002334751052323291   -0.008557033910486785   -0.0009490186580327045
0.002552026854941586   -0.013378661942892714   -0.0010975364205745286
0.0023257880694626297   -0.008559990565602964   -0.0009269921440672482
0.00013772718099944832   -0.008530599145770538   -0.0009452329781820931
0.002552026854941586   -0.013378661942892714   -0.0010975364205745286
2.155466504122847e-06   -0.013376768203026693   -0.0010945349892875966
-7.599355561131981e-06   -0.013362643861079184   -0.0011111183267898369
0.00013772718099944832   -0.008530599145770538   -0.0009452329781820931
0.002552026854941586   -0.013378661942892714   -0.0010975364205745286
-7.599355561131981e-06   -0.013362643861079184   -0.0011111183267898369
0.0023257880694626297   -0.008559990565602964   -0.0009269921440672482
0.00013772718099944832   -0.008530599145770538   -0.0009452329781820931
2.155466504122847e-06   -0.013376768203026693   -0.0010945349892875966
0.002334751052323291   -0.008557033910486785   -0.0009490186580327045
0.00014447215126339776   -0.008531927410399563   -0.0009403651524378914
2.155466504122847e-06   -0.013376768203026693   -0.0010945349892875966
0.002552026854941586   -0.013378661942892714   -0.0010975364205745286
0.002334751052323291   -0.008557033910486785   -0.0009490186580327045
0.0025539006307937137   -0.013363713423416369   -0.001103606392182921
0.00014447215126339776   -0.008531927410399563   -0.0009403651524378914
0.002329845708438849   -0.008537237931592188   -0.0009755570921131785
0.0025539006307937137   -0.013363713423416369   -0.001103606392182921
0.002334751052323291   -0.008557033910486785   -0.0009490186580327045
0.00014447215126339776   -0.008531927410399563   -0.0009403651524378914
0.0025539006307937137   -0.013363713423416369   -0.001103606392182921
9.355332139264245e-06   -0.013381075292336573   -0.0010829610442913329
2.155466504122847e-06   -0.013376768203026693   -0.0010945349892875966
0.00014447215126339776   -0.008531927410399563   -0.0009403651524378914
0.0025539006307937137   -0.013363713423416369   -0.001103606392182921
2.155466504122847e-06   -0.013376768203026693   -0.0010945349892875966
0.002334751052323291   -0.008557033910486785   -0.0009490186580327045
0.00014447215126339776   -0.008531927410399563   -0.0009403651524378914
9.355332139264245e-06   -0.013381075292336573   -0.0010829610442913329
0.002329845708438849   -0.008537237931592188   -0.0009755570921131785
0.00014960435258311064   -0.008515760613764932   -0.0009406596303655107
9.355332139264245e-06   -0.013381075292336573   -0.0010829610442913329
0.0025539006307937137   -0.013363713423416369   -0.001103606392182921
0.002329845708438849   -0.008537237931592188   -0.0009755570921131785
0.0025493239801086917   -0.013336026868436705   -0.001114597281377791
0.00014960435258311064   -0.008515760613764932   -0.0009406596303655107
0.0023219323941823127   -0.008496399351898132   -0.0010071447187571083
0.0025493239801086917   -0.013336026868436705   -0.001114597281377791
0.002329845708438849   -0.008537237931592188   -0.0009755570921131785
0.00014960435258311064   -0.008515760613764932   -0.0009406596303655107
0.0025493239801086917   -0.013336026868436705   -0.001114597281377791
1.4268551878995248e-05   -0.013375429741926782   -0.001076615428311795
9.355332139264245e-06   -0.013381075292336573   -0.0010829610442913329
0.00014960435258311064   -0.008515760613764932   -0.0009406596303655107
0.0025493239801086917   -0.013336026868436705   -0.001114597281377791
9.355332139264245e-06   -0.013381075292336573   -0.0010829610442913329
0.002329845708438849   -0.008537237931592188   -0.0009755570921131785
0.0023257880694626297   -0.008559990565602964   -0.0009269921440672482
0.0025402189300217258   -0.013384579683816166   -0.00109620375036257
0.004829609772668396   -0.008646777769289396   -0.0009282853443086517
0.002334751052323291   -0.008557033910486785   -0.0009490186580327045
0.0025402189300217258   -0.013384579683816166   -0.00109620375036257
0.0053535420242246095   -0.013424730090627997   -0.0011114202410313517
0.004829609772668396   -0.008646777769289396   -0.0009282853443086517
0.005350168610804426   -0.01340520166863612   -0.001131978448541727
0.002334751052323291   -0.008557033910486785   -0.0009490186580327045
0.004789081636938542   -0.008631369605213974   -0.0009860656764334804
0.005350168610804426   -0.01340520166863612   -0.001131978448541727
0.004829609772668396   -0.008646777769289396   -0.0009282853443086517
0.002334751052323291   -0.008557033910486785   -0.0009490186580327045
0.005350168610804426   -0.01340520166863612   -0.001131978448541727
0.002552026854941586   -0.013378661942892714   -0.0010975364205745286
0.0025402189300217258   -0.013384579683816166   -0.00109620375036257
0.002334751052323291   -0.008557033910486785   -0.0009490186580327045
0.005350168610804426   -0.01340520166863612   -0.001131978448541727
0.0025402189300217258   -0.013384579683816166   -0.00109620375036257
0.004829609772668396   -0.008646777769289396   -0.0009282853443086517
0.002334751052323291   -0.008557033910486785   -0.0009490186580327045
0.002552026854941586   -0.013378661942892714   -0.0010975364205745286
0.004789081636938542   -0.008631369605213974   -0.0009860656764334804
0.002329845708438849   -0.008537237931592188   -0.0009755570921131785
0.002552026854941586   -0.013378661942892714   -0.0010975364205745286
0.005350168610804426   -0.01340520166863612   -0.001131978448541727
0.004789081636938542   -0.008631369605213974   -0.0009860656764334804
0.005338151100504687   -0.013380888625061942   -0.0011602291723980746
0.002329845708438849   -0.008537237931592188   -0.0009755570921131785
0.00474841718548051   -0.00860095001391796   -0.001051982909522055
0.005338151100504687   -0.013380888625061942   -0.0011602291723980746
0.004789081636938542   -0.008631369605213974   -0.0009860656764334804
0.002329845708438849   -0.008537237931592188   -0.0009755570921131785
0.005338151100504687   -0.013380888625061942   -0.0011602291723980746
0.0025539006307937137   -0.013363713423416369   -0.001103606392182921
0.002552026854941586   -0.013378661942892714   -0.0010975364205745286
0.002329845708438849   -0.008537237931592188   -0.0009755570921131785
0.005338151100504687   -0.013380888625061942   -0.0011602291723980746
0.002552026854941586   -0.013378661942892714   -0.0010975364205745286
0.004789081636938542   -0.008631369605213974   -0.0009860656764334804
0.002329845708438849   -0.008537237931592188   -0.0009755570921131785
0.0025539006307937137   -0.013363713423416369   -0.001103606392182921
0.00474841718548051   -0.00860095001391796   -0.001051982909522055
0.0023219323941823127   -0.008496399351898132   -0.0010071447187571083
0.0025539006307937137   -0.013363713423416369   -0.001103606392182921
0.005338151100504687   -0.013380888625061942   -0.0011602291723980746
0.00474841718548051   -0.00860095001391796   -0.001051982909522055
0.0053030866083276455   -0.013334853177041205   -0.0011961164934899506
0.0023219323941823127   -0.008496399351898132   -0.0010071447187571083
0.004675213921951516   -0.008537462522677824   -0.0011260460596693772
0.0053030866083276455   -0.013334853177041205   -0.0011961164934899506
0.00474841718548051   -0.00860095001391796   -0.001051982909522055
0.0023219323941823127   -0.008496399351898132   -0.0010071447187571083
0.0053030866083276455   -0.013334853177041205   -0.0011961164934899506
0.0025493239801086917   -0.013336026868436705   -0.001114597281377791
0.0025539006307937137   -0.013363713423416369   -0.001103606392182921
0.0023219323941823127   -0.008496399351898132   -0.0010071447187571083
0.0053030866083276455   -0.013334853177041205   -0.0011961164934899506
0.0025539006307937137   -0.013363713423416369   -0.001103606392182921
0.00474841718548051   -0.00860095001391796   -0.001051982909522055
-0.007704459026254344   -0.013479873608595348   -0.0013887191533002103
-0.008456579094800762   -0.018689558140831848   -0.001415247244210648
-0.005002711362830109   -0.013407017265547582   -0.0012561431230696057
-0.0077804615335185364   -0.013556329938171595   -0.001314289912626818
-0.008456579094800762   -0.018689558140831848   -0.001415247244210648
-0.005559772191759961   -0.01866004560423069   -0.0013099461987457067
-0.005002711362830109   -0.013407017265547582   -0.0012561431230696057
-0.005556771099726569   -0.018708097510683277   -0.001278401412172038
-0.0077804615335185364   -0.013556329938171595   -0.001314289912626818
-0.005007808540633367   -0.013463497713608275   -0.0012045996872368618
-0.005556771099726569   -0.018708097510683277   -0.001278401412172038
-0.005002711362830109   -0.013407017265547582   -0.0012561431230696057
-0.0077804615335185364   -0.013556329938171595   -0.001314289912626818
-0.005556771099726569   -0.018708097510683277   -0.001278401412172038
-0.008491502458271344   -0.01875419531843088   -0.0013770835528436024
-0.008456579094800762   -0.018689558140831848   -0.001415247244210648
-0.0077804615335185364   -0.013556329938171595   -0.001314289912626818
-0.005556771099726569   -0.018708097510683277   -0.001278401412172038
-0.008456579094800762   -0.018689558140831848   -0.001415247244210648
-0.005002711362830109   -0.013407017265547582   -0.0012561431230696057
-0.0077804615335185364   -0.013556329938171595   -0.001314289912626818
-0.008491502458271344   -0.01875419531843088   -0.0013770835528436024
-0.005007808540633367   -0.013463497713608275   -0.0012045996872368618
-0.007823616647376248   -0.013610520107297174   -0.0012470420974182515
-0.008491502458271344   -0.01875419531843088   -0.0013770835528436024
-0.005556771099726569   -0.018708097510683277   -0.001278401412172038
-0.005007808540633367   -0.013463497713608275   -0.0012045996872368618
-0.005548525933435554   -0.018752519565528248   -0.001252097474251869
-0.007823616647376248   -0.013610520107297174   -0.0012470420974182515
-0.00501115068136241   -0.01350835440080575   -0.0011582087722778979
-0.005548525933435554   -0.018752519565528248   -0.001252097474251869
-0.005007808540633367   -0.013463497713608275   -0.0012045996872368618
-0.007823616647376248   -0.013610520107297174   -0.0012470420974182515
-0.005548525933435554   -0.018752519565528248   -0.001252097474251869
-0.008501975395115324   -0.018807029285904272   -0.0013464603162420012
-0.008491502458271344   -0.01875419531843088   -0.0013770835528436024
-0.007823616647376248   -0.013610520107297174   -0.0012470420974182515
-0.005548525933435554   -0.018752519565528248   -0.001252097474251869
-0.008491502458271344   -0.01875419531843088   -0.0013770835528436024
-0.005007808540633367   -0.013463497713608275   -0.0012045996872368618
-0.007823616647376248   -0.013610520107297174   -0.0012470420974182515
-0.008501975395115324   -0.018807029285904272   -0.0013464603162420012
-0.00501115068136241   -0.01350835440080575   -0.0011582087722778979
-0.007867992087709807   -0.013659258639928633   -0.0011878346877082387
-0.008501975395115324   -0.018807029285904272   -0.0013464603162420012
-0.005548525933435554   -0.018752519565528248   -0.001252097474251869
-0.00501115068136241   -0.01350835440080575   -0.0011582087722778979
-0.005529408595329019   -0.018796706733524886   -0.0012306591008640233
-0.007867992087709807   -0.013659258639928633   -0.0011878346877082387
-0.004999851081474037   -0.013545315971497593   -0.0011162796255311572
-0.005529408595329019   -0.018796706733524886   -0.0012306591008640233
-0.00501115068136241   -0.01350835440080575   -0.0011582087722778979
-0.007867992087709807   -0.013659258639928633   -0.0011878346877082387
-0.005529408595329019   -0.018796706733524886   -0.0012306591008640233
-0.008504755560983873   -0.01886455714254223   -0.0013240342148943493
-0.008501975395115324   -0.018807029285904272   -0.0013464603162420012
-0.007867992087709807   -0.013659258639928633   -0.0011878346877082387
-0.005529408595329019   -0.018796706733524886   -0.0012306591008640233
-0.008501975395115324   -0.018807029285904272   -0.0013464603162420012
-0.00501115068136241   -0.01350835440080575   -0.0011582087722778979
-0.005002711362830109   -0.013407017265547582   -0.0012561431230696057
-0.005559772191759961   -0.01866004560423069   -0.0013099461987457067
-0.002470665218217492   -0.013369226924156635   -0.0011643711120628668
-0.005007808540633367   -0.013463497713608275   -0.0012045996872368618
-0.005559772191759961   -0.01866004560423069   -0.0013099461987457067
-0.0028690274711252756   -0.01864292821928739   -0.0012382857256364567
-0.002470665218217492   -0.013369226924156635   -0.0011643711120628668
-0.0028582024856274608   -0.018671944939898225   -0.0012106542174808647
-0.005007808540633367   -0.013463497713608275   -0.0012045996872368618
-0.0024650771573597944   -0.013404600272273711   -0.0011302345645156022
-0.0028582024856274608   -0.018671944939898225   -0.0012106542174808647
-0.002470665218217492   -0.013369226924156635   -0.0011643711120628668
-0.005007808540633367   -0.013463497713608275   -0.0012045996872368618
-0.0028582024856274608   -0.018671944939898225   -0.0012106542174808647
-0.005556771099726569   -0.018708097510683277   -0.001278401412172038
-0.005559772191759961   -0.01866004560423069   -0.0013099461987457067
-0.005007808540633367   -0.013463497713608275   -0.0012045996872368618
-0.0028582024856274608   -0.018671944939898225   -0.0012106542174808647
-0.005559772191759961   -0.01866004560423069   -0.0013099461987457067
-0.002470665218217492   -0.013369226924156635   -0.0011643711120628668
-0.005007808540633367   -0.013463497713608275   -0.0012045996872368618
-0.005556771099726569   -0.018708097510683277   -0.001278401412172038
-0.0024650771573597944   -0.013404600272273711   -0.0011302345645156022
-0.00501115068136241   -0.01350835440080575   -0.0011582087722778979
-0.005556771099726569   -0.018708097510683277   -0.001278401412172038
-0.0028582024856274608   -0.018671944939898225   -0.0012106542174808647
-0.0024650771573597944   -0.013404600272273711   -0.0011302345645156022
-0.0028451158013759444   -0.018698640219835354   -0.0011882636024725787
-0.00501115068136241   -0.01350835440080575   -0.0011582087722778979
-0.002457783136852739   -0.013430224728930405   -0.0011011684285557317
-0.0028451158013759444   -0.018698640219835354   -0.0011882636024725787
-0.0024650771573597944   -0.013404600272273711   -0.0011302345645156022
-0.00501115068136241   -0.01350835440080575   -0.0011582087722778979
-0.0028451158013759444   -0.018698640219835354   -0.0011882636024725787
-0.005548525933435554   -0.018752519565528248   -0.001252097474251869
-0.005556771099726569   -0.018708097510683277   -0.001278401412172038
-0.00501115068136241   -0.01350835440080575   -0.0011582087722778979
-0.0028451158013759444   -0.018698640219835354   -0.0011882636024725787
-0.005556771099726569   -0.018708097510683277   -0.001278401412172038
-0.0024650771573597944   -0.013404600272273711   -0.0011302345645156022
-0.00501115068136241   -0.01350835440080575   -0.0011582087722778979
-0.005548525933435554   -0.018752519565528248   -0.001252097474251869
-0.002457783136852739   -0.013430224728930405   -0.0011011684285557317
-0.004999851081474037   -0.013545315971497593   -0.0011162796255311572
-0.005548525933435554   -0.018752519565528248   -0.001252097474251869
-0.0028451158013759444   -0.018698640219835354   -0.0011882636024725787
-0.002457783136852739   -0.013430224728930405   -0.0011011684285557317
-0.0028295350979201193   -0.018723103424123727   -0.0011712439572278536
-0.004999851081474037   -0.013545315971497593   -0.0011162796255311572
-0.002447328416409187   -0.013446269243266024   -0.0010772601100445813
-0.0028295350979201193   -0.018723103424123727   -0.0011712439572278536
-0.002457783136852739   -0.013430224728930405   -0.0011011684285557317
-0.004999851081474037   -0.013545315971497593   -0.0011162796255311572
-0.0028295350979201193   -0.018723103424123727   -0.0011712439572278536
-0.005529408595329019   -0.018796706733524886   -0.0012306591008640233
-0.005548525933435554   -0.018752519565528248   -0.001252097474251869
-0.004999851081474037   -0.013545315971497593   -0.0011162796255311572
-0.0028295350979201193   -0.018723103424123727   -0.0011712439572278536
-0.005548525933435554   -0.018752519565528248   -0.001252097474251869
-0.002457783136852739   -0.013430224728930405   -0.0011011684285557317
-0.002470665218217492   -0.013369226924156635   -0.0011643711120628668
-0.0028690274711252756   -0.01864292821928739   -0.0012382857256364567
-7.599355561131981e-06   -0.013362643861079184   -0.0011111183267898369
-0.0024650771573597944   -0.013404600272273711   -0.0011302345645156022
-0.0028690274711252756   -0.01864292821928739   -0.0012382857256364567
-0.0002511383899974802   -0.01863300270187706   -0.0012014345662194224
-7.599355561131981e-06   -0.013362643861079184   -0.0011111183267898369
-0.0002362954972518026   -0.01864260138538305   -0.0011780020744203332
-0.0024650771573597944   -0.013404600272273711   -0.0011302345645156022
2.155466504122847e-06   -0.013376768203026693   -0.0010945349892875966
-0.0002362954972518026   -0.01864260138538305   -0.0011780020744203332
-7.599355561131981e-06   -0.013362643861079184   -0.0011111183267898369
-0.0024650771573597944   -0.013404600272273711   -0.0011302345645156022
-0.0002362954972518026   -0.01864260138538305   -0.0011780020744203332
-0.0028582024856274608   -0.018671944939898225   -0.0012106542174808647
-0.0028690274711252756   -0.01864292821928739   -0.0012382857256364567
-0.0024650771573597944   -0.013404600272273711   -0.0011302345645156022
-0.0002362954972518026   -0.01864260138538305   -0.0011780020744203332
-0.0028690274711252756   -0.01864292821928739   -0.0012382857256364567
-7.599355561131981e-06   -0.013362643861079184   -0.0011111183267898369
-0.0024650771573597944   -0.013404600272273711   -0.0011302345645156022
-0.0028582024856274608   -0.018671944939898225   -0.0012106542174808647
2.155466504122847e-06   -0.013376768203026693   -0.0010945349892875966
-0.002457783136852739   -0.013430224728930405   -0.0011011684285557317
-0.0028582024856274608   -0.018671944939898225   -0.0012106542174808647
-0.0002362954972518026   -0.01864260138538305   -0.0011780020744203332
2.155466504122847e-06   -0.013376768203026693   -0.0010945349892875966
-0.0002233425611092342   -0.018649709906427565   -0.0011597687700332664
-0.002457783136852739   -0.013430224728930405   -0.0011011684285557317
9.355332139264245e-06   -0.013381075292336573   -0.0010829610442913329
-0.0002233425611092342   -0.018649709906427565   -0.0011597687700332664
2.155466504122847e-06   -0.013376768203026693   -0.0010945349892875966
-0.002457783136852739   -0.013430224728930405   -0.0011011684285557317
-0.0002233425611092342   -0.018649709906427565   -0.0011597687700332664
-0.0028451158013759444   -0.018698640219835354   -0.0011882636024725787
-0.0028582024856274608   -0.018671944939898225   -0.0012106542174808647
-0.002457783136852739   -0.013430224728930405   -0.0011011684285557317
-0.0002233425611092342   -0.018649709906427565   -0.0011597687700332664
-0.0028582024856274608   -0.018671944939898225   -0.0012106542174808647
2.155466504122847e-06   -0.013376768203026693   -0.0010945349892875966
-0.002457783136852739   -0.013430224728930405   -0.0011011684285557317
-0.0028451158013759444   -0.018698640219835354   -0.0011882636024725787
9.355332139264245e-06   -0.013381075292336573   -0.0010829610442913329
-0.002447328416409187   -0.013446269243266024   -0.0010772601100445813
-0.0028451158013759444   -0.018698640219835354   -0.0011882636024725787
-0.0002233425611092342   -0.018649709906427565   -0.0011597687700332664
9.355332139264245e-06   -0.013381075292336573   -0.0010829610442913329
-0.00021326889231911437   -0.018654289145237014   -0.0011469219839208278
-0.002447328416409187   -0.013446269243266024   -0.0010772601100445813
1.4268551878995248e-05   -0.013375429741926782   -0.001076615428311795
-0.00021326889231911437   -0.018654289145237014   -0.0011469219839208278
9.355332139264245e-06   -0.013381075292336573   -0.0010829610442913329
-0.002447328416409187   -0.013446269243266024   -0.0010772601100445813
-0.00021326889231911437   -0.018654289145237014   -0.0011469219839208278
-0.0028295350979201193   -0.018723103424123727   -0.0011712439572278536
-0.0028451158013759444   -0.018698640219835354   -0.0011882636024725787
-0.002447328416409187   -0.013446269243266024   -0.0010772601100445813
-0.00021326889231911437   -0.018654289145237014   -0.0011469219839208278
-0.0028451158013759444   -0.018698640219835354   -0.0011882636024725787
9.355332139264245e-06   -0.013381075292336573   -0.0010829610442913329
-7.599355561131981e-06   -0.013362643861079184   -0.0011111183267898369
-0.0002511383899974802   -0.01863300270187706   -0.0012014345662194224
0.0025402189300217258   -0.013384579683816166   -0.00109620375036257
2.155466504122847e-06   -0.013376768203026693   -0.0010945349892875966
-0.0002511383899974802   -0.01863300270187706   -0.0012014345662194224
0.0024464781636348468   -0.018628552874234348   -0.001199751630968656
0.0025402189300217258   -0.013384579683816166   -0.00109620375036257
0.0024659570144105877   -0.018619318545828486   -0.0011807246701050936
2.155466504122847e-06   -0.013376768203026693   -0.0010945349892875966
0.002552026854941586   -0.013378661942892714   -0.0010975364205745286
0.0024659570144105877   -0.018619318545828486   -0.0011807246701050936
0.0025402189300217258   -0.013384579683816166   -0.00109620375036257
2.155466504122847e-06   -0.013376768203026693   -0.0010945349892875966
0.0024659570144105877   -0.018619318545828486   -0.0011807246701050936
-0.0002362954972518026   -0.01864260138538305   -0.0011780020744203332
-0.0002511383899974802   -0.01863300270187706   -0.0012014345662194224
2.155466504122847e-06   -0.013376768203026693   -0.0010945349892875966
0.0024659570144105877   -0.018619318545828486   -0.0011807246701050936
-0.0002511383899974802   -0.01863300270187706   -0.0012014345662194224
0.0025402189300217258   -0.013384579683816166   -0.00109620375036257
2.155466504122847e-06   -0.013376768203026693   -0.0010945349892875966
-0.0002362954972518026   -0.01864260138538305   -0.0011780020744203332
0.002552026854941586   -0.013378661942892714   -0.0010975364205745286
9.355332139264245e-06   -0.013381075292336573   -0.0010829610442913329
-0.0002362954972518026   -0.01864260138538305   -0.0011780020744203332
0.0024659570144105877   -0.018619318545828486   -0.0011807246701050936
0.002552026854941586   -0.013378661942892714   -0.0010975364205745286
0.0024793314023369957   -0.018608703014686395   -0.0011667451327436575
9.355332139264245e-06   -0.013381075292336573   -0.0010829610442913329
0.0025539006307937137   -0.013363713423416369   -0.001103606392182921
0.0024793314023369957   -0.018608703014686395   -0.0011667451327436575
0.002552026854941586   -0.013378661942892714   -0.0010975364205745286
9.355332139264245e-06   -0.013381075292336573   -0.0010829610442913329
0.0024793314023369957   -0.018608703014686395   -0.0011667451327436575
-0.0002233425611092342   -0.018649709906427565   -0.0011597687700332664
-0.0002362954972518026   -0.01864260138538305   -0.0011780020744203332
9.355332139264245e-06   -0.013381075292336573   -0.0010829610442913329
0.0024793314023369957   -0.018608703014686395   -0.0011667451327436575
-0.0002362954972518026   -0.01864260138538305   -0.0011780020744203332
0.002552026854941586   -0.013378661942892714   -0.0010975364205745286
9.355332139264245e-06   -0.013381075292336573   -0.0010829610442913329
-0.0002233425611092342   -0.018649709906427565   -0.0011597687700332664
0.0025539006307937137   -0.013363713423416369   -0.001103606392182921
1.4268551878995248e-05   -0.013375429741926782   -0.001076615428311795
-0.0002233425611092342   -0.018649709906427565   -0.0011597687700332664
0.0024793314023369957   -0.018608703014686395   -0.0011667451327436575
0.0025539006307937137   -0.013363713423416369   -0.001103606392182921
0.002482765539585459   -0.01859327066661472   -0.0011577115494295282
1.4268551878995248e-05   -0.013375429741926782   -0.001076615428311795
0.0025493239801086917   -0.013336026868436705   -0.001114597281377791
0.002482765539585459   -0.01859327066661472   -0.0011577115494295282
0.0025539006307937137   -0.013363713423416369   -0.001103606392182921
1.4268551878995248e-05   -0.013375429741926782   -0.001076615428311795
0.002482765539585459   -0.01859327066661472   -0.0011577115494295282
-0.00021326889231911437   -0.018654289145237014   -0.0011469219839208278
-0.0002233425611092342   -0.018649709906427565   -0.0011597687700332664
1.4268551878995248e-05   -0.013375429741926782   -0.001076615428311795
0.002482765539585459   -0.01859327066661472   -0.0011577115494295282
-0.0002233425611092342   -0.018649709906427565   -0.0011597687700332664
0.0025539006307937137   -0.013363713423416369   -0.001103606392182921
0.0025402189300217258   -0.013384579683816166   -0.00109620375036257
0.0024464781636348468   -0.018628552874234348   -0.001199751630968656
0.0053535420242246095   -0.013424730090627997   -0.0011114202410313517
0.002552026854941586   -0.013378661942892714   -0.0010975364205745286
0.0024464781636348468   -0.018628552874234348   -0.001199751630968656
0.0053691759331673545   -0.018622150828612762   -0.0012298486666116617
0.0053535420242246095   -0.013424730090627997   -0.0011114202410313517
0.005407001187432783   -0.01859800188255744   -0.0012139420282206072
0.002552026854941586   -0.013378661942892714   -0.0010975364205745286
0.005350168610804426   -0.01340520166863612   -0.001131978448541727
0.005407001187432783   -0.01859800188255744   -0.0012139420282206072
0.0053535420242246095   -0.013424730090627997   -0.0011114202410313517
0.002552026854941586   -0.013378661942892714   -0.0010975364205745286
0.005407001187432783   -0.01859800188255744   -0.0012139420282206072
0.0024659570144105877   -0.018619318545828486   -0.0011807246701050936
0.0024464781636348468   -0.018628552874234348   -0.001199751630968656
0.002552026854941586   -0.013378661942892714   -0.0010975364205745286
0.005407001187432783   -0.01859800188255744   -0.0012139420282206072
0.0024464781636348468   -0.018628552874234348   -0.001199751630968656
0.0053535420242246095   -0.013424730090627997   -0.0011114202410313517
0.002552026854941586   -0.013378661942892714   -0.0010975364205745286
0.0024659570144105877   -0.018619318545828486   -0.0011807246701050936
0.005350168610804426   -0.01340520166863612   -0.001131978448541727
0.0025539006307937137   -0.013363713423416369   -0.001103606392182921
0.0024659570144105877   -0.018619318545828486   -0.0011807246701050936
0.005407001187432783   -0.01859800188255744   -0.0012139420282206072
0.005350168610804426   -0.01340520166863612   -0.001131978448541727
0.005427530732481278   -0.018579013453918755   -0.0012057142741764904
0.0025539006307937137   -0.013363713423416369   -0.001103606392182921
0.005338151100504687   -0.013380888625061942   -0.0011602291723980746
0.005427530732481278   -0.018579013453918755   -0.0012057142741764904
0.005350168610804426   -0.01340520166863612   -0.001131978448541727
0.0025539006307937137   -0.013363713423416369   -0.001103606392182921
0.005427530732481278   -0.018579013453918755   -0.0012057142741764904
0.0024793314023369957   -0.018608703014686395   -0.0011667451327436575
0.0024659570144105877   -0.018619318545828486   -0.0011807246701050936
0.0025539006307937137   -0.013363713423416369   -0.001103606392182921
0.005427530732481278   -0.018579013453918755   -0.0012057142741764904
0.0024659570144105877   -0.018619318545828486   -0.0011807246701050936
0.005350168610804426   -0.01340520166863612   -0.001131978448541727
0.0025539006307937137   -0.013363713423416369   -0.001103606392182921
0.0024793314023369957   -0.018608703014686395   -0.0011667451327436575
0.005338151100504687   -0.013380888625061942   -0.0011602291723980746
0.0025493239801086917   -0.013336026868436705   -0.001114597281377791
0.0024793314023369957   -0.018608703014686395   -0.0011667451327436575
0.005427530732481278   -0.018579013453918755   -0.0012057142741764904
0.005338151100504687   -0.013380888625061942   -0.0011602291723980746
0.005433636141967521   -0.01854880311673827   -0.0012052966755908097
0.0025493239801086917   -0.013336026868436705   -0.001114597281377791
0.0053030866083276455   -0.013334853177041205   -0.0011961164934899506
0.005433636141967521   -0.01854880311673827   -0.0012052966755908097
0.005338151100504687   -0.013380888625061942   -0.0011602291723980746
0.0025493239801086917   -0.013336026868436705   -0.001114597281377791
0.005433636141967521   -0.01854880311673827   -0.0012052966755908097
0.002482765539585459   -0.01859327066661472   -0.0011577115494295282
0.0024793314023369957   -0.018608703014686395   -0.0011667451327436575
0.0025493239801086917   -0.013336026868436705   -0.001114597281377791
0.005433636141967521   -0.01854880311673827   -0.0012052966755908097
0.0024793314023369957   -0.018608703014686395   -0.0011667451327436575
0.005338151100504687   -0.013380888625061942   -0.0011602291723980746
-0.008456579094800762   -0.018689558140831848   -0.001415247244210648
-0.008715515727461187   -0.023986310711975406   -0.0013923904756812432
-0.005559772191759961   -0.01866004560423069   -0.0013099461987457067
-0.008491502458271344   -0.01875419531843088   -0.0013770835528436024
-0.008715515727461187   -0.023986310711975406   -0.0013923904756812432
-0.0058251628669398845   -0.024000308338827096   -0.001314787691008519
-0.005559772191759961   -0.01866004560423069   -0.0013099461987457067
-0.005809041887916873   -0.024039805912550068   -0.0013028697142834808
-0.008491502458271344   -0.01875419531843088   -0.0013770835528436024
-0.005556771099726569   -0.018708097510683277   -0.001278401412172038
-0.005809041887916873   -0.024039805912550068   -0.0013028697142834808
-0.005559772191759961   -0.01866004560423069   -0.0013099461987457067
-0.008491502458271344   -0.01875419531843088   -0.0013770835528436024
-0.005809041887916873   -0.024039805912550068   -0.0013028697142834808
-0.008704680288727664   -0.024039190039739814   -0.0013902091215253233
-0.008715515727461187   -0.023986310711975406   -0.0013923904756812432
-0.008491502458271344   -0.01875419531843088   -0.0013770835528436024
-0.005809041887916873   -0.024039805912550068   -0.0013028697142834808
-0.008715515727461187   -0.023986310711975406   -0.0013923904756812432
-0.005559772191759961   -0.01866004560423069   -0.0013099461987457067
-0.008491502458271344   -0.01875419531843088   -0.0013770835528436024
-0.008704680288727664   -0.024039190039739814   -0.0013902091215253233
-0.005556771099726569   -0.018708097510683277   -0.001278401412172038
-0.008501975395115324   -0.018807029285904272   -0.0013464603162420012
-0.008704680288727664   -0.024039190039739814   -0.0013902091215253233
-0.005809041887916873   -0.024039805912550068   -0.0013028697142834808
-0.005556771099726569   -0.018708097510683277   -0.001278401412172038
-0.0057842108116558716   -0.02408368556411005   -0.0012963293390692613
-0.008501975395115324   -0.018807029285904272   -0.0013464603162420012
-0.005548525933435554   -0.018752519565528248   -0.001252097474251869
-0.0057842108116558716   -0.02408368556411005   -0.0012963293390692613
-0.005556771099726569   -0.018708097510683277   -0.001278401412172038
-0.008501975395115324   -0.018807029285904272   -0.0013464603162420012
-0.0057842108116558716   -0.02408368556411005   -0.0012963293390692613
-0.008677413761051732   -0.024090676685482173   -0.0013960611029797843
-0.008704680288727664   -0.024039190039739814   -0.0013902091215253233
-0.008501975395115324   -0.018807029285904272   -0.0013464603162420012
-0.0057842108116558716   -0.02408368556411005   -0.0012963293390692613
-0.008704680288727664   -0.024039190039739814   -0.0013902091215253233
-0.005556771099726569   -0.018708097510683277   -0.001278401412172038
-0.008501975395115324   -0.018807029285904272   -0.0013464603162420012
-0.008677413761051732   -0.024090676685482173   -0.0013960611029797843
-0.005548525933435554   -0.018752519565528248   -0.001252097474251869
-0.008504755560983873   -0.01886455714254223   -0.0013240342148943493
-0.008677413761051732   -0.024090676685482173   -0.0013960611029797843
-0.0057842108116558716   -0.02408368556411005   -0.0012963293390692613
-0.005548525933435554   -0.018752519565528248   -0.001252097474251869
-0.0057522404888774616   -0.024134976941514393   -0.0012950707950268754
-0.008504755560983873   -0.01886455714254223   -0.0013240342148943493
-0.005529408595329019   -0.018796706733524886   -0.0012306591008640233
-0.0057522404888774616   -0.024134976941514393   -0.0012950707950268754
-0.005548525933435554   -0.018752519565528248   -0.001252097474251869
-0.008504755560983873   -0.01886455714254223   -0.0013240342148943493
-0.0057522404888774616   -0.024134976941514393   -0.0012950707950268754
-0.008633597673626925   -0.024157126842745767   -0.0014103633771358703
-0.008677413761051732   -0.024090676685482173   -0.0013960611029797843
-0.008504755560983873   -0.01886455714254223   -0.0013240342148943493
-0.0057522404888774616   -0.024134976941514393   -0.0012950707950268754
-0.008677413761051732   -0.024090676685482173   -0.0013960611029797843
-0.005548525933435554   -0.018752519565528248   -0.001252097474251869
-0.005559772191759961   -0.01866004560423069   -0.0013099461987457067
-0.0058251628669398845   -0.024000308338827096   -0.001314787691008519
-0.0028690274711252756   -0.01864292821928739   -0.0012382857256364567
-0.005556771099726569   -0.018708097510683277   -0.001278401412172038
-0.0058251628669398845   -0.024000308338827096   -0.001314787691008519
-0.003177114799319049   -0.02400321937220564   -0.0012632402183767647
-0.0028690274711252756   -0.01864292821928739   -0.0012382857256364567
-0.0031557558428431595   -0.02402580840624358   -0.0012419043620179862
-0.005556771099726569   -0.018708097510683277   -0.001278401412172038
-0.0028582024856274608   -0.018671944939898225   -0.0012106542174808647
-0.0031557558428431595   -0.02402580840624358   -0.0012419043620179862
-0.0028690274711252756   -0.01864292821928739   -0.0012382857256364567
-0.005556771099726569   -0.018708097510683277   -0.001278401412172038
-0.0031557558428431595   -0.02402580840624358   -0.0012419043620179862
-0.005809041887916873   -0.024039805912550068   -0.0013028697142834808
-0.0058251628669398845   -0.024000308338827096   -0.001314787691008519
-0.005556771099726569   -0.018708097510683277   -0.001278401412172038
-0.0031557558428431595   -0.02402580840624358   -0.0012419043620179862
-0.0058251628669398845   -0.024000308338827096   -0.001314787691008519
-0.0028690274711252756   -0.01864292821928739   -0.0012382857256364567
-0.005556771099726569   -0.018708097510683277   -0.001278401412172038
-0.005809041887916873   -0.024039805912550068   -0.0013028697142834808
-0.0028582024856274608   -0.018671944939898225   -0.0012106542174808647
-0.005548525933435554   -0.018752519565528248   -0.001252097474251869
-0.005809041887916873   -0.024039805912550068   -0.0013028697142834808
-0.0031557558428431595   -0.02402580840624358   -0.0012419043620179862
-0.0028582024856274608   -0.018671944939898225   -0.0012106542174808647
-0.0031317074720679777   -0.024053384433263467   -0.0012259631796245492
-0.005548525933435554   -0.018752519565528248   -0.001252097474251869
-0.0028451158013759444   -0.018698640219835354   -0.0011882636024725787
-0.0031317074720679777   -0.024053384433263467   -0.0012259631796245492
-0.0028582024856274608   -0.018671944939898225   -0.0012106542174808647
-0.005548525933435554   -0.018752519565528248   -0.001252097474251869
-0.0031317074720679777   -0.024053384433263467   -0.0012259631796245492
-0.0057842108116558716   -0.02408368556411005   -0.0012963293390692613
-0.005809041887916873   -0.024039805912550068   -0.0013028697142834808
-0.005548525933435554   -0.018752519565528248   -0.001252097474251869
-0.0031317074720679777   -0.024053384433263467   -0.0012259631796245492
-0.005809041887916873   -0.024039805912550068   -0.0013028697142834808
-0.0028582024856274608   -0.018671944939898225   -0.0012106542174808647
-0.005548525933435554   -0.018752519565528248   -0.001252097474251869
-0.0057842108116558716   -0.02408368556411005   -0.0012963293390692613
-0.0028451158013759444   -0.018698640219835354   -0.0011882636024725787
-0.005529408595329019   -0.018796706733524886   -0.0012306591008640233
-0.0057842108116558716   -0.02408368556411005   -0.0012963293390692613
-0.0031317074720679777   -0.024053384433263467   -0.0012259631796245492
-0.0028451158013759444   -0.018698640219835354   -0.0011882636024725787
-0.003105826127238379   -0.024086033675846656   -0.0012155961252363317
-0.005529408595329019   -0.018796706733524886   -0.0012306591008640233
-0.0028295350979201193   -0.018723103424123727   -0.0011712439572278536
-0.003105826127238379   -0.024086033675846656   -0.0012155961252363317
-0.0028451158013759444   -0.018698640219835354   -0.0011882636024725787
-0.005529408595329019   -0.018796706733524886   -0.0012306591008640233
-0.003105826127238379   -0.024086033675846656   -0.0012155961252363317
-0.0057522404888774616   -0.024134976941514393   -0.0012950707950268754
-0.0057842108116558716   -0.02408368556411005   -0.0012963293390692613
-0.005529408595329019   -0.018796706733524886   -0.0012306591008640233
-0.003105826127238379   -0.024086033675846656   -0.0012155961252363317
-0.0057842108116558716   -0.02408368556411005   -0.0012963293390692613
-0.0028451158013759444   -0.018698640219835354   -0.0011882636024725787
-0.0028690274711252756   -0.01864292821928739   -0.0012382857256364567
-0.003177114799319049   -0.02400321937220564   -0.0012632402183767647
-0.0002511383899974802   -0.01863300270187706   -0.0012014345662194224
-0.0028582024856274608   -0.018671944939898225   -0.0012106542174808647
-0.003177114799319049   -0.02400321937220564   -0.0012632402183767647
-0.0006038716493854145   -0.023989029073964496   -0.001242418110197525
-0.0002511383899974802   -0.01863300270187706   -0.0012014345662194224
-0.000578692121328629   -0.023994110150462888   -0.0012121347164310255
-0.0028582024856274608   -0.018671944939898225   -0.0012106542174808647
-0.0002362954972518026   -0.01864260138538305   -0.0011780020744203332
-0.000578692121328629   -0.023994110150462888   -0.0012121347164310255
-0.0002511383899974802   -0.01863300270187706   -0.0012014345662194224
-0.0028582024856274608   -0.018671944939898225   -0.0012106542174808647
-0.000578692121328629   -0.023994110150462888   -0.0012121347164310255
-0.0031557558428431595   -0.02402580840624358   -0.0012419043620179862
-0.003177114799319049   -0.02400321937220564   -0.0012632402183767647
-0.0028582024856274608   -0.018671944939898225   -0.0012106542174808647
-0.000578692121328629   -0.023994110150462888   -0.0012121347164310255
-0.003177114799319049   -0.02400321937220564   -0.0012632402183767647
-0.0002511383899974802   -0.01863300270187706   -0.0012014345662194224
-0.0028582024856274608   -0.018671944939898225   -0.0012106542174808647
-0.0031557558428431595   -0.02402580840624358   -0.0012419043620179862
-0.0002362954972518026   -0.01864260138538305   -0.0011780020744203332
-0.0028451158013759444   -0.018698640219835354   -0.0011882636024725787
-0.0031557558428431595   -0.02402580840624358   -0.0012419043620179862
-0.000578692121328629   -0.023994110150462888   -0.0012121347164310255
-0.0002362954972518026   -0.01864260138538305   -0.0011780020744203332
-0.0005548435616301606   -0.02400379834738976   -0.0011872115779130654
-0.0028451158013759444   -0.018698640219835354   -0.0011882636024725787
-0.0002233425611092342   -0.018649709906427565   -0.0011597687700332664
-0.0005548435616301606   -0.02400379834738976   -0.0011872115779130654
-0.0002362954972518026   -0.01864260138538305   -0.0011780020744203332
-0.0028451158013759444   -0.018698640219835354   -0.0011882636024725787
-0.0005548435616301606   -0.02400379834738976   -0.0011872115779130654
-0.0031317074720679777   -0.024053384433263467   -0.0012259631796245492
-0.0031557558428431595   -0.02402580840624358   -0.0012419043620179862
-0.0028451158013759444   -0.018698640219835354   -0.0011882636024725787
-0.0005548435616301606   -0.02400379834738976   -0.0011872115779130654
-0.0031557558428431595   -0.02402580840624358   -0.0012419043620179862
-0.0002362954972518026   -0.01864260138538305   -0.0011780020744203332
-0.0028451158013759444   -0.018698640219835354   -0.0011882636024725787
-0.0031317074720679777   -0.024053384433263467   -0.0012259631796245492
-0.0002233425611092342   -0.018649709906427565   -0.0011597687700332664
-0.0028295350979201193   -0.018723103424123727   -0.0011712439572278536
-0.0031317074720679777   -0.024053384433263467   -0.0012259631796245492
-0.0005548435616301606   -0.02400379834738976   -0.0011872115779130654
-0.0002233425611092342   -0.018649709906427565   -0.0011597687700332664
-0.0005345000584370246   -0.024018309771763512   -0.0011678338746571395
-0.0028295350979201193   -0.018723103424123727   -0.0011712439572278536
-0.00021326889231911437   -0.018654289145237014   -0.0011469219839208278
-0.0005345000584370246   -0.024018309771763512   -0.0011678338746571395
-0.0002233425611092342   -0.018649709906427565   -0.0011597687700332664
-0.0028295350979201193   -0.018723103424123727   -0.0011712439572278536
-0.0005345000584370246   -0.024018309771763512   -0.0011678338746571395
-0.003105826127238379   -0.024086033675846656   -0.0012155961252363317
-0.0031317074720679777   -0.024053384433263467   -0.0012259631796245492
-0.0028295350979201193   -0.018723103424123727   -0.0011712439572278536
-0.0005345000584370246   -0.024018309771763512   -0.0011678338746571395
-0.0031317074720679777   -0.024053384433263467   -0.0012259631796245492
-0.0002233425611092342   -0.018649709906427565   -0.0011597687700332664
-0.0002511383899974802   -0.01863300270187706   -0.0012014345662194224
-0.0006038716493854145   -0.023989029073964496   -0.001242418110197525
0.0024464781636348468   -0.018628552874234348   -0.001199751630968656
-0.0002362954972518026   -0.01864260138538305   -0.0011780020744203332
-0.0006038716493854145   -0.023989029073964496   -0.001242418110197525
0.0020463795399075814   -0.023957556922664488   -0.0012533550563423614
0.0024464781636348468   -0.018628552874234348   -0.001199751630968656
0.0020784121974383174   -0.02394505423200718   -0.001214267929177738
-0.0002362954972518026   -0.01864260138538305   -0.0011780020744203332
0.0024659570144105877   -0.018619318545828486   -0.0011807246701050936
0.0020784121974383174   -0.02394505423200718   -0.001214267929177738
0.0024464781636348468   -0.018628552874234348   -0.001199751630968656
-0.0002362954972518026   -0.01864260138538305   -0.0011780020744203332
0.0020784121974383174   -0.02394505423200718   -0.001214267929177738
-0.000578692121328629   -0.023994110150462888   -0.0012121347164310255
-0.0006038716493854145   -0.023989029073964496   -0.001242418110197525
-0.0002362954972518026   -0.01864260138538305   -0.0011780020744203332
0.0020784121974383174   -0.02394505423200718   -0.001214267929177738
-0.0006038716493854145   -0.023989029073964496   -0.001242418110197525
0.0024464781636348468   -0.018628552874234348   -0.001199751630968656
-0.0002362954972518026   -0.01864260138538305   -0.0011780020744203332
-0.000578692121328629   -0.023994110150462888   -0.0012121347164310255
0.0024659570144105877   -0.018619318545828486   -0.0011807246701050936
-0.0002233425611092342   -0.018649709906427565   -0.0011597687700332664
-0.000578692121328629   -0.023994110150462888   -0.0012121347164310255
0.0020784121974383174   -0.02394505423200718   -0.001214267929177738
0.0024659570144105877   -0.018619318545828486   -0.0011807246701050936
0.002108117252751391   -0.023938541347698156   -0.0011805226344079871
-0.0002233425611092342   -0.018649709906427565   -0.0011597687700332664
0.0024793314023369957   -0.018608703014686395   -0.0011667451327436575
0.002108117252751391   -0.023938541347698156   -0.0011805226344079871
0.0024659570144105877   -0.018619318545828486   -0.0011807246701050936
-0.0002233425611092342   -0.018649709906427565   -0.0011597687700332664
0.002108117252751391   -0.023938541347698156   -0.0011805226344079871
-0.0005548435616301606   -0.02400379834738976   -0.0011872115779130654
-0.000578692121328629   -0.023994110150462888   -0.0012121347164310255
-0.0002233425611092342   -0.018649709906427565   -0.0011597687700332664
0.002108117252751391   -0.023938541347698156   -0.0011805226344079871
-0.000578692121328629   -0.023994110150462888   -0.0012121347164310255
0.0024659570144105877   -0.018619318545828486   -0.0011807246701050936
-0.0002233425611092342   -0.018649709906427565   -0.0011597687700332664
-0.0005548435616301606   -0.02400379834738976   -0.0011872115779130654
0.0024793314023369957   -0.018608703014686395   -0.0011667451327436575
-0.00021326889231911437   -0.018654289145237014   -0.0011469219839208278
-0.0005548435616301606   -0.02400379834738976   -0.0011872115779130654
0.002108117252751391   -0.023938541347698156   -0.0011805226344079871
0.0024793314023369957   -0.018608703014686395   -0.0011667451327436575
0.0021243534599873163   -0.02393492813224048   -0.0011517703823389696
-0.00021326889231911437   -0.018654289145237014   -0.0011469219839208278
0.002482765539585459   -0.01859327066661472   -0.0011577115494295282
0.0021243534599873163   -0.02393492813224048   -0.0011517703823389696
0.0024793314023369957   -0.018608703014686395   -0.0011667451327436575
-0.00021326889231911437   -0.018654289145237014   -0.0011469219839208278
0.0021243534599873163   -0.02393492813224048   -0.0011517703823389696
-0.0005345000584370246   -0.024018309771763512   -0.0011678338746571395
-0.0005548435616301606   -0.02400379834738976   -0.0011872115779130654
-0.00021326889231911437   -0.018654289145237014   -0.0011469219839208278
0.0021243534599873163   -0.02393492813224048   -0.0011517703823389696
-0.0005548435616301606   -0.02400379834738976   -0.0011872115779130654
0.0024793314023369957   -0.018608703014686395   -0.0011667451327436575
0.0024464781636348468   -0.018628552874234348   -0.001199751630968656
0.0020463795399075814   -0.023957556922664488   -0.0012533550563423614
0.0053691759331673545   -0.018622150828612762   -0.0012298486666116617
0.0024659570144105877   -0.018619318545828486   -0.0011807246701050936
0.0020463795399075814   -0.023957556922664488   -0.0012533550563423614
0.004882613778394733   -0.023904545388384584   -0.0012978118444409187
0.0053691759331673545   -0.018622150828612762   -0.0012298486666116617
0.00496571634142007   -0.02387607335146654   -0.0012463604333610592
0.0024659570144105877   -0.018619318545828486   -0.0011807246701050936
0.005407001187432783   -0.01859800188255744   -0.0012139420282206072
0.00496571634142007   -0.02387607335146654   -0.0012463604333610592
0.0053691759331673545   -0.018622150828612762   -0.0012298486666116617
0.0024659570144105877   -0.018619318545828486   -0.0011807246701050936
0.00496571634142007   -0.02387607335146654   -0.0012463604333610592
0.0020784121974383174   -0.02394505423200718   -0.001214267929177738
0.0020463795399075814   -0.023957556922664488   -0.0012533550563423614
0.0024659570144105877   -0.018619318545828486   -0.0011807246701050936
0.00496571634142007   -0.02387607335146654   -0.0012463604333610592
0.0020463795399075814   -0.023957556922664488   -0.0012533550563423614
0.0053691759331673545   -0.018622150828612762   -0.0012298486666116617
0.0024659570144105877   -0.018619318545828486   -0.0011807246701050936
0.0020784121974383174   -0.02394505423200718   -0.001214267929177738
0.005407001187432783   -0.01859800188255744   -0.0012139420282206072
0.0024793314023369957   -0.018608703014686395   -0.0011667451327436575
0.0020784121974383174   -0.02394505423200718   -0.001214267929177738
0.00496571634142007   -0.02387607335146654   -0.0012463604333610592
0.005407001187432783   -0.01859800188255744   -0.0012139420282206072
0.005023072567844482   -0.02386225111902193   -0.0012025270373526382
0.0024793314023369957   -0.018608703014686395   -0.0011667451327436575
0.005427530732481278   -0.018579013453918755   -0.0012057142741764904
0.005023072567844482   -0.02386225111902193   -0.0012025270373526382
0.005407001187432783   -0.01859800188255744   -0.0012139420282206072
0.0024793314023369957   -0.018608703014686395   -0.0011667451327436575
0.005023072567844482   -0.02386225111902193   -0.0012025270373526382
0.002108117252751391   -0.023938541347698156   -0.0011805226344079871
0.0020784121974383174   -0.02394505423200718   -0.001214267929177738
0.0024793314023369957   -0.018608703014686395   -0.0011667451327436575
0.005023072567844482   -0.02386225111902193   -0.0012025270373526382
0.0020784121974383174   -0.02394505423200718   -0.001214267929177738
0.005407001187432783   -0.01859800188255744   -0.0012139420282206072
0.0024793314023369957   -0.018608703014686395   -0.0011667451327436575
0.002108117252751391   -0.023938541347698156   -0.0011805226344079871
0.005427530732481278   -0.018579013453918755   -0.0012057142741764904
0.002482765539585459   -0.01859327066661472   -0.0011577115494295282
0.002108117252751391   -0.023938541347698156   -0.0011805226344079871
0.005023072567844482   -0.02386225111902193   -0.0012025270373526382
0.005427530732481278   -0.018579013453918755   -0.0012057142741764904
0.005074335347152682   -0.023847389590102568   -0.0011666305104589948
0.002482765539585459   -0.01859327066661472   -0.0011577115494295282
0.005433636141967521   -0.01854880311673827   -0.0012052966755908097
0.005074335347152682   -0.023847389590102568   -0.0011666305104589948
0.005427530732481278   -0.018579013453918755   -0.0012057142741764904
0.002482765539585459   -0.01859327066661472   -0.0011577115494295282
0.005074335347152682   -0.023847389590102568   -0.0011666305104589948
0.0021243534599873163   -0.02393492813224048   -0.0011517703823389696
0.002108117252751391   -0.023938541347698156   -0.0011805226344079871
0.002482765539585459   -0.01859327066661472   -0.0011577115494295282
0.005074335347152682   -0.023847389590102568   -0.0011666305104589948
0.002108117252751391   -0.023938541347698156   -0.0011805226344079871
0.005427530732481278   -0.018579013453918755   -0.0012057142741764904
-0.008715515727461187   -0.023986310711975406   -0.0013923904756812432
-0.008479067626404307   -0.0290381307565758   -0.001332129796616099
-0.0058251628669398845   -0.024000308338827096   -0.001314787691008519
-0.008704680288727664   -0.024039190039739814   -0.0013902091215253233
-0.008479067626404307   -0.0290381307565758   -0.001332129796616099
-0.00580035410620348   -0.029096249226893155   -0.0012855860092206772
-0.0058251628669398845   -0.024000308338827096   -0.001314787691008519
-0.005766287349358965   -0.029125667067322593   -0.0012927130077917217
-0.008704680288727664   -0.024039190039739814   -0.0013902091215253233
-0.005809041887916873   -0.024039805912550068   -0.0013028697142834808
-0.005766287349358965   -0.029125667067322593   -0.0012927130077917217
-0.0058251628669398845   -0.024000308338827096   -0.001314787691008519
-0.008704680288727664   -0.024039190039739814   -0.0013902091215253233
-0.005766287349358965   -0.029125667067322593   -0.0012927130077917217
-0.008417532812284467   -0.0290778622239858   -0.0013658751786530497
-0.008479067626404307   -0.0290381307565758   -0.001332129796616099
-0.008704680288727664   -0.024039190039739814   -0.0013902091215253233
-0.005766287349358965   -0.029125667067322593   -0.0012927130077917217
-0.008479067626404307   -0.0290381307565758   -0.001332129796616099
-0.0058251628669398845   -0.024000308338827096   -0.001314787691008519
-0.008704680288727664   -0.024039190039739814   -0.0013902091215253233
-0.008417532812284467   -0.0290778622239858   -0.0013658751786530497
-0.005809041887916873   -0.024039805912550068   -0.0013028697142834808
-0.008677413761051732   -0.024090676685482173   -0.0013960611029797843
-0.008417532812284467   -0.0290778622239858   -0.0013658751786530497
-0.005766287349358965   -0.029125667067322593   -0.0012927130077917217
-0.005809041887916873   -0.024039805912550068   -0.0013028697142834808
-0.00572026931146461   -0.02916769571558515   -0.001305331517271143
-0.008677413761051732   -0.024090676685482173   -0.0013960611029797843
-0.0057842108116558716   -0.02408368556411005   -0.0012963293390692613
-0.00572026931146461   -0.02916769571558515   -0.001305331517271143
-0.005809041887916873   -0.024039805912550068   -0.0013028697142834808
-0.008677413761051732   -0.024090676685482173   -0.0013960611029797843
-0.00572026931146461   -0.02916769571558515   -0.001305331517271143
-0.008347518445535683   -0.02912680976538339   -0.0014082532822612284
-0.008417532812284467   -0.0290778622239858   -0.0013658751786530497
-0.008677413761051732   -0.024090676685482173   -0.0013960611029797843
-0.00572026931146461   -0.02916769571558515   -0.001305331517271143
-0.008417532812284467   -0.0290778622239858   -0.0013658751786530497
-0.005809041887916873   -0.024039805912550068   -0.0013028697142834808
-0.008677413761051732   -0.024090676685482173   -0.0013960611029797843
-0.008347518445535683   -0.02912680976538339   -0.0014082532822612284
-0.0057842108116558716   -0.02408368556411005   -0.0012963293390692613
-0.008633597673626925   -0.024157126842745767   -0.0014103633771358703
-0.008347518445535683   -0.02912680976538339   -0.0014082532822612284
-0.00572026931146461   -0.02916769571558515   -0.001305331517271143
-0.0057842108116558716   -0.02408368556411005   -0.0012963293390692613
-0.005670939920081844   -0.029224906107840887   -0.0013235961222633264
-0.008633597673626925   -0.024157126842745767   -0.0014103633771358703
-0.0057522404888774616   -0.024134976941514393   -0.0012950707950268754
-0.005670939920081844   -0.029224906107840887   -0.0013235961222633264
-0.0057842108116558716   -0.02408368556411005   -0.0012963293390692613
-0.008633597673626925   -0.024157126842745767   -0.0014103633771358703
-0.005670939920081844   -0.029224906107840887   -0.0013235961222633264
-0.008252342267678549   -0.02920141208898707   -0.0014594347799578573
-0.008347518445535683   -0.02912680976538339   -0.0014082532822612284
-0.008633597673626925   -0.024157126842745767   -0.0014103633771358703
-0.005670939920081844   -0.029224906107840887   -0.0013235961222633264
-0.008347518445535683   -0.02912680976538339   -0.0014082532822612284
-0.0057842108116558716   -0.02408368556411005   -0.0012963293390692613
-0.0058251628669398845   -0.024000308338827096   -0.001314787691008519
-0.00580035410620348   -0.029096249226893155   -0.0012855860092206772
-0.003177114799319049   -0.02400321937220564   -0.0012632402183767647
-0.005809041887916873   -0.024039805912550068   -0.0013028697142834808
-0.00580035410620348   -0.029096249226893155   -0.0012855860092206772
-0.003397962477029611   -0.0291190612322779   -0.0012558415407955283
-0.003177114799319049   -0.02400321937220564   -0.0012632402183767647
-0.003360923606083459   -0.029134291937576204   -0.0012402973398788794
-0.005809041887916873   -0.024039805912550068   -0.0013028697142834808
-0.0031557558428431595   -0.02402580840624358   -0.0012419043620179862
-0.003360923606083459   -0.029134291937576204   -0.0012402973398788794
-0.003177114799319049   -0.02400321937220564   -0.0012632402183767647
-0.005809041887916873   -0.024039805912550068   -0.0013028697142834808
-0.003360923606083459   -0.029134291937576204   -0.0012402973398788794
-0.005766287349358965   -0.029125667067322593   -0.0012927130077917217
-0.00580035410620348   -0.029096249226893155   -0.0012855860092206772
-0.005809041887916873   -0.024039805912550068   -0.0013028697142834808
-0.003360923606083459   -0.029134291937576204   -0.0012402973398788794
-0.00580035410620348   -0.029096249226893155   -0.0012855860092206772
-0.003177114799319049   -0.02400321937220564   -0.0012632402183767647
-0.005809041887916873   -0.024039805912550068   -0.0013028697142834808
-0.005766287349358965   -0.029125667067322593   -0.0012927130077917217
-0.0031557558428431595   -0.02402580840624358   -0.0012419043620179862
-0.0057842108116558716   -0.02408368556411005   -0.0012963293390692613
-0.005766287349358965   -0.029125667067322593   -0.0012927130077917217
-0.003360923606083459   -0.029134291937576204   -0.0012402973398788794
-0.0031557558428431595   -0.02402580840624358   -0.0012419043620179862
-0.003321103297754948   -0.029161635668870825   -0.0012301763503918726
-0.0057842108116558716   -0.02408368556411005   -0.0012963293390692613
-0.0031317074720679777   -0.024053384433263467   -0.0012259631796245492
-0.003321103297754948   -0.029161635668870825   -0.0012301763503918726
-0.0031557558428431595   -0.02402580840624358   -0.0012419043620179862
-0.0057842108116558716   -0.02408368556411005   -0.0012963293390692613
-0.003321103297754948   -0.029161635668870825   -0.0012301763503918726
-0.00572026931146461   -0.02916769571558515   -0.001305331517271143
-0.005766287349358965   -0.029125667067322593   -0.0012927130077917217
-0.0057842108116558716   -0.02408368556411005   -0.0012963293390692613
-0.003321103297754948   -0.029161635668870825   -0.0012301763503918726
-0.005766287349358965   -0.029125667067322593   -0.0012927130077917217
-0.0031557558428431595   -0.02402580840624358   -0.0012419043620179862
-0.0057842108116558716   -0.02408368556411005   -0.0012963293390692613
-0.00572026931146461   -0.02916769571558515   -0.001305331517271143
-0.0031317074720679777   -0.024053384433263467   -0.0012259631796245492
-0.0057522404888774616   -0.024134976941514393   -0.0012950707950268754
-0.00572026931146461   -0.02916769571558515   -0.001305331517271143
-0.003321103297754948   -0.029161635668870825   -0.0012301763503918726
-0.0031317074720679777   -0.024053384433263467   -0.0012259631796245492
-0.0032801739516837075   -0.029201432163501486   -0.001225748506081784
-0.0057522404888774616   -0.024134976941514393   -0.0012950707950268754
-0.003105826127238379   -0.024086033675846656   -0.0012155961252363317
-0.0032801739516837075   -0.029201432163501486   -0.001225748506081784
-0.0031317074720679777   -0.024053384433263467   -0.0012259631796245492
-0.0057522404888774616   -0.024134976941514393   -0.0012950707950268754
-0.0032801739516837075   -0.029201432163501486   -0.001225748506081784
-0.005670939920081844   -0.029224906107840887   -0.0013235961222633264
-0.00572026931146461   -0.02916769571558515   -0.001305331517271143
-0.0057522404888774616   -0.024134976941514393   -0.0012950707950268754
-0.0032801739516837075   -0.029201432163501486   -0.001225748506081784
-0.00572026931146461   -0.02916769571558515   -0.001305331517271143
-0.0031317074720679777   -0.024053384433263467   -0.0012259631796245492
-0.003177114799319049   -0.02400321937220564   -0.0012632402183767647
-0.003397962477029611   -0.0291190612322779   -0.0012558415407955283
-0.0006038716493854145   -0.023989029073964496   -0.001242418110197525
-0.0031557558428431595   -0.02402580840624358   -0.0012419043620179862
-0.003397962477029611   -0.0291190612322779   -0.0012558415407955283
-0.0010681289240081927   -0.029101184138604554   -0.0012512380821979394
-0.0006038716493854145   -0.023989029073964496   -0.001242418110197525
-0.0010271719442728757   -0.029101374346338957   -0.001213800304670537
-0.0031557558428431595   -0.02402580840624358   -0.0012419043620179862
-0.000578692121328629   -0.023994110150462888   -0.0012121347164310255
-0.0010271719442728757   -0.029101374346338957   -0.001213800304670537
-0.0006038716493854145   -0.023989029073964496   -0.001242418110197525
-0.0031557558428431595   -0.02402580840624358   -0.0012419043620179862
-0.0010271719442728757   -0.029101374346338957   -0.001213800304670537
-0.003360923606083459   -0.029134291937576204   -0.0012402973398788794
-0.003397962477029611   -0.0291190612322779   -0.0012558415407955283
-0.0031557558428431595   -0.02402580840624358   -0.0012419043620179862
-0.0010271719442728757   -0.029101374346338957   -0.001213800304670537
-0.003397962477029611   -0.0291190612322779   -0.0012558415407955283
-0.0006038716493854145   -0.023989029073964496   -0.001242418110197525
-0.0031557558428431595   -0.02402580840624358   -0.0012419043620179862
-0.003360923606083459   -0.029134291937576204   -0.0012402973398788794
-0.000578692121328629   -0.023994110150462888   -0.0012121347164310255
-0.0031317074720679777   -0.024053384433263467   -0.0012259631796245492
-0.003360923606083459   -0.029134291937576204   -0.0012402973398788794
-0.0010271719442728757   -0.029101374346338957   -0.001213800304670537
-0.000578692121328629   -0.023994110150462888   -0.0012121347164310255
-0.0009872726907313057   -0.029112808110393205   -0.0011818023353897234
-0.0031317074720679777   -0.024053384433263467   -0.0012259631796245492
-0.0005548435616301606   -0.02400379834738976   -0.0011872115779130654
-0.0009872726907313057   -0.029112808110393205   -0.0011818023353897234
-0.000578692121328629   -0.023994110150462888   -0.0012121347164310255
-0.0031317074720679777   -0.024053384433263467   -0.0012259631796245492
-0.0009872726907313057   -0.029112808110393205   -0.0011818023353897234
-0.003321103297754948   -0.029161635668870825   -0.0012301763503918726
-0.003360923606083459   -0.029134291937576204   -0.0012402973398788794
-0.0031317074720679777   -0.024053384433263467   -0.0012259631796245492
-0.0009872726907313057   -0.029112808110393205   -0.0011818023353897234
-0.003360923606083459   -0.029134291937576204   -0.0012402973398788794
-0.000578692121328629   -0.023994110150462888   -0.0012121347164310255
-0.0031317074720679777   -0.024053384433263467   -0.0012259631796245492
-0.003321103297754948   -0.029161635668870825   -0.0012301763503918726
-0.0005548435616301606   -0.02400379834738976   -0.0011872115779130654
-0.003105826127238379   -0.024086033675846656   -0.0012155961252363317
-0.003321103297754948   -0.029161635668870825   -0.0012301763503918726
-0.0009872726907313057   -0.029112808110393205   -0.0011818023353897234
-0.0005548435616301606   -0.02400379834738976   -0.0011872115779130654
-0.0009516276569505747   -0.029136418097083734   -0.001155431843144327
-0.003105826127238379   -0.024086033675846656   -0.0012155961252363317
-0.0005345000584370246   -0.024018309771763512   -0.0011678338746571395
-0.0009516276569505747   -0.029136418097083734   -0.001155431843144327
-0.0005548435616301606   -0.02400379834738976   -0.0011872115779130654
-0.003105826127238379   -0.024086033675846656   -0.0012155961252363317
-0.0009516276569505747   -0.029136418097083734   -0.001155431843144327
-0.0032801739516837075   -0.029201432163501486   -0.001225748506081784
-0.003321103297754948   -0.029161635668870825   -0.0012301763503918726
-0.003105826127238379   -0.024086033675846656   -0.0012155961252363317
-0.0009516276569505747   -0.029136418097083734   -0.001155431843144327
-0.003321103297754948   -0.029161635668870825   -0.0012301763503918726
-0.0005548435616301606   -0.02400379834738976   -0.0011872115779130654
-0.0006038716493854145   -0.023989029073964496   -0.001242418110197525
-0.0010681289240081927   -0.029101184138604554   -0.0012512380821979394
0.0020463795399075814   -0.023957556922664488   -0.0012533550563423614
-0.000578692121328629   -0.023994110150462888   -0.0012121347164310255
-0.0010681289240081927   -0.029101184138604554   -0.0012512380821979394
0.0013411681921556883   -0.02904373789952907   -0.0012737431474301578
0.0020463795399075814   -0.023957556922664488   -0.0012533550563423614
0.0013912628724247274   -0.029027871423422537   -0.0012146016592516104
-0.000578692121328629   -0.023994110150462888   -0.0012121347164310255
0.0020784121974383174   -0.02394505423200718   -0.001214267929177738
0.0013912628724247274   -0.029027871423422537   -0.0012146016592516104
0.0020463795399075814   -0.023957556922664488   -0.0012533550563423614
-0.000578692121328629   -0.023994110150462888   -0.0012121347164310255
0.0013912628724247274   -0.029027871423422537   -0.0012146016592516104
-0.0010271719442728757   -0.029101374346338957   -0.001213800304670537
-0.0010681289240081927   -0.029101184138604554   -0.0012512380821979394
-0.000578692121328629   -0.023994110150462888   -0.0012121347164310255
0.0013912628724247274   -0.029027871423422537   -0.0012146016592516104
-0.0010681289240081927   -0.029101184138604554   -0.0012512380821979394
0.0020463795399075814   -0.023957556922664488   -0.0012533550563423614
-0.000578692121328629   -0.023994110150462888   -0.0012121347164310255
-0.0010271719442728757   -0.029101374346338957   -0.001213800304670537
0.0020784121974383174   -0.02394505423200718   -0.001214267929177738
-0.0005548435616301606   -0.02400379834738976   -0.0011872115779130654
-0.0010271719442728757   -0.029101374346338957   -0.001213800304670537
0.0013912628724247274   -0.029027871423422537   -0.0012146016592516104
0.0020784121974383174   -0.02394505423200718   -0.001214267929177738
0.001442690983813001   -0.02902485830259863   -0.0011612440527956085
-0.0005548435616301606   -0.02400379834738976   -0.0011872115779130654
0.002108117252751391   -0.023938541347698156   -0.0011805226344079871
0.001442690983813001   -0.02902485830259863   -0.0011612440527956085
0.0020784121974383174   -0.02394505423200718   -0.001214267929177738
-0.0005548435616301606   -0.02400379834738976   -0.0011872115779130654
0.001442690983813001   -0.02902485830259863   -0.0011612440527956085
-0.0009872726907313057   -0.029112808110393205   -0.0011818023353897234
-0.0010271719442728757   -0.029101374346338957   -0.001213800304670537
-0.0005548435616301606   -0.02400379834738976   -0.0011872115779130654
0.001442690983813001   -0.02902485830259863   -0.0011612440527956085
-0.0010271719442728757   -0.029101374346338957   -0.001213800304670537
0.0020784121974383174   -0.02394505423200718   -0.001214267929177738
-0.0005548435616301606   -0.02400379834738976   -0.0011872115779130654
-0.0009872726907313057   -0.029112808110393205   -0.0011818023353897234
0.002108117252751391   -0.023938541347698156   -0.0011805226344079871
-0.0005345000584370246   -0.024018309771763512   -0.0011678338746571395
-0.0009872726907313057   -0.029112808110393205   -0.0011818023353897234
0.001442690983813001   -0.02902485830259863   -0.0011612440527956085
0.002108117252751391   -0.023938541347698156   -0.0011805226344079871
0.0014770002097796537   -0.029032339880223277   -0.001112906236219552
-0.0005345000584370246   -0.024018309771763512   -0.0011678338746571395
0.0021243534599873163   -0.02393492813224048   -0.0011517703823389696
0.0014770002097796537   -0.029032339880223277   -0.001112906236219552
0.002108117252751391   -0.023938541347698156   -0.0011805226344079871
-0.0005345000584370246   -0.024018309771763512   -0.0011678338746571395
0.0014770002097796537   -0.029032339880223277   -0.001112906236219552
-0.0009516276569505747   -0.029136418097083734   -0.001155431843144327
-0.0009872726907313057   -0.029112808110393205   -0.0011818023353897234
-0.0005345000584370246   -0.024018309771763512   -0.0011678338746571395
0.0014770002097796537   -0.029032339880223277   -0.001112906236219552
-0.0009872726907313057   -0.029112808110393205   -0.0011818023353897234
0.002108117252751391   -0.023938541347698156   -0.0011805226344079871
0.0020463795399075814   -0.023957556922664488   -0.0012533550563423614
0.0013411681921556883   -0.02904373789952907   -0.0012737431474301578
0.004882613778394733   -0.023904545388384584   -0.0012978118444409187
0.0020784121974383174   -0.02394505423200718   -0.001214267929177738
0.0013411681921556883   -0.02904373789952907   -0.0012737431474301578
0.0039023063938057843   -0.028944923265551623   -0.0013312548626814261
0.004882613778394733   -0.023904545388384584   -0.0012978118444409187
0.004035653628047788   -0.02891235762868723   -0.0012451055005983456
0.0020784121974383174   -0.02394505423200718   -0.001214267929177738
0.00496571634142007   -0.02387607335146654   -0.0012463604333610592
0.004035653628047788   -0.02891235762868723   -0.0012451055005983456
0.004882613778394733   -0.023904545388384584   -0.0012978118444409187
0.0020784121974383174   -0.02394505423200718   -0.001214267929177738
0.004035653628047788   -0.02891235762868723   -0.0012451055005983456
0.0013912628724247274   -0.029027871423422537   -0.0012146016592516104
0.0013411681921556883   -0.02904373789952907   -0.0012737431474301578
0.0020784121974383174   -0.02394505423200718   -0.001214267929177738
0.004035653628047788   -0.02891235762868723   -0.0012451055005983456
0.0013411681921556883   -0.02904373789952907   -0.0012737431474301578
0.004882613778394733   -0.023904545388384584   -0.0012978118444409187
0.0020784121974383174   -0.02394505423200718   -0.001214267929177738
0.0013912628724247274   -0.029027871423422537   -0.0012146016592516104
0.00496571634142007   -0.02387607335146654   -0.0012463604333610592
0.002108117252751391   -0.023938541347698156   -0.0011805226344079871
0.0013912628724247274   -0.029027871423422537   -0.0012146016592516104
0.004035653628047788   -0.02891235762868723   -0.0012451055005983456
0.00496571634142007   -0.02387607335146654   -0.0012463604333610592
0.004134533487823519   -0.028903351504508755   -0.0011666572085596183
0.002108117252751391   -0.023938541347698156   -0.0011805226344079871
0.005023072567844482   -0.02386225111902193   -0.0012025270373526382
0.004134533487823519   -0.028903351504508755   -0.0011666572085596183
0.00496571634142007   -0.02387607335146654   -0.0012463604333610592
0.002108117252751391   -0.023938541347698156   -0.0011805226344079871
0.004134533487823519   -0.028903351504508755   -0.0011666572085596183
0.001442690983813001   -0.02902485830259863   -0.0011612440527956085
0.0013912628724247274   -0.029027871423422537   -0.0012146016592516104
0.002108117252751391   -0.023938541347698156   -0.0011805226344079871
0.004134533487823519   -0.028903351504508755   -0.0011666572085596183
0.0013912628724247274   -0.029027871423422537   -0.0012146016592516104
0.00496571634142007   -0.02387607335146654   -0.0012463604333610592
0.002108117252751391   -0.023938541347698156   -0.0011805226344079871
0.001442690983813001   -0.02902485830259863   -0.0011612440527956085
0.005023072567844482   -0.02386225111902193   -0.0012025270373526382
0.0021243534599873163   -0.02393492813224048   -0.0011517703823389696
0.001442690983813001   -0.02902485830259863   -0.0011612440527956085
0.004134533487823519   -0.028903351504508755   -0.0011666572085596183
0.005023072567844482   -0.02386225111902193   -0.0012025270373526382
0.004235028377403182   -0.028903316843780977   -0.00109626772662862
0.0021243534599873163   -0.02393492813224048   -0.0011517703823389696
0.005074335347152682   -0.023847389590102568   -0.0011666305104589948
0.004235028377403182   -0.028903316843780977   -0.00109626772662862
0.005023072567844482   -0.02386225111902193   -0.0012025270373526382
0.0021243534599873163   -0.02393492813224048   -0.0011517703823389696
0.004235028377403182   -0.028903316843780977   -0.00109626772662862
0.0014770002097796537   -0.029032339880223277   -0.001112906236219552
0.001442690983813001   -0.02902485830259863   -0.0011612440527956085
0.0021243534599873163   -0.02393492813224048   -0.0011517703823389696
0.004235028377403182   -0.028903316843780977   -0.00109626772662862
0.001442690983813001   -0.02902485830259863   -0.0011612440527956085
0.005023072567844482   -0.02386225111902193   -0.0012025270373526382
-0.008479067626404307   -0.0290381307565758   -0.001332129796616099
-0.007739136806260719   -0.033503512218439224   -0.0012429205183430495
-0.00580035410620348   -0.029096249226893155   -0.0012855860092206772
-0.008417532812284467   -0.0290778622239858   -0.0013658751786530497
-0.007739136806260719   -0.033503512218439224   -0.0012429205183430495
-0.005485832977103839   -0.03360797386786194   -0.0012355540886522982
-0.00580035410620348   -0.029096249226893155   -0.0012855860092206772
-0.005429908282188873   -0.033623057407431066   -0.0012603110855568965
-0.008417532812284467   -0.0290778622239858   -0.0013658751786530497
-0.005766287349358965   -0.029125667067322593   -0.0012927130077917217
-0.005429908282188873   -0.033623057407431066   -0.0012603110855568965
-0.00580035410620348   -0.029096249226893155   -0.0012855860092206772
-0.008417532812284467   -0.0290778622239858   -0.0013658751786530497
-0.005429908282188873   -0.033623057407431066   -0.0012603110855568965
-0.00762236472709331   -0.03352586439265659   -0.001312361752311256
-0.007739136806260719   -0.033503512218439224   -0.0012429205183430495
-0.008417532812284467   -0.0290778622239858   -0.0013658751786530497
-0.005429908282188873   -0.033623057407431066   -0.0012603110855568965
-0.007739136806260719   -0.033503512218439224   -0.0012429205183430495
-0.00580035410620348   -0.029096249226893155   -0.0012855860092206772
-0.008417532812284467   -0.0290778622239858   -0.0013658751786530497
-0.00762236472709331   -0.03352586439265659   -0.001312361752311256
-0.005766287349358965   -0.029125667067322593   -0.0012927130077917217
-0.008347518445535683   -0.02912680976538339   -0.0014082532822612284
-0.00762236472709331   -0.03352586439265659   -0.001312361752311256
-0.005429908282188873   -0.033623057407431066   -0.0012603110855568965
-0.005766287349358965   -0.029125667067322593   -0.0012927130077917217
-0.005359653235591413   -0.03365932339778665   -0.0012906200072011521
-0.008347518445535683   -0.02912680976538339   -0.0014082532822612284
-0.00572026931146461   -0.02916769571558515   -0.001305331517271143
-0.005359653235591413   -0.03365932339778665   -0.0012906200072011521
-0.005766287349358965   -0.029125667067322593   -0.0012927130077917217
-0.008347518445535683   -0.02912680976538339   -0.0014082532822612284
-0.005359653235591413   -0.03365932339778665   -0.0012906200072011521
-0.00750604136890142   -0.033568430756279105   -0.001390841255287591
-0.00762236472709331   -0.03352586439265659   -0.001312361752311256
-0.008347518445535683   -0.02912680976538339   -0.0014082532822612284
-0.005359653235591413   -0.03365932339778665   -0.0012906200072011521
-0.00762236472709331   -0.03352586439265659   -0.001312361752311256
-0.005766287349358965   -0.029125667067322593   -0.0012927130077917217
-0.008347518445535683   -0.02912680976538339   -0.0014082532822612284
-0.00750604136890142   -0.033568430756279105   -0.001390841255287591
-0.00572026931146461   -0.02916769571558515   -0.001305331517271143
-0.008252342267678549   -0.02920141208898707   -0.0014594347799578573
-0.00750604136890142   -0.033568430756279105   -0.001390841255287591
-0.005359653235591413   -0.03365932339778665   -0.0012906200072011521
-0.00572026931146461   -0.02916769571558515   -0.001305331517271143
-0.00529036285872696   -0.03371883432380267   -0.0013264282688697554
-0.008252342267678549   -0.02920141208898707   -0.0014594347799578573
-0.005670939920081844   -0.029224906107840887   -0.0013235961222633264
-0.00529036285872696   -0.03371883432380267   -0.0013264282688697554
-0.00572026931146461   -0.02916769571558515   -0.001305331517271143
-0.008252342267678549   -0.02920141208898707   -0.0014594347799578573
-0.00529036285872696   -0.03371883432380267   -0.0013264282688697554
-0.007357081993858919   -0.033647805776361416   -0.0014782045017446477
-0.00750604136890142   -0.033568430756279105   -0.001390841255287591
-0.008252342267678549   -0.02920141208898707   -0.0014594347799578573
-0.00529036285872696   -0.03371883432380267   -0.0013264282688697554
-0.00750604136890142   -0.033568430756279105   -0.001390841255287591
-0.00572026931146461   -0.02916769571558515   -0.001305331517271143
-0.00580035410620348   -0.029096249226893155   -0.0012855860092206772
-0.005485832977103839   -0.03360797386786194   -0.0012355540886522982
-0.003397962477029611   -0.0291190612322779   -0.0012558415407955283
-0.005766287349358965   -0.029125667067322593   -0.0012927130077917217
-0.005485832977103839   -0.03360797386786194   -0.0012355540886522982
-0.003532877930848155   -0.03365661536850376   -0.0012327198015636904
-0.003397962477029611   -0.0291190612322779   -0.0012558415407955283
-0.0034755543224191487   -0.033661516724804184   -0.001221569877426436
-0.005766287349358965   -0.029125667067322593   -0.0012927130077917217
-0.003360923606083459   -0.029134291937576204   -0.0012402973398788794
-0.0034755543224191487   -0.033661516724804184   -0.001221569877426436
-0.003397962477029611   -0.0291190612322779   -0.0012558415407955283
-0.005766287349358965   -0.029125667067322593   -0.0012927130077917217
-0.0034755543224191487   -0.033661516724804184   -0.001221569877426436
-0.005429908282188873   -0.033623057407431066   -0.0012603110855568965
-0.005485832977103839   -0.03360797386786194   -0.0012355540886522982
-0.005766287349358965   -0.029125667067322593   -0.0012927130077917217
-0.0034755543224191487   -0.033661516724804184   -0.001221569877426436
-0.005485832977103839   -0.03360797386786194   -0.0012355540886522982
-0.003397962477029611   -0.0291190612322779   -0.0012558415407955283
-0.005766287349358965   -0.029125667067322593   -0.0012927130077917217
-0.005429908282188873   -0.033623057407431066   -0.0012603110855568965
-0.003360923606083459   -0.029134291937576204   -0.0012402973398788794
-0.00572026931146461   -0.02916769571558515   -0.001305331517271143
-0.005429908282188873   -0.033623057407431066   -0.0012603110855568965
-0.0034755543224191487   -0.033661516724804184   -0.001221569877426436
-0.003360923606083459   -0.029134291937576204   -0.0012402973398788794
-0.0034163681748619165   -0.03368534444037172   -0.0012158071957562007
-0.00572026931146461   -0.02916769571558515   -0.001305331517271143
-0.003321103297754948   -0.029161635668870825   -0.0012301763503918726
-0.0034163681748619165   -0.03368534444037172   -0.0012158071957562007
-0.003360923606083459   -0.029134291937576204   -0.0012402973398788794
-0.00572026931146461   -0.02916769571558515   -0.001305331517271143
-0.0034163681748619165   -0.03368534444037172   -0.0012158071957562007
-0.005359653235591413   -0.03365932339778665   -0.0012906200072011521
-0.005429908282188873   -0.033623057407431066   -0.0012603110855568965
-0.00572026931146461   -0.02916769571558515   -0.001305331517271143
-0.0034163681748619165   -0.03368534444037172   -0.0012158071957562007
-0.005429908282188873   -0.033623057407431066   -0.0012603110855568965
-0.003360923606083459   -0.029134291937576204   -0.0012402973398788794
-0.00572026931146461   -0.02916769571558515   -0.001305331517271143
-0.005359653235591413   -0.03365932339778665   -0.0012906200072011521
-0.003321103297754948   -0.029161635668870825   -0.0012301763503918726
-0.005670939920081844   -0.029224906107840887   -0.0013235961222633264
-0.005359653235591413   -0.03365932339778665   -0.0012906200072011521
-0.0034163681748619165   -0.03368534444037172   -0.0012158071957562007
-0.003321103297754948   -0.029161635668870825   -0.0012301763503918726
-0.003357267439458554   -0.03372918660317966   -0.001215371444955755
-0.005670939920081844   -0.029224906107840887   -0.0013235961222633264
-0.0032801739516837075   -0.029201432163501486   -0.001225748506081784
-0.003357267439458554   -0.03372918660317966   -0.001215371444955755
-0.003321103297754948   -0.029161635668870825   -0.0012301763503918726
-0.005670939920081844   -0.029224906107840887   -0.0013235961222633264
-0.003357267439458554   -0.03372918660317966   -0.001215371444955755
-0.00529036285872696   -0.03371883432380267   -0.0013264282688697554
-0.005359653235591413   -0.03365932339778665   -0.0012906200072011521
-0.005670939920081844   -0.029224906107840887   -0.0013235961222633264
-0.003357267439458554   -0.03372918660317966   -0.001215371444955755
-0.005359653235591413   -0.03365932339778665   -0.0012906200072011521
-0.003321103297754948   -0.029161635668870825   -0.0012301763503918726
-0.003397962477029611   -0.0291190612322779   -0.0012558415407955283
-0.003532877930848155   -0.03365661536850376   -0.0012327198015636904
-0.0010681289240081927   -0.029101184138604554   -0.0012512380821979394
-0.003360923606083459   -0.029134291937576204   -0.0012402973398788794
-0.003532877930848155   -0.03365661536850376   -0.0012327198015636904
-0.0016445610952477395   -0.03364721154254171   -0.0012469584618095635
-0.0010681289240081927   -0.029101184138604554   -0.0012512380821979394
-0.0015817774739995576   -0.03364065567578864   -0.0012011555745167122
-0.003360923606083459   -0.029134291937576204   -0.0012402973398788794
-0.0010271719442728757   -0.029101374346338957   -0.001213800304670537
-0.0015817774739995576   -0.03364065567578864   -0.0012011555745167122
-0.0010681289240081927   -0.029101184138604554   -0.0012512380821979394
-0.003360923606083459   -0.029134291937576204   -0.0012402973398788794
-0.0015817774739995576   -0.03364065567578864   -0.0012011555745167122
-0.0034755543224191487   -0.033661516724804184   -0.001221569877426436
-0.003532877930848155   -0.03365661536850376   -0.0012327198015636904
-0.003360923606083459   -0.029134291937576204   -0.0012402973398788794
-0.0015817774739995576   -0.03364065567578864   -0.0012011555745167122
-0.003532877930848155   -0.03365661536850376   -0.0012327198015636904
-0.0010681289240081927   -0.029101184138604554   -0.0012512380821979394
-0.003360923606083459   -0.029134291937576204   -0.0012402973398788794
-0.0034755543224191487   -0.033661516724804184   -0.001221569877426436
-0.0010271719442728757   -0.029101374346338957   -0.001213800304670537
-0.003321103297754948   -0.029161635668870825   -0.0012301763503918726
-0.0034755543224191487   -0.033661516724804184   -0.001221569877426436
-0.0015817774739995576   -0.03364065567578864   -0.0012011555745167122
-0.0010271719442728757   -0.029101374346338957   -0.001213800304670537
-0.0015208138197230594   -0.03365124651884717   -0.0011610964847770956
-0.003321103297754948   -0.029161635668870825   -0.0012301763503918726
-0.0009872726907313057   -0.029112808110393205   -0.0011818023353897234
-0.0015208138197230594   -0.03365124651884717   -0.0011610964847770956
-0.0010271719442728757   -0.029101374346338957   -0.001213800304670537
-0.003321103297754948   -0.029161635668870825   -0.0012301763503918726
-0.0015208138197230594   -0.03365124651884717   -0.0011610964847770956
-0.0034163681748619165   -0.03368534444037172   -0.0012158071957562007
-0.0034755543224191487   -0.033661516724804184   -0.001221569877426436
-0.003321103297754948   -0.029161635668870825   -0.0012301763503918726
-0.0015208138197230594   -0.03365124651884717   -0.0011610964847770956
-0.0034755543224191487   -0.033661516724804184   -0.001221569877426436
-0.0010271719442728757   -0.029101374346338957   -0.001213800304670537
-0.003321103297754948   -0.029161635668870825   -0.0012301763503918726
-0.0034163681748619165   -0.03368534444037172   -0.0012158071957562007
-0.0009872726907313057   -0.029112808110393205   -0.0011818023353897234
-0.0032801739516837075   -0.029201432163501486   -0.001225748506081784
-0.0034163681748619165   -0.03368534444037172   -0.0012158071957562007
-0.0015208138197230594   -0.03365124651884717   -0.0011610964847770956
-0.0009872726907313057   -0.029112808110393205   -0.0011818023353897234
-0.001465706239688318   -0.03368141464881721   -0.0011262883954616637
-0.0032801739516837075   -0.029201432163501486   -0.001225748506081784
-0.0009516276569505747   -0.029136418097083734   -0.001155431843144327
-0.001465706239688318   -0.03368141464881721   -0.0011262883954616637
-0.0009872726907313057   -0.029112808110393205   -0.0011818023353897234
-0.0032801739516837075   -0.029201432163501486   -0.001225748506081784
-0.001465706239688318   -0.03368141464881721   -0.0011262883954616637
-0.003357267439458554   -0.03372918660317966   -0.001215371444955755
-0.0034163681748619165   -0.03368534444037172   -0.0012158071957562007
-0.0032801739516837075   -0.029201432163501486   -0.001225748506081784
-0.001465706239688318   -0.03368141464881721   -0.0011262883954616637
-0.0034163681748619165   -0.03368534444037172   -0.0012158071957562007
-0.0009872726907313057   -0.029112808110393205   -0.0011818023353897234
-0.0010681289240081927   -0.029101184138604554   -0.0012512380821979394
-0.0016445610952477395   -0.03364721154254171   -0.0012469584618095635
0.0013411681921556883   -0.02904373789952907   -0.0012737431474301578
-0.0010271719442728757   -0.029101374346338957   -0.001213800304670537
-0.0016445610952477395   -0.03364721154254171   -0.0012469584618095635
0.00033086751318932615   -0.03357767440632644   -0.0012813064683573827
0.0013411681921556883   -0.02904373789952907   -0.0012737431474301578
0.00040730366143317453   -0.03355660776071133   -0.001200952544107678
-0.0010271719442728757   -0.029101374346338957   -0.001213800304670537
0.0013912628724247274   -0.029027871423422537   -0.0012146016592516104
0.00040730366143317453   -0.03355660776071133   -0.001200952544107678
0.0013411681921556883   -0.02904373789952907   -0.0012737431474301578
-0.0010271719442728757   -0.029101374346338957   -0.001213800304670537
0.00040730366143317453   -0.03355660776071133   -0.001200952544107678
-0.0015817774739995576   -0.03364065567578864   -0.0012011555745167122
-0.0016445610952477395   -0.03364721154254171   -0.0012469584618095635
-0.0010271719442728757   -0.029101374346338957   -0.001213800304670537
0.00040730366143317453   -0.03355660776071133   -0.001200952544107678
-0.0016445610952477395   -0.03364721154254171   -0.0012469584618095635
0.0013411681921556883   -0.02904373789952907   -0.0012737431474301578
-0.0010271719442728757   -0.029101374346338957   -0.001213800304670537
-0.0015817774739995576   -0.03364065567578864   -0.0012011555745167122
0.0013912628724247274   -0.029027871423422537   -0.0012146016592516104
-0.0009872726907313057   -0.029112808110393205   -0.0011818023353897234
-0.0015817774739995576   -0.03364065567578864   -0.0012011555745167122
0.00040730366143317453   -0.03355660776071133   -0.001200952544107678
0.0013912628724247274   -0.029027871423422537   -0.0012146016592516104
0.00048795380939354503   -0.033554707798395436   -0.0011278715279416502
-0.0009872726907313057   -0.029112808110393205   -0.0011818023353897234
0.001442690983813001   -0.02902485830259863   -0.0011612440527956085
0.00048795380939354503   -0.033554707798395436   -0.0011278715279416502
0.0013912628724247274   -0.029027871423422537   -0.0012146016592516104
-0.0009872726907313057   -0.029112808110393205   -0.0011818023353897234
0.00048795380939354503   -0.033554707798395436   -0.0011278715279416502
-0.0015208138197230594   -0.03365124651884717   -0.0011610964847770956
-0.0015817774739995576   -0.03364065567578864   -0.0012011555745167122
-0.0009872726907313057   -0.029112808110393205   -0.0011818023353897234
0.00048795380939354503   -0.033554707798395436   -0.0011278715279416502
-0.0015817774739995576   -0.03364065567578864   -0.0012011555745167122
0.0013912628724247274   -0.029027871423422537   -0.0012146016592516104
-0.0009872726907313057   -0.029112808110393205   -0.0011818023353897234
-0.0015208138197230594   -0.03365124651884717   -0.0011610964847770956
0.001442690983813001   -0.02902485830259863   -0.0011612440527956085
-0.0009516276569505747   -0.029136418097083734   -0.001155431843144327
-0.0015208138197230594   -0.03365124651884717   -0.0011610964847770956
0.00048795380939354503   -0.033554707798395436   -0.0011278715279416502
0.001442690983813001   -0.02902485830259863   -0.0011612440527956085
0.0005469361555712273   -0.03357108811582185   -0.0010597945180275804
-0.0009516276569505747   -0.029136418097083734   -0.001155431843144327
0.0014770002097796537   -0.029032339880223277   -0.001112906236219552
0.0005469361555712273   -0.03357108811582185   -0.0010597945180275804
0.001442690983813001   -0.02902485830259863   -0.0011612440527956085
-0.0009516276569505747   -0.029136418097083734   -0.001155431843144327
0.0005469361555712273   -0.03357108811582185   -0.0010597945180275804
-0.001465706239688318   -0.03368141464881721   -0.0011262883954616637
-0.0015208138197230594   -0.03365124651884717   -0.0011610964847770956
-0.0009516276569505747   -0.029136418097083734   -0.001155431843144327
0.0005469361555712273   -0.03357108811582185   -0.0010597945180275804
-0.0015208138197230594   -0.03365124651884717   -0.0011610964847770956
0.001442690983813001   -0.02902485830259863   -0.0011612440527956085
0.0013411681921556883   -0.02904373789952907   -0.0012737431474301578
0.00033086751318932615   -0.03357767440632644   -0.0012813064683573827
0.0039023063938057843   -0.028944923265551623   -0.0013312548626814261
0.0013912628724247274   -0.029027871423422537   -0.0012146016592516104
0.00033086751318932615   -0.03357767440632644   -0.0012813064683573827
0.0024342783190095187   -0.03344145241803076   -0.001354272052400296
0.0039023063938057843   -0.028944923265551623   -0.0013312548626814261
0.0026286458461659717   -0.03340109986110896   -0.0012312484293725827
0.0013912628724247274   -0.029027871423422537   -0.0012146016592516104
0.004035653628047788   -0.02891235762868723   -0.0012451055005983456
0.0026286458461659717   -0.03340109986110896   -0.0012312484293725827
0.0039023063938057843   -0.028944923265551623   -0.0013312548626814261
0.0013912628724247274   -0.029027871423422537   -0.0012146016592516104
0.0026286458461659717   -0.03340109986110896   -0.0012312484293725827
0.00040730366143317453   -0.03355660776071133   -0.001200952544107678
0.00033086751318932615   -0.03357767440632644   -0.0012813064683573827
0.0013912628724247274   -0.029027871423422537   -0.0012146016592516104
0.0026286458461659717   -0.03340109986110896   -0.0012312484293725827
0.00033086751318932615   -0.03357767440632644   -0.0012813064683573827
0.0039023063938057843   -0.028944923265551623   -0.0013312548626814261
0.0013912628724247274   -0.029027871423422537   -0.0012146016592516104
0.00040730366143317453   -0.03355660776071133   -0.001200952544107678
0.004035653628047788   -0.02891235762868723   -0.0012451055005983456
0.001442690983813001   -0.02902485830259863   -0.0011612440527956085
0.00040730366143317453   -0.03355660776071133   -0.001200952544107678
0.0026286458461659717   -0.03340109986110896   -0.0012312484293725827
0.004035653628047788   -0.02891235762868723   -0.0012451055005983456
0.0027777283895319663   -0.03339410954894681   -0.0011172470899419417
0.001442690983813001   -0.02902485830259863   -0.0011612440527956085
0.004134533487823519   -0.028903351504508755   -0.0011666572085596183
0.0027777283895319663   -0.03339410954894681   -0.0011172470899419417
0.004035653628047788   -0.02891235762868723   -0.0012451055005983456
0.001442690983813001   -0.02902485830259863   -0.0011612440527956085
0.0027777283895319663   -0.03339410954894681   -0.0011172470899419417
0.00048795380939354503   -0.033554707798395436   -0.0011278715279416502
0.00040730366143317453   -0.03355660776071133   -0.001200952544107678
0.001442690983813001   -0.02902485830259863   -0.0011612440527956085
0.0027777283895319663   -0.03339410954894681   -0.0011172470899419417
0.00040730366143317453   -0.03355660776071133   -0.001200952544107678
0.004035653628047788   -0.02891235762868723   -0.0012451055005983456
0.001442690983813001   -0.02902485830259863   -0.0011612440527956085
0.00048795380939354503   -0.033554707798395436   -0.0011278715279416502
0.004134533487823519   -0.028903351504508755   -0.0011666572085596183
0.0014770002097796537   -0.029032339880223277   -0.001112906236219552
0.00048795380939354503   -0.033554707798395436   -0.0011278715279416502
0.0027777283895319663   -0.03339410954894681   -0.0011172470899419417
0.004134533487823519   -0.028903351504508755   -0.0011666572085596183
0.0029325145219616   -0.033406199070953026   -0.0010131935165543116
0.0014770002097796537   -0.029032339880223277   -0.001112906236219552
0.004235028377403182   -0.028903316843780977   -0.00109626772662862
0.0029325145219616   -0.033406199070953026   -0.0010131935165543116
0.004134533487823519   -0.028903351504508755   -0.0011666572085596183
0.0014770002097796537   -0.029032339880223277   -0.001112906236219552
0.0029325145219616   -0.033406199070953026   -0.0010131935165543116
0.0005469361555712273   -0.03357108811582185   -0.0010597945180275804
0.00048795380939354503   -0.033554707798395436   -0.0011278715279416502
0.0014770002097796537   -0.029032339880223277   -0.001112906236219552
0.0029325145219616   -0.033406199070953026   -0.0010131935165543116
0.00048795380939354503   -0.033554707798395436   -0.0011278715279416502
0.004134533487823519   -0.028903351504508755   -0.0011666572085596183
-0.007739136806260719   -0.033503512218439224   -0.0012429205183430495
-0.006488624769746288   -0.03700645043313658   -0.0011282400639684958
-0.005485832977103839   -0.03360797386786194   -0.0012355540886522982
-0.00762236472709331   -0.03352586439265659   -0.001312361752311256
-0.006488624769746288   -0.03700645043313658   -0.0011282400639684958
-0.004884232502953229   -0.0371607059245474   -0.0011744172895623232
-0.005485832977103839   -0.03360797386786194   -0.0012355540886522982
-0.0048041123910854775   -0.03715290724239349   -0.0012124940466691934
-0.00762236472709331   -0.03352586439265659   -0.001312361752311256
-0.005429908282188873   -0.033623057407431066   -0.0012603110855568965
-0.0048041123910854775   -0.03715290724239349   -0.0012124940466691934
-0.005485832977103839   -0.03360797386786194   -0.0012355540886522982
-0.00762236472709331   -0.03352586439265659   -0.001312361752311256
-0.0048041123910854775   -0.03715290724239349   -0.0012124940466691934
-0.006315270110839002   -0.03700220449981189   -0.001230876532619849
-0.006488624769746288   -0.03700645043313658   -0.0011282400639684958
-0.00762236472709331   -0.03352586439265659   -0.001312361752311256
-0.0048041123910854775   -0.03715290724239349   -0.0012124940466691934
-0.006488624769746288   -0.03700645043313658   -0.0011282400639684958
-0.005485832977103839   -0.03360797386786194   -0.0012355540886522982
-0.00762236472709331   -0.03352586439265659   -0.001312361752311256
-0.006315270110839002   -0.03700220449981189   -0.001230876532619849
-0.005429908282188873   -0.033623057407431066   -0.0012603110855568965
-0.00750604136890142   -0.033568430756279105   -0.001390841255287591
-0.006315270110839002   -0.03700220449981189   -0.001230876532619849
-0.0048041123910854775   -0.03715290724239349   -0.0012124940466691934
-0.005429908282188873   -0.033623057407431066   -0.0012603110855568965
-0.004709776965809747   -0.037175367672018886   -0.0012562240659553723
-0.00750604136890142   -0.033568430756279105   -0.001390841255287591
-0.005359653235591413   -0.03365932339778665   -0.0012906200072011521
-0.004709776965809747   -0.037175367672018886   -0.0012562240659553723
-0.005429908282188873   -0.033623057407431066   -0.0012603110855568965
-0.00750604136890142   -0.033568430756279105   -0.001390841255287591
-0.004709776965809747   -0.037175367672018886   -0.0012562240659553723
-0.006155578291940508   -0.037029913621829155   -0.0013414823459462362
-0.006315270110839002   -0.03700220449981189   -0.001230876532619849
-0.00750604136890142   -0.033568430756279105   -0.001390841255287591
-0.004709776965809747   -0.037175367672018886   -0.0012562240659553723
-0.006315270110839002   -0.03700220449981189   -0.001230876532619849
-0.005429908282188873   -0.033623057407431066   -0.0012603110855568965
-0.00750604136890142   -0.033568430756279105   -0.001390841255287591
-0.006155578291940508   -0.037029913621829155   -0.0013414823459462362
-0.005359653235591413   -0.03365932339778665   -0.0012906200072011521
-0.007357081993858919   -0.033647805776361416   -0.0014782045017446477
-0.006155578291940508   -0.037029913621829155   -0.0013414823459462362
-0.004709776965809747   -0.037175367672018886   -0.0012562240659553723
-0.005359653235591413   -0.03365932339778665   -0.0012906200072011521
-0.004624201839460196   -0.0372286143810583   -0.0013052478767747531
-0.007357081993858919   -0.033647805776361416   -0.0014782045017446477
-0.00529036285872696   -0.03371883432380267   -0.0013264282688697554
-0.004624201839460196   -0.0372286143810583   -0.0013052478767747531
-0.005359653235591413   -0.03365932339778665   -0.0012906200072011521
-0.007357081993858919   -0.033647805776361416   -0.0014782045017446477
-0.004624201839460196   -0.0372286143810583   -0.0013052478767747531
-0.005960736314151779   -0.03710357203859801   -0.0014595997058212654
-0.006155578291940508   -0.037029913621829155   -0.0013414823459462362
-0.007357081993858919   -0.033647805776361416   -0.0014782045017446477
-0.004624201839460196   -0.0372286143810583   -0.0013052478767747531
-0.006155578291940508   -0.037029913621829155   -0.0013414823459462362
-0.005359653235591413   -0.03365932339778665   -0.0012906200072011521
-0.005485832977103839   -0.03360797386786194   -0.0012355540886522982
-0.004884232502953229   -0.0371607059245474   -0.0011744172895623232
-0.003532877930848155   -0.03365661536850376   -0.0012327198015636904
-0.005429908282188873   -0.033623057407431066   -0.0012603110855568965
-0.004884232502953229   -0.0371607059245474   -0.0011744172895623232
-0.003571145710446977   -0.03726000184435164   -0.0012105791553833187
-0.003532877930848155   -0.03365661536850376   -0.0012327198015636904
-0.003489026161678197   -0.03724735644154435   -0.0011989488445929035
-0.005429908282188873   -0.033623057407431066   -0.0012603110855568965
-0.0034755543224191487   -0.033661516724804184   -0.001221569877426436
-0.003489026161678197   -0.03724735644154435   -0.0011989488445929035
-0.003532877930848155   -0.03365661536850376   -0.0012327198015636904
-0.005429908282188873   -0.033623057407431066   -0.0012603110855568965
-0.003489026161678197   -0.03724735644154435   -0.0011989488445929035
-0.0048041123910854775   -0.03715290724239349   -0.0012124940466691934
-0.004884232502953229   -0.0371607059245474   -0.0011744172895623232
-0.005429908282188873   -0.033623057407431066   -0.0012603110855568965
-0.003489026161678197   -0.03724735644154435   -0.0011989488445929035
-0.004884232502953229   -0.0371607059245474   -0.0011744172895623232
-0.003532877930848155   -0.03365661536850376   -0.0012327198015636904
-0.005429908282188873   -0.033623057407431066   -0.0012603110855568965
-0.0048041123910854775   -0.03715290724239349   -0.0012124940466691934
-0.0034755543224191487   -0.033661516724804184   -0.001221569877426436
-0.005359653235591413   -0.03365932339778665   -0.0012906200072011521
-0.0048041123910854775   -0.03715290724239349   -0.0012124940466691934
-0.003489026161678197   -0.03724735644154435   -0.0011989488445929035
-0.0034755543224191487   -0.033661516724804184   -0.001221569877426436
-0.003408003287497151   -0.03726086160271974   -0.0011928163304866287
-0.005359653235591413   -0.03365932339778665   -0.0012906200072011521
-0.0034163681748619165   -0.03368534444037172   -0.0012158071957562007
-0.003408003287497151   -0.03726086160271974   -0.0011928163304866287
-0.0034755543224191487   -0.033661516724804184   -0.001221569877426436
-0.005359653235591413   -0.03365932339778665   -0.0012906200072011521
-0.003408003287497151   -0.03726086160271974   -0.0011928163304866287
-0.004709776965809747   -0.037175367672018886   -0.0012562240659553723
-0.0048041123910854775   -0.03715290724239349   -0.0012124940466691934
-0.005359653235591413   -0.03365932339778665   -0.0012906200072011521
-0.003408003287497151   -0.03726086160271974   -0.0011928163304866287
-0.0048041123910854775   -0.03715290724239349   -0.0012124940466691934
-0.0034755543224191487   -0.033661516724804184   -0.001221569877426436
-0.005359653235591413   -0.03365932339778665   -0.0012906200072011521
-0.004709776965809747   -0.037175367672018886   -0.0012562240659553723
-0.0034163681748619165   -0.03368534444037172   -0.0012158071957562007
-0.00529036285872696   -0.03371883432380267   -0.0013264282688697554
-0.004709776965809747   -0.037175367672018886   -0.0012562240659553723
-0.003408003287497151   -0.03726086160271974   -0.0011928163304866287
-0.0034163681748619165   -0.03368534444037172   -0.0012158071957562007
-0.003333390169523897   -0.03730136168689099   -0.0011933230100037782
-0.00529036285872696   -0.03371883432380267   -0.0013264282688697554
-0.003357267439458554   -0.03372918660317966   -0.001215371444955755
-0.003333390169523897   -0.03730136168689099   -0.0011933230100037782
-0.0034163681748619165   -0.03368534444037172   -0.0012158071957562007
-0.00529036285872696   -0.03371883432380267   -0.0013264282688697554
-0.003333390169523897   -0.03730136168689099   -0.0011933230100037782
-0.004624201839460196   -0.0372286143810583   -0.0013052478767747531
-0.004709776965809747   -0.037175367672018886   -0.0012562240659553723
-0.00529036285872696   -0.03371883432380267   -0.0013264282688697554
-0.003333390169523897   -0.03730136168689099   -0.0011933230100037782
-0.004709776965809747   -0.037175367672018886   -0.0012562240659553723
-0.0034163681748619165   -0.03368534444037172   -0.0012158071957562007
-0.003532877930848155   -0.03365661536850376   -0.0012327198015636904
-0.003571145710446977   -0.03726000184435164   -0.0012105791553833187
-0.0016445610952477395   -0.03364721154254171   -0.0012469584618095635
-0.0034755543224191487   -0.033661516724804184   -0.001221569877426436
-0.003571145710446977   -0.03726000184435164   -0.0012105791553833187
-0.002313250195432359   -0.03731110633604472   -0.001253544990914066
-0.0016445610952477395   -0.03364721154254171   -0.0012469584618095635
-0.002220701064838342   -0.03729272115372468   -0.0011949964319449807
-0.0034755543224191487   -0.033661516724804184   -0.001221569877426436
-0.0015817774739995576   -0.03364065567578864   -0.0012011555745167122
-0.002220701064838342   -0.03729272115372468   -0.0011949964319449807
-0.0016445610952477395   -0.03364721154254171   -0.0012469584618095635
-0.0034755543224191487   -0.033661516724804184   -0.001221569877426436
-0.002220701064838342   -0.03729272115372468   -0.0011949964319449807
-0.003489026161678197   -0.03724735644154435   -0.0011989488445929035
-0.003571145710446977   -0.03726000184435164   -0.0012105791553833187
-0.0034755543224191487   -0.033661516724804184   -0.001221569877426436
-0.002220701064838342   -0.03729272115372468   -0.0011949964319449807
-0.003571145710446977   -0.03726000184435164   -0.0012105791553833187
-0.0016445610952477395   -0.03364721154254171   -0.0012469584618095635
-0.0034755543224191487   -0.033661516724804184   -0.001221569877426436
-0.003489026161678197   -0.03724735644154435   -0.0011989488445929035
-0.0015817774739995576   -0.03364065567578864   -0.0012011555745167122
-0.0034163681748619165   -0.03368534444037172   -0.0012158071957562007
-0.003489026161678197   -0.03724735644154435   -0.0011989488445929035
-0.002220701064838342   -0.03729272115372468   -0.0011949964319449807
-0.0015817774739995576   -0.03364065567578864   -0.0012011555745167122
-0.0021324308988376756   -0.037297389122023725   -0.0011413325374552592
-0.0034163681748619165   -0.03368534444037172   -0.0012158071957562007
-0.0015208138197230594   -0.03365124651884717   -0.0011610964847770956
-0.0021324308988376756   -0.037297389122023725   -0.0011413325374552592
-0.0015817774739995576   -0.03364065567578864   -0.0012011555745167122
-0.0034163681748619165   -0.03368534444037172   -0.0012158071957562007
-0.0021324308988376756   -0.037297389122023725   -0.0011413325374552592
-0.003408003287497151   -0.03726086160271974   -0.0011928163304866287
-0.003489026161678197   -0.03724735644154435   -0.0011989488445929035
-0.0034163681748619165   -0.03368534444037172   -0.0012158071957562007
-0.0021324308988376756   -0.037297389122023725   -0.0011413325374552592
-0.003489026161678197   -0.03724735644154435   -0.0011989488445929035
-0.0015817774739995576   -0.03364065567578864   -0.0012011555745167122
-0.0034163681748619165   -0.03368534444037172   -0.0012158071957562007
-0.003408003287497151   -0.03726086160271974   -0.0011928163304866287
-0.0015208138197230594   -0.03365124651884717   -0.0011610964847770956
-0.003357267439458554   -0.03372918660317966   -0.001215371444955755
-0.003408003287497151   -0.03726086160271974   -0.0011928163304866287
-0.0021324308988376756   -0.037297389122023725   -0.0011413325374552592
-0.0015208138197230594   -0.03365124651884717   -0.0011610964847770956
-0.0020589256370611053   -0.03732949510005476   -0.001095547823302897
-0.003357267439458554   -0.03372918660317966   -0.001215371444955755
-0.001465706239688318   -0.03368141464881721   -0.0011262883954616637
-0.0020589256370611053   -0.03732949510005476   -0.001095547823302897
-0.0015208138197230594   -0.03365124651884717   -0.0011610964847770956
-0.003357267439458554   -0.03372918660317966   -0.001215371444955755
-0.0020589256370611053   -0.03732949510005476   -0.001095547823302897
-0.003333390169523897   -0.03730136168689099   -0.0011933230100037782
-0.003408003287497151   -0.03726086160271974   -0.0011928163304866287
-0.003357267439458554   -0.03372918660317966   -0.001215371444955755
-0.0020589256370611053   -0.03732949510005476   -0.001095547823302897
-0.003408003287497151   -0.03726086160271974   -0.0011928163304866287
-0.0015208138197230594   -0.03365124651884717   -0.0011610964847770956
-0.0016445610952477395   -0.03364721154254171   -0.0012469584618095635
-0.002313250195432359   -0.03731110633604472   -0.001253544990914066
0.00033086751318932615   -0.03357767440632644   -0.0012813064683573827
-0.0015817774739995576   -0.03364065567578864   -0.0012011555745167122
-0.002313250195432359   -0.03731110633604472   -0.001253544990914066
-0.0009772612576291746   -0.03729591397514908   -0.0013043545773979404
0.00033086751318932615   -0.03357767440632644   -0.0012813064683573827
-0.0008584322219639466   -0.03726705297709374   -0.0012008623567645658
-0.0015817774739995576   -0.03364065567578864   -0.0012011555745167122
0.00040730366143317453   -0.03355660776071133   -0.001200952544107678
-0.0008584322219639466   -0.03726705297709374   -0.0012008623567645658
0.00033086751318932615   -0.03357767440632644   -0.0012813064683573827
-0.0015817774739995576   -0.03364065567578864   -0.0012011555745167122
-0.0008584322219639466   -0.03726705297709374   -0.0012008623567645658
-0.002220701064838342   -0.03729272115372468   -0.0011949964319449807
-0.002313250195432359   -0.03731110633604472   -0.001253544990914066
-0.0015817774739995576   -0.03364065567578864   -0.0012011555745167122
-0.0008584322219639466   -0.03726705297709374   -0.0012008623567645658
-0.002313250195432359   -0.03731110633604472   -0.001253544990914066
0.00033086751318932615   -0.03357767440632644   -0.0012813064683573827
-0.0015817774739995576   -0.03364065567578864   -0.0012011555745167122
-0.002220701064838342   -0.03729272115372468   -0.0011949964319449807
0.00040730366143317453   -0.03355660776071133   -0.001200952544107678
-0.0015208138197230594   -0.03365124651884717   -0.0011610964847770956
-0.002220701064838342   -0.03729272115372468   -0.0011949964319449807
-0.0008584322219639466   -0.03726705297709374   -0.0012008623567645658
0.00040730366143317453   -0.03355660776071133   -0.001200952544107678
-0.0007367238706344979   -0.03726209165131335   -0.001102580705629719
-0.0015208138197230594   -0.03365124651884717   -0.0011610964847770956
0.00048795380939354503   -0.033554707798395436   -0.0011278715279416502
-0.0007367238706344979   -0.03726209165131335   -0.001102580705629719
0.00040730366143317453   -0.03355660776071133   -0.001200952544107678
-0.0015208138197230594   -0.03365124651884717   -0.0011610964847770956
-0.0007367238706344979   -0.03726209165131335   -0.001102580705629719
-0.0021324308988376756   -0.037297389122023725   -0.0011413325374552592
-0.002220701064838342   -0.03729272115372468   -0.0011949964319449807
-0.0015208138197230594   -0.03365124651884717   -0.0011610964847770956
-0.0007367238706344979   -0.03726209165131335   -0.001102580705629719
-0.002220701064838342   -0.03729272115372468   -0.0011949964319449807
0.00040730366143317453   -0.03355660776071133   -0.001200952544107678
-0.0015208138197230594   -0.03365124651884717   -0.0011610964847770956
-0.0021324308988376756   -0.037297389122023725   -0.0011413325374552592
0.00048795380939354503   -0.033554707798395436   -0.0011278715279416502
-0.001465706239688318   -0.03368141464881721   -0.0011262883954616637
-0.0021324308988376756   -0.037297389122023725   -0.0011413325374552592
-0.0007367238706344979   -0.03726209165131335   -0.001102580705629719
0.00048795380939354503   -0.033554707798395436   -0.0011278715279416502
-0.0006467082987606344   -0.037286083019677244   -0.0010132080313891856
-0.001465706239688318   -0.03368141464881721   -0.0011262883954616637
0.0005469361555712273   -0.03357108811582185   -0.0010597945180275804
-0.0006467082987606344   -0.037286083019677244   -0.0010132080313891856
0.00048795380939354503   -0.033554707798395436   -0.0011278715279416502
-0.001465706239688318   -0.03368141464881721   -0.0011262883954616637
-0.0006467082987606344   -0.037286083019677244   -0.0010132080313891856
-0.0020589256370611053   -0.03732949510005476   -0.001095547823302897
-0.0021324308988376756   -0.037297389122023725   -0.0011413325374552592
-0.001465706239688318   -0.03368141464881721   -0.0011262883954616637
-0.0006467082987606344   -0.037286083019677244   -0.0010132080313891856
-0.0021324308988376756   -0.037297389122023725   -0.0011413325374552592
0.00048795380939354503   -0.033554707798395436   -0.0011278715279416502
0.00033086751318932615   -0.03357767440632644   -0.0012813064683573827
-0.0009772612576291746   -0.03729591397514908   -0.0013043545773979404
0.0024342783190095187   -0.03344145241803076   -0.001354272052400296
0.00040730366143317453   -0.03355660776071133   -0.001200952544107678
-0.0009772612576291746   -0.03729591397514908   -0.0013043545773979404
0.0004574050975309865   -0.03716687861434886   -0.001407791250947719
0.0024342783190095187   -0.03344145241803076   -0.001354272052400296
0.0007360206482359549   -0.037104294035969716   -0.0012386163484698594
0.00040730366143317453   -0.03355660776071133   -0.001200952544107678
0.0026286458461659717   -0.03340109986110896   -0.0012312484293725827
0.0007360206482359549   -0.037104294035969716   -0.0012386163484698594
0.0024342783190095187   -0.03344145241803076   -0.001354272052400296
0.00040730366143317453   -0.03355660776071133   -0.001200952544107678
0.0007360206482359549   -0.037104294035969716   -0.0012386163484698594
-0.0008584322219639466   -0.03726705297709374   -0.0012008623567645658
-0.0009772612576291746   -0.03729591397514908   -0.0013043545773979404
0.00040730366143317453   -0.03355660776071133   -0.001200952544107678
0.0007360206482359549   -0.037104294035969716   -0.0012386163484698594
-0.0009772612576291746   -0.03729591397514908   -0.0013043545773979404
0.0024342783190095187   -0.03344145241803076   -0.001354272052400296
0.00040730366143317453   -0.03355660776071133   -0.001200952544107678
-0.0008584322219639466   -0.03726705297709374   -0.0012008623567645658
0.0026286458461659717   -0.03340109986110896   -0.0012312484293725827
0.00048795380939354503   -0.033554707798395436   -0.0011278715279416502
-0.0008584322219639466   -0.03726705297709374   -0.0012008623567645658
0.0007360206482359549   -0.037104294035969716   -0.0012386163484698594
0.0026286458461659717   -0.03340109986110896   -0.0012312484293725827
0.0009548846260854492   -0.03709172691109052   -0.0010796316103657642
0.00048795380939354503   -0.033554707798395436   -0.0011278715279416502
0.0027777283895319663   -0.03339410954894681   -0.0011172470899419417
0.0009548846260854492   -0.03709172691109052   -0.0010796316103657642
0.0026286458461659717   -0.03340109986110896   -0.0012312484293725827
0.00048795380939354503   -0.033554707798395436   -0.0011278715279416502
0.0009548846260854492   -0.03709172691109052   -0.0010796316103657642
-0.0007367238706344979   -0.03726209165131335   -0.001102580705629719
-0.0008584322219639466   -0.03726705297709374   -0.0012008623567645658
0.00048795380939354503   -0.033554707798395436   -0.0011278715279416502
0.0009548846260854492   -0.03709172691109052   -0.0010796316103657642
-0.0008584322219639466   -0.03726705297709374   -0.0012008623567645658
0.0026286458461659717   -0.03340109986110896   -0.0012312484293725827
0.00048795380939354503   -0.033554707798395436   -0.0011278715279416502
-0.0007367238706344979   -0.03726209165131335   -0.001102580705629719
0.0027777283895319663   -0.03339410954894681   -0.0011172470899419417
0.0005469361555712273   -0.03357108811582185   -0.0010597945180275804
-0.0007367238706344979   -0.03726209165131335   -0.001102580705629719
0.0009548846260854492   -0.03709172691109052   -0.0010796316103657642
0.0027777283895319663   -0.03339410954894681   -0.0011172470899419417
0.0011827511912944995   -0.03710283276189308   -0.0009342657379275497
0.0005469361555712273   -0.03357108811582185   -0.0010597945180275804
0.0029325145219616   -0.033406199070953026   -0.0010131935165543116
0.0011827511912944995   -0.03710283276189308   -0.0009342657379275497
0.0027777283895319663   -0.03339410954894681   -0.0011172470899419417
0.0005469361555712273   -0.03357108811582185   -0.0010597945180275804
0.0011827511912944995   -0.03710283276189308   -0.0009342657379275497
-0.0006467082987606344   -0.037286083019677244   -0.0010132080313891856
-0.0007367238706344979   -0.03726209165131335   -0.001102580705629719
0.0005469361555712273   -0.03357108811582185   -0.0010597945180275804
0.0011827511912944995   -0.03710283276189308   -0.0009342657379275497
-0.0007367238706344979   -0.03726209165131335   -0.001102580705629719
0.0027777283895319663   -0.03339410954894681   -0.0011172470899419417
-0.006488624769746288   -0.03700645043313658   -0.0011282400639684958
-0.004773503062621832   -0.03909165653720589   -0.0009933497154031923
-0.004884232502953229   -0.0371607059245474   -0.0011744172895623232
-0.006315270110839002   -0.03700220449981189   -0.001230876532619849
-0.004773503062621832   -0.03909165653720589   -0.0009933497154031923
-0.0040232216890496095   -0.03928640833637127   -0.0011099096844553254
-0.004884232502953229   -0.0371607059245474   -0.0011744172895623232
-0.003922434220175008   -0.039248268676980114   -0.0011505458687369034
-0.006315270110839002   -0.03700220449981189   -0.001230876532619849
-0.0048041123910854775   -0.03715290724239349   -0.0012124940466691934
-0.003922434220175008   -0.039248268676980114   -0.0011505458687369034
-0.004884232502953229   -0.0371607059245474   -0.0011744172895623232
-0.006315270110839002   -0.03700220449981189   -0.001230876532619849
-0.003922434220175008   -0.039248268676980114   -0.0011505458687369034
-0.004557888944249933   -0.039048642685369075   -0.0011164013281750108
-0.004773503062621832   -0.03909165653720589   -0.0009933497154031923
-0.006315270110839002   -0.03700220449981189   -0.001230876532619849
-0.003922434220175008   -0.039248268676980114   -0.0011505458687369034
-0.004773503062621832   -0.03909165653720589   -0.0009933497154031923
-0.004884232502953229   -0.0371607059245474   -0.0011744172895623232
-0.006315270110839002   -0.03700220449981189   -0.001230876532619849
-0.004557888944249933   -0.039048642685369075   -0.0011164013281750108
-0.0048041123910854775   -0.03715290724239349   -0.0012124940466691934
-0.006155578291940508   -0.037029913621829155   -0.0013414823459462362
-0.004557888944249933   -0.039048642685369075   -0.0011164013281750108
-0.003922434220175008   -0.039248268676980114   -0.0011505458687369034
-0.0048041123910854775   -0.03715290724239349   -0.0012124940466691934
-0.003810638460328578   -0.0392506093287886   -0.0011916018165045446
-0.006155578291940508   -0.037029913621829155   -0.0013414823459462362
-0.004709776965809747   -0.037175367672018886   -0.0012562240659553723
-0.003810638460328578   -0.0392506093287886   -0.0011916018165045446
-0.0048041123910854775   -0.03715290724239349   -0.0012124940466691934
-0.006155578291940508   -0.037029913621829155   -0.0013414823459462362
-0.003810638460328578   -0.0392506093287886   -0.0011916018165045446
-0.0043718982334845806   -0.039052835114968605   -0.001239019214903482
-0.004557888944249933   -0.039048642685369075   -0.0011164013281750108
-0.006155578291940508   -0.037029913621829155   -0.0013414823459462362
-0.003810638460328578   -0.0392506093287886   -0.0011916018165045446
-0.004557888944249933   -0.039048642685369075   -0.0011164013281750108
-0.0048041123910854775   -0.03715290724239349   -0.0012124940466691934
-0.006155578291940508   -0.037029913621829155   -0.0013414823459462362
-0.0043718982334845806   -0.039052835114968605   -0.001239019214903482
-0.004709776965809747   -0.037175367672018886   -0.0012562240659553723
-0.005960736314151779   -0.03710357203859801   -0.0014595997058212654
-0.0043718982334845806   -0.039052835114968605   -0.001239019214903482
-0.003810638460328578   -0.0392506093287886   -0.0011916018165045446
-0.004709776965809747   -0.037175367672018886   -0.0012562240659553723
-0.0037068756408983705   -0.039293639616630405   -0.0012332483551218969
-0.005960736314151779   -0.03710357203859801   -0.0014595997058212654
-0.004624201839460196   -0.0372286143810583   -0.0013052478767747531
-0.0037068756408983705   -0.039293639616630405   -0.0012332483551218969
-0.004709776965809747   -0.037175367672018886   -0.0012562240659553723
-0.005960736314151779   -0.03710357203859801   -0.0014595997058212654
-0.0037068756408983705   -0.039293639616630405   -0.0012332483551218969
-0.004151156466581182   -0.039106993544029245   -0.00136426547613303
-0.0043718982334845806   -0.039052835114968605   -0.001239019214903482
-0.005960736314151779   -0.03710357203859801   -0.0014595997058212654
-0.0037068756408983705   -0.039293639616630405   -0.0012332483551218969
-0.0043718982334845806   -0.039052835114968605   -0.001239019214903482
-0.004709776965809747   -0.037175367672018886   -0.0012562240659553723
-0.004884232502953229   -0.0371607059245474   -0.0011744172895623232
-0.0040232216890496095   -0.03928640833637127   -0.0011099096844553254
-0.003571145710446977   -0.03726000184435164   -0.0012105791553833187
-0.0048041123910854775   -0.03715290724239349   -0.0012124940466691934
-0.0040232216890496095   -0.03928640833637127   -0.0011099096844553254
-0.0034719599389432744   -0.039480192968982905   -0.0012128091364576015
-0.003571145710446977   -0.03726000184435164   -0.0012105791553833187
-0.0033657879274138257   -0.03944097166768243   -0.0011848209434616927
-0.0048041123910854775   -0.03715290724239349   -0.0012124940466691934
-0.003489026161678197   -0.03724735644154435   -0.0011989488445929035
-0.0033657879274138257   -0.03944097166768243   -0.0011848209434616927
-0.003571145710446977   -0.03726000184435164   -0.0012105791553833187
-0.0048041123910854775   -0.03715290724239349   -0.0012124940466691934
-0.0033657879274138257   -0.03944097166768243   -0.0011848209434616927
-0.003922434220175008   -0.039248268676980114   -0.0011505458687369034
-0.0040232216890496095   -0.03928640833637127   -0.0011099096844553254
-0.0048041123910854775   -0.03715290724239349   -0.0012124940466691934
-0.0033657879274138257   -0.03944097166768243   -0.0011848209434616927
-0.0040232216890496095   -0.03928640833637127   -0.0011099096844553254
-0.003571145710446977   -0.03726000184435164   -0.0012105791553833187
-0.0048041123910854775   -0.03715290724239349   -0.0012124940466691934
-0.003922434220175008   -0.039248268676980114   -0.0011505458687369034
-0.003489026161678197   -0.03724735644154435   -0.0011989488445929035
-0.004709776965809747   -0.037175367672018886   -0.0012562240659553723
-0.003922434220175008   -0.039248268676980114   -0.0011505458687369034
-0.0033657879274138257   -0.03944097166768243   -0.0011848209434616927
-0.003489026161678197   -0.03724735644154435   -0.0011989488445929035
-0.0032630581742911177   -0.039440607725653144   -0.0011564963972371617
-0.004709776965809747   -0.037175367672018886   -0.0012562240659553723
-0.003408003287497151   -0.03726086160271974   -0.0011928163304866287
-0.0032630581742911177   -0.039440607725653144   -0.0011564963972371617
-0.003489026161678197   -0.03724735644154435   -0.0011989488445929035
-0.004709776965809747   -0.037175367672018886   -0.0012562240659553723
-0.0032630581742911177   -0.039440607725653144   -0.0011564963972371617
-0.003810638460328578   -0.0392506093287886   -0.0011916018165045446
-0.003922434220175008   -0.039248268676980114   -0.0011505458687369034
-0.004709776965809747   -0.037175367672018886   -0.0012562240659553723
-0.0032630581742911177   -0.039440607725653144   -0.0011564963972371617
-0.003922434220175008   -0.039248268676980114   -0.0011505458687369034
-0.003489026161678197   -0.03724735644154435   -0.0011989488445929035
-0.004709776965809747   -0.037175367672018886   -0.0012562240659553723
-0.003810638460328578   -0.0392506093287886   -0.0011916018165045446
-0.003408003287497151   -0.03726086160271974   -0.0011928163304866287
-0.004624201839460196   -0.0372286143810583   -0.0013052478767747531
-0.003810638460328578   -0.0392506093287886   -0.0011916018165045446
-0.0032630581742911177   -0.039440607725653144   -0.0011564963972371617
-0.003408003287497151   -0.03726086160271974   -0.0011928163304866287
-0.0031560183024000365   -0.039478311094957634   -0.0011293190854669622
-0.004624201839460196   -0.0372286143810583   -0.0013052478767747531
-0.003333390169523897   -0.03730136168689099   -0.0011933230100037782
-0.0031560183024000365   -0.039478311094957634   -0.0011293190854669622
-0.003408003287497151   -0.03726086160271974   -0.0011928163304866287
-0.004624201839460196   -0.0372286143810583   -0.0013052478767747531
-0.0031560183024000365   -0.039478311094957634   -0.0011293190854669622
-0.0037068756408983705   -0.039293639616630405   -0.0012332483551218969
-0.003810638460328578   -0.0392506093287886   -0.0011916018165045446
-0.004624201839460196   -0.0372286143810583   -0.0013052478767747531
-0.0031560183024000365   -0.039478311094957634   -0.0011293190854669622
-0.003810638460328578   -0.0392506093287886   -0.0011916018165045446
-0.003408003287497151   -0.03726086160271974   -0.0011928163304866287
-0.003571145710446977   -0.03726000184435164   -0.0012105791553833187
-0.0034719599389432744   -0.039480192968982905   -0.0012128091364576015
-0.002313250195432359   -0.03731110633604472   -0.001253544990914066
-0.003489026161678197   -0.03724735644154435   -0.0011989488445929035
-0.0034719599389432744   -0.039480192968982905   -0.0012128091364576015
-0.00296788830728373   -0.03971227629198977   -0.0013263646401672545
-0.002313250195432359   -0.03731110633604472   -0.001253544990914066
-0.002837840489029589   -0.03967805441914339   -0.0012259384746406855
-0.003489026161678197   -0.03724735644154435   -0.0011989488445929035
-0.002220701064838342   -0.03729272115372468   -0.0011949964319449807
-0.002837840489029589   -0.03967805441914339   -0.0012259384746406855
-0.002313250195432359   -0.03731110633604472   -0.001253544990914066
-0.003489026161678197   -0.03724735644154435   -0.0011989488445929035
-0.002837840489029589   -0.03967805441914339   -0.0012259384746406855
-0.0033657879274138257   -0.03944097166768243   -0.0011848209434616927
-0.0034719599389432744   -0.039480192968982905   -0.0012128091364576015
-0.003489026161678197   -0.03724735644154435   -0.0011989488445929035
-0.002837840489029589   -0.03967805441914339   -0.0012259384746406855
-0.0034719599389432744   -0.039480192968982905   -0.0012128091364576015
-0.002313250195432359   -0.03731110633604472   -0.001253544990914066
-0.003489026161678197   -0.03724735644154435   -0.0011989488445929035
-0.0033657879274138257   -0.03944097166768243   -0.0011848209434616927
-0.002220701064838342   -0.03729272115372468   -0.0011949964319449807
-0.003408003287497151   -0.03726086160271974   -0.0011928163304866287
-0.0033657879274138257   -0.03944097166768243   -0.0011848209434616927
-0.002837840489029589   -0.03967805441914339   -0.0012259384746406855
-0.002220701064838342   -0.03729272115372468   -0.0011949964319449807
-0.00271721972826214   -0.03967642070858212   -0.0011257799974038446
-0.003408003287497151   -0.03726086160271974   -0.0011928163304866287
-0.0021324308988376756   -0.037297389122023725   -0.0011413325374552592
-0.00271721972826214   -0.03967642070858212   -0.0011257799974038446
-0.002220701064838342   -0.03729272115372468   -0.0011949964319449807
-0.003408003287497151   -0.03726086160271974   -0.0011928163304866287
-0.00271721972826214   -0.03967642070858212   -0.0011257799974038446
-0.0032630581742911177   -0.039440607725653144   -0.0011564963972371617
-0.0033657879274138257   -0.03944097166768243   -0.0011848209434616927
-0.003408003287497151   -0.03726086160271974   -0.0011928163304866287
-0.00271721972826214   -0.03967642070858212   -0.0011257799974038446
-0.0033657879274138257   -0.03944097166768243   -0.0011848209434616927
-0.002220701064838342   -0.03729272115372468   -0.0011949964319449807
-0.003408003287497151   -0.03726086160271974   -0.0011928163304866287
-0.0032630581742911177   -0.039440607725653144   -0.0011564963972371617
-0.0021324308988376756   -0.037297389122023725   -0.0011413325374552592
-0.003333390169523897   -0.03730136168689099   -0.0011933230100037782
-0.0032630581742911177   -0.039440607725653144   -0.0011564963972371617
-0.00271721972826214   -0.03967642070858212   -0.0011257799974038446
-0.0021324308988376756   -0.037297389122023725   -0.0011413325374552592
-0.0025878745656222205   -0.039705667054141004   -0.0010255200626348156
-0.003333390169523897   -0.03730136168689099   -0.0011933230100037782
-0.0020589256370611053   -0.03732949510005476   -0.001095547823302897
-0.0025878745656222205   -0.039705667054141004   -0.0010255200626348156
-0.0021324308988376756   -0.037297389122023725   -0.0011413325374552592
-0.003333390169523897   -0.03730136168689099   -0.0011933230100037782
-0.0025878745656222205   -0.039705667054141004   -0.0010255200626348156
-0.0031560183024000365   -0.039478311094957634   -0.0011293190854669622
-0.0032630581742911177   -0.039440607725653144   -0.0011564963972371617
-0.003333390169523897   -0.03730136168689099   -0.0011933230100037782
-0.0025878745656222205   -0.039705667054141004   -0.0010255200626348156
-0.0032630581742911177   -0.039440607725653144   -0.0011564963972371617
-0.0021324308988376756   -0.037297389122023725   -0.0011413325374552592
-0.002313250195432359   -0.03731110633604472   -0.001253544990914066
-0.00296788830728373   -0.03971227629198977   -0.0013263646401672545
-0.0009772612576291746   -0.03729591397514908   -0.0013043545773979404
-0.002220701064838342   -0.03729272115372468   -0.0011949964319449807
-0.00296788830728373   -0.03971227629198977   -0.0013263646401672545
-0.00247178901035754   -0.04   -0.0014145299323237842
-0.0009772612576291746   -0.03729591397514908   -0.0013043545773979404
-0.0023079598335165514   -0.04   -0.0012612690285652064
-0.002220701064838342   -0.03729272115372468   -0.0011949964319449807
-0.0008584322219639466   -0.03726705297709374   -0.0012008623567645658
-0.0023079598335165514   -0.04   -0.0012612690285652064
-0.0009772612576291746   -0.03729591397514908   -0.0013043545773979404
-0.002220701064838342   -0.03729272115372468   -0.0011949964319449807
-0.0023079598335165514   -0.04   -0.0012612690285652064
-0.002837840489029589   -0.03967805441914339   -0.0012259384746406855
-0.00296788830728373   -0.03971227629198977   -0.0013263646401672545
-0.002220701064838342   -0.03729272115372468   -0.0011949964319449807
-0.0023079598335165514   -0.04   -0.0012612690285652064
-0.00296788830728373   -0.03971227629198977   -0.0013263646401672545
-0.0009772612576291746   -0.03729591397514908   -0.0013043545773979404
-0.002220701064838342   -0.03729272115372468   -0.0011949964319449807
-0.002837840489029589   -0.03967805441914339   -0.0012259384746406855
-0.0008584322219639466   -0.03726705297709374   -0.0012008623567645658
-0.0021324308988376756   -0.037297389122023725   -0.0011413325374552592
-0.002837840489029589   -0.03967805441914339   -0.0012259384746406855
-0.0023079598335165514   -0.04   -0.0012612690285652064
-0.0008584322219639466   -0.03726705297709374   -0.0012008623567645658
-0.002143138952250386   -0.04   -0.0011061978151214115
-0.0021324308988376756   -0.037297389122023725   -0.0011413325374552592
-0.0007367238706344979   -0.03726209165131335   -0.001102580705629719
-0.002143138952250386   -0.04   -0.0011061978151214115
-0.0008584322219639466   -0.03726705297709374   -0.0012008623567645658
-0.0021324308988376756   -0.037297389122023725   -0.0011413325374552592
-0.002143138952250386   -0.04   -0.0011061978151214115
-0.00271721972826214   -0.03967642070858212   -0.0011257799974038446
-0.002837840489029589   -0.03967805441914339   -0.0012259384746406855
-0.0021324308988376756   -0.037297389122023725   -0.0011413325374552592
-0.002143138952250386   -0.04   -0.0011061978151214115
-0.002837840489029589   -0.03967805441914339   -0.0012259384746406855
-0.0008584322219639466   -0.03726705297709374   -0.0012008623567645658
-0.0021324308988376756   -0.037297389122023725   -0.0011413325374552592
-0.00271721972826214   -0.03967642070858212   -0.0011257799974038446
-0.0007367238706344979   -0.03726209165131335   -0.001102580705629719
-0.0020589256370611053   -0.03732949510005476   -0.001095547823302897
-0.00271721972826214   -0.03967642070858212   -0.0011257799974038446
-0.002143138952250386   -0.04   -0.0011061978151214115
-0.0007367238706344979   -0.03726209165131335   -0.001102580705629719
-0.001982289801117169   -0.04   -0.0009531950346509733
-0.0020589256370611053   -0.03732949510005476   -0.001095547823302897
-0.0006467082987606344   -0.037286083019677244   -0.0010132080313891856
-0.001982289801117169   -0.04   -0.0009531950346509733
-0.0007367238706344979   -0.03726209165131335   -0.001102580705629719
-0.0020589256370611053   -0.03732949510005476   -0.001095547823302897
-0.001982289801117169   -0.04   -0.0009531950346509733
-0.0025878745656222205   -0.039705667054141004   -0.0010255200626348156
-0.00271721972826214   -0.03967642070858212   -0.0011257799974038446
-0.0020589256370611053   -0.03732949510005476   -0.001095547823302897
-0.001982289801117169   -0.04   -0.0009531950346509733
-0.00271721972826214   -0.03967642070858212   -0.0011257799974038446
-0.0007367238706344979   -0.03726209165131335   -0.001102580705629719
-0.0009772612576291746   -0.03729591397514908   -0.0013043545773979404
-0.00247178901035754   -0.04   -0.0014145299323237842
0.0004574050975309865   -0.03716687861434886   -0.001407791250947719
-0.0008584322219639466   -0.03726705297709374   -0.0012008623567645658
-0.00247178901035754   -0.04   -0.0014145299323237842
-0.0021095997997547505   -0.04   -0.001521300125437958
0.0004574050975309865   -0.03716687861434886   -0.001407791250947719
-0.0017653413461094062   -0.04   -0.0012991933307120857
-0.0008584322219639466   -0.03726705297709374   -0.0012008623567645658
0.0007360206482359549   -0.037104294035969716   -0.0012386163484698594
-0.0017653413461094062   -0.04   -0.0012991933307120857
0.0004574050975309865   -0.03716687861434886   -0.001407791250947719
-0.0008584322219639466   -0.03726705297709374   -0.0012008623567645658
-0.0017653413461094062   -0.04   -0.0012991933307120857
-0.0023079598335165514   -0.04   -0.0012612690285652064
-0.00247178901035754   -0.04   -0.0014145299323237842
-0.0008584322219639466   -0.03726705297709374   -0.0012008623567645658
-0.0017653413461094062   -0.04   -0.0012991933307120857
-0.00247178901035754   -0.04   -0.0014145299323237842
0.0004574050975309865   -0.03716687861434886   -0.001407791250947719
-0.0008584322219639466   -0.03726705297709374   -0.0012008623567645658
-0.0023079598335165514   -0.04   -0.0012612690285652064
0.0007360206482359549   -0.037104294035969716   -0.0012386163484698594
-0.0007367238706344979   -0.03726209165131335   -0.001102580705629719
-0.0023079598335165514   -0.04   -0.0012612690285652064
-0.0017653413461094062   -0.04   -0.0012991933307120857
0.0007360206482359549   -0.037104294035969716   -0.0012386163484698594
-0.0014908176816018086   -0.04   -0.0010867421710116308
-0.0007367238706344979   -0.03726209165131335   -0.001102580705629719
0.0009548846260854492   -0.03709172691109052   -0.0010796316103657642
-0.0014908176816018086   -0.04   -0.0010867421710116308
0.0007360206482359549   -0.037104294035969716   -0.0012386163484698594
-0.0007367238706344979   -0.03726209165131335   -0.001102580705629719
-0.0014908176816018086   -0.04   -0.0010867421710116308
-0.002143138952250386   -0.04   -0.0011061978151214115
-0.0023079598335165514   -0.04   -0.0012612690285652064
-0.0007367238706344979   -0.03726209165131335   -0.001102580705629719
-0.0014908176816018086   -0.04   -0.0010867421710116308
-0.0023079598335165514   -0.04   -0.0012612690285652064
0.0007360206482359549   -0.037104294035969716   -0.0012386163484698594
-0.0007367238706344979   -0.03726209165131335   -0.001102580705629719
-0.002143138952250386   -0.04   -0.0011061978151214115
0.0009548846260854492   -0.03709172691109052   -0.0010796316103657642
-0.0006467082987606344   -0.037286083019677244   -0.0010132080313891856
-0.002143138952250386   -0.04   -0.0011061978151214115
-0.0014908176816018086   -0.04   -0.0010867421710116308
0.0009548846260854492   -0.03709172691109052   -0.0010796316103657642
-0.0011517669610126037   -0.04   -0.0008661751592374045
-0.0006467082987606344   -0.037286083019677244   -0.0010132080313891856
0.0011827511912944995   -0.03710283276189308   -0.0009342657379275497
-0.0011517669610126037   -0.04   -0.0008661751592374045
0.0009548846260854492   -0.03709172691109052   -0.0010796316103657642
-0.0006467082987606344   -0.037286083019677244   -0.0010132080313891856
-0.0011517669610126037   -0.04   -0.0008661751592374045
-0.001982289801117169   -0.04   -0.0009531950346509733
-0.002143138952250386   -0.04   -0.0011061978151214115
-0.0006467082987606344   -0.037286083019677244   -0.0010132080313891856
-0.0011517669610126037   -0.04   -0.0008661751592374045
-0.002143138952250386   -0.04   -0.0011061978151214115
0.0009548846260854492   -0.03709172691109052   -0.0010796316103657642
-0.004773503062621832   -0.03909165653720589   -0.0009933497154031923
-0.002876090403697182   -0.03921177010370857   -0.0008505436860822196
-0.0040232216890496095   -0.03928640833637127   -0.0011099096844553254
-0.004557888944249933   -0.039048642685369075   -0.0011164013281750108
-0.002876090403697182   -0.03921177010370857   -0.0008505436860822196
-0.0030402269509428002   -0.03936251343388361   -0.0010006705213798281
-0.0040232216890496095   -0.03928640833637127   -0.0011099096844553254
-0.0029638738942126975   -0.039310352333399315   -0.001055883995055103
-0.004557888944249933   -0.039048642685369075   -0.0011164013281750108
-0.003922434220175008   -0.039248268676980114   -0.0011505458687369034
-0.0029638738942126975   -0.039310352333399315   -0.001055883995055103
-0.0040232216890496095   -0.03928640833637127   -0.0011099096844553254
-0.004557888944249933   -0.039048642685369075   -0.0011164013281750108
-0.0029638738942126975   -0.039310352333399315   -0.001055883995055103
-0.0026803605318499305   -0.03914474116687047   -0.0009798784475376545
-0.002876090403697182   -0.03921177010370857   -0.0008505436860822196
-0.004557888944249933   -0.039048642685369075   -0.0011164013281750108
-0.0029638738942126975   -0.039310352333399315   -0.001055883995055103
-0.002876090403697182   -0.03921177010370857   -0.0008505436860822196
-0.0040232216890496095   -0.03928640833637127   -0.0011099096844553254
-0.004557888944249933   -0.039048642685369075   -0.0011164013281750108
-0.0026803605318499305   -0.03914474116687047   -0.0009798784475376545
-0.003922434220175008   -0.039248268676980114   -0.0011505458687369034
-0.0043718982334845806   -0.039052835114968605   -0.001239019214903482
-0.0026803605318499305   -0.03914474116687047   -0.0009798784475376545
-0.0029638738942126975   -0.039310352333399315   -0.001055883995055103
-0.003922434220175008   -0.039248268676980114   -0.0011505458687369034
-0.0028742098162159967   -0.039291557928265004   -0.0011068972200761397
-0.0043718982334845806   -0.039052835114968605   -0.001239019214903482
-0.003810638460328578   -0.0392506093287886   -0.0011916018165045446
-0.0028742098162159967   -0.039291557928265004   -0.0011068972200761397
-0.003922434220175008   -0.039248268676980114   -0.0011505458687369034
-0.0043718982334845806   -0.039052835114968605   -0.001239019214903482
-0.0028742098162159967   -0.039291557928265004   -0.0011068972200761397
-0.002517473079737388   -0.03912462980496457   -0.0011040050678062221
-0.0026803605318499305   -0.03914474116687047   -0.0009798784475376545
-0.0043718982334845806   -0.039052835114968605   -0.001239019214903482
-0.0028742098162159967   -0.039291557928265004   -0.0011068972200761397
-0.0026803605318499305   -0.03914474116687047   -0.0009798784475376545
-0.003922434220175008   -0.039248268676980114   -0.0011505458687369034
-0.0043718982334845806   -0.039052835114968605   -0.001239019214903482
-0.002517473079737388   -0.03912462980496457   -0.0011040050678062221
-0.003810638460328578   -0.0392506093287886   -0.0011916018165045446
-0.004151156466581182   -0.039106993544029245   -0.00136426547613303
-0.002517473079737388   -0.03912462980496457   -0.0011040050678062221
-0.0028742098162159967   -0.039291557928265004   -0.0011068972200761397
-0.003810638460328578   -0.0392506093287886   -0.0011916018165045446
-0.0027974632191568316   -0.03930642282703033   -0.0011534510835022637
-0.004151156466581182   -0.039106993544029245   -0.00136426547613303
-0.0037068756408983705   -0.039293639616630405   -0.0012332483551218969
-0.0027974632191568316   -0.03930642282703033   -0.0011534510835022637
-0.003810638460328578   -0.0392506093287886   -0.0011916018165045446
-0.004151156466581182   -0.039106993544029245   -0.00136426547613303
-0.0027974632191568316   -0.03930642282703033   -0.0011534510835022637
-0.0023329398288661186   -0.03914315169847964   -0.0012223878621795594
-0.002517473079737388   -0.03912462980496457   -0.0011040050678062221
-0.004151156466581182   -0.039106993544029245   -0.00136426547613303
-0.0027974632191568316   -0.03930642282703033   -0.0011534510835022637
-0.002517473079737388   -0.03912462980496457   -0.0011040050678062221
-0.003810638460328578   -0.0392506093287886   -0.0011916018165045446
-0.0040232216890496095   -0.03928640833637127   -0.0011099096844553254
-0.0030402269509428002   -0.03936251343388361   -0.0010006705213798281
-0.0034719599389432744   -0.039480192968982905   -0.0012128091364576015
-0.003922434220175008   -0.039248268676980114   -0.0011505458687369034
-0.0030402269509428002   -0.03936251343388361   -0.0010006705213798281
-0.003266673674016423   -0.03945495104421071   -0.0011205903381350671
-0.0034719599389432744   -0.039480192968982905   -0.0012128091364576015
-0.0031991658614767787   -0.039408341660192935   -0.0011219290642663848
-0.003922434220175008   -0.039248268676980114   -0.0011505458687369034
-0.0033657879274138257   -0.03944097166768243   -0.0011848209434616927
-0.0031991658614767787   -0.039408341660192935   -0.0011219290642663848
-0.0034719599389432744   -0.039480192968982905   -0.0012128091364576015
-0.003922434220175008   -0.039248268676980114   -0.0011505458687369034
-0.0031991658614767787   -0.039408341660192935   -0.0011219290642663848
-0.0029638738942126975   -0.039310352333399315   -0.001055883995055103
-0.0030402269509428002   -0.03936251343388361   -0.0010006705213798281
-0.003922434220175008   -0.039248268676980114   -0.0011505458687369034
-0.0031991658614767787   -0.039408341660192935   -0.0011219290642663848
-0.0030402269509428002   -0.03936251343388361   -0.0010006705213798281
-0.0034719599389432744   -0.039480192968982905   -0.0012128091364576015
-0.003922434220175008   -0.039248268676980114   -0.0011505458687369034
-0.0029638738942126975   -0.039310352333399315   -0.001055883995055103
-0.0033657879274138257   -0.03944097166768243   -0.0011848209434616927
-0.003810638460328578   -0.0392506093287886   -0.0011916018165045446
-0.0029638738942126975   -0.039310352333399315   -0.001055883995055103
-0.0031991658614767787   -0.039408341660192935   -0.0011219290642663848
-0.0033657879274138257   -0.03944097166768243   -0.0011848209434616927
-0.0031240531498559643   -0.03939194749834592   -0.001117823259393291
-0.003810638460328578   -0.0392506093287886   -0.0011916018165045446
-0.0032630581742911177   -0.039440607725653144   -0.0011564963972371617
-0.0031240531498559643   -0.03939194749834592   -0.001117823259393291
-0.0033657879274138257   -0.03944097166768243   -0.0011848209434616927
-0.003810638460328578   -0.0392506093287886   -0.0011916018165045446
-0.0031240531498559643   -0.03939194749834592   -0.001117823259393291
-0.0028742098162159967   -0.039291557928265004   -0.0011068972200761397
-0.0029638738942126975   -0.039310352333399315   -0.001055883995055103
-0.003810638460328578   -0.0392506093287886   -0.0011916018165045446
-0.0031240531498559643   -0.03939194749834592   -0.001117823259393291
-0.0029638738942126975   -0.039310352333399315   -0.001055883995055103
-0.0033657879274138257   -0.03944097166768243   -0.0011848209434616927
-0.003810638460328578   -0.0392506093287886   -0.0011916018165045446
-0.0028742098162159967   -0.039291557928265004   -0.0011068972200761397
-0.0032630581742911177   -0.039440607725653144   -0.0011564963972371617
-0.0037068756408983705   -0.039293639616630405   -0.0012332483551218969
-0.0028742098162159967   -0.039291557928265004   -0.0011068972200761397
-0.0031240531498559643   -0.03939194749834592   -0.001117823259393291
-0.0032630581742911177   -0.039440607725653144   -0.0011564963972371617
-0.003047715960846236   -0.039404426941442326   -0.0011094434550221431
-0.0037068756408983705   -0.039293639616630405   -0.0012332483551218969
-0.0031560183024000365   -0.039478311094957634   -0.0011293190854669622
-0.003047715960846236   -0.039404426941442326   -0.0011094434550221431
-0.0032630581742911177   -0.039440607725653144   -0.0011564963972371617
-0.0037068756408983705   -0.039293639616630405   -0.0012332483551218969
-0.003047715960846236   -0.039404426941442326   -0.0011094434550221431
-0.0027974632191568316   -0.03930642282703033   -0.0011534510835022637
-0.0028742098162159967   -0.039291557928265004   -0.0011068972200761397
-0.0037068756408983705   -0.039293639616630405   -0.0012332483551218969
-0.003047715960846236   -0.039404426941442326   -0.0011094434550221431
-0.0028742098162159967   -0.039291557928265004   -0.0011068972200761397
-0.0032630581742911177   -0.039440607725653144   -0.0011564963972371617
-0.0034719599389432744   -0.039480192968982905   -0.0012128091364576015
-0.003266673674016423   -0.03945495104421071   -0.0011205903381350671
-0.00296788830728373   -0.03971227629198977   -0.0013263646401672545
-0.0033657879274138257   -0.03944097166768243   -0.0011848209434616927
-0.003266673674016423   -0.03945495104421071   -0.0011205903381350671
-0.0035099825155925552   -0.039492632044648396   -0.0012387409373829361
-0.00296788830728373   -0.03971227629198977   -0.0013263646401672545
-0.0034400474350954257   -0.03944809295786205   -0.0011882653426787382
-0.0033657879274138257   -0.03944097166768243   -0.0011848209434616927
-0.002837840489029589   -0.03967805441914339   -0.0012259384746406855
-0.0034400474350954257   -0.03944809295786205   -0.0011882653426787382
-0.00296788830728373   -0.03971227629198977   -0.0013263646401672545
-0.0033657879274138257   -0.03944097166768243   -0.0011848209434616927
-0.0034400474350954257   -0.03944809295786205   -0.0011882653426787382
-0.0031991658614767787   -0.039408341660192935   -0.0011219290642663848
-0.003266673674016423   -0.03945495104421071   -0.0011205903381350671
-0.0033657879274138257   -0.03944097166768243   -0.0011848209434616927
-0.0034400474350954257   -0.03944809295786205   -0.0011882653426787382
-0.003266673674016423   -0.03945495104421071   -0.0011205903381350671
-0.00296788830728373   -0.03971227629198977   -0.0013263646401672545
-0.0033657879274138257   -0.03944097166768243   -0.0011848209434616927
-0.0031991658614767787   -0.039408341660192935   -0.0011219290642663848
-0.002837840489029589   -0.03967805441914339   -0.0012259384746406855
-0.0032630581742911177   -0.039440607725653144   -0.0011564963972371617
-0.0031991658614767787   -0.039408341660192935   -0.0011219290642663848
-0.0034400474350954257   -0.03944809295786205   -0.0011882653426787382
-0.002837840489029589   -0.03967805441914339   -0.0012259384746406855
-0.003356243016055164   -0.039434252995321294   -0.0011311561134569096
-0.0032630581742911177   -0.039440607725653144   -0.0011564963972371617
-0.00271721972826214   -0.03967642070858212   -0.0011257799974038446
-0.003356243016055164   -0.039434252995321294   -0.0011311561134569096
-0.002837840489029589   -0.03967805441914339   -0.0012259384746406855
-0.0032630581742911177   -0.039440607725653144   -0.0011564963972371617
-0.003356243016055164   -0.039434252995321294   -0.0011311561134569096
-0.0031240531498559643   -0.03939194749834592   -0.001117823259393291
-0.0031991658614767787   -0.039408341660192935   -0.0011219290642663848
-0.0032630581742911177   -0.039440607725653144   -0.0011564963972371617
-0.003356243016055164   -0.039434252995321294   -0.0011311561134569096
-0.0031991658614767787   -0.039408341660192935   -0.0011219290642663848
-0.002837840489029589   -0.03967805441914339   -0.0012259384746406855
-0.0032630581742911177   -0.039440607725653144   -0.0011564963972371617
-0.0031240531498559643   -0.03939194749834592   -0.001117823259393291
-0.00271721972826214   -0.03967642070858212   -0.0011257799974038446
-0.0031560183024000365   -0.039478311094957634   -0.0011293190854669622
-0.0031240531498559643   -0.03939194749834592   -0.001117823259393291
-0.003356243016055164   -0.039434252995321294   -0.0011311561134569096
-0.00271721972826214   -0.03967642070858212   -0.0011257799974038446
-0.0032701098112137787   -0.039446384869547685   -0.0010703762924681537
-0.0031560183024000365   -0.039478311094957634   -0.0011293190854669622
-0.0025878745656222205   -0.039705667054141004   -0.0010255200626348156
-0.0032701098112137787   -0.039446384869547685   -0.0010703762924681537
-0.00271721972826214   -0.03967642070858212   -0.0011257799974038446
-0.0031560183024000365   -0.039478311094957634   -0.0011293190854669622
-0.0032701098112137787   -0.039446384869547685   -0.0010703762924681537
-0.003047715960846236   -0.039404426941442326   -0.0011094434550221431
-0.0031240531498559643   -0.03939194749834592   -0.001117823259393291
-0.0031560183024000365   -0.039478311094957634   -0.0011293190854669622
-0.0032701098112137787   -0.039446384869547685   -0.0010703762924681537
-0.0031240531498559643   -0.03939194749834592   -0.001117823259393291
-0.00271721972826214   -0.03967642070858212   -0.0011257799974038446
-0.00296788830728373   -0.03971227629198977   -0.0013263646401672545
-0.0035099825155925552   -0.039492632044648396   -0.0012387409373829361
-0.00247178901035754   -0.04   -0.0014145299323237842
-0.002837840489029589   -0.03967805441914339   -0.0012259384746406855
-0.0035099825155925552   -0.039492632044648396   -0.0012387409373829361
-0.0038627230387102557   -0.039448712717380506   -0.0013513136890721648
-0.00247178901035754   -0.04   -0.0014145299323237842
-0.0037714101627981077   -0.039406487108521994   -0.0012514333785997066
-0.002837840489029589   -0.03967805441914339   -0.0012259384746406855
-0.0023079598335165514   -0.04   -0.0012612690285652064
-0.0037714101627981077   -0.039406487108521994   -0.0012514333785997066
-0.00247178901035754   -0.04   -0.0014145299323237842
-0.002837840489029589   -0.03967805441914339   -0.0012259384746406855
-0.0037714101627981077   -0.039406487108521994   -0.0012514333785997066
-0.0034400474350954257   -0.03944809295786205   -0.0011882653426787382
-0.0035099825155925552   -0.039492632044648396   -0.0012387409373829361
-0.002837840489029589   -0.03967805441914339   -0.0012259384746406855
-0.0037714101627981077   -0.039406487108521994   -0.0012514333785997066
-0.0035099825155925552   -0.039492632044648396   -0.0012387409373829361
-0.00247178901035754   -0.04   -0.0014145299323237842
-0.002837840489029589   -0.03967805441914339   -0.0012259384746406855
-0.0034400474350954257   -0.03944809295786205   -0.0011882653426787382
-0.0023079598335165514   -0.04   -0.0012612690285652064
-0.00271721972826214   -0.03967642070858212   -0.0011257799974038446
-0.0034400474350954257   -0.03944809295786205   -0.0011882653426787382
-0.0037714101627981077   -0.039406487108521994   -0.0012514333785997066
-0.0023079598335165514   -0.04   -0.0012612690285652064
-0.003650733089351164   -0.039397125912242946   -0.001144136536248445
-0.00271721972826214   -0.03967642070858212   -0.0011257799974038446
-0.002143138952250386   -0.04   -0.0011061978151214115
-0.003650733089351164   -0.039397125912242946   -0.001144136536248445
-0.0023079598335165514   -0.04   -0.0012612690285652064
-0.00271721972826214   -0.03967642070858212   -0.0011257799974038446
-0.003650733089351164   -0.039397125912242946   -0.001144136536248445
-0.003356243016055164   -0.039434252995321294   -0.0011311561134569096
-0.0034400474350954257   -0.03944809295786205   -0.0011882653426787382
-0.00271721972826214   -0.03967642070858212   -0.0011257799974038446
-0.003650733089351164   -0.039397125912242946   -0.001144136536248445
-0.0034400474350954257   -0.03944809295786205   -0.0011882653426787382
-0.0023079598335165514   -0.04   -0.0012612690285652064
-0.00271721972826214   -0.03967642070858212   -0.0011257799974038446
-0.003356243016055164   -0.039434252995321294   -0.0011311561134569096
-0.002143138952250386   -0.04   -0.0011061978151214115
-0.0025878745656222205   -0.039705667054141004   -0.0010255200626348156
-0.003356243016055164   -0.039434252995321294   -0.0011311561134569096
-0.003650733089351164   -0.039397125912242946   -0.001144136536248445
-0.002143138952250386   -0.04   -0.0011061978151214115
-0.003537511149228167   -0.03941435656414367   -0.0010327624744172468
-0.0025878745656222205   -0.039705667054141004   -0.0010255200626348156
-0.001982289801117169   -0.04   -0.0009531950346509733
-0.003537511149228167   -0.03941435656414367   -0.0010327624744172468
-0.002143138952250386   -0.04   -0.0011061978151214115
-0.0025878745656222205   -0.039705667054141004   -0.0010255200626348156
-0.003537511149228167   -0.03941435656414367   -0.0010327624744172468
-0.0032701098112137787   -0.039446384869547685   -0.0010703762924681537
-0.003356243016055164   -0.039434252995321294   -0.0011311561134569096
-0.0025878745656222205   -0.039705667054141004   -0.0010255200626348156
-0.003537511149228167   -0.03941435656414367   -0.0010327624744172468
-0.003356243016055164   -0.039434252995321294   -0.0011311561134569096
-0.002143138952250386   -0.04   -0.0011061978151214115
-0.00247178901035754   -0.04   -0.0014145299323237842
-0.0038627230387102557   -0.039448712717380506   -0.0013513136890721648
-0.0021095997997547505   -0.04   -0.001521300125437958
-0.0023079598335165514   -0.04   -0.0012612690285652064
-0.0038627230387102557   -0.039448712717380506   -0.0013513136890721648
-0.004552716253750901   -0.03925605110667683   -0.0014712861155335584
-0.0021095997997547505   -0.04   -0.001521300125437958
-0.0043079376983439005   -0.03922015895971446   -0.0013074610378740665
-0.0023079598335165514   -0.04   -0.0012612690285652064
-0.0017653413461094062   -0.04   -0.0012991933307120857
-0.0043079376983439005   -0.03922015895971446   -0.0013074610378740665
-0.0021095997997547505   -0.04   -0.001521300125437958
-0.0023079598335165514   -0.04   -0.0012612690285652064
-0.0043079376983439005   -0.03922015895971446   -0.0013074610378740665
-0.0037714101627981077   -0.039406487108521994   -0.0012514333785997066
-0.0038627230387102557   -0.039448712717380506   -0.0013513136890721648
-0.0023079598335165514   -0.04   -0.0012612690285652064
-0.0043079376983439005   -0.03922015895971446   -0.0013074610378740665
-0.0038627230387102557   -0.039448712717380506   -0.0013513136890721648
-0.0021095997997547505   -0.04   -0.001521300125437958
-0.0023079598335165514   -0.04   -0.0012612690285652064
-0.0037714101627981077   -0.039406487108521994   -0.0012514333785997066
-0.0017653413461094062   -0.04   -0.0012991933307120857
-0.002143138952250386   -0.04   -0.0011061978151214115
-0.0037714101627981077   -0.039406487108521994   -0.0012514333785997066
-0.0043079376983439005   -0.03922015895971446   -0.0013074610378740665
-0.0017653413461094062   -0.04   -0.0012991933307120857
-0.004083450431594802   -0.039215435444218905   -0.0011327863206258663
-0.002143138952250386   -0.04   -0.0011061978151214115
-0.0014908176816018086   -0.04   -0.0010867421710116308
-0.004083450431594802   -0.039215435444218905   -0.0011327863206258663
-0.0017653413461094062   -0.04   -0.0012991933307120857
-0.002143138952250386   -0.04   -0.0011061978151214115
-0.004083450431594802   -0.039215435444218905   -0.0011327863206258663
-0.003650733089351164   -0.039397125912242946   -0.001144136536248445
-0.0037714101627981077   -0.039406487108521994   -0.0012514333785997066
-0.002143138952250386   -0.04   -0.0011061978151214115
-0.004083450431594802   -0.039215435444218905   -0.0011327863206258663
-0.0037714101627981077   -0.039406487108521994   -0.0012514333785997066
-0.0017653413461094062   -0.04   -0.0012991933307120857
-0.002143138952250386   -0.04   -0.0011061978151214115
-0.003650733089351164   -0.039397125912242946   -0.001144136536248445
-0.0014908176816018086   -0.04   -0.0010867421710116308
-0.001982289801117169   -0.04   -0.0009531950346509733
-0.003650733089351164   -0.039397125912242946   -0.001144136536248445
-0.004083450431594802   -0.039215435444218905   -0.0011327863206258663
-0.0014908176816018086   -0.04   -0.0010867421710116308
-0.0037998699568557582   -0.039262458071422444   -0.0009502664200471823
-0.001982289801117169   -0.04   -0.0009531950346509733
-0.0011517669610126037   -0.04   -0.0008661751592374045
-0.0037998699568557582   -0.039262458071422444   -0.0009502664200471823
-0.0014908176816018086   -0.04   -0.0010867421710116308
-0.001982289801117169   -0.04   -0.0009531950346509733
-0.0037998699568557582   -0.039262458071422444   -0.0009502664200471823
-0.003537511149228167   -0.03941435656414367   -0.0010327624744172468
-0.003650733089351164   -0.039397125912242946   -0.001144136536248445
-0.001982289801117169   -0.04   -0.0009531950346509733
-0.0037998699568557582   -0.039262458071422444   -0.0009502664200471823
-0.003650733089351164   -0.039397125912242946   -0.001144136536248445
-0.0014908176816018086   -0.04   -0.0010867421710116308
-0.002876090403697182   -0.03921177010370857   -0.0008505436860822196
-0.0012023338000028438   -0.037754192755476854   -0.000734081029527889
-0.0030402269509428002   -0.03936251343388361   -0.0010006705213798281
-0.0026803605318499305   -0.03914474116687047   -0.0009798784475376545
-0.0012023338000028438   -0.037754192755476854   -0.000734081029527889
-0.002194727442309903   -0.03786843525501501   -0.0008936801831441863
-0.0030402269509428002   -0.03936251343388361   -0.0010006705213798281
-0.00214040208523664   -0.03780528289351017   -0.0009430310211103908
-0.0026803605318499305   -0.03914474116687047   -0.0009798784475376545
-0.0029638738942126975   -0.039310352333399315   -0.001055883995055103
-0.00214040208523664   -0.03780528289351017   -0.0009430310211103908
-0.0030402269509428002   -0.03936251343388361   -0.0010006705213798281
-0.0026803605318499305   -0.03914474116687047   -0.0009798784475376545
-0.00214040208523664   -0.03780528289351017   -0.0009430310211103908
-0.0010458066110722564   -0.03767594983506126   -0.000846199718012292
-0.0012023338000028438   -0.037754192755476854   -0.000734081029527889
-0.0026803605318499305   -0.03914474116687047   -0.0009798784475376545
-0.00214040208523664   -0.03780528289351017   -0.0009430310211103908
-0.0012023338000028438   -0.037754192755476854   -0.000734081029527889
-0.0030402269509428002   -0.03936251343388361   -0.0010006705213798281
-0.0026803605318499305   -0.03914474116687047   -0.0009798784475376545
-0.0010458066110722564   -0.03767594983506126   -0.000846199718012292
-0.0029638738942126975   -0.039310352333399315   -0.001055883995055103
-0.002517473079737388   -0.03912462980496457   -0.0011040050678062221
-0.0010458066110722564   -0.03767594983506126   -0.000846199718012292
-0.00214040208523664   -0.03780528289351017   -0.0009430310211103908
-0.0029638738942126975   -0.039310352333399315   -0.001055883995055103
-0.0020791164746568813   -0.03777076064946376   -0.0009880004136501202
-0.002517473079737388   -0.03912462980496457   -0.0011040050678062221
-0.0028742098162159967   -0.039291557928265004   -0.0011068972200761397
-0.0020791164746568813   -0.03777076064946376   -0.0009880004136501202
-0.0029638738942126975   -0.039310352333399315   -0.001055883995055103
-0.002517473079737388   -0.03912462980496457   -0.0011040050678062221
-0.0020791164746568813   -0.03777076064946376   -0.0009880004136501202
-0.0009226257654119189   -0.037639219959193546   -0.0009518280122754235
-0.0010458066110722564   -0.03767594983506126   -0.000846199718012292
-0.002517473079737388   -0.03912462980496457   -0.0011040050678062221
-0.0020791164746568813   -0.03777076064946376   -0.0009880004136501202
-0.0010458066110722564   -0.03767594983506126   -0.000846199718012292
-0.0029638738942126975   -0.039310352333399315   -0.001055883995055103
-0.002517473079737388   -0.03912462980496457   -0.0011040050678062221
-0.0009226257654119189   -0.037639219959193546   -0.0009518280122754235
-0.0028742098162159967   -0.039291557928265004   -0.0011068972200761397
-0.0023329398288661186   -0.03914315169847964   -0.0012223878621795594
-0.0009226257654119189   -0.037639219959193546   -0.0009518280122754235
-0.0020791164746568813   -0.03777076064946376   -0.0009880004136501202
-0.0028742098162159967   -0.039291557928265004   -0.0011068972200761397
-0.0020321655114920304   -0.03776389816558185   -0.0010287325969301252
-0.0023329398288661186   -0.03914315169847964   -0.0012223878621795594
-0.0027974632191568316   -0.03930642282703033   -0.0011534510835022637
-0.0020321655114920304   -0.03776389816558185   -0.0010287325969301252
-0.0028742098162159967   -0.039291557928265004   -0.0011068972200761397
-0.0023329398288661186   -0.03914315169847964   -0.0012223878621795594
-0.0020321655114920304   -0.03776389816558185   -0.0010287325969301252
-0.0007878146220749606   -0.0376333469282315   -0.0010506969499144672
-0.0009226257654119189   -0.037639219959193546   -0.0009518280122754235
-0.0023329398288661186   -0.03914315169847964   -0.0012223878621795594
-0.0020321655114920304   -0.03776389816558185   -0.0010287325969301252
-0.0009226257654119189   -0.037639219959193546   -0.0009518280122754235
-0.0028742098162159967   -0.039291557928265004   -0.0011068972200761397
-0.0030402269509428002   -0.03936251343388361   -0.0010006705213798281
-0.002194727442309903   -0.03786843525501501   -0.0008936801831441863
-0.003266673674016423   -0.03945495104421071   -0.0011205903381350671
-0.0029638738942126975   -0.039310352333399315   -0.001055883995055103
-0.002194727442309903   -0.03786843525501501   -0.0008936801831441863
-0.003176440609443614   -0.037908552481614774   -0.0010236563333688518
-0.003266673674016423   -0.03945495104421071   -0.0011205903381350671
-0.003130843715699189   -0.03785347469379973   -0.0010262607789514367
-0.0029638738942126975   -0.039310352333399315   -0.001055883995055103
-0.0031991658614767787   -0.039408341660192935   -0.0011219290642663848
-0.003130843715699189   -0.03785347469379973   -0.0010262607789514367
-0.003266673674016423   -0.03945495104421071   -0.0011205903381350671
-0.0029638738942126975   -0.039310352333399315   -0.001055883995055103
-0.003130843715699189   -0.03785347469379973   -0.0010262607789514367
-0.00214040208523664   -0.03780528289351017   -0.0009430310211103908
-0.002194727442309903   -0.03786843525501501   -0.0008936801831441863
-0.0029638738942126975   -0.039310352333399315   -0.001055883995055103
-0.003130843715699189   -0.03785347469379973   -0.0010262607789514367
-0.002194727442309903   -0.03786843525501501   -0.0008936801831441863
-0.003266673674016423   -0.03945495104421071   -0.0011205903381350671
-0.0029638738942126975   -0.039310352333399315   -0.001055883995055103
-0.00214040208523664   -0.03780528289351017   -0.0009430310211103908
-0.0031991658614767787   -0.039408341660192935   -0.0011219290642663848
-0.0028742098162159967   -0.039291557928265004   -0.0011068972200761397
-0.00214040208523664   -0.03780528289351017   -0.0009430310211103908
-0.003130843715699189   -0.03785347469379973   -0.0010262607789514367
-0.0031991658614767787   -0.039408341660192935   -0.0011219290642663848
-0.0030836698616928584   -0.03782419951922162   -0.0010248056545209732
-0.0028742098162159967   -0.039291557928265004   -0.0011068972200761397
-0.0031240531498559643   -0.03939194749834592   -0.001117823259393291
-0.0030836698616928584   -0.03782419951922162   -0.0010248056545209732
-0.0031991658614767787   -0.039408341660192935   -0.0011219290642663848
-0.0028742098162159967   -0.039291557928265004   -0.0011068972200761397
-0.0030836698616928584   -0.03782419951922162   -0.0010248056545209732
-0.0020791164746568813   -0.03777076064946376   -0.0009880004136501202
-0.00214040208523664   -0.03780528289351017   -0.0009430310211103908
-0.0028742098162159967   -0.039291557928265004   -0.0011068972200761397
-0.0030836698616928584   -0.03782419951922162   -0.0010248056545209732
-0.00214040208523664   -0.03780528289351017   -0.0009430310211103908
-0.0031991658614767787   -0.039408341660192935   -0.0011219290642663848
-0.0028742098162159967   -0.039291557928265004   -0.0011068972200761397
-0.0020791164746568813   -0.03777076064946376   -0.0009880004136501202
-0.0031240531498559643   -0.03939194749834592   -0.001117823259393291
-0.0027974632191568316   -0.03930642282703033   -0.0011534510835022637
-0.0020791164746568813   -0.03777076064946376   -0.0009880004136501202
-0.0030836698616928584   -0.03782419951922162   -0.0010248056545209732
-0.0031240531498559643   -0.03939194749834592   -0.001117823259393291
-0.0030381928280206927   -0.037819515368681396   -0.0010192613242359736
-0.0027974632191568316   -0.03930642282703033   -0.0011534510835022637
-0.003047715960846236   -0.039404426941442326   -0.0011094434550221431
-0.0030381928280206927   -0.037819515368681396   -0.0010192613242359736
-0.0031240531498559643   -0.03939194749834592   -0.001117823259393291
-0.0027974632191568316   -0.03930642282703033   -0.0011534510835022637
-0.0030381928280206927   -0.037819515368681396   -0.0010192613242359736
-0.0020321655114920304   -0.03776389816558185   -0.0010287325969301252
-0.0020791164746568813   -0.03777076064946376   -0.0009880004136501202
-0.0027974632191568316   -0.03930642282703033   -0.0011534510835022637
-0.0030381928280206927   -0.037819515368681396   -0.0010192613242359736
-0.0020791164746568813   -0.03777076064946376   -0.0009880004136501202
-0.0031240531498559643   -0.03939194749834592   -0.001117823259393291
-0.003266673674016423   -0.03945495104421071   -0.0011205903381350671
-0.003176440609443614   -0.037908552481614774   -0.0010236563333688518
-0.0035099825155925552   -0.039492632044648396   -0.0012387409373829361
-0.0031991658614767787   -0.039408341660192935   -0.0011219290642663848
-0.003176440609443614   -0.037908552481614774   -0.0010236563333688518
-0.004151675274521766   -0.03787248015774377   -0.0011453520597925044
-0.0035099825155925552   -0.039492632044648396   -0.0012387409373829361
-0.004106439414558114   -0.03782351884476836   -0.0011031146156050202
-0.0031991658614767787   -0.039408341660192935   -0.0011219290642663848
-0.0034400474350954257   -0.03944809295786205   -0.0011882653426787382
-0.004106439414558114   -0.03782351884476836   -0.0011031146156050202
-0.0035099825155925552   -0.039492632044648396   -0.0012387409373829361
-0.0031991658614767787   -0.039408341660192935   -0.0011219290642663848
-0.004106439414558114   -0.03782351884476836   -0.0011031146156050202
-0.003130843715699189   -0.03785347469379973   -0.0010262607789514367
-0.003176440609443614   -0.037908552481614774   -0.0010236563333688518
-0.0031991658614767787   -0.039408341660192935   -0.0011219290642663848
-0.004106439414558114   -0.03782351884476836   -0.0011031146156050202
-0.003176440609443614   -0.037908552481614774   -0.0010236563333688518
-0.0035099825155925552   -0.039492632044648396   -0.0012387409373829361
-0.0031991658614767787   -0.039408341660192935   -0.0011219290642663848
-0.003130843715699189   -0.03785347469379973   -0.0010262607789514367
-0.0034400474350954257   -0.03944809295786205   -0.0011882653426787382
-0.0031240531498559643   -0.03939194749834592   -0.001117823259393291
-0.003130843715699189   -0.03785347469379973   -0.0010262607789514367
-0.004106439414558114   -0.03782351884476836   -0.0011031146156050202
-0.0034400474350954257   -0.03944809295786205   -0.0011882653426787382
-0.0040556773907574626   -0.037799936889340656   -0.0010568815355525654
-0.0031240531498559643   -0.03939194749834592   -0.001117823259393291
-0.003356243016055164   -0.039434252995321294   -0.0011311561134569096
-0.0040556773907574626   -0.037799936889340656   -0.0010568815355525654
-0.0034400474350954257   -0.03944809295786205   -0.0011882653426787382
-0.0031240531498559643   -0.03939194749834592   -0.001117823259393291
-0.0040556773907574626   -0.037799936889340656   -0.0010568815355525654
-0.0030836698616928584   -0.03782419951922162   -0.0010248056545209732
-0.003130843715699189   -0.03785347469379973   -0.0010262607789514367
-0.0031240531498559643   -0.03939194749834592   -0.001117823259393291
-0.0040556773907574626   -0.037799936889340656   -0.0010568815355525654
-0.003130843715699189   -0.03785347469379973   -0.0010262607789514367
-0.0034400474350954257   -0.03944809295786205   -0.0011882653426787382
-0.0031240531498559643   -0.03939194749834592   -0.001117823259393291
-0.0030836698616928584   -0.03782419951922162   -0.0010248056545209732
-0.003356243016055164   -0.039434252995321294   -0.0011311561134569096
-0.003047715960846236   -0.039404426941442326   -0.0011094434550221431
-0.0030836698616928584   -0.03782419951922162   -0.0010248056545209732
-0.0040556773907574626   -0.037799936889340656   -0.0010568815355525654
-0.003356243016055164   -0.039434252995321294   -0.0011311561134569096
-0.004004746683362934   -0.037799337718743754   -0.0010061667043038732
-0.003047715960846236   -0.039404426941442326   -0.0011094434550221431
-0.0032701098112137787   -0.039446384869547685   -0.0010703762924681537
-0.004004746683362934   -0.037799337718743754   -0.0010061667043038732
-0.003356243016055164   -0.039434252995321294   -0.0011311561134569096
-0.003047715960846236   -0.039404426941442326   -0.0011094434550221431
-0.004004746683362934   -0.037799337718743754   -0.0010061667043038732
-0.0030381928280206927   -0.037819515368681396   -0.0010192613242359736
-0.0030836698616928584   -0.03782419951922162   -0.0010248056545209732
-0.003047715960846236   -0.039404426941442326   -0.0011094434550221431
-0.004004746683362934   -0.037799337718743754   -0.0010061667043038732
-0.0030836698616928584   -0.03782419951922162   -0.0010248056545209732
-0.003356243016055164   -0.039434252995321294   -0.0011311561134569096
-0.0035099825155925552   -0.039492632044648396   -0.0012387409373829361
-0.004151675274521766   -0.03787248015774377   -0.0011453520597925044
-0.0038627230387102557   -0.039448712717380506   -0.0013513136890721648
-0.0034400474350954257   -0.03944809295786205   -0.0011882653426787382
-0.004151675274521766   -0.03787248015774377   -0.0011453520597925044
-0.0052222781712011335   -0.03775551406408533   -0.0012572961516921365
-0.0038627230387102557   -0.039448712717380506   -0.0013513136890721648
-0.005166787616184967   -0.03771264920225775   -0.001171171374216987
-0.0034400474350954257   -0.03944809295786205   -0.0011882653426787382
-0.0037714101627981077   -0.039406487108521994   -0.0012514333785997066
-0.005166787616184967   -0.03771264920225775   -0.001171171374216987
-0.0038627230387102557   -0.039448712717380506   -0.0013513136890721648
-0.0034400474350954257   -0.03944809295786205   -0.0011882653426787382
-0.005166787616184967   -0.03771264920225775   -0.001171171374216987
-0.004106439414558114   -0.03782351884476836   -0.0011031146156050202
-0.004151675274521766   -0.03787248015774377   -0.0011453520597925044
-0.0034400474350954257   -0.03944809295786205   -0.0011882653426787382
-0.005166787616184967   -0.03771264920225775   -0.001171171374216987
-0.004151675274521766   -0.03787248015774377   -0.0011453520597925044
-0.0038627230387102557   -0.039448712717380506   -0.0013513136890721648
-0.0034400474350954257   -0.03944809295786205   -0.0011882653426787382
-0.004106439414558114   -0.03782351884476836   -0.0011031146156050202
-0.0037714101627981077   -0.039406487108521994   -0.0012514333785997066
-0.003356243016055164   -0.039434252995321294   -0.0011311561134569096
-0.004106439414558114   -0.03782351884476836   -0.0011031146156050202
-0.005166787616184967   -0.03771264920225775   -0.001171171374216987
-0.0037714101627981077   -0.039406487108521994   -0.0012514333785997066
-0.005090062611658087   -0.03769473806894226   -0.001081355900553823
-0.003356243016055164   -0.039434252995321294   -0.0011311561134569096
-0.003650733089351164   -0.039397125912242946   -0.001144136536248445
-0.005090062611658087   -0.03769473806894226   -0.001081355900553823
-0.0037714101627981077   -0.039406487108521994   -0.0012514333785997066
-0.003356243016055164   -0.039434252995321294   -0.0011311561134569096
-0.005090062611658087   -0.03769473806894226   -0.001081355900553823
-0.0040556773907574626   -0.037799936889340656   -0.0010568815355525654
-0.004106439414558114   -0.03782351884476836   -0.0011031146156050202
-0.003356243016055164   -0.039434252995321294   -0.0011311561134569096
-0.005090062611658087   -0.03769473806894226   -0.001081355900553823
-0.004106439414558114   -0.03782351884476836   -0.0011031146156050202
-0.0037714101627981077   -0.039406487108521994   -0.0012514333785997066
-0.003356243016055164   -0.039434252995321294   -0.0011311561134569096
-0.0040556773907574626   -0.037799936889340656   -0.0010568815355525654
-0.003650733089351164   -0.039397125912242946   -0.001144136536248445
-0.0032701098112137787   -0.039446384869547685   -0.0010703762924681537
-0.0040556773907574626   -0.037799936889340656   -0.0010568815355525654
-0.005090062611658087   -0.03769473806894226   -0.001081355900553823
-0.003650733089351164   -0.039397125912242946   -0.001144136536248445
-0.005023287552754715   -0.03770179934633988   -0.000985378017339695
-0.0032701098112137787   -0.039446384869547685   -0.0010703762924681537
-0.003537511149228167   -0.03941435656414367   -0.0010327624744172468
-0.005023287552754715   -0.03770179934633988   -0.000985378017339695
-0.003650733089351164   -0.039397125912242946   -0.001144136536248445
-0.0032701098112137787   -0.039446384869547685   -0.0010703762924681537
-0.005023287552754715   -0.03770179934633988   -0.000985378017339695
-0.004004746683362934   -0.037799337718743754   -0.0010061667043038732
-0.0040556773907574626   -0.037799936889340656   -0.0010568815355525654
-0.0032701098112137787   -0.039446384869547685   -0.0010703762924681537
-0.005023287552754715   -0.03770179934633988   -0.000985378017339695
-0.0040556773907574626   -0.037799936889340656   -0.0010568815355525654
-0.003650733089351164   -0.039397125912242946   -0.001144136536248445
-0.0038627230387102557   -0.039448712717380506   -0.0013513136890721648
-0.0052222781712011335   -0.03775551406408533   -0.0012572961516921365
-0.004552716253750901   -0.03925605110667683   -0.0014712861155335584
-0.0037714101627981077   -0.039406487108521994   -0.0012514333785997066
-0.0052222781712011335   -0.03775551406408533   -0.0012572961516921365
-0.0066007824869698355   -0.03756528775732066   -0.0013652289091729203
-0.004552716253750901   -0.03925605110667683   -0.0014712861155335584
-0.006420395549807625   -0.037518609382418   -0.0012292005538392416
-0.0037714101627981077   -0.039406487108521994   -0.0012514333785997066
-0.0043079376983439005   -0.03922015895971446   -0.0013074610378740665
-0.006420395549807625   -0.037518609382418   -0.0012292005538392416
-0.004552716253750901   -0.03925605110667683   -0.0014712861155335584
-0.0037714101627981077   -0.039406487108521994   -0.0012514333785997066
-0.006420395549807625   -0.037518609382418   -0.0012292005538392416
-0.005166787616184967   -0.03771264920225775   -0.001171171374216987
-0.0052222781712011335   -0.03775551406408533   -0.0012572961516921365
-0.0037714101627981077   -0.039406487108521994   -0.0012514333785997066
-0.006420395549807625   -0.037518609382418   -0.0012292005538392416
-0.0052222781712011335   -0.03775551406408533   -0.0012572961516921365
-0.004552716253750901   -0.03925605110667683   -0.0014712861155335584
-0.0037714101627981077   -0.039406487108521994   -0.0012514333785997066
-0.005166787616184967   -0.03771264920225775   -0.001171171374216987
-0.0043079376983439005   -0.03922015895971446   -0.0013074610378740665
-0.003650733089351164   -0.039397125912242946   -0.001144136536248445
-0.005166787616184967   -0.03771264920225775   -0.001171171374216987
-0.006420395549807625   -0.037518609382418   -0.0012292005538392416
-0.0043079376983439005   -0.03922015895971446   -0.0013074610378740665
-0.006259047797288403   -0.03750204222000993   -0.0010854067510862014
-0.003650733089351164   -0.039397125912242946   -0.001144136536248445
-0.004083450431594802   -0.039215435444218905   -0.0011327863206258663
-0.006259047797288403   -0.03750204222000993   -0.0010854067510862014
-0.0043079376983439005   -0.03922015895971446   -0.0013074610378740665
-0.003650733089351164   -0.039397125912242946   -0.001144136536248445
-0.006259047797288403   -0.03750204222000993   -0.0010854067510862014
-0.005090062611658087   -0.03769473806894226   -0.001081355900553823
-0.005166787616184967   -0.03771264920225775   -0.001171171374216987
-0.003650733089351164   -0.039397125912242946   -0.001144136536248445
-0.006259047797288403   -0.03750204222000993   -0.0010854067510862014
-0.005166787616184967   -0.03771264920225775   -0.001171171374216987
-0.0043079376983439005   -0.03922015895971446   -0.0013074610378740665
-0.003650733089351164   -0.039397125912242946   -0.001144136536248445
-0.005090062611658087   -0.03769473806894226   -0.001081355900553823
-0.004083450431594802   -0.039215435444218905   -0.0011327863206258663
-0.003537511149228167   -0.03941435656414367   -0.0010327624744172468
-0.005090062611658087   -0.03769473806894226   -0.001081355900553823
-0.006259047797288403   -0.03750204222000993   -0.0010854067510862014
-0.004083450431594802   -0.039215435444218905   -0.0011327863206258663
-0.00604997713516891   -0.037524245474062294   -0.0009352003207393862
-0.003537511149228167   -0.03941435656414367   -0.0010327624744172468
-0.0037998699568557582   -0.039262458071422444   -0.0009502664200471823
-0.00604997713516891   -0.037524245474062294   -0.0009352003207393862
-0.004083450431594802   -0.039215435444218905   -0.0011327863206258663
-0.003537511149228167   -0.03941435656414367   -0.0010327624744172468
-0.00604997713516891   -0.037524245474062294   -0.0009352003207393862
-0.005023287552754715   -0.03770179934633988   -0.000985378017339695
-0.005090062611658087   -0.03769473806894226   -0.001081355900553823
-0.003537511149228167   -0.03941435656414367   -0.0010327624744172468
-0.00604997713516891   -0.037524245474062294   -0.0009352003207393862
-0.005090062611658087   -0.03769473806894226   -0.001081355900553823
-0.004083450431594802   -0.039215435444218905   -0.0011327863206258663
-0.0012023338000028438   -0.037754192755476854   -0.000734081029527889
0.00016048587685168556   -0.035052984740080444   -0.0006065124274813144
-0.002194727442309903   -0.03786843525501501   -0.0008936801831441863
-0.0010458066110722564   -0.03767594983506126   -0.000846199718012292
0.00016048587685168556   -0.035052984740080444   -0.0006065124274813144
-0.0015208325978366443   -0.035137170928760945   -0.0007633254494525413
-0.002194727442309903   -0.03786843525501501   -0.0008936801831441863
-0.0014918967549370347   -0.03507095838240661   -0.0008026266423641324
-0.0010458066110722564   -0.03767594983506126   -0.000846199718012292
-0.00214040208523664   -0.03780528289351017   -0.0009430310211103908
-0.0014918967549370347   -0.03507095838240661   -0.0008026266423641324
-0.002194727442309903   -0.03786843525501501   -0.0008936801831441863
-0.0010458066110722564   -0.03767594983506126   -0.000846199718012292
-0.0014918967549370347   -0.03507095838240661   -0.0008026266423641324
0.0002703584505528305   -0.034973411311038975   -0.0006961604193685083
0.00016048587685168556   -0.035052984740080444   -0.0006065124274813144
-0.0010458066110722564   -0.03767594983506126   -0.000846199718012292
-0.0014918967549370347   -0.03507095838240661   -0.0008026266423641324
0.00016048587685168556   -0.035052984740080444   -0.0006065124274813144
-0.002194727442309903   -0.03786843525501501   -0.0008936801831441863
-0.0010458066110722564   -0.03767594983506126   -0.000846199718012292
0.0002703584505528305   -0.034973411311038975   -0.0006961604193685083
-0.00214040208523664   -0.03780528289351017   -0.0009430310211103908
-0.0009226257654119189   -0.037639219959193546   -0.0009518280122754235
0.0002703584505528305   -0.034973411311038975   -0.0006961604193685083
-0.0014918967549370347   -0.03507095838240661   -0.0008026266423641324
-0.00214040208523664   -0.03780528289351017   -0.0009430310211103908
-0.0014588476843845665   -0.0350281853129581   -0.0008374211299295849
-0.0009226257654119189   -0.037639219959193546   -0.0009518280122754235
-0.0020791164746568813   -0.03777076064946376   -0.0009880004136501202
-0.0014588476843845665   -0.0350281853129581   -0.0008374211299295849
-0.00214040208523664   -0.03780528289351017   -0.0009430310211103908
-0.0009226257654119189   -0.037639219959193546   -0.0009518280122754235
-0.0014588476843845665   -0.0350281853129581   -0.0008374211299295849
0.0003512420930286558   -0.03492797807251261   -0.0007794999688629147
0.0002703584505528305   -0.034973411311038975   -0.0006961604193685083
-0.0009226257654119189   -0.037639219959193546   -0.0009518280122754235
-0.0014588476843845665   -0.0350281853129581   -0.0008374211299295849
0.0002703584505528305   -0.034973411311038975   -0.0006961604193685083
-0.00214040208523664   -0.03780528289351017   -0.0009430310211103908
-0.0009226257654119189   -0.037639219959193546   -0.0009518280122754235
0.0003512420930286558   -0.03492797807251261   -0.0007794999688629147
-0.0020791164746568813   -0.03777076064946376   -0.0009880004136501202
-0.0007878146220749606   -0.0376333469282315   -0.0010506969499144672
0.0003512420930286558   -0.03492797807251261   -0.0007794999688629147
-0.0014588476843845665   -0.0350281853129581   -0.0008374211299295849
-0.0020791164746568813   -0.03777076064946376   -0.0009880004136501202
-0.0014390769889448213   -0.03500756955346445   -0.0008681545541213131
-0.0007878146220749606   -0.0376333469282315   -0.0010506969499144672
-0.0020321655114920304   -0.03776389816558185   -0.0010287325969301252
-0.0014390769889448213   -0.03500756955346445   -0.0008681545541213131
-0.0020791164746568813   -0.03777076064946376   -0.0009880004136501202
-0.0007878146220749606   -0.0376333469282315   -0.0010506969499144672
-0.0014390769889448213   -0.03500756955346445   -0.0008681545541213131
0.000438101013230229   -0.03490640919663552   -0.0008565046861646772
0.0003512420930286558   -0.03492797807251261   -0.0007794999688629147
-0.0007878146220749606   -0.0376333469282315   -0.0010506969499144672
-0.0014390769889448213   -0.03500756955346445   -0.0008681545541213131
0.0003512420930286558   -0.03492797807251261   -0.0007794999688629147
-0.0020791164746568813   -0.03777076064946376   -0.0009880004136501202
-0.002194727442309903   -0.03786843525501501   -0.0008936801831441863
-0.0015208325978366443   -0.035137170928760945   -0.0007633254494525413
-0.003176440609443614   -0.037908552481614774   -0.0010236563333688518
-0.00214040208523664   -0.03780528289351017   -0.0009430310211103908
-0.0015208325978366443   -0.035137170928760945   -0.0007633254494525413
-0.0031492469924256725   -0.035153321364817885   -0.0008922420254488735
-0.003176440609443614   -0.037908552481614774   -0.0010236563333688518
-0.0031280485908286118   -0.035096552206369765   -0.0008931698539842742
-0.00214040208523664   -0.03780528289351017   -0.0009430310211103908
-0.003130843715699189   -0.03785347469379973   -0.0010262607789514367
-0.0031280485908286118   -0.035096552206369765   -0.0008931698539842742
-0.003176440609443614   -0.037908552481614774   -0.0010236563333688518
-0.00214040208523664   -0.03780528289351017   -0.0009430310211103908
-0.0031280485908286118   -0.035096552206369765   -0.0008931698539842742
-0.0014918967549370347   -0.03507095838240661   -0.0008026266423641324
-0.0015208325978366443   -0.035137170928760945   -0.0007633254494525413
-0.00214040208523664   -0.03780528289351017   -0.0009430310211103908
-0.0031280485908286118   -0.035096552206369765   -0.0008931698539842742
-0.0015208325978366443   -0.035137170928760945   -0.0007633254494525413
-0.003176440609443614   -0.037908552481614774   -0.0010236563333688518
-0.00214040208523664   -0.03780528289351017   -0.0009430310211103908
-0.0014918967549370347   -0.03507095838240661   -0.0008026266423641324
-0.003130843715699189   -0.03785347469379973   -0.0010262607789514367
-0.0020791164746568813   -0.03777076064946376   -0.0009880004136501202
-0.0014918967549370347   -0.03507095838240661   -0.0008026266423641324
-0.0031280485908286118   -0.035096552206369765   -0.0008931698539842742
-0.003130843715699189   -0.03785347469379973   -0.0010262607789514367
-0.0031062372915042578   -0.035060755384415096   -0.0008897758510153618
-0.0020791164746568813   -0.03777076064946376   -0.0009880004136501202
-0.0030836698616928584   -0.03782419951922162   -0.0010248056545209732
-0.0031062372915042578   -0.035060755384415096   -0.0008897758510153618
-0.003130843715699189   -0.03785347469379973   -0.0010262607789514367
-0.0020791164746568813   -0.03777076064946376   -0.0009880004136501202
-0.0031062372915042578   -0.035060755384415096   -0.0008897758510153618
-0.0014588476843845665   -0.0350281853129581   -0.0008374211299295849
-0.0014918967549370347   -0.03507095838240661   -0.0008026266423641324
-0.0020791164746568813   -0.03777076064946376   -0.0009880004136501202
-0.0031062372915042578   -0.035060755384415096   -0.0008897758510153618
-0.0014918967549370347   -0.03507095838240661   -0.0008026266423641324
-0.003130843715699189   -0.03785347469379973   -0.0010262607789514367
-0.0020791164746568813   -0.03777076064946376   -0.0009880004136501202
-0.0014588476843845665   -0.0350281853129581   -0.0008374211299295849
-0.0030836698616928584   -0.03782419951922162   -0.0010248056545209732
-0.0020321655114920304   -0.03776389816558185   -0.0010287325969301252
-0.0014588476843845665   -0.0350281853129581   -0.0008374211299295849
-0.0031062372915042578   -0.035060755384415096   -0.0008897758510153618
-0.0030836698616928584   -0.03782419951922162   -0.0010248056545209732
-0.00308716516621519   -0.035045596246115834   -0.0008823539510284685
-0.0020321655114920304   -0.03776389816558185   -0.0010287325969301252
-0.0030381928280206927   -0.037819515368681396   -0.0010192613242359736
-0.00308716516621519   -0.035045596246115834   -0.0008823539510284685
-0.0030836698616928584   -0.03782419951922162   -0.0010248056545209732
-0.0020321655114920304   -0.03776389816558185   -0.0010287325969301252
-0.00308716516621519   -0.035045596246115834   -0.0008823539510284685
-0.0014390769889448213   -0.03500756955346445   -0.0008681545541213131
-0.0014588476843845665   -0.0350281853129581   -0.0008374211299295849
-0.0020321655114920304   -0.03776389816558185   -0.0010287325969301252
-0.00308716516621519   -0.035045596246115834   -0.0008823539510284685
-0.0014588476843845665   -0.0350281853129581   -0.0008374211299295849
-0.0030836698616928584   -0.03782419951922162   -0.0010248056545209732
-0.003176440609443614   -0.037908552481614774   -0.0010236563333688518
-0.0031492469924256725   -0.035153321364817885   -0.0008922420254488735
-0.004151675274521766   -0.03787248015774377   -0.0011453520597925044
-0.003130843715699189   -0.03785347469379973   -0.0010262607789514367
-0.0031492469924256725   -0.035153321364817885   -0.0008922420254488735
-0.004752469367534496   -0.03510127380263553   -0.0010085814151198538
-0.004151675274521766   -0.03787248015774377   -0.0011453520597925044
-0.004732740990281895   -0.03505231797872564   -0.0009720561261832144
-0.003130843715699189   -0.03785347469379973   -0.0010262607789514367
-0.004106439414558114   -0.03782351884476836   -0.0011031146156050202
-0.004732740990281895   -0.03505231797872564   -0.0009720561261832144
-0.004151675274521766   -0.03787248015774377   -0.0011453520597925044
-0.003130843715699189   -0.03785347469379973   -0.0010262607789514367
-0.004732740990281895   -0.03505231797872564   -0.0009720561261832144
-0.0031280485908286118   -0.035096552206369765   -0.0008931698539842742
-0.0031492469924256725   -0.035153321364817885   -0.0008922420254488735
-0.003130843715699189   -0.03785347469379973   -0.0010262607789514367
-0.004732740990281895   -0.03505231797872564   -0.0009720561261832144
-0.0031492469924256725   -0.035153321364817885   -0.0008922420254488735
-0.004151675274521766   -0.03787248015774377   -0.0011453520597925044
-0.003130843715699189   -0.03785347469379973   -0.0010262607789514367
-0.0031280485908286118   -0.035096552206369765   -0.0008931698539842742
-0.004106439414558114   -0.03782351884476836   -0.0011031146156050202
-0.0030836698616928584   -0.03782419951922162   -0.0010248056545209732
-0.0031280485908286118   -0.035096552206369765   -0.0008931698539842742
-0.004732740990281895   -0.03505231797872564   -0.0009720561261832144
-0.004106439414558114   -0.03782351884476836   -0.0011031146156050202
-0.0047088943964689566   -0.03502410587435141   -0.0009313062043273593
-0.0030836698616928584   -0.03782419951922162   -0.0010248056545209732
-0.0040556773907574626   -0.037799936889340656   -0.0010568815355525654
-0.0047088943964689566   -0.03502410587435141   -0.0009313062043273593
-0.004106439414558114   -0.03782351884476836   -0.0011031146156050202
-0.0030836698616928584   -0.03782419951922162   -0.0010248056545209732
-0.0047088943964689566   -0.03502410587435141   -0.0009313062043273593
-0.0031062372915042578   -0.035060755384415096   -0.0008897758510153618
-0.0031280485908286118   -0.035096552206369765   -0.0008931698539842742
-0.0030836698616928584   -0.03782419951922162   -0.0010248056545209732
-0.0047088943964689566   -0.03502410587435141   -0.0009313062043273593
-0.0031280485908286118   -0.035096552206369765   -0.0008931698539842742
-0.004106439414558114   -0.03782351884476836   -0.0011031146156050202
-0.0030836698616928584   -0.03782419951922162   -0.0010248056545209732
-0.0031062372915042578   -0.035060755384415096   -0.0008897758510153618
-0.0040556773907574626   -0.037799936889340656   -0.0010568815355525654
-0.0030381928280206927   -0.037819515368681396   -0.0010192613242359736
-0.0031062372915042578   -0.035060755384415096   -0.0008897758510153618
-0.0047088943964689566   -0.03502410587435141   -0.0009313062043273593
-0.0040556773907574626   -0.037799936889340656   -0.0010568815355525654
-0.004685726857208146   -0.03501569522789134   -0.000886460910324086
-0.0030381928280206927   -0.037819515368681396   -0.0010192613242359736
-0.004004746683362934   -0.037799337718743754   -0.0010061667043038732
-0.004685726857208146   -0.03501569522789134   -0.000886460910324086
-0.0040556773907574626   -0.037799936889340656   -0.0010568815355525654
-0.0030381928280206927   -0.037819515368681396   -0.0010192613242359736
-0.004685726857208146   -0.03501569522789134   -0.000886460910324086
-0.00308716516621519   -0.035045596246115834   -0.0008823539510284685
-0.0031062372915042578   -0.035060755384415096   -0.0008897758510153618
-0.0030381928280206927   -0.037819515368681396   -0.0010192613242359736
-0.004685726857208146   -0.03501569522789134   -0.000886460910324086
-0.0031062372915042578   -0.035060755384415096   -0.0008897758510153618
-0.0040556773907574626   -0.037799936889340656   -0.0010568815355525654
-0.004151675274521766   -0.03787248015774377   -0.0011453520597925044
-0.004752469367534496   -0.03510127380263553   -0.0010085814151198538
-0.0052222781712011335   -0.03775551406408533   -0.0012572961516921365
-0.004106439414558114   -0.03782351884476836   -0.0011031146156050202
-0.004752469367534496   -0.03510127380263553   -0.0010085814151198538
-0.006432042505446544   -0.034982816600654214   -0.0011119699300225032
-0.0052222781712011335   -0.03775551406408533   -0.0012572961516921365
-0.006406154692249569   -0.03494128217661911   -0.001037925488560802
-0.004106439414558114   -0.03782351884476836   -0.0011031146156050202
-0.005166787616184967   -0.03771264920225775   -0.001171171374216987
-0.006406154692249569   -0.03494128217661911   -0.001037925488560802
-0.0052222781712011335   -0.03775551406408533   -0.0012572961516921365
-0.004106439414558114   -0.03782351884476836   -0.0011031146156050202
-0.006406154692249569   -0.03494128217661911   -0.001037925488560802
-0.004732740990281895   -0.03505231797872564   -0.0009720561261832144
-0.004752469367534496   -0.03510127380263553   -0.0010085814151198538
-0.004106439414558114   -0.03782351884476836   -0.0011031146156050202
-0.006406154692249569   -0.03494128217661911   -0.001037925488560802
-0.004752469367534496   -0.03510127380263553   -0.0010085814151198538
-0.0052222781712011335   -0.03775551406408533   -0.0012572961516921365
-0.004106439414558114   -0.03782351884476836   -0.0011031146156050202
-0.004732740990281895   -0.03505231797872564   -0.0009720561261832144
-0.005166787616184967   -0.03771264920225775   -0.001171171374216987
-0.0040556773907574626   -0.037799936889340656   -0.0010568815355525654
-0.004732740990281895   -0.03505231797872564   -0.0009720561261832144
-0.006406154692249569   -0.03494128217661911   -0.001037925488560802
-0.005166787616184967   -0.03771264920225775   -0.001171171374216987
-0.006362202031186055   -0.03491994595600303   -0.0009603110930173691
-0.0040556773907574626   -0.037799936889340656   -0.0010568815355525654
-0.005090062611658087   -0.03769473806894226   -0.001081355900553823
-0.006362202031186055   -0.03491994595600303   -0.0009603110930173691
-0.005166787616184967   -0.03771264920225775   -0.001171171374216987
-0.0040556773907574626   -0.037799936889340656   -0.0010568815355525654
-0.006362202031186055   -0.03491994595600303   -0.0009603110930173691
-0.0047088943964689566   -0.03502410587435141   -0.0009313062043273593
-0.004732740990281895   -0.03505231797872564   -0.0009720561261832144
-0.0040556773907574626   -0.037799936889340656   -0.0010568815355525654
-0.006362202031186055   -0.03491994595600303   -0.0009603110930173691
-0.004732740990281895   -0.03505231797872564   -0.0009720561261832144
-0.005166787616184967   -0.03771264920225775   -0.001171171374216987
-0.0040556773907574626   -0.037799936889340656   -0.0010568815355525654
-0.0047088943964689566   -0.03502410587435141   -0.0009313062043273593
-0.005090062611658087   -0.03769473806894226   -0.001081355900553823
-0.004004746683362934   -0.037799337718743754   -0.0010061667043038732
-0.0047088943964689566   -0.03502410587435141   -0.0009313062043273593
-0.006362202031186055   -0.03491994595600303   -0.0009603110930173691
-0.005090062611658087   -0.03769473806894226   -0.001081355900553823
-0.006326638426321729   -0.03491996338618298   -0.000878002080732511
-0.004004746683362934   -0.037799337718743754   -0.0010061667043038732
-0.005023287552754715   -0.03770179934633988   -0.000985378017339695
-0.006326638426321729   -0.03491996338618298   -0.000878002080732511
-0.005090062611658087   -0.03769473806894226   -0.001081355900553823
-0.004004746683362934   -0.037799337718743754   -0.0010061667043038732
-0.006326638426321729   -0.03491996338618298   -0.000878002080732511
-0.004685726857208146   -0.03501569522789134   -0.000886460910324086
-0.0047088943964689566   -0.03502410587435141   -0.0009313062043273593
-0.004004746683362934   -0.037799337718743754   -0.0010061667043038732
-0.006326638426321729   -0.03491996338618298   -0.000878002080732511
-0.0047088943964689566   -0.03502410587435141   -0.0009313062043273593
-0.005090062611658087   -0.03769473806894226   -0.001081355900553823
-0.0052222781712011335   -0.03775551406408533   -0.0012572961516921365
-0.006432042505446544   -0.034982816600654214   -0.0011119699300225032
-0.0066007824869698355   -0.03756528775732066   -0.0013652289091729203
-0.005166787616184967   -0.03771264920225775   -0.001171171374216987
-0.006432042505446544   -0.034982816600654214   -0.0011119699300225032
-0.008390536890493275   -0.03481187846100414   -0.0012087066050862573
-0.0066007824869698355   -0.03756528775732066   -0.0013652289091729203
-0.008256783437473261   -0.034768406197909885   -0.0010927293280463435
-0.005166787616184967   -0.03771264920225775   -0.001171171374216987
-0.006420395549807625   -0.037518609382418   -0.0012292005538392416
-0.008256783437473261   -0.034768406197909885   -0.0010927293280463435
-0.0066007824869698355   -0.03756528775732066   -0.0013652289091729203
-0.005166787616184967   -0.03771264920225775   -0.001171171374216987
-0.008256783437473261   -0.034768406197909885   -0.0010927293280463435
-0.006406154692249569   -0.03494128217661911   -0.001037925488560802
-0.006432042505446544   -0.034982816600654214   -0.0011119699300225032
-0.005166787616184967   -0.03771264920225775   -0.001171171374216987
-0.008256783437473261   -0.034768406197909885   -0.0010927293280463435
-0.006432042505446544   -0.034982816600654214   -0.0011119699300225032
-0.0066007824869698355   -0.03756528775732066   -0.0013652289091729203
-0.005166787616184967   -0.03771264920225775   -0.001171171374216987
-0.006406154692249569   -0.03494128217661911   -0.001037925488560802
-0.006420395549807625   -0.037518609382418   -0.0012292005538392416
-0.005090062611658087   -0.03769473806894226   -0.001081355900553823
-0.006406154692249569   -0.03494128217661911   -0.001037925488560802
-0.008256783437473261   -0.034768406197909885   -0.0010927293280463435
-0.006420395549807625   -0.037518609382418   -0.0012292005538392416
-0.008140916027322814   -0.03474893770801195   -0.0009708497785701623
-0.005090062611658087   -0.03769473806894226   -0.001081355900553823
-0.006259047797288403   -0.03750204222000993   -0.0010854067510862014
-0.008140916027322814   -0.03474893770801195   -0.0009708497785701623
-0.006420395549807625   -0.037518609382418   -0.0012292005538392416
-0.005090062611658087   -0.03769473806894226   -0.001081355900553823
-0.008140916027322814   -0.03474893770801195   -0.0009708497785701623
-0.006362202031186055   -0.03491994595600303   -0.0009603110930173691
-0.006406154692249569   -0.03494128217661911   -0.001037925488560802
-0.005090062611658087   -0.03769473806894226   -0.001081355900553823
-0.008140916027322814   -0.03474893770801195   -0.0009708497785701623
-0.006406154692249569   -0.03494128217661911   -0.001037925488560802
-0.006420395549807625   -0.037518609382418   -0.0012292005538392416
-0.005090062611658087   -0.03769473806894226   -0.001081355900553823
-0.006362202031186055   -0.03491994595600303   -0.0009603110930173691
-0.006259047797288403   -0.03750204222000993   -0.0010854067510862014
-0.005023287552754715   -0.03770179934633988   -0.000985378017339695
-0.006362202031186055   -0.03491994595600303   -0.0009603110930173691
-0.008140916027322814   -0.03474893770801195   -0.0009708497785701623
-0.006259047797288403   -0.03750204222000993   -0.0010854067510862014
-0.007984905725592576   -0.034762052352669194   -0.0008438415422067941
-0.005023287552754715   -0.03770179934633988   -0.000985378017339695
-0.00604997713516891   -0.037524245474062294   -0.0009352003207393862
-0.007984905725592576   -0.034762052352669194   -0.0008438415422067941
-0.006259047797288403   -0.03750204222000993   -0.0010854067510862014
-0.005023287552754715   -0.03770179934633988   -0.000985378017339695
-0.007984905725592576   -0.034762052352669194   -0.0008438415422067941
-0.006326638426321729   -0.03491996338618298   -0.000878002080732511
-0.006362202031186055   -0.03491994595600303   -0.0009603110930173691
-0.005023287552754715   -0.03770179934633988   -0.000985378017339695
-0.007984905725592576   -0.034762052352669194   -0.0008438415422067941
-0.006362202031186055   -0.03491994595600303   -0.0009603110930173691
-0.006259047797288403   -0.03750204222000993   -0.0010854067510862014
0.00016048587685168556   -0.035052984740080444   -0.0006065124274813144
0.0012001014260112665   -0.03137281926567261   -0.0004619353380810612
-0.0015208325978366443   -0.035137170928760945   -0.0007633254494525413
0.0002703584505528305   -0.034973411311038975   -0.0006961604193685083
0.0012001014260112665   -0.03137281926567261   -0.0004619353380810612
-0.001031858363241296   -0.03142882889154036   -0.0006116713869421917
-0.0015208325978366443   -0.035137170928760945   -0.0007633254494525413
-0.0010256412865383697   -0.03136296486283619   -0.0006390800745002677
0.0002703584505528305   -0.034973411311038975   -0.0006961604193685083
-0.0014918967549370347   -0.03507095838240661   -0.0008026266423641324
-0.0010256412865383697   -0.03136296486283619   -0.0006390800745002677
-0.0015208325978366443   -0.035137170928760945   -0.0007633254494525413
0.0002703584505528305   -0.034973411311038975   -0.0006961604193685083
-0.0010256412865383697   -0.03136296486283619   -0.0006390800745002677
0.001265983285929948   -0.031295120226332324   -0.0005285989361534218
0.0012001014260112665   -0.03137281926567261   -0.0004619353380810612
0.0002703584505528305   -0.034973411311038975   -0.0006961604193685083
-0.0010256412865383697   -0.03136296486283619   -0.0006390800745002677
0.0012001014260112665   -0.03137281926567261   -0.0004619353380810612
-0.0015208325978366443   -0.035137170928760945   -0.0007633254494525413
0.0002703584505528305   -0.034973411311038975   -0.0006961604193685083
0.001265983285929948   -0.031295120226332324   -0.0005285989361534218
-0.0014918967549370347   -0.03507095838240661   -0.0008026266423641324
0.0003512420930286558   -0.03492797807251261   -0.0007794999688629147
0.001265983285929948   -0.031295120226332324   -0.0005285989361534218
-0.0010256412865383697   -0.03136296486283619   -0.0006390800745002677
-0.0014918967549370347   -0.03507095838240661   -0.0008026266423641324
-0.0010177016341323165   -0.03131567122796646   -0.0006623528596030299
0.0003512420930286558   -0.03492797807251261   -0.0007794999688629147
-0.0014588476843845665   -0.0350281853129581   -0.0008374211299295849
-0.0010177016341323165   -0.03131567122796646   -0.0006623528596030299
-0.0014918967549370347   -0.03507095838240661   -0.0008026266423641324
0.0003512420930286558   -0.03492797807251261   -0.0007794999688629147
-0.0010177016341323165   -0.03131567122796646   -0.0006623528596030299
0.0013082712695985572   -0.03124468510561422   -0.0005894138350229216
0.001265983285929948   -0.031295120226332324   -0.0005285989361534218
0.0003512420930286558   -0.03492797807251261   -0.0007794999688629147
-0.0010177016341323165   -0.03131567122796646   -0.0006623528596030299
0.001265983285929948   -0.031295120226332324   -0.0005285989361534218
-0.0014918967549370347   -0.03507095838240661   -0.0008026266423641324
0.0003512420930286558   -0.03492797807251261   -0.0007794999688629147
0.0013082712695985572   -0.03124468510561422   -0.0005894138350229216
-0.0014588476843845665   -0.0350281853129581   -0.0008374211299295849
0.000438101013230229   -0.03490640919663552   -0.0008565046861646772
0.0013082712695985572   -0.03124468510561422   -0.0005894138350229216
-0.0010177016341323165   -0.03131567122796646   -0.0006623528596030299
-0.0014588476843845665   -0.0350281853129581   -0.0008374211299295849
-0.0010211349634718211   -0.0312854091681691   -0.0006817907557436587
0.000438101013230229   -0.03490640919663552   -0.0008565046861646772
-0.0014390769889448213   -0.03500756955346445   -0.0008681545541213131
-0.0010211349634718211   -0.0312854091681691   -0.0006817907557436587
-0.0014588476843845665   -0.0350281853129581   -0.0008374211299295849
0.000438101013230229   -0.03490640919663552   -0.0008565046861646772
-0.0010211349634718211   -0.0312854091681691   -0.0006817907557436587
0.0013519454125013528   -0.031211580973041535   -0.0006445063916945743
0.0013082712695985572   -0.03124468510561422   -0.0005894138350229216
0.000438101013230229   -0.03490640919663552   -0.0008565046861646772
-0.0010211349634718211   -0.0312854091681691   -0.0006817907557436587
0.0013082712695985572   -0.03124468510561422   -0.0005894138350229216
-0.0014588476843845665   -0.0350281853129581   -0.0008374211299295849
-0.0015208325978366443   -0.035137170928760945   -0.0007633254494525413
-0.001031858363241296   -0.03142882889154036   -0.0006116713869421917
-0.0031492469924256725   -0.035153321364817885   -0.0008922420254488735
-0.0014918967549370347   -0.03507095838240661   -0.0008026266423641324
-0.001031858363241296   -0.03142882889154036   -0.0006116713869421917
-0.0031812090401118166   -0.03142931192073546   -0.0007347942081885335
-0.0031492469924256725   -0.035153321364817885   -0.0008922420254488735
-0.003181388143549   -0.03137370688625519   -0.0007321968401485923
-0.0014918967549370347   -0.03507095838240661   -0.0008026266423641324
-0.0031280485908286118   -0.035096552206369765   -0.0008931698539842742
-0.003181388143549   -0.03137370688625519   -0.0007321968401485923
-0.0031492469924256725   -0.035153321364817885   -0.0008922420254488735
-0.0014918967549370347   -0.03507095838240661   -0.0008026266423641324
-0.003181388143549   -0.03137370688625519   -0.0007321968401485923
-0.0010256412865383697   -0.03136296486283619   -0.0006390800745002677
-0.001031858363241296   -0.03142882889154036   -0.0006116713869421917
-0.0014918967549370347   -0.03507095838240661   -0.0008026266423641324
-0.003181388143549   -0.03137370688625519   -0.0007321968401485923
-0.001031858363241296   -0.03142882889154036   -0.0006116713869421917
-0.0031492469924256725   -0.035153321364817885   -0.0008922420254488735
-0.0014918967549370347   -0.03507095838240661   -0.0008026266423641324
-0.0010256412865383697   -0.03136296486283619   -0.0006390800745002677
-0.0031280485908286118   -0.035096552206369765   -0.0008931698539842742
-0.0014588476843845665   -0.0350281853129581   -0.0008374211299295849
-0.0010256412865383697   -0.03136296486283619   -0.0006390800745002677
-0.003181388143549   -0.03137370688625519   -0.0007321968401485923
-0.0031280485908286118   -0.035096552206369765   -0.0008931698539842742
-0.0031814168235830996   -0.031334466236846936   -0.0007254753391545636
-0.0014588476843845665   -0.0350281853129581   -0.0008374211299295849
-0.0031062372915042578   -0.035060755384415096   -0.0008897758510153618
-0.0031814168235830996   -0.031334466236846936   -0.0007254753391545636
-0.0031280485908286118   -0.035096552206369765   -0.0008931698539842742
-0.0014588476843845665   -0.0350281853129581   -0.0008374211299295849
-0.0031814168235830996   -0.031334466236846936   -0.0007254753391545636
-0.0010177016341323165   -0.03131567122796646   -0.0006623528596030299
-0.0010256412865383697   -0.03136296486283619   -0.0006390800745002677
-0.0014588476843845665   -0.0350281853129581   -0.0008374211299295849
-0.0031814168235830996   -0.031334466236846936   -0.0007254753391545636
-0.0010256412865383697   -0.03136296486283619   -0.0006390800745002677
-0.0031280485908286118   -0.035096552206369765   -0.0008931698539842742
-0.0014588476843845665   -0.0350281853129581   -0.0008374211299295849
-0.0010177016341323165   -0.03131567122796646   -0.0006623528596030299
-0.0031062372915042578   -0.035060755384415096   -0.0008897758510153618
-0.0014390769889448213   -0.03500756955346445   -0.0008681545541213131
-0.0010177016341323165   -0.03131567122796646   -0.0006623528596030299
-0.0031814168235830996   -0.031334466236846936   -0.0007254753391545636
-0.0031062372915042578   -0.035060755384415096   -0.0008897758510153618
-0.003184307843062508   -0.031311620719266436   -0.0007148493089970061
-0.0014390769889448213   -0.03500756955346445   -0.0008681545541213131
-0.00308716516621519   -0.035045596246115834   -0.0008823539510284685
-0.003184307843062508   -0.031311620719266436   -0.0007148493089970061
-0.0031062372915042578   -0.035060755384415096   -0.0008897758510153618
-0.0014390769889448213   -0.03500756955346445   -0.0008681545541213131
-0.003184307843062508   -0.031311620719266436   -0.0007148493089970061
-0.0010211349634718211   -0.0312854091681691   -0.0006817907557436587
-0.0010177016341323165   -0.03131567122796646   -0.0006623528596030299
-0.0014390769889448213   -0.03500756955346445   -0.0008681545541213131
-0.003184307843062508   -0.031311620719266436   -0.0007148493089970061
-0.0010177016341323165   -0.03131567122796646   -0.0006623528596030299
-0.0031062372915042578   -0.035060755384415096   -0.0008897758510153618
-0.0031492469924256725   -0.035153321364817885   -0.0008922420254488735
-0.0031812090401118166   -0.03142931192073546   -0.0007347942081885335
-0.004752469367534496   -0.03510127380263553   -0.0010085814151198538
-0.0031280485908286118   -0.035096552206369765   -0.0008931698539842742
-0.0031812090401118166   -0.03142931192073546   -0.0007347942081885335
-0.005294430684189219   -0.031375663941266466   -0.0008425303920531838
-0.004752469367534496   -0.03510127380263553   -0.0010085814151198538
-0.005296213757874024   -0.03132903564991767   -0.0008102939130205064
-0.0031280485908286118   -0.035096552206369765   -0.0008931698539842742
-0.004732740990281895   -0.03505231797872564   -0.0009720561261832144
-0.005296213757874024   -0.03132903564991767   -0.0008102939130205064
-0.004752469367534496   -0.03510127380263553   -0.0010085814151198538
-0.0031280485908286118   -0.035096552206369765   -0.0008931698539842742
-0.005296213757874024   -0.03132903564991767   -0.0008102939130205064
-0.003181388143549   -0.03137370688625519   -0.0007321968401485923
-0.0031812090401118166   -0.03142931192073546   -0.0007347942081885335
-0.0031280485908286118   -0.035096552206369765   -0.0008931698539842742
-0.005296213757874024   -0.03132903564991767   -0.0008102939130205064
-0.0031812090401118166   -0.03142931192073546   -0.0007347942081885335
-0.004752469367534496   -0.03510127380263553   -0.0010085814151198538
-0.0031280485908286118   -0.035096552206369765   -0.0008931698539842742
-0.003181388143549   -0.03137370688625519   -0.0007321968401485923
-0.004732740990281895   -0.03505231797872564   -0.0009720561261832144
-0.0031062372915042578   -0.035060755384415096   -0.0008897758510153618
-0.003181388143549   -0.03137370688625519   -0.0007321968401485923
-0.005296213757874024   -0.03132903564991767   -0.0008102939130205064
-0.004732740990281895   -0.03505231797872564   -0.0009720561261832144
-0.005294405536947285   -0.03129862751277565   -0.0007740163289336145
-0.0031062372915042578   -0.035060755384415096   -0.0008897758510153618
-0.0047088943964689566   -0.03502410587435141   -0.0009313062043273593
-0.005294405536947285   -0.03129862751277565   -0.0007740163289336145
-0.004732740990281895   -0.03505231797872564   -0.0009720561261832144
-0.0031062372915042578   -0.035060755384415096   -0.0008897758510153618
-0.005294405536947285   -0.03129862751277565   -0.0007740163289336145
-0.0031814168235830996   -0.031334466236846936   -0.0007254753391545636
-0.003181388143549   -0.03137370688625519   -0.0007321968401485923
-0.0031062372915042578   -0.035060755384415096   -0.0008897758510153618
-0.005294405536947285   -0.03129862751277565   -0.0007740163289336145
-0.003181388143549   -0.03137370688625519   -0.0007321968401485923
-0.004732740990281895   -0.03505231797872564   -0.0009720561261832144
-0.0031062372915042578   -0.035060755384415096   -0.0008897758510153618
-0.0031814168235830996   -0.031334466236846936   -0.0007254753391545636
-0.0047088943964689566   -0.03502410587435141   -0.0009313062043273593
-0.00308716516621519   -0.035045596246115834   -0.0008823539510284685
-0.0031814168235830996   -0.031334466236846936   -0.0007254753391545636
-0.005294405536947285   -0.03129862751277565   -0.0007740163289336145
-0.0047088943964689566   -0.03502410587435141   -0.0009313062043273593
-0.005293258219329137   -0.03128416040310088   -0.0007338140162681147
-0.00308716516621519   -0.035045596246115834   -0.0008823539510284685
-0.004685726857208146   -0.03501569522789134   -0.000886460910324086
-0.005293258219329137   -0.03128416040310088   -0.0007338140162681147
-0.0047088943964689566   -0.03502410587435141   -0.0009313062043273593
-0.00308716516621519   -0.035045596246115834   -0.0008823539510284685
-0.005293258219329137   -0.03128416040310088   -0.0007338140162681147
-0.003184307843062508   -0.031311620719266436   -0.0007148493089970061
-0.0031814168235830996   -0.031334466236846936   -0.0007254753391545636
-0.00308716516621519   -0.035045596246115834   -0.0008823539510284685
-0.005293258219329137   -0.03128416040310088   -0.0007338140162681147
-0.0031814168235830996   -0.031334466236846936   -0.0007254753391545636
-0.0047088943964689566   -0.03502410587435141   -0.0009313062043273593
-0.004752469367534496   -0.03510127380263553   -0.0010085814151198538
-0.005294430684189219   -0.031375663941266466   -0.0008425303920531838
-0.006432042505446544   -0.034982816600654214   -0.0011119699300225032
-0.004732740990281895   -0.03505231797872564   -0.0009720561261832144
-0.005294430684189219   -0.031375663941266466   -0.0008425303920531838
-0.007473272589971534   -0.0312698704533162   -0.0009351371218068137
-0.006432042505446544   -0.034982816600654214   -0.0011119699300225032
-0.007470547514741756   -0.031231806672620415   -0.0008729020615918386
-0.004732740990281895   -0.03505231797872564   -0.0009720561261832144
-0.006406154692249569   -0.03494128217661911   -0.001037925488560802
-0.007470547514741756   -0.031231806672620415   -0.0008729020615918386
-0.006432042505446544   -0.034982816600654214   -0.0011119699300225032
-0.004732740990281895   -0.03505231797872564   -0.0009720561261832144
-0.007470547514741756   -0.031231806672620415   -0.0008729020615918386
-0.005296213757874024   -0.03132903564991767   -0.0008102939130205064
-0.005294430684189219   -0.031375663941266466   -0.0008425303920531838
-0.004732740990281895   -0.03505231797872564   -0.0009720561261832144
-0.007470547514741756   -0.031231806672620415   -0.0008729020615918386
-0.005294430684189219   -0.031375663941266466   -0.0008425303920531838
-0.006432042505446544   -0.034982816600654214   -0.0011119699300225032
-0.004732740990281895   -0.03505231797872564   -0.0009720561261832144
-0.005296213757874024   -0.03132903564991767   -0.0008102939130205064
-0.006406154692249569   -0.03494128217661911   -0.001037925488560802
-0.0047088943964689566   -0.03502410587435141   -0.0009313062043273593
-0.005296213757874024   -0.03132903564991767   -0.0008102939130205064
-0.007470547514741756   -0.031231806672620415   -0.0008729020615918386
-0.006406154692249569   -0.03494128217661911   -0.001037925488560802
-0.007452067945191067   -0.03120940884652041   -0.0008072370402131459
-0.0047088943964689566   -0.03502410587435141   -0.0009313062043273593
-0.006362202031186055   -0.03491994595600303   -0.0009603110930173691
-0.007452067945191067   -0.03120940884652041   -0.0008072370402131459
-0.006406154692249569   -0.03494128217661911   -0.001037925488560802
-0.0047088943964689566   -0.03502410587435141   -0.0009313062043273593
-0.007452067945191067   -0.03120940884652041   -0.0008072370402131459
-0.005294405536947285   -0.03129862751277565   -0.0007740163289336145
-0.005296213757874024   -0.03132903564991767   -0.0008102939130205064
-0.0047088943964689566   -0.03502410587435141   -0.0009313062043273593
-0.007452067945191067   -0.03120940884652041   -0.0008072370402131459
-0.005296213757874024   -0.03132903564991767   -0.0008102939130205064
-0.006406154692249569   -0.03494128217661911   -0.001037925488560802
-0.0047088943964689566   -0.03502410587435141   -0.0009313062043273593
-0.005294405536947285   -0.03129862751277565   -0.0007740163289336145
-0.006362202031186055   -0.03491994595600303   -0.0009603110930173691
-0.004685726857208146   -0.03501569522789134   -0.000886460910324086
-0.005294405536947285   -0.03129862751277565   -0.0007740163289336145
-0.007452067945191067   -0.03120940884652041   -0.0008072370402131459
-0.006362202031186055   -0.03491994595600303   -0.0009603110930173691
-0.007439765631770956   -0.031204297654724083   -0.0007373287269684798
-0.004685726857208146   -0.03501569522789134   -0.000886460910324086
-0.006326638426321729   -0.03491996338618298   -0.000878002080732511
-0.007439765631770956   -0.031204297654724083   -0.0007373287269684798
-0.006362202031186055   -0.03491994595600303   -0.0009603110930173691
-0.004685726857208146   -0.03501569522789134   -0.000886460910324086
-0.007439765631770956   -0.031204297654724083   -0.0007373287269684798
-0.005293258219329137   -0.03128416040310088   -0.0007338140162681147
-0.005294405536947285   -0.03129862751277565   -0.0007740163289336145
-0.004685726857208146   -0.03501569522789134   -0.000886460910324086
-0.007439765631770956   -0.031204297654724083   -0.0007373287269684798
-0.005294405536947285   -0.03129862751277565   -0.0007740163289336145
-0.006362202031186055   -0.03491994595600303   -0.0009603110930173691
-0.006432042505446544   -0.034982816600654214   -0.0011119699300225032
-0.007473272589971534   -0.0312698704533162   -0.0009351371218068137
-0.008390536890493275   -0.03481187846100414   -0.0012087066050862573
-0.006406154692249569   -0.03494128217661911   -0.001037925488560802
-0.007473272589971534   -0.0312698704533162   -0.0009351371218068137
-0.009907099373977251   -0.031123673200558907   -0.001018831946807838
-0.008390536890493275   -0.03481187846100414   -0.0012087066050862573
-0.009815033660593398   -0.031086223875738256   -0.0009235124926572664
-0.006406154692249569   -0.03494128217661911   -0.001037925488560802
-0.008256783437473261   -0.034768406197909885   -0.0010927293280463435
-0.009815033660593398   -0.031086223875738256   -0.0009235124926572664
-0.008390536890493275   -0.03481187846100414   -0.0012087066050862573
-0.006406154692249569   -0.03494128217661911   -0.001037925488560802
-0.009815033660593398   -0.031086223875738256   -0.0009235124926572664
-0.007470547514741756   -0.031231806672620415   -0.0008729020615918386
-0.007473272589971534   -0.0312698704533162   -0.0009351371218068137
-0.006406154692249569   -0.03494128217661911   -0.001037925488560802
-0.009815033660593398   -0.031086223875738256   -0.0009235124926572664
-0.007473272589971534   -0.0312698704533162   -0.0009351371218068137
-0.008390536890493275   -0.03481187846100414   -0.0012087066050862573
-0.006406154692249569   -0.03494128217661911   -0.001037925488560802
-0.007470547514741756   -0.031231806672620415   -0.0008729020615918386
-0.008256783437473261   -0.034768406197909885   -0.0010927293280463435
-0.006362202031186055   -0.03491994595600303   -0.0009603110930173691
-0.007470547514741756   -0.031231806672620415   -0.0008729020615918386
-0.009815033660593398   -0.031086223875738256   -0.0009235124926572664
-0.008256783437473261   -0.034768406197909885   -0.0010927293280463435
-0.009736435604018163   -0.03106675400012659   -0.0008224149628531463
-0.006362202031186055   -0.03491994595600303   -0.0009603110930173691
-0.008140916027322814   -0.03474893770801195   -0.0009708497785701623
-0.009736435604018163   -0.03106675400012659   -0.0008224149628531463
-0.008256783437473261   -0.034768406197909885   -0.0010927293280463435
-0.006362202031186055   -0.03491994595600303   -0.0009603110930173691
-0.009736435604018163   -0.03106675400012659   -0.0008224149628531463
-0.007452067945191067   -0.03120940884652041   -0.0008072370402131459
-0.007470547514741756   -0.031231806672620415   -0.0008729020615918386
-0.006362202031186055   -0.03491994595600303   -0.0009603110930173691
-0.009736435604018163   -0.03106675400012659   -0.0008224149628531463
-0.007470547514741756   -0.031231806672620415   -0.0008729020615918386
-0.008256783437473261   -0.034768406197909885   -0.0010927293280463435
-0.006362202031186055   -0.03491994595600303   -0.0009603110930173691
-0.007452067945191067   -0.03120940884652041   -0.0008072370402131459
-0.008140916027322814   -0.03474893770801195   -0.0009708497785701623
-0.006326638426321729   -0.03491996338618298   -0.000878002080732511
-0.007452067945191067   -0.03120940884652041   -0.0008072370402131459
-0.009736435604018163   -0.03106675400012659   -0.0008224149628531463
-0.008140916027322814   -0.03474893770801195   -0.0009708497785701623
-0.009623196130881638   -0.031074651607605988   -0.00071633749745902
-0.006326638426321729   -0.03491996338618298   -0.000878002080732511
-0.007984905725592576   -0.034762052352669194   -0.0008438415422067941
-0.009623196130881638   -0.031074651607605988   -0.00071633749745902
-0.008140916027322814   -0.03474893770801195   -0.0009708497785701623
-0.006326638426321729   -0.03491996338618298   -0.000878002080732511
-0.009623196130881638   -0.031074651607605988   -0.00071633749745902
-0.007439765631770956   -0.031204297654724083   -0.0007373287269684798
-0.007452067945191067   -0.03120940884652041   -0.0008072370402131459
-0.006326638426321729   -0.03491996338618298   -0.000878002080732511
-0.009623196130881638   -0.031074651607605988   -0.00071633749745902
-0.007452067945191067   -0.03120940884652041   -0.0008072370402131459
-0.008140916027322814   -0.03474893770801195   -0.0009708497785701623
0.0012001014260112665   -0.03137281926567261   -0.0004619353380810612
0.00192114137834968   -0.026934894623362106   -0.00030794115478907186
-0.001031858363241296   -0.03142882889154036   -0.0006116713869421917
0.001265983285929948   -0.031295120226332324   -0.0005285989361534218
0.00192114137834968   -0.026934894623362106   -0.00030794115478907186
-0.0007323710097179073   -0.02696283824655671   -0.00044878177289841274
-0.001031858363241296   -0.03142882889154036   -0.0006116713869421917
-0.0007444866807841678   -0.026898605367118657   -0.00046373730115211614
0.001265983285929948   -0.031295120226332324   -0.0005285989361534218
-0.0010256412865383697   -0.03136296486283619   -0.0006390800745002677
-0.0007444866807841678   -0.026898605367118657   -0.00046373730115211614
-0.001031858363241296   -0.03142882889154036   -0.0006116713869421917
0.001265983285929948   -0.031295120226332324   -0.0005285989361534218
-0.0007444866807841678   -0.026898605367118657   -0.00046373730115211614
0.001947922388215355   -0.026860031248776794   -0.000351970499792363
0.00192114137834968   -0.026934894623362106   -0.00030794115478907186
0.001265983285929948   -0.031295120226332324   -0.0005285989361534218
-0.0007444866807841678   -0.026898605367118657   -0.00046373730115211614
0.00192114137834968   -0.026934894623362106   -0.00030794115478907186
-0.001031858363241296   -0.03142882889154036   -0.0006116713869421917
0.001265983285929948   -0.031295120226332324   -0.0005285989361534218
0.001947922388215355   -0.026860031248776794   -0.000351970499792363
-0.0010256412865383697   -0.03136296486283619   -0.0006390800745002677
0.0013082712695985572   -0.03124468510561422   -0.0005894138350229216
0.001947922388215355   -0.026860031248776794   -0.000351970499792363
-0.0007444866807841678   -0.026898605367118657   -0.00046373730115211614
-0.0010256412865383697   -0.03136296486283619   -0.0006390800745002677
-0.0007571753065431588   -0.026848205882161306   -0.00047498264506661627
0.0013082712695985572   -0.03124468510561422   -0.0005894138350229216
-0.0010177016341323165   -0.03131567122796646   -0.0006623528596030299
-0.0007571753065431588   -0.026848205882161306   -0.00047498264506661627
-0.0010256412865383697   -0.03136296486283619   -0.0006390800745002677
0.0013082712695985572   -0.03124468510561422   -0.0005894138350229216
-0.0007571753065431588   -0.026848205882161306   -0.00047498264506661627
0.0019566060616884565   -0.0268059959123959   -0.00039052179270113093
0.001947922388215355   -0.026860031248776794   -0.000351970499792363
0.0013082712695985572   -0.03124468510561422   -0.0005894138350229216
-0.0007571753065431588   -0.026848205882161306   -0.00047498264506661627
0.001947922388215355   -0.026860031248776794   -0.000351970499792363
-0.0010256412865383697   -0.03136296486283619   -0.0006390800745002677
0.0013082712695985572   -0.03124468510561422   -0.0005894138350229216
0.0019566060616884565   -0.0268059959123959   -0.00039052179270113093
-0.0010177016341323165   -0.03131567122796646   -0.0006623528596030299
0.0013519454125013528   -0.031211580973041535   -0.0006445063916945743
0.0019566060616884565   -0.0268059959123959   -0.00039052179270113093
-0.0007571753065431588   -0.026848205882161306   -0.00047498264506661627
-0.0010177016341323165   -0.03131567122796646   -0.0006623528596030299
-0.0007791157940999848   -0.026810026380250127   -0.000482642253861115
0.0013519454125013528   -0.031211580973041535   -0.0006445063916945743
-0.0010211349634718211   -0.0312854091681691   -0.0006817907557436587
-0.0007791157940999848   -0.026810026380250127   -0.000482642253861115
-0.0010177016341323165   -0.03131567122796646   -0.0006623528596030299
0.0013519454125013528   -0.031211580973041535   -0.0006445063916945743
-0.0007791157940999848   -0.026810026380250127   -0.000482642253861115
0.0019620996916913528   -0.026763086214991544   -0.00042385653847817743
0.0019566060616884565   -0.0268059959123959   -0.00039052179270113093
0.0013519454125013528   -0.031211580973041535   -0.0006445063916945743
-0.0007791157940999848   -0.026810026380250127   -0.000482642253861115
0.0019566060616884565   -0.0268059959123959   -0.00039052179270113093
-0.0010177016341323165   -0.03131567122796646   -0.0006623528596030299
-0.001031858363241296   -0.03142882889154036   -0.0006116713869421917
-0.0007323710097179073   -0.02696283824655671   -0.00044878177289841274
-0.0031812090401118166   -0.03142931192073546   -0.0007347942081885335
-0.0010256412865383697   -0.03136296486283619   -0.0006390800745002677
-0.0007323710097179073   -0.02696283824655671   -0.00044878177289841274
-0.0032769495660235908   -0.026949007696967932   -0.0005643200038253143
-0.0031812090401118166   -0.03142931192073546   -0.0007347942081885335
-0.0032939904805830205   -0.026895494767684294   -0.0005574744422387417
-0.0010256412865383697   -0.03136296486283619   -0.0006390800745002677
-0.003181388143549   -0.03137370688625519   -0.0007321968401485923
-0.0032939904805830205   -0.026895494767684294   -0.0005574744422387417
-0.0031812090401118166   -0.03142931192073546   -0.0007347942081885335
-0.0010256412865383697   -0.03136296486283619   -0.0006390800745002677
-0.0032939904805830205   -0.026895494767684294   -0.0005574744422387417
-0.0007444866807841678   -0.026898605367118657   -0.00046373730115211614
-0.0007323710097179073   -0.02696283824655671   -0.00044878177289841274
-0.0010256412865383697   -0.03136296486283619   -0.0006390800745002677
-0.0032939904805830205   -0.026895494767684294   -0.0005574744422387417
-0.0007323710097179073   -0.02696283824655671   -0.00044878177289841274
-0.0031812090401118166   -0.03142931192073546   -0.0007347942081885335
-0.0010256412865383697   -0.03136296486283619   -0.0006390800745002677
-0.0007444866807841678   -0.026898605367118657   -0.00046373730115211614
-0.003181388143549   -0.03137370688625519   -0.0007321968401485923
-0.0010177016341323165   -0.03131567122796646   -0.0006623528596030299
-0.0007444866807841678   -0.026898605367118657   -0.00046373730115211614
-0.0032939904805830205   -0.026895494767684294   -0.0005574744422387417
-0.003181388143549   -0.03137370688625519   -0.0007321968401485923
-0.0033112676462381404   -0.026853835478515324   -0.0005468051724338283
-0.0010177016341323165   -0.03131567122796646   -0.0006623528596030299
-0.0031814168235830996   -0.031334466236846936   -0.0007254753391545636
-0.0033112676462381404   -0.026853835478515324   -0.0005468051724338283
-0.003181388143549   -0.03137370688625519   -0.0007321968401485923
-0.0010177016341323165   -0.03131567122796646   -0.0006623528596030299
-0.0033112676462381404   -0.026853835478515324   -0.0005468051724338283
-0.0007571753065431588   -0.026848205882161306   -0.00047498264506661627
-0.0007444866807841678   -0.026898605367118657   -0.00046373730115211614
-0.0010177016341323165   -0.03131567122796646   -0.0006623528596030299
-0.0033112676462381404   -0.026853835478515324   -0.0005468051724338283
-0.0007444866807841678   -0.026898605367118657   -0.00046373730115211614
-0.003181388143549   -0.03137370688625519   -0.0007321968401485923
-0.0010177016341323165   -0.03131567122796646   -0.0006623528596030299
-0.0007571753065431588   -0.026848205882161306   -0.00047498264506661627
-0.0031814168235830996   -0.031334466236846936   -0.0007254753391545636
-0.0010211349634718211   -0.0312854091681691   -0.0006817907557436587
-0.0007571753065431588   -0.026848205882161306   -0.00047498264506661627
-0.0033112676462381404   -0.026853835478515324   -0.0005468051724338283
-0.0031814168235830996   -0.031334466236846936   -0.0007254753391545636
-0.00333126870728665   -0.026824228965194864   -0.0005325018006317899
-0.0010211349634718211   -0.0312854091681691   -0.0006817907557436587
-0.003184307843062508   -0.031311620719266436   -0.0007148493089970061
-0.00333126870728665   -0.026824228965194864   -0.0005325018006317899
-0.0031814168235830996   -0.031334466236846936   -0.0007254753391545636
-0.0010211349634718211   -0.0312854091681691   -0.0006817907557436587
-0.00333126870728665   -0.026824228965194864   -0.0005325018006317899
-0.0007791157940999848   -0.026810026380250127   -0.000482642253861115
-0.0007571753065431588   -0.026848205882161306   -0.00047498264506661627
-0.0010211349634718211   -0.0312854091681691   -0.0006817907557436587
-0.00333126870728665   -0.026824228965194864   -0.0005325018006317899
-0.0007571753065431588   -0.026848205882161306   -0.00047498264506661627
-0.0031814168235830996   -0.031334466236846936   -0.0007254753391545636
-0.0031812090401118166   -0.03142931192073546   -0.0007347942081885335
-0.0032769495660235908   -0.026949007696967932   -0.0005643200038253143
-0.005294430684189219   -0.031375663941266466   -0.0008425303920531838
-0.003181388143549   -0.03137370688625519   -0.0007321968401485923
-0.0032769495660235908   -0.026949007696967932   -0.0005643200038253143
-0.005778755688681338   -0.02689610581209747   -0.000662977422964142
-0.005294430684189219   -0.031375663941266466   -0.0008425303920531838
-0.005797192859465492   -0.026852298863907983   -0.0006344467249395314
-0.003181388143549   -0.03137370688625519   -0.0007321968401485923
-0.005296213757874024   -0.03132903564991767   -0.0008102939130205064
-0.005797192859465492   -0.026852298863907983   -0.0006344467249395314
-0.005294430684189219   -0.031375663941266466   -0.0008425303920531838
-0.003181388143549   -0.03137370688625519   -0.0007321968401485923
-0.005797192859465492   -0.026852298863907983   -0.0006344467249395314
-0.0032939904805830205   -0.026895494767684294   -0.0005574744422387417
-0.0032769495660235908   -0.026949007696967932   -0.0005643200038253143
-0.003181388143549   -0.03137370688625519   -0.0007321968401485923
-0.005797192859465492   -0.026852298863907983   -0.0006344467249395314
-0.0032769495660235908   -0.026949007696967932   -0.0005643200038253143
-0.005294430684189219   -0.031375663941266466   -0.0008425303920531838
-0.003181388143549   -0.03137370688625519   -0.0007321968401485923
-0.0032939904805830205   -0.026895494767684294   -0.0005574744422387417
-0.005296213757874024   -0.03132903564991767   -0.0008102939130205064
-0.0031814168235830996   -0.031334466236846936   -0.0007254753391545636
-0.0032939904805830205   -0.026895494767684294   -0.0005574744422387417
-0.005797192859465492   -0.026852298863907983   -0.0006344467249395314
-0.005296213757874024   -0.03132903564991767   -0.0008102939130205064
-0.0058124318176231175   -0.0268202331061929   -0.0006021624498098285
-0.0031814168235830996   -0.031334466236846936   -0.0007254753391545636
-0.005294405536947285   -0.03129862751277565   -0.0007740163289336145
-0.0058124318176231175   -0.0268202331061929   -0.0006021624498098285
-0.005296213757874024   -0.03132903564991767   -0.0008102939130205064
-0.0031814168235830996   -0.031334466236846936   -0.0007254753391545636
-0.0058124318176231175   -0.0268202331061929   -0.0006021624498098285
-0.0033112676462381404   -0.026853835478515324   -0.0005468051724338283
-0.0032939904805830205   -0.026895494767684294   -0.0005574744422387417
-0.0031814168235830996   -0.031334466236846936   -0.0007254753391545636
-0.0058124318176231175   -0.0268202331061929   -0.0006021624498098285
-0.0032939904805830205   -0.026895494767684294   -0.0005574744422387417
-0.005296213757874024   -0.03132903564991767   -0.0008102939130205064
-0.0031814168235830996   -0.031334466236846936   -0.0007254753391545636
-0.0033112676462381404   -0.026853835478515324   -0.0005468051724338283
-0.005294405536947285   -0.03129862751277565   -0.0007740163289336145
-0.003184307843062508   -0.031311620719266436   -0.0007148493089970061
-0.0033112676462381404   -0.026853835478515324   -0.0005468051724338283
-0.0058124318176231175   -0.0268202331061929   -0.0006021624498098285
-0.005294405536947285   -0.03129862751277565   -0.0007740163289336145
-0.00582812577720668   -0.02679985752161803   -0.0005662334412290673
-0.003184307843062508   -0.031311620719266436   -0.0007148493089970061
-0.005293258219329137   -0.03128416040310088   -0.0007338140162681147
-0.00582812577720668   -0.02679985752161803   -0.0005662334412290673
-0.005294405536947285   -0.03129862751277565   -0.0007740163289336145
-0.003184307843062508   -0.031311620719266436   -0.0007148493089970061
-0.00582812577720668   -0.02679985752161803   -0.0005662334412290673
-0.00333126870728665   -0.026824228965194864   -0.0005325018006317899
-0.0033112676462381404   -0.026853835478515324   -0.0005468051724338283
-0.003184307843062508   -0.031311620719266436   -0.0007148493089970061
-0.00582812577720668   -0.02679985752161803   -0.0005662334412290673
-0.0033112676462381404   -0.026853835478515324   -0.0005468051724338283
-0.005294405536947285   -0.03129862751277565   -0.0007740163289336145
-0.005294430684189219   -0.031375663941266466   -0.0008425303920531838
-0.005778755688681338   -0.02689610581209747   -0.000662977422964142
-0.007473272589971534   -0.0312698704533162   -0.0009351371218068137
-0.005296213757874024   -0.03132903564991767   -0.0008102939130205064
-0.005778755688681338   -0.02689610581209747   -0.000662977422964142
-0.008340038625933667   -0.0268051668856131   -0.0007451742856214172
-0.007473272589971534   -0.0312698704533162   -0.0009351371218068137
-0.008355199931050186   -0.02677081719686105   -0.0006946581947902331
-0.005296213757874024   -0.03132903564991767   -0.0008102939130205064
-0.007470547514741756   -0.031231806672620415   -0.0008729020615918386
-0.008355199931050186   -0.02677081719686105   -0.0006946581947902331
-0.007473272589971534   -0.0312698704533162   -0.0009351371218068137
-0.005296213757874024   -0.03132903564991767   -0.0008102939130205064
-0.008355199931050186   -0.02677081719686105   -0.0006946581947902331
-0.005797192859465492   -0.026852298863907983   -0.0006344467249395314
-0.005778755688681338   -0.02689610581209747   -0.000662977422964142
-0.005296213757874024   -0.03132903564991767   -0.0008102939130205064
-0.008355199931050186   -0.02677081719686105   -0.0006946581947902331
-0.005778755688681338   -0.02689610581209747   -0.000662977422964142
-0.007473272589971534   -0.0312698704533162   -0.0009351371218068137
-0.005296213757874024   -0.03132903564991767   -0.0008102939130205064
-0.005797192859465492   -0.026852298863907983   -0.0006344467249395314
-0.007470547514741756   -0.031231806672620415   -0.0008729020615918386
-0.005294405536947285   -0.03129862751277565   -0.0007740163289336145
-0.005797192859465492   -0.026852298863907983   -0.0006344467249395314
-0.008355199931050186   -0.02677081719686105   -0.0006946581947902331
-0.007470547514741756   -0.031231806672620415   -0.0008729020615918386
-0.008356830046274482   -0.02674752807587292   -0.0006409070700561352
-0.005294405536947285   -0.03129862751277565   -0.0007740163289336145
-0.007452067945191067   -0.03120940884652041   -0.0008072370402131459
-0.008356830046274482   -0.02674752807587292   -0.0006409070700561352
-0.007470547514741756   -0.031231806672620415   -0.0008729020615918386
-0.005294405536947285   -0.03129862751277565   -0.0007740163289336145
-0.008356830046274482   -0.02674752807587292   -0.0006409070700561352
-0.0058124318176231175   -0.0268202331061929   -0.0006021624498098285
-0.005797192859465492   -0.026852298863907983   -0.0006344467249395314
-0.005294405536947285   -0.03129862751277565   -0.0007740163289336145
-0.008356830046274482   -0.02674752807587292   -0.0006409070700561352
-0.005797192859465492   -0.026852298863907983   -0.0006344467249395314
-0.007470547514741756   -0.031231806672620415   -0.0008729020615918386
-0.005294405536947285   -0.03129862751277565   -0.0007740163289336145
-0.0058124318176231175   -0.0268202331061929   -0.0006021624498098285
-0.007452067945191067   -0.03120940884652041   -0.0008072370402131459
-0.005293258219329137   -0.03128416040310088   -0.0007338140162681147
-0.0058124318176231175   -0.0268202331061929   -0.0006021624498098285
-0.008356830046274482   -0.02674752807587292   -0.0006409070700561352
-0.007452067945191067   -0.03120940884652041   -0.0008072370402131459
-0.008362374935467137   -0.026736989141134242   -0.0005832330884661768
-0.005293258219329137   -0.03128416040310088   -0.0007338140162681147
-0.007439765631770956   -0.031204297654724083   -0.0007373287269684798
-0.008362374935467137   -0.026736989141134242   -0.0005832330884661768
-0.007452067945191067   -0.03120940884652041   -0.0008072370402131459
-0.005293258219329137   -0.03128416040310088   -0.0007338140162681147
-0.008362374935467137   -0.026736989141134242   -0.0005832330884661768
-0.00582812577720668   -0.02679985752161803   -0.0005662334412290673
-0.0058124318176231175   -0.0268202331061929   -0.0006021624498098285
-0.005293258219329137   -0.03128416040310088   -0.0007338140162681147
-0.008362374935467137   -0.026736989141134242   -0.0005832330884661768
-0.0058124318176231175   -0.0268202331061929   -0.0006021624498098285
-0.007452067945191067   -0.03120940884652041   -0.0008072370402131459
-0.007473272589971534   -0.0312698704533162   -0.0009351371218068137
-0.008340038625933667   -0.0268051668856131   -0.0007451742856214172
-0.009907099373977251   -0.031123673200558907   -0.001018831946807838
-0.007470547514741756   -0.031231806672620415   -0.0008729020615918386
-0.008340038625933667   -0.0268051668856131   -0.0007451742856214172
-0.01113360404552332   -0.026685504944311832   -0.0008154107872140122
-0.009907099373977251   -0.031123673200558907   -0.001018831946807838
-0.011079018701038746   -0.0266541235043017   -0.0007415306948669925
-0.007470547514741756   -0.031231806672620415   -0.0008729020615918386
-0.009815033660593398   -0.031086223875738256   -0.0009235124926572664
-0.011079018701038746   -0.0266541235043017   -0.0007415306948669925
-0.009907099373977251   -0.031123673200558907   -0.001018831946807838
-0.007470547514741756   -0.031231806672620415   -0.0008729020615918386
-0.011079018701038746   -0.0266541235043017   -0.0007415306948669925
-0.008355199931050186   -0.02677081719686105   -0.0006946581947902331
-0.008340038625933667   -0.0268051668856131   -0.0007451742856214172
-0.007470547514741756   -0.031231806672620415   -0.0008729020615918386
-0.011079018701038746   -0.0266541235043017   -0.0007415306948669925
-0.008340038625933667   -0.0268051668856131   -0.0007451742856214172
-0.009907099373977251   -0.031123673200558907   -0.001018831946807838
-0.007470547514741756   -0.031231806672620415   -0.0008729020615918386
-0.008355199931050186   -0.02677081719686105   -0.0006946581947902331
-0.009815033660593398   -0.031086223875738256   -0.0009235124926572664
-0.007452067945191067   -0.03120940884652041   -0.0008072370402131459
-0.008355199931050186   -0.02677081719686105   -0.0006946581947902331
-0.011079018701038746   -0.0266541235043017   -0.0007415306948669925
-0.009815033660593398   -0.031086223875738256   -0.0009235124926572664
-0.011033066756691998   -0.02663456084096308   -0.0006619947531302557
-0.007452067945191067   -0.03120940884652041   -0.0008072370402131459
-0.009736435604018163   -0.03106675400012659   -0.0008224149628531463
-0.011033066756691998   -0.02663456084096308   -0.0006619947531302557
-0.009815033660593398   -0.031086223875738256   -0.0009235124926572664
-0.007452067945191067   -0.03120940884652041   -0.0008072370402131459
-0.011033066756691998   -0.02663456084096308   -0.0006619947531302557
-0.008356830046274482   -0.02674752807587292   -0.0006409070700561352
-0.008355199931050186   -0.02677081719686105   -0.0006946581947902331
-0.007452067945191067   -0.03120940884652041   -0.0008072370402131459
-0.011033066756691998   -0.02663456084096308   -0.0006619947531302557
-0.008355199931050186   -0.02677081719686105   -0.0006946581947902331
-0.009815033660593398   -0.031086223875738256   -0.0009235124926572664
-0.007452067945191067   -0.03120940884652041   -0.0008072370402131459
-0.008356830046274482   -0.02674752807587292   -0.0006409070700561352
-0.009736435604018163   -0.03106675400012659   -0.0008224149628531463
-0.007439765631770956   -0.031204297654724083   -0.0007373287269684798
-0.008356830046274482   -0.02674752807587292   -0.0006409070700561352
-0.011033066756691998   -0.02663456084096308   -0.0006619947531302557
-0.009736435604018163   -0.03106675400012659   -0.0008224149628531463
-0.01095764886016682   -0.02663660360132337   -0.0005775103571237337
-0.007439765631770956   -0.031204297654724083   -0.0007373287269684798
-0.009623196130881638   -0.031074651607605988   -0.00071633749745902
-0.01095764886016682   -0.02663660360132337   -0.0005775103571237337
-0.009736435604018163   -0.03106675400012659   -0.0008224149628531463
-0.007439765631770956   -0.031204297654724083   -0.0007373287269684798
-0.01095764886016682   -0.02663660360132337   -0.0005775103571237337
-0.008362374935467137   -0.026736989141134242   -0.0005832330884661768
-0.008356830046274482   -0.02674752807587292   -0.0006409070700561352
-0.007439765631770956   -0.031204297654724083   -0.0007373287269684798
-0.01095764886016682   -0.02663660360132337   -0.0005775103571237337
-0.008356830046274482   -0.02674752807587292   -0.0006409070700561352
-0.009736435604018163   -0.03106675400012659   -0.0008224149628531463
0.00192114137834968   -0.026934894623362106   -0.00030794115478907186
0.002326646089856359   -0.02194456298702091   -0.0001575273662590199
-0.0007323710097179073   -0.02696283824655671   -0.00044878177289841274
0.001947922388215355   -0.026860031248776794   -0.000351970499792363
0.002326646089856359   -0.02194456298702091   -0.0001575273662590199
-0.0006243671725973961   -0.02194459572158311   -0.00028798361753645346
-0.0007323710097179073   -0.02696283824655671   -0.00044878177289841274
-0.0006502766809141499   -0.021882528848610687   -0.0002902632957708435
0.001947922388215355   -0.026860031248776794   -0.000351970499792363
-0.0007444866807841678   -0.026898605367118657   -0.00046373730115211614
-0.0006502766809141499   -0.021882528848610687   -0.0002902632957708435
-0.0007323710097179073   -0.02696283824655671   -0.00044878177289841274
0.001947922388215355   -0.026860031248776794   -0.000351970499792363
-0.0006502766809141499   -0.021882528848610687   -0.0002902632957708435
0.0023192732358897957   -0.0218729410365066   -0.00017906261321156002
0.002326646089856359   -0.02194456298702091   -0.0001575273662590199
0.001947922388215355   -0.026860031248776794   -0.000351970499792363
-0.0006502766809141499   -0.021882528848610687   -0.0002902632957708435
0.002326646089856359   -0.02194456298702091   -0.0001575273662590199
-0.0007323710097179073   -0.02696283824655671   -0.00044878177289841274
0.001947922388215355   -0.026860031248776794   -0.000351970499792363
0.0023192732358897957   -0.0218729410365066   -0.00017906261321156002
-0.0007444866807841678   -0.026898605367118657   -0.00046373730115211614
0.0019566060616884565   -0.0268059959123959   -0.00039052179270113093
0.0023192732358897957   -0.0218729410365066   -0.00017906261321156002
-0.0006502766809141499   -0.021882528848610687   -0.0002902632957708435
-0.0007444866807841678   -0.026898605367118657   -0.00046373730115211614
-0.0006790758489875809   -0.02182945269540553   -0.0002892353214015703
0.0019566060616884565   -0.0268059959123959   -0.00039052179270113093
-0.0007571753065431588   -0.026848205882161306   -0.00047498264506661627
-0.0006790758489875809   -0.02182945269540553   -0.0002892353214015703
-0.0007444866807841678   -0.026898605367118657   -0.00046373730115211614
0.0019566060616884565   -0.0268059959123959   -0.00039052179270113093
-0.0006790758489875809   -0.02182945269540553   -0.0002892353214015703
0.0022989990143250077   -0.021815778619991916   -0.00019529614990766082
0.0023192732358897957   -0.0218729410365066   -0.00017906261321156002
0.0019566060616884565   -0.0268059959123959   -0.00039052179270113093
-0.0006790758489875809   -0.02182945269540553   -0.0002892353214015703
0.0023192732358897957   -0.0218729410365066   -0.00017906261321156002
-0.0007444866807841678   -0.026898605367118657   -0.00046373730115211614
0.0019566060616884565   -0.0268059959123959   -0.00039052179270113093
0.0022989990143250077   -0.021815778619991916   -0.00019529614990766082
-0.0007571753065431588   -0.026848205882161306   -0.00047498264506661627
0.0019620996916913528   -0.026763086214991544   -0.00042385653847817743
0.0022989990143250077   -0.021815778619991916   -0.00019529614990766082
-0.0006790758489875809   -0.02182945269540553   -0.0002892353214015703
-0.0007571753065431588   -0.026848205882161306   -0.00047498264506661627
-0.0007149929439685337   -0.02178396432572804   -0.0002847692935394617
0.0019620996916913528   -0.026763086214991544   -0.00042385653847817743
-0.0007791157940999848   -0.026810026380250127   -0.000482642253861115
-0.0007149929439685337   -0.02178396432572804   -0.0002847692935394617
-0.0007571753065431588   -0.026848205882161306   -0.00047498264506661627
0.0019620996916913528   -0.026763086214991544   -0.00042385653847817743
-0.0007149929439685337   -0.02178396432572804   -0.0002847692935394617
0.002270525288997995   -0.021763547056363405   -0.00020659840317444373
0.0022989990143250077   -0.021815778619991916   -0.00019529614990766082
0.0019620996916913528   -0.026763086214991544   -0.00042385653847817743
-0.0007149929439685337   -0.02178396432572804   -0.0002847692935394617
0.0022989990143250077   -0.021815778619991916   -0.00019529614990766082
-0.0007571753065431588   -0.026848205882161306   -0.00047498264506661627
-0.0007323710097179073   -0.02696283824655671   -0.00044878177289841274
-0.0006243671725973961   -0.02194459572158311   -0.00028798361753645346
-0.0032769495660235908   -0.026949007696967932   -0.0005643200038253143
-0.0007444866807841678   -0.026898605367118657   -0.00046373730115211614
-0.0006243671725973961   -0.02194459572158311   -0.00028798361753645346
-0.003439649892394622   -0.021918058500947454   -0.00039515151332142334
-0.0032769495660235908   -0.026949007696967932   -0.0005643200038253143
-0.003468827378151639   -0.02186674433347891   -0.00038367846671116026
-0.0007444866807841678   -0.026898605367118657   -0.00046373730115211614
-0.0032939904805830205   -0.026895494767684294   -0.0005574744422387417
-0.003468827378151639   -0.02186674433347891   -0.00038367846671116026
-0.0032769495660235908   -0.026949007696967932   -0.0005643200038253143
-0.0007444866807841678   -0.026898605367118657   -0.00046373730115211614
-0.003468827378151639   -0.02186674433347891   -0.00038367846671116026
-0.0006502766809141499   -0.021882528848610687   -0.0002902632957708435
-0.0006243671725973961   -0.02194459572158311   -0.00028798361753645346
-0.0007444866807841678   -0.026898605367118657   -0.00046373730115211614
-0.003468827378151639   -0.02186674433347891   -0.00038367846671116026
-0.0006243671725973961   -0.02194459572158311   -0.00028798361753645346
-0.0032769495660235908   -0.026949007696967932   -0.0005643200038253143
-0.0007444866807841678   -0.026898605367118657   -0.00046373730115211614
-0.0006502766809141499   -0.021882528848610687   -0.0002902632957708435
-0.0032939904805830205   -0.026895494767684294   -0.0005574744422387417
-0.0007571753065431588   -0.026848205882161306   -0.00047498264506661627
-0.0006502766809141499   -0.021882528848610687   -0.0002902632957708435
-0.003468827378151639   -0.02186674433347891   -0.00038367846671116026
-0.0032939904805830205   -0.026895494767684294   -0.0005574744422387417
-0.0034986035044577723   -0.0218227479999325   -0.000368755528674208
-0.0007571753065431588   -0.026848205882161306   -0.00047498264506661627
-0.0033112676462381404   -0.026853835478515324   -0.0005468051724338283
-0.0034986035044577723   -0.0218227479999325   -0.000368755528674208
-0.0032939904805830205   -0.026895494767684294   -0.0005574744422387417
-0.0007571753065431588   -0.026848205882161306   -0.00047498264506661627
-0.0034986035044577723   -0.0218227479999325   -0.000368755528674208
-0.0006790758489875809   -0.02182945269540553   -0.0002892353214015703
-0.0006502766809141499   -0.021882528848610687   -0.0002902632957708435
-0.0007571753065431588   -0.026848205882161306   -0.00047498264506661627
-0.0034986035044577723   -0.0218227479999325   -0.000368755528674208
-0.0006502766809141499   -0.021882528848610687   -0.0002902632957708435
-0.0032939904805830205   -0.026895494767684294   -0.0005574744422387417
-0.0007571753065431588   -0.026848205882161306   -0.00047498264506661627
-0.0006790758489875809   -0.02182945269540553   -0.0002892353214015703
-0.0033112676462381404   -0.026853835478515324   -0.0005468051724338283
-0.0007791157940999848   -0.026810026380250127   -0.000482642253861115
-0.0006790758489875809   -0.02182945269540553   -0.0002892353214015703
-0.0034986035044577723   -0.0218227479999325   -0.000368755528674208
-0.0033112676462381404   -0.026853835478515324   -0.0005468051724338283
-0.003530926173868784   -0.021786498026302163   -0.00035054956042502363
-0.0007791157940999848   -0.026810026380250127   -0.000482642253861115
-0.00333126870728665   -0.026824228965194864   -0.0005325018006317899
-0.003530926173868784   -0.021786498026302163   -0.00035054956042502363
-0.0033112676462381404   -0.026853835478515324   -0.0005468051724338283
-0.0007791157940999848   -0.026810026380250127   -0.000482642253861115
-0.003530926173868784   -0.021786498026302163   -0.00035054956042502363
-0.0007149929439685337   -0.02178396432572804   -0.0002847692935394617
-0.0006790758489875809   -0.02182945269540553   -0.0002892353214015703
-0.0007791157940999848   -0.026810026380250127   -0.000482642253861115
-0.003530926173868784   -0.021786498026302163   -0.00035054956042502363
-0.0006790758489875809   -0.02182945269540553   -0.0002892353214015703
-0.0033112676462381404   -0.026853835478515324   -0.0005468051724338283
-0.0032769495660235908   -0.026949007696967932   -0.0005643200038253143
-0.003439649892394622   -0.021918058500947454   -0.00039515151332142334
-0.005778755688681338   -0.02689610581209747   -0.000662977422964142
-0.0032939904805830205   -0.026895494767684294   -0.0005574744422387417
-0.003439649892394622   -0.021918058500947454   -0.00039515151332142334
-0.006207357342055219   -0.021868084062453216   -0.000485284035734396
-0.005778755688681338   -0.02689610581209747   -0.000662977422964142
-0.006237456370140982   -0.021826649347325994   -0.000460098336855694
-0.0032939904805830205   -0.026895494767684294   -0.0005574744422387417
-0.005797192859465492   -0.026852298863907983   -0.0006344467249395314
-0.006237456370140982   -0.021826649347325994   -0.000460098336855694
-0.005778755688681338   -0.02689610581209747   -0.000662977422964142
-0.0032939904805830205   -0.026895494767684294   -0.0005574744422387417
-0.006237456370140982   -0.021826649347325994   -0.000460098336855694
-0.003468827378151639   -0.02186674433347891   -0.00038367846671116026
-0.003439649892394622   -0.021918058500947454   -0.00039515151332142334
-0.0032939904805830205   -0.026895494767684294   -0.0005574744422387417
-0.006237456370140982   -0.021826649347325994   -0.000460098336855694
-0.003439649892394622   -0.021918058500947454   -0.00039515151332142334
-0.005778755688681338   -0.02689610581209747   -0.000662977422964142
-0.0032939904805830205   -0.026895494767684294   -0.0005574744422387417
-0.003468827378151639   -0.02186674433347891   -0.00038367846671116026
-0.005797192859465492   -0.026852298863907983   -0.0006344467249395314
-0.0033112676462381404   -0.026853835478515324   -0.0005468051724338283
-0.003468827378151639   -0.02186674433347891   -0.00038367846671116026
-0.006237456370140982   -0.021826649347325994   -0.000460098336855694
-0.005797192859465492   -0.026852298863907983   -0.0006344467249395314
-0.0062647329999714375   -0.02179248088473951   -0.0004315447805208897
-0.0033112676462381404   -0.026853835478515324   -0.0005468051724338283
-0.0058124318176231175   -0.0268202331061929   -0.0006021624498098285
-0.0062647329999714375   -0.02179248088473951   -0.0004315447805208897
-0.005797192859465492   -0.026852298863907983   -0.0006344467249395314
-0.0033112676462381404   -0.026853835478515324   -0.0005468051724338283
-0.0062647329999714375   -0.02179248088473951   -0.0004315447805208897
-0.0034986035044577723   -0.0218227479999325   -0.000368755528674208
-0.003468827378151639   -0.02186674433347891   -0.00038367846671116026
-0.0033112676462381404   -0.026853835478515324   -0.0005468051724338283
-0.0062647329999714375   -0.02179248088473951   -0.0004315447805208897
-0.003468827378151639   -0.02186674433347891   -0.00038367846671116026
-0.005797192859465492   -0.026852298863907983   -0.0006344467249395314
-0.0033112676462381404   -0.026853835478515324   -0.0005468051724338283
-0.0034986035044577723   -0.0218227479999325   -0.000368755528674208
-0.0058124318176231175   -0.0268202331061929   -0.0006021624498098285
-0.00333126870728665   -0.026824228965194864   -0.0005325018006317899
-0.0034986035044577723   -0.0218227479999325   -0.000368755528674208
-0.0062647329999714375   -0.02179248088473951   -0.0004315447805208897
-0.0058124318176231175   -0.0268202331061929   -0.0006021624498098285
-0.0062922721619325835   -0.021765632579093534   -0.0003997498406621373
-0.00333126870728665   -0.026824228965194864   -0.0005325018006317899
-0.00582812577720668   -0.02679985752161803   -0.0005662334412290673
-0.0062922721619325835   -0.021765632579093534   -0.0003997498406621373
-0.0058124318176231175   -0.0268202331061929   -0.0006021624498098285
-0.00333126870728665   -0.026824228965194864   -0.0005325018006317899
-0.0062922721619325835   -0.021765632579093534   -0.0003997498406621373
-0.003530926173868784   -0.021786498026302163   -0.00035054956042502363
-0.0034986035044577723   -0.0218227479999325   -0.000368755528674208
-0.00333126870728665   -0.026824228965194864   -0.0005325018006317899
-0.0062922721619325835   -0.021765632579093534   -0.0003997498406621373
-0.0034986035044577723   -0.0218227479999325   -0.000368755528674208
-0.0058124318176231175   -0.0268202331061929   -0.0006021624498098285
-0.005778755688681338   -0.02689610581209747   -0.000662977422964142
-0.006207357342055219   -0.021868084062453216   -0.000485284035734396
-0.008340038625933667   -0.0268051668856131   -0.0007451742856214172
-0.005797192859465492   -0.026852298863907983   -0.0006344467249395314
-0.006207357342055219   -0.021868084062453216   -0.000485284035734396
-0.009030007781524458   -0.021793618658400883   -0.0005586161929552251
-0.008340038625933667   -0.0268051668856131   -0.0007451742856214172
-0.009057898865166341   -0.021762131883925773   -0.0005196102438124366
-0.005797192859465492   -0.026852298863907983   -0.0006344467249395314
-0.008355199931050186   -0.02677081719686105   -0.0006946581947902331
-0.009057898865166341   -0.021762131883925773   -0.0005196102438124366
-0.008340038625933667   -0.0268051668856131   -0.0007451742856214172
-0.005797192859465492   -0.026852298863907983   -0.0006344467249395314
-0.009057898865166341   -0.021762131883925773   -0.0005196102438124366
-0.006237456370140982   -0.021826649347325994   -0.000460098336855694
-0.006207357342055219   -0.021868084062453216   -0.000485284035734396
-0.005797192859465492   -0.026852298863907983   -0.0006344467249395314
-0.009057898865166341   -0.021762131883925773   -0.0005196102438124366
-0.006207357342055219   -0.021868084062453216   -0.000485284035734396
-0.008340038625933667   -0.0268051668856131   -0.0007451742856214172
-0.005797192859465492   -0.026852298863907983   -0.0006344467249395314
-0.006237456370140982   -0.021826649347325994   -0.000460098336855694
-0.008355199931050186   -0.02677081719686105   -0.0006946581947902331
-0.0058124318176231175   -0.0268202331061929   -0.0006021624498098285
-0.006237456370140982   -0.021826649347325994   -0.000460098336855694
-0.009057898865166341   -0.021762131883925773   -0.0005196102438124366
-0.008355199931050186   -0.02677081719686105   -0.0006946581947902331
-0.009074582357136225   -0.021737029381911313   -0.00047768655099959605
-0.0058124318176231175   -0.0268202331061929   -0.0006021624498098285
-0.008356830046274482   -0.02674752807587292   -0.0006409070700561352
-0.009074582357136225   -0.021737029381911313   -0.00047768655099959605
-0.008355199931050186   -0.02677081719686105   -0.0006946581947902331
-0.0058124318176231175   -0.0268202331061929   -0.0006021624498098285
-0.009074582357136225   -0.021737029381911313   -0.00047768655099959605
-0.0062647329999714375   -0.02179248088473951   -0.0004315447805208897
-0.006237456370140982   -0.021826649347325994   -0.000460098336855694
-0.0058124318176231175   -0.0268202331061929   -0.0006021624498098285
-0.009074582357136225   -0.021737029381911313   -0.00047768655099959605
-0.006237456370140982   -0.021826649347325994   -0.000460098336855694
-0.008355199931050186   -0.02677081719686105   -0.0006946581947902331
-0.0058124318176231175   -0.0268202331061929   -0.0006021624498098285
-0.0062647329999714375   -0.02179248088473951   -0.0004315447805208897
-0.008356830046274482   -0.02674752807587292   -0.0006409070700561352
-0.00582812577720668   -0.02679985752161803   -0.0005662334412290673
-0.0062647329999714375   -0.02179248088473951   -0.0004315447805208897
-0.009074582357136225   -0.021737029381911313   -0.00047768655099959605
-0.008356830046274482   -0.02674752807587292   -0.0006409070700561352
-0.009093016814040426   -0.021719892364917708   -0.0004322439200232311
-0.00582812577720668   -0.02679985752161803   -0.0005662334412290673
-0.008362374935467137   -0.026736989141134242   -0.0005832330884661768
-0.009093016814040426   -0.021719892364917708   -0.0004322439200232311
-0.008356830046274482   -0.02674752807587292   -0.0006409070700561352
-0.00582812577720668   -0.02679985752161803   -0.0005662334412290673
-0.009093016814040426   -0.021719892364917708   -0.0004322439200232311
-0.0062922721619325835   -0.021765632579093534   -0.0003997498406621373
-0.0062647329999714375   -0.02179248088473951   -0.0004315447805208897
-0.00582812577720668   -0.02679985752161803   -0.0005662334412290673
-0.009093016814040426   -0.021719892364917708   -0.0004322439200232311
-0.0062647329999714375   -0.02179248088473951   -0.0004315447805208897
-0.008356830046274482   -0.02674752807587292   -0.0006409070700561352
-0.008340038625933667   -0.0268051668856131   -0.0007451742856214172
-0.009030007781524458   -0.021793618658400883   -0.0005586161929552251
-0.01113360404552332   -0.026685504944311832   -0.0008154107872140122
-0.008355199931050186   -0.02677081719686105   -0.0006946581947902331
-0.009030007781524458   -0.021793618658400883   -0.0005586161929552251
-0.012060437383621048   -0.021701648826401163   -0.0006167287038606233
-0.01113360404552332   -0.026685504944311832   -0.0008154107872140122
-0.012038535824217487   -0.02167522603138804   -0.0005645429344619115
-0.008355199931050186   -0.02677081719686105   -0.0006946581947902331
-0.011079018701038746   -0.0266541235043017   -0.0007415306948669925
-0.012038535824217487   -0.02167522603138804   -0.0005645429344619115
-0.01113360404552332   -0.026685504944311832   -0.0008154107872140122
-0.008355199931050186   -0.02677081719686105   -0.0006946581947902331
-0.012038535824217487   -0.02167522603138804   -0.0005645429344619115
-0.009057898865166341   -0.021762131883925773   -0.0005196102438124366
-0.009030007781524458   -0.021793618658400883   -0.0005586161929552251
-0.008355199931050186   -0.02677081719686105   -0.0006946581947902331
-0.012038535824217487   -0.02167522603138804   -0.0005645429344619115
-0.009030007781524458   -0.021793618658400883   -0.0005586161929552251
-0.01113360404552332   -0.026685504944311832   -0.0008154107872140122
-0.008355199931050186   -0.02677081719686105   -0.0006946581947902331
-0.009057898865166341   -0.021762131883925773   -0.0005196102438124366
-0.011079018701038746   -0.0266541235043017   -0.0007415306948669925
-0.008356830046274482   -0.02674752807587292   -0.0006409070700561352
-0.009057898865166341   -0.021762131883925773   -0.0005196102438124366
-0.012038535824217487   -0.02167522603138804   -0.0005645429344619115
-0.011079018701038746   -0.0266541235043017   -0.0007415306948669925
-0.012020673063101618   -0.021654398659798617   -0.0005070025160502368
-0.008356830046274482   -0.02674752807587292   -0.0006409070700561352
-0.011033066756691998   -0.02663456084096308   -0.0006619947531302557
-0.012020673063101618   -0.021654398659798617   -0.0005070025160502368
-0.011079018701038746   -0.0266541235043017   -0.0007415306948669925
-0.008356830046274482   -0.02674752807587292   -0.0006409070700561352
-0.012020673063101618   -0.021654398659798617   -0.0005070025160502368
-0.009074582357136225   -0.021737029381911313   -0.00047768655099959605
-0.009057898865166341   -0.021762131883925773   -0.0005196102438124366
-0.008356830046274482   -0.02674752807587292   -0.0006409070700561352
-0.012020673063101618   -0.021654398659798617   -0.0005070025160502368
-0.009057898865166341   -0.021762131883925773   -0.0005196102438124366
-0.011079018701038746   -0.0266541235043017   -0.0007415306948669925
-0.008356830046274482   -0.02674752807587292   -0.0006409070700561352
-0.009074582357136225   -0.021737029381911313   -0.00047768655099959605
-0.011033066756691998   -0.02663456084096308   -0.0006619947531302557
-0.008362374935467137   -0.026736989141134242   -0.0005832330884661768
-0.009074582357136225   -0.021737029381911313   -0.00047768655099959605
-0.012020673063101618   -0.021654398659798617   -0.0005070025160502368
-0.011033066756691998   -0.02663456084096308   -0.0006619947531302557
-0.011978816678682115   -0.02164896130078658   -0.00044471683645878505
-0.008362374935467137   -0.026736989141134242   -0.0005832330884661768
-0.01095764886016682   -0.02663660360132337   -0.0005775103571237337
-0.011978816678682115   -0.02164896130078658   -0.00044471683645878505
-0.011033066756691998   -0.02663456084096308   -0.0006619947531302557
-0.008362374935467137   -0.026736989141134242   -0.0005832330884661768
-0.011978816678682115   -0.02164896130078658   -0.00044471683645878505
-0.009093016814040426   -0.021719892364917708   -0.0004322439200232311
-0.009074582357136225   -0.021737029381911313   -0.00047768655099959605
-0.008362374935467137   -0.026736989141134242   -0.0005832330884661768
-0.011978816678682115   -0.02164896130078658   -0.00044471683645878505
-0.009074582357136225   -0.021737029381911313   -0.00047768655099959605
-0.011033066756691998   -0.02663456084096308   -0.0006619947531302557
0.002326646089856359   -0.02194456298702091   -0.0001575273662590199
0.002415213411334365   -0.01659987158248851   -2.593307098843909e-05
-0.0006243671725973961   -0.02194459572158311   -0.00028798361753645346
0.0023192732358897957   -0.0218729410365066   -0.00017906261321156002
0.002415213411334365   -0.01659987158248851   -2.593307098843909e-05
-0.0007082235260937003   -0.016572997755789805   -0.00014292378194580987
-0.0006243671725973961   -0.02194459572158311   -0.00028798361753645346
-0.0007440139374030432   -0.01651369858978555   -0.00013246308848939722
0.0023192732358897957   -0.0218729410365066   -0.00017906261321156002
-0.0006502766809141499   -0.021882528848610687   -0.0002902632957708435
-0.0007440139374030432   -0.01651369858978555   -0.00013246308848939722
-0.0006243671725973961   -0.02194459572158311   -0.00028798361753645346
0.0023192732358897957   -0.0218729410365066   -0.00017906261321156002
-0.0007440139374030432   -0.01651369858978555   -0.00013246308848939722
0.002377860717261511   -0.01653165416669484   -2.4482535591139507e-05
0.002415213411334365   -0.01659987158248851   -2.593307098843909e-05
0.0023192732358897957   -0.0218729410365066   -0.00017906261321156002
-0.0007440139374030432   -0.01651369858978555   -0.00013246308848939722
0.002415213411334365   -0.01659987158248851   -2.593307098843909e-05
-0.0006243671725973961   -0.02194459572158311   -0.00028798361753645346
0.0023192732358897957   -0.0218729410365066   -0.00017906261321156002
0.002377860717261511   -0.01653165416669484   -2.4482535591139507e-05
-0.0006502766809141499   -0.021882528848610687   -0.0002902632957708435
0.0022989990143250077   -0.021815778619991916   -0.00019529614990766082
0.002377860717261511   -0.01653165416669484   -2.4482535591139507e-05
-0.0007440139374030432   -0.01651369858978555   -0.00013246308848939722
-0.0006502766809141499   -0.021882528848610687   -0.0002902632957708435
-0.0007850379153500302   -0.016457978595232882   -0.0001189875434789165
0.0022989990143250077   -0.021815778619991916   -0.00019529614990766082
-0.0006790758489875809   -0.02182945269540553   -0.0002892353214015703
-0.0007850379153500302   -0.016457978595232882   -0.0001189875434789165
-0.0006502766809141499   -0.021882528848610687   -0.0002902632957708435
0.0022989990143250077   -0.021815778619991916   -0.00019529614990766082
-0.0007850379153500302   -0.016457978595232882   -0.0001189875434789165
0.0023315226750376793   -0.01647107243061725   -1.6882413393284338e-05
0.002377860717261511   -0.01653165416669484   -2.4482535591139507e-05
0.0022989990143250077   -0.021815778619991916   -0.00019529614990766082
-0.0007850379153500302   -0.016457978595232882   -0.0001189875434789165
0.002377860717261511   -0.01653165416669484   -2.4482535591139507e-05
-0.0006502766809141499   -0.021882528848610687   -0.0002902632957708435
0.0022989990143250077   -0.021815778619991916   -0.00019529614990766082
0.0023315226750376793   -0.01647107243061725   -1.6882413393284338e-05
-0.0006790758489875809   -0.02182945269540553   -0.0002892353214015703
0.002270525288997995   -0.021763547056363405   -0.00020659840317444373
0.0023315226750376793   -0.01647107243061725   -1.6882413393284338e-05
-0.0007850379153500302   -0.016457978595232882   -0.0001189875434789165
-0.0006790758489875809   -0.02182945269540553   -0.0002892353214015703
-0.0008312037156048253   -0.016405062484463245   -0.00010174347021261385
0.002270525288997995   -0.021763547056363405   -0.00020659840317444373
-0.0007149929439685337   -0.02178396432572804   -0.0002847692935394617
-0.0008312037156048253   -0.016405062484463245   -0.00010174347021261385
-0.0006790758489875809   -0.02182945269540553   -0.0002892353214015703
0.002270525288997995   -0.021763547056363405   -0.00020659840317444373
-0.0008312037156048253   -0.016405062484463245   -0.00010174347021261385
0.002270311551378827   -0.01640789068781537   -3.4076983835912474e-06
0.0023315226750376793   -0.01647107243061725   -1.6882413393284338e-05
0.002270525288997995   -0.021763547056363405   -0.00020659840317444373
-0.0008312037156048253   -0.016405062484463245   -0.00010174347021261385
0.0023315226750376793   -0.01647107243061725   -1.6882413393284338e-05
-0.0006790758489875809   -0.02182945269540553   -0.0002892353214015703
-0.0006243671725973961   -0.02194459572158311   -0.00028798361753645346
-0.0007082235260937003   -0.016572997755789805   -0.00014292378194580987
-0.003439649892394622   -0.021918058500947454   -0.00039515151332142334
-0.0006502766809141499   -0.021882528848610687   -0.0002902632957708435
-0.0007082235260937003   -0.016572997755789805   -0.00014292378194580987
-0.003667670610493017   -0.016541061488591403   -0.00024141307236173255
-0.003439649892394622   -0.021918058500947454   -0.00039515151332142334
-0.0037043391460790604   -0.0164916961283278   -0.0002249869240051385
-0.0006502766809141499   -0.021882528848610687   -0.0002902632957708435
-0.003468827378151639   -0.02186674433347891   -0.00038367846671116026
-0.0037043391460790604   -0.0164916961283278   -0.0002249869240051385
-0.003439649892394622   -0.021918058500947454   -0.00039515151332142334
-0.0006502766809141499   -0.021882528848610687   -0.0002902632957708435
-0.0037043391460790604   -0.0164916961283278   -0.0002249869240051385
-0.0007440139374030432   -0.01651369858978555   -0.00013246308848939722
-0.0007082235260937003   -0.016572997755789805   -0.00014292378194580987
-0.0006502766809141499   -0.021882528848610687   -0.0002902632957708435
-0.0037043391460790604   -0.0164916961283278   -0.0002249869240051385
-0.0007082235260937003   -0.016572997755789805   -0.00014292378194580987
-0.003439649892394622   -0.021918058500947454   -0.00039515151332142334
-0.0006502766809141499   -0.021882528848610687   -0.0002902632957708435
-0.0007440139374030432   -0.01651369858978555   -0.00013246308848939722
-0.003468827378151639   -0.02186674433347891   -0.00038367846671116026
-0.0006790758489875809   -0.02182945269540553   -0.0002892353214015703
-0.0007440139374030432   -0.01651369858978555   -0.00013246308848939722
-0.0037043391460790604   -0.0164916961283278   -0.0002249869240051385
-0.003468827378151639   -0.02186674433347891   -0.00038367846671116026
-0.00374184750510591   -0.016445103455106087   -0.0002056793437173188
-0.0006790758489875809   -0.02182945269540553   -0.0002892353214015703
-0.0034986035044577723   -0.0218227479999325   -0.000368755528674208
-0.00374184750510591   -0.016445103455106087   -0.0002056793437173188
-0.003468827378151639   -0.02186674433347891   -0.00038367846671116026
-0.0006790758489875809   -0.02182945269540553   -0.0002892353214015703
-0.00374184750510591   -0.016445103455106087   -0.0002056793437173188
-0.0007850379153500302   -0.016457978595232882   -0.0001189875434789165
-0.0007440139374030432   -0.01651369858978555   -0.00013246308848939722
-0.0006790758489875809   -0.02182945269540553   -0.0002892353214015703
-0.00374184750510591   -0.016445103455106087   -0.0002056793437173188
-0.0007440139374030432   -0.01651369858978555   -0.00013246308848939722
-0.003468827378151639   -0.02186674433347891   -0.00038367846671116026
-0.0006790758489875809   -0.02182945269540553   -0.0002892353214015703
-0.0007850379153500302   -0.016457978595232882   -0.0001189875434789165
-0.0034986035044577723   -0.0218227479999325   -0.000368755528674208
-0.0007149929439685337   -0.02178396432572804   -0.0002847692935394617
-0.0007850379153500302   -0.016457978595232882   -0.0001189875434789165
-0.00374184750510591   -0.016445103455106087   -0.0002056793437173188
-0.0034986035044577723   -0.0218227479999325   -0.000368755528674208
-0.0037817699475646543   -0.01640203059105263   -0.0001834656545918825
-0.0007149929439685337   -0.02178396432572804   -0.0002847692935394617
-0.003530926173868784   -0.021786498026302163   -0.00035054956042502363
-0.0037817699475646543   -0.01640203059105263   -0.0001834656545918825
-0.0034986035044577723   -0.0218227479999325   -0.000368755528674208
-0.0007149929439685337   -0.02178396432572804   -0.0002847692935394617
-0.0037817699475646543   -0.01640203059105263   -0.0001834656545918825
-0.0008312037156048253   -0.016405062484463245   -0.00010174347021261385
-0.0007850379153500302   -0.016457978595232882   -0.0001189875434789165
-0.0007149929439685337   -0.02178396432572804   -0.0002847692935394617
-0.0037817699475646543   -0.01640203059105263   -0.0001834656545918825
-0.0007850379153500302   -0.016457978595232882   -0.0001189875434789165
-0.0034986035044577723   -0.0218227479999325   -0.000368755528674208
-0.003439649892394622   -0.021918058500947454   -0.00039515151332142334
-0.003667670610493017   -0.016541061488591403   -0.00024141307236173255
-0.006207357342055219   -0.021868084062453216   -0.000485284035734396
-0.003468827378151639   -0.02186674433347891   -0.00038367846671116026
-0.003667670610493017   -0.016541061488591403   -0.00024141307236173255
-0.006578652651856412   -0.016502482617313696   -0.0003247460216189889
-0.006207357342055219   -0.021868084062453216   -0.000485284035734396
-0.006615117662644673   -0.016462289201216604   -0.00030238295990193785
-0.003468827378151639   -0.02186674433347891   -0.00038367846671116026
-0.006237456370140982   -0.021826649347325994   -0.000460098336855694
-0.006615117662644673   -0.016462289201216604   -0.00030238295990193785
-0.006207357342055219   -0.021868084062453216   -0.000485284035734396
-0.003468827378151639   -0.02186674433347891   -0.00038367846671116026
-0.006615117662644673   -0.016462289201216604   -0.00030238295990193785
-0.0037043391460790604   -0.0164916961283278   -0.0002249869240051385
-0.003667670610493017   -0.016541061488591403   -0.00024141307236173255
-0.003468827378151639   -0.02186674433347891   -0.00038367846671116026
-0.006615117662644673   -0.016462289201216604   -0.00030238295990193785
-0.003667670610493017   -0.016541061488591403   -0.00024141307236173255
-0.006207357342055219   -0.021868084062453216   -0.000485284035734396
-0.003468827378151639   -0.02186674433347891   -0.00038367846671116026
-0.0037043391460790604   -0.0164916961283278   -0.0002249869240051385
-0.006237456370140982   -0.021826649347325994   -0.000460098336855694
-0.0034986035044577723   -0.0218227479999325   -0.000368755528674208
-0.0037043391460790604   -0.0164916961283278   -0.0002249869240051385
-0.006615117662644673   -0.016462289201216604   -0.00030238295990193785
-0.006237456370140982   -0.021826649347325994   -0.000460098336855694
-0.006649205809573855   -0.016425014895320493   -0.00027723659173056953
-0.0034986035044577723   -0.0218227479999325   -0.000368755528674208
-0.0062647329999714375   -0.02179248088473951   -0.0004315447805208897
-0.006649205809573855   -0.016425014895320493   -0.00027723659173056953
-0.006237456370140982   -0.021826649347325994   -0.000460098336855694
-0.0034986035044577723   -0.0218227479999325   -0.000368755528674208
-0.006649205809573855   -0.016425014895320493   -0.00027723659173056953
-0.00374184750510591   -0.016445103455106087   -0.0002056793437173188
-0.0037043391460790604   -0.0164916961283278   -0.0002249869240051385
-0.0034986035044577723   -0.0218227479999325   -0.000368755528674208
-0.006649205809573855   -0.016425014895320493   -0.00027723659173056953
-0.0037043391460790604   -0.0164916961283278   -0.0002249869240051385
-0.006237456370140982   -0.021826649347325994   -0.000460098336855694
-0.0034986035044577723   -0.0218227479999325   -0.000368755528674208
-0.00374184750510591   -0.016445103455106087   -0.0002056793437173188
-0.0062647329999714375   -0.02179248088473951   -0.0004315447805208897
-0.003530926173868784   -0.021786498026302163   -0.00035054956042502363
-0.00374184750510591   -0.016445103455106087   -0.0002056793437173188
-0.006649205809573855   -0.016425014895320493   -0.00027723659173056953
-0.0062647329999714375   -0.02179248088473951   -0.0004315447805208897
-0.006683416468033082   -0.01639075903408397   -0.00024944285281354927
-0.003530926173868784   -0.021786498026302163   -0.00035054956042502363
-0.0062922721619325835   -0.021765632579093534   -0.0003997498406621373
-0.006683416468033082   -0.01639075903408397   -0.00024944285281354927
-0.0062647329999714375   -0.02179248088473951   -0.0004315447805208897
-0.003530926173868784   -0.021786498026302163   -0.00035054956042502363
-0.006683416468033082   -0.01639075903408397   -0.00024944285281354927
-0.0037817699475646543   -0.01640203059105263   -0.0001834656545918825
-0.00374184750510591   -0.016445103455106087   -0.0002056793437173188
-0.003530926173868784   -0.021786498026302163   -0.00035054956042502363
-0.006683416468033082   -0.01639075903408397   -0.00024944285281354927
-0.00374184750510591   -0.016445103455106087   -0.0002056793437173188
-0.0062647329999714375   -0.02179248088473951   -0.0004315447805208897
-0.006207357342055219   -0.021868084062453216   -0.000485284035734396
-0.006578652651856412   -0.016502482617313696   -0.0003247460216189889
-0.009030007781524458   -0.021793618658400883   -0.0005586161929552251
-0.006237456370140982   -0.021826649347325994   -0.000460098336855694
-0.006578652651856412   -0.016502482617313696   -0.0003247460216189889
-0.00954240610023126   -0.016450145544831832   -0.0003922056956177672
-0.009030007781524458   -0.021793618658400883   -0.0005586161929552251
-0.009577300849048245   -0.016419597688108044   -0.00036397763764699665
-0.006237456370140982   -0.021826649347325994   -0.000460098336855694
-0.009057898865166341   -0.021762131883925773   -0.0005196102438124366
-0.009577300849048245   -0.016419597688108044   -0.00036397763764699665
-0.009030007781524458   -0.021793618658400883   -0.0005586161929552251
-0.006237456370140982   -0.021826649347325994   -0.000460098336855694
-0.009577300849048245   -0.016419597688108044   -0.00036397763764699665
-0.006615117662644673   -0.016462289201216604   -0.00030238295990193785
-0.006578652651856412   -0.016502482617313696   -0.0003247460216189889
-0.006237456370140982   -0.021826649347325994   -0.000460098336855694
-0.009577300849048245   -0.016419597688108044   -0.00036397763764699665
-0.006578652651856412   -0.016502482617313696   -0.0003247460216189889
-0.009030007781524458   -0.021793618658400883   -0.0005586161929552251
-0.006237456370140982   -0.021826649347325994   -0.000460098336855694
-0.006615117662644673   -0.016462289201216604   -0.00030238295990193785
-0.009057898865166341   -0.021762131883925773   -0.0005196102438124366
-0.0062647329999714375   -0.02179248088473951   -0.0004315447805208897
-0.006615117662644673   -0.016462289201216604   -0.00030238295990193785
-0.009577300849048245   -0.016419597688108044   -0.00036397763764699665
-0.009057898865166341   -0.021762131883925773   -0.0005196102438124366
-0.009603609650635163   -0.016390921127671834   -0.00033341654988772027
-0.0062647329999714375   -0.02179248088473951   -0.0004315447805208897
-0.009074582357136225   -0.021737029381911313   -0.00047768655099959605
-0.009603609650635163   -0.016390921127671834   -0.00033341654988772027
-0.009057898865166341   -0.021762131883925773   -0.0005196102438124366
-0.0062647329999714375   -0.02179248088473951   -0.0004315447805208897
-0.009603609650635163   -0.016390921127671834   -0.00033341654988772027
-0.006649205809573855   -0.016425014895320493   -0.00027723659173056953
-0.006615117662644673   -0.016462289201216604   -0.00030238295990193785
-0.0062647329999714375   -0.02179248088473951   -0.0004315447805208897
-0.009603609650635163   -0.016390921127671834   -0.00033341654988772027
-0.006615117662644673   -0.016462289201216604   -0.00030238295990193785
-0.009057898865166341   -0.021762131883925773   -0.0005196102438124366
-0.0062647329999714375   -0.02179248088473951   -0.0004315447805208897
-0.006649205809573855   -0.016425014895320493   -0.00027723659173056953
-0.009074582357136225   -0.021737029381911313   -0.00047768655099959605
-0.0062922721619325835   -0.021765632579093534   -0.0003997498406621373
-0.006649205809573855   -0.016425014895320493   -0.00027723659173056953
-0.009603609650635163   -0.016390921127671834   -0.00033341654988772027
-0.009074582357136225   -0.021737029381911313   -0.00047768655099959605
-0.009629748022554714   -0.016365441706930887   -0.00029992169219629895
-0.0062922721619325835   -0.021765632579093534   -0.0003997498406621373
-0.009093016814040426   -0.021719892364917708   -0.0004322439200232311
-0.009629748022554714   -0.016365441706930887   -0.00029992169219629895
-0.009074582357136225   -0.021737029381911313   -0.00047768655099959605
-0.0062922721619325835   -0.021765632579093534   -0.0003997498406621373
-0.009629748022554714   -0.016365441706930887   -0.00029992169219629895
-0.006683416468033082   -0.01639075903408397   -0.00024944285281354927
-0.006649205809573855   -0.016425014895320493   -0.00027723659173056953
-0.0062922721619325835   -0.021765632579093534   -0.0003997498406621373
-0.009629748022554714   -0.016365441706930887   -0.00029992169219629895
-0.006649205809573855   -0.016425014895320493   -0.00027723659173056953
-0.009074582357136225   -0.021737029381911313   -0.00047768655099959605
-0.009030007781524458   -0.021793618658400883   -0.0005586161929552251
-0.00954240610023126   -0.016450145544831832   -0.0003922056956177672
-0.012060437383621048   -0.021701648826401163   -0.0006167287038606233
-0.009057898865166341   -0.021762131883925773   -0.0005196102438124366
-0.00954240610023126   -0.016450145544831832   -0.0003922056956177672
-0.012684991312119573   -0.016387994614313173   -0.00044183034304870824
-0.012060437383621048   -0.021701648826401163   -0.0006167287038606233
-0.012689487982592486   -0.016363860423522232   -0.0004103791151845728
-0.009057898865166341   -0.021762131883925773   -0.0005196102438124366
-0.012038535824217487   -0.02167522603138804   -0.0005645429344619115
-0.012689487982592486   -0.016363860423522232   -0.0004103791151845728
-0.012060437383621048   -0.021701648826401163   -0.0006167287038606233
-0.009057898865166341   -0.021762131883925773   -0.0005196102438124366
-0.012689487982592486   -0.016363860423522232   -0.0004103791151845728
-0.009577300849048245   -0.016419597688108044   -0.00036397763764699665
-0.00954240610023126   -0.016450145544831832   -0.0003922056956177672
-0.009057898865166341   -0.021762131883925773   -0.0005196102438124366
-0.012689487982592486   -0.016363860423522232   -0.0004103791151845728
-0.00954240610023126   -0.016450145544831832   -0.0003922056956177672
-0.012060437383621048   -0.021701648826401163   -0.0006167287038606233
-0.009057898865166341   -0.021762131883925773   -0.0005196102438124366
-0.009577300849048245   -0.016419597688108044   -0.00036397763764699665
-0.012038535824217487   -0.02167522603138804   -0.0005645429344619115
-0.009074582357136225   -0.021737029381911313   -0.00047768655099959605
-0.009577300849048245   -0.016419597688108044   -0.00036397763764699665
-0.012689487982592486   -0.016363860423522232   -0.0004103791151845728
-0.012038535824217487   -0.02167522603138804   -0.0005645429344619115
-0.012694248865207121   -0.016339603535384783   -0.00037424068678236326
-0.009074582357136225   -0.021737029381911313   -0.00047768655099959605
-0.012020673063101618   -0.021654398659798617   -0.0005070025160502368
-0.012694248865207121   -0.016339603535384783   -0.00037424068678236326
-0.012038535824217487   -0.02167522603138804   -0.0005645429344619115
-0.009074582357136225   -0.021737029381911313   -0.00047768655099959605
-0.012694248865207121   -0.016339603535384783   -0.00037424068678236326
-0.009603609650635163   -0.016390921127671834   -0.00033341654988772027
-0.009577300849048245   -0.016419597688108044   -0.00036397763764699665
-0.009074582357136225   -0.021737029381911313   -0.00047768655099959605
-0.012694248865207121   -0.016339603535384783   -0.00037424068678236326
-0.009577300849048245   -0.016419597688108044   -0.00036397763764699665
-0.012038535824217487   -0.02167522603138804   -0.0005645429344619115
-0.009074582357136225   -0.021737029381911313   -0.00047768655099959605
-0.009603609650635163   -0.016390921127671834   -0.00033341654988772027
-0.012020673063101618   -0.021654398659798617   -0.0005070025160502368
-0.009093016814040426   -0.021719892364917708   -0.0004322439200232311
-0.009603609650635163   -0.016390921127671834   -0.00033341654988772027
-0.012694248865207121   -0.016339603535384783   -0.00037424068678236326
-0.012020673063101618   -0.021654398659798617   -0.0005070025160502368
-0.012681110797127611   -0.016324346638236915   -0.0003339653142831938
-0.009093016814040426   -0.021719892364917708   -0.0004322439200232311
-0.011978816678682115   -0.02164896130078658   -0.00044471683645878505
-0.012681110797127611   -0.016324346638236915   -0.0003339653142831938
-0.012020673063101618   -0.021654398659798617   -0.0005070025160502368
-0.009093016814040426   -0.021719892364917708   -0.0004322439200232311
-0.012681110797127611   -0.016324346638236915   -0.0003339653142831938
-0.009629748022554714   -0.016365441706930887   -0.00029992169219629895
-0.009603609650635163   -0.016390921127671834   -0.00033341654988772027
-0.009093016814040426   -0.021719892364917708   -0.0004322439200232311
-0.012681110797127611   -0.016324346638236915   -0.0003339653142831938
-0.009603609650635163   -0.016390921127671834   -0.00033341654988772027
-0.012020673063101618   -0.021654398659798617   -0.0005070025160502368
0.002415213411334365   -0.01659987158248851   -2.593307098843909e-05
0.0021718020005479744   -0.011087511699465896   6.49875734392093e-05
-0.0007082235260937003   -0.016572997755789805   -0.00014292378194580987
0.002377860717261511   -0.01653165416669484   -2.4482535591139507e-05
0.0021718020005479744   -0.011087511699465896   6.49875734392093e-05
-0.0009797700065580246   -0.011036168224217817   -2.7340977920310484e-05
-0.0007082235260937003   -0.016572997755789805   -0.00014292378194580987
-0.0010228133582215794   -0.010982650149988449   -5.075050641879284e-06
0.002377860717261511   -0.01653165416669484   -2.4482535591139507e-05
-0.0007440139374030432   -0.01651369858978555   -0.00013246308848939722
-0.0010228133582215794   -0.010982650149988449   -5.075050641879284e-06
-0.0007082235260937003   -0.016572997755789805   -0.00014292378194580987
0.002377860717261511   -0.01653165416669484   -2.4482535591139507e-05
-0.0010228133582215794   -0.010982650149988449   -5.075050641879284e-06
0.0021044557122816667   -0.011022646524476081   9.231718126050707e-05
0.0021718020005479744   -0.011087511699465896   6.49875734392093e-05
0.002377860717261511   -0.01653165416669484   -2.4482535591139507e-05
-0.0010228133582215794   -0.010982650149988449   -5.075050641879284e-06
0.0021718020005479744   -0.011087511699465896   6.49875734392093e-05
-0.0007082235260937003   -0.016572997755789805   -0.00014292378194580987
0.002377860717261511   -0.01653165416669484   -2.4482535591139507e-05
0.0021044557122816667   -0.011022646524476081   9.231718126050707e-05
-0.0007440139374030432   -0.01651369858978555   -0.00013246308848939722
0.0023315226750376793   -0.01647107243061725   -1.6882413393284338e-05
0.0021044557122816667   -0.011022646524476081   9.231718126050707e-05
-0.0010228133582215794   -0.010982650149988449   -5.075050641879284e-06
-0.0007440139374030432   -0.01651369858978555   -0.00013246308848939722
-0.0010732405848324269   -0.010926263414801192   2.1211049845350904e-05
0.0023315226750376793   -0.01647107243061725   -1.6882413393284338e-05
-0.0007850379153500302   -0.016457978595232882   -0.0001189875434789165
-0.0010732405848324269   -0.010926263414801192   2.1211049845350904e-05
-0.0007440139374030432   -0.01651369858978555   -0.00013246308848939722
0.0023315226750376793   -0.01647107243061725   -1.6882413393284338e-05
-0.0010732405848324269   -0.010926263414801192   2.1211049845350904e-05
0.00202888393975919   -0.010958461630043806   0.00013191897098404454
0.0021044557122816667   -0.011022646524476081   9.231718126050707e-05
0.0023315226750376793   -0.01647107243061725   -1.6882413393284338e-05
-0.0010732405848324269   -0.010926263414801192   2.1211049845350904e-05
0.0021044557122816667   -0.011022646524476081   9.231718126050707e-05
-0.0007440139374030432   -0.01651369858978555   -0.00013246308848939722
0.0023315226750376793   -0.01647107243061725   -1.6882413393284338e-05
0.00202888393975919   -0.010958461630043806   0.00013191897098404454
-0.0007850379153500302   -0.016457978595232882   -0.0001189875434789165
0.002270311551378827   -0.01640789068781537   -3.4076983835912474e-06
0.00202888393975919   -0.010958461630043806   0.00013191897098404454
-0.0010732405848324269   -0.010926263414801192   2.1211049845350904e-05
-0.0007850379153500302   -0.016457978595232882   -0.0001189875434789165
-0.0011254889117925922   -0.010866480329436604   5.1475487723384924e-05
0.002270311551378827   -0.01640789068781537   -3.4076983835912474e-06
-0.0008312037156048253   -0.016405062484463245   -0.00010174347021261385
-0.0011254889117925922   -0.010866480329436604   5.1475487723384924e-05
-0.0007850379153500302   -0.016457978595232882   -0.0001189875434789165
0.002270311551378827   -0.01640789068781537   -3.4076983835912474e-06
-0.0011254889117925922   -0.010866480329436604   5.1475487723384924e-05
0.001936507631104939   -0.010879523745372589   0.00017555585969618976
0.00202888393975919   -0.010958461630043806   0.00013191897098404454
0.002270311551378827   -0.01640789068781537   -3.4076983835912474e-06
-0.0011254889117925922   -0.010866480329436604   5.1475487723384924e-05
0.00202888393975919   -0.010958461630043806   0.00013191897098404454
-0.0007850379153500302   -0.016457978595232882   -0.0001189875434789165
-0.0007082235260937003   -0.016572997755789805   -0.00014292378194580987
-0.0009797700065580246   -0.011036168224217817   -2.7340977920310484e-05
-0.003667670610493017   -0.016541061488591403   -0.00024141307236173255
-0.0007440139374030432   -0.01651369858978555   -0.00013246308848939722
-0.0009797700065580246   -0.011036168224217817   -2.7340977920310484e-05
-0.0039461960728700025   -0.011022848703901208   -0.00011605111313642756
-0.003667670610493017   -0.016541061488591403   -0.00024141307236173255
-0.003985251291173486   -0.01097635532119848   -9.514794195993909e-05
-0.0007440139374030432   -0.01651369858978555   -0.00013246308848939722
-0.0037043391460790604   -0.0164916961283278   -0.0002249869240051385
-0.003985251291173486   -0.01097635532119848   -9.514794195993909e-05
-0.003667670610493017   -0.016541061488591403   -0.00024141307236173255
-0.0007440139374030432   -0.01651369858978555   -0.00013246308848939722
-0.003985251291173486   -0.01097635532119848   -9.514794195993909e-05
-0.0010228133582215794   -0.010982650149988449   -5.075050641879284e-06
-0.0009797700065580246   -0.011036168224217817   -2.7340977920310484e-05
-0.0007440139374030432   -0.01651369858978555   -0.00013246308848939722
-0.003985251291173486   -0.01097635532119848   -9.514794195993909e-05
-0.0009797700065580246   -0.011036168224217817   -2.7340977920310484e-05
-0.003667670610493017   -0.016541061488591403   -0.00024141307236173255
-0.0007440139374030432   -0.01651369858978555   -0.00013246308848939722
-0.0010228133582215794   -0.010982650149988449   -5.075050641879284e-06
-0.0037043391460790604   -0.0164916961283278   -0.0002249869240051385
-0.0007850379153500302   -0.016457978595232882   -0.0001189875434789165
-0.0010228133582215794   -0.010982650149988449   -5.075050641879284e-06
-0.003985251291173486   -0.01097635532119848   -9.514794195993909e-05
-0.0037043391460790604   -0.0164916961283278   -0.0002249869240051385
-0.004025688642729156   -0.010928031153710107   -7.213540004948185e-05
-0.0007850379153500302   -0.016457978595232882   -0.0001189875434789165
-0.00374184750510591   -0.016445103455106087   -0.0002056793437173188
-0.004025688642729156   -0.010928031153710107   -7.213540004948185e-05
-0.0037043391460790604   -0.0164916961283278   -0.0002249869240051385
-0.0007850379153500302   -0.016457978595232882   -0.0001189875434789165
-0.004025688642729156   -0.010928031153710107   -7.213540004948185e-05
-0.0010732405848324269   -0.010926263414801192   2.1211049845350904e-05
-0.0010228133582215794   -0.010982650149988449   -5.075050641879284e-06
-0.0007850379153500302   -0.016457978595232882   -0.0001189875434789165
-0.004025688642729156   -0.010928031153710107   -7.213540004948185e-05
-0.0010228133582215794   -0.010982650149988449   -5.075050641879284e-06
-0.0037043391460790604   -0.0164916961283278   -0.0002249869240051385
-0.0007850379153500302   -0.016457978595232882   -0.0001189875434789165
-0.0010732405848324269   -0.010926263414801192   2.1211049845350904e-05
-0.00374184750510591   -0.016445103455106087   -0.0002056793437173188
-0.0008312037156048253   -0.016405062484463245   -0.00010174347021261385
-0.0010732405848324269   -0.010926263414801192   2.1211049845350904e-05
-0.004025688642729156   -0.010928031153710107   -7.213540004948185e-05
-0.00374184750510591   -0.016445103455106087   -0.0002056793437173188
-0.004067823972177942   -0.010878791853341226   -4.6600066220039524e-05
-0.0008312037156048253   -0.016405062484463245   -0.00010174347021261385
-0.0037817699475646543   -0.01640203059105263   -0.0001834656545918825
-0.004067823972177942   -0.010878791853341226   -4.6600066220039524e-05
-0.00374184750510591   -0.016445103455106087   -0.0002056793437173188
-0.0008312037156048253   -0.016405062484463245   -0.00010174347021261385
-0.004067823972177942   -0.010878791853341226   -4.6600066220039524e-05
-0.0011254889117925922   -0.010866480329436604   5.1475487723384924e-05
-0.0010732405848324269   -0.010926263414801192   2.1211049845350904e-05
-0.0008312037156048253   -0.016405062484463245   -0.00010174347021261385
-0.004067823972177942   -0.010878791853341226   -4.6600066220039524e-05
-0.0010732405848324269   -0.010926263414801192   2.1211049845350904e-05
-0.00374184750510591   -0.016445103455106087   -0.0002056793437173188
-0.003667670610493017   -0.016541061488591403   -0.00024141307236173255
-0.0039461960728700025   -0.011022848703901208   -0.00011605111313642756
-0.006578652651856412   -0.016502482617313696   -0.0003247460216189889
-0.0037043391460790604   -0.0164916961283278   -0.0002249869240051385
-0.0039461960728700025   -0.011022848703901208   -0.00011605111313642756
-0.006881244483219626   -0.011019100462284586   -0.00019605873695830448
-0.006578652651856412   -0.016502482617313696   -0.0003247460216189889
-0.006918653465840576   -0.010978489448956113   -0.00017595809452616493
-0.0037043391460790604   -0.0164916961283278   -0.0002249869240051385
-0.006615117662644673   -0.016462289201216604   -0.00030238295990193785
-0.006918653465840576   -0.010978489448956113   -0.00017595809452616493
-0.006578652651856412   -0.016502482617313696   -0.0003247460216189889
-0.0037043391460790604   -0.0164916961283278   -0.0002249869240051385
-0.006918653465840576   -0.010978489448956113   -0.00017595809452616493
-0.003985251291173486   -0.01097635532119848   -9.514794195993909e-05
-0.0039461960728700025   -0.011022848703901208   -0.00011605111313642756
-0.0037043391460790604   -0.0164916961283278   -0.0002249869240051385
-0.006918653465840576   -0.010978489448956113   -0.00017595809452616493
-0.0039461960728700025   -0.011022848703901208   -0.00011605111313642756
-0.006578652651856412   -0.016502482617313696   -0.0003247460216189889
-0.0037043391460790604   -0.0164916961283278   -0.0002249869240051385
-0.003985251291173486   -0.01097635532119848   -9.514794195993909e-05
-0.006615117662644673   -0.016462289201216604   -0.00030238295990193785
-0.00374184750510591   -0.016445103455106087   -0.0002056793437173188
-0.003985251291173486   -0.01097635532119848   -9.514794195993909e-05
-0.006918653465840576   -0.010978489448956113   -0.00017595809452616493
-0.006615117662644673   -0.016462289201216604   -0.00030238295990193785
-0.006954293741602487   -0.010937205350883059   -0.00015400698643981616
-0.00374184750510591   -0.016445103455106087   -0.0002056793437173188
-0.006649205809573855   -0.016425014895320493   -0.00027723659173056953
-0.006954293741602487   -0.010937205350883059   -0.00015400698643981616
-0.006615117662644673   -0.016462289201216604   -0.00030238295990193785
-0.00374184750510591   -0.016445103455106087   -0.0002056793437173188
-0.006954293741602487   -0.010937205350883059   -0.00015400698643981616
-0.004025688642729156   -0.010928031153710107   -7.213540004948185e-05
-0.003985251291173486   -0.01097635532119848   -9.514794195993909e-05
-0.00374184750510591   -0.016445103455106087   -0.0002056793437173188
-0.006954293741602487   -0.010937205350883059   -0.00015400698643981616
-0.003985251291173486   -0.01097635532119848   -9.514794195993909e-05
-0.006615117662644673   -0.016462289201216604   -0.00030238295990193785
-0.00374184750510591   -0.016445103455106087   -0.0002056793437173188
-0.004025688642729156   -0.010928031153710107   -7.213540004948185e-05
-0.006649205809573855   -0.016425014895320493   -0.00027723659173056953
-0.0037817699475646543   -0.01640203059105263   -0.0001834656545918825
-0.004025688642729156   -0.010928031153710107   -7.213540004948185e-05
-0.006954293741602487   -0.010937205350883059   -0.00015400698643981616
-0.006649205809573855   -0.016425014895320493   -0.00027723659173056953
-0.006989579485897796   -0.010895003113097506   -0.0001303047253839525
-0.0037817699475646543   -0.01640203059105263   -0.0001834656545918825
-0.006683416468033082   -0.01639075903408397   -0.00024944285281354927
-0.006989579485897796   -0.010895003113097506   -0.0001303047253839525
-0.006649205809573855   -0.016425014895320493   -0.00027723659173056953
-0.0037817699475646543   -0.01640203059105263   -0.0001834656545918825
-0.006989579485897796   -0.010895003113097506   -0.0001303047253839525
-0.004067823972177942   -0.010878791853341226   -4.6600066220039524e-05
-0.004025688642729156   -0.010928031153710107   -7.213540004948185e-05
-0.0037817699475646543   -0.01640203059105263   -0.0001834656545918825
-0.006989579485897796   -0.010895003113097506   -0.0001303047253839525
-0.004025688642729156   -0.010928031153710107   -7.213540004948185e-05
-0.006649205809573855   -0.016425014895320493   -0.00027723659173056953
-0.006578652651856412   -0.016502482617313696   -0.0003247460216189889
-0.006881244483219626   -0.011019100462284586   -0.00019605873695830448
-0.00954240610023126   -0.016450145544831832   -0.0003922056956177672
-0.006615117662644673   -0.016462289201216604   -0.00030238295990193785
-0.006881244483219626   -0.011019100462284586   -0.00019605873695830448
-0.009878611309398034   -0.011001825861194423   -0.0002629101321820747
-0.00954240610023126   -0.016450145544831832   -0.0003922056956177672
-0.009914271512059102   -0.010968982285239324   -0.00024373365192485123
-0.006615117662644673   -0.016462289201216604   -0.00030238295990193785
-0.009577300849048245   -0.016419597688108044   -0.00036397763764699665
-0.009914271512059102   -0.010968982285239324   -0.00024373365192485123
-0.00954240610023126   -0.016450145544831832   -0.0003922056956177672
-0.006615117662644673   -0.016462289201216604   -0.00030238295990193785
-0.009914271512059102   -0.010968982285239324   -0.00024373365192485123
-0.006918653465840576   -0.010978489448956113   -0.00017595809452616493
-0.006881244483219626   -0.011019100462284586   -0.00019605873695830448
-0.006615117662644673   -0.016462289201216604   -0.00030238295990193785
-0.009914271512059102   -0.010968982285239324   -0.00024373365192485123
-0.006881244483219626   -0.011019100462284586   -0.00019605873695830448
-0.00954240610023126   -0.016450145544831832   -0.0003922056956177672
-0.006615117662644673   -0.016462289201216604   -0.00030238295990193785
-0.006918653465840576   -0.010978489448956113   -0.00017595809452616493
-0.009577300849048245   -0.016419597688108044   -0.00036397763764699665
-0.006649205809573855   -0.016425014895320493   -0.00027723659173056953
-0.006918653465840576   -0.010978489448956113   -0.00017595809452616493
-0.009914271512059102   -0.010968982285239324   -0.00024373365192485123
-0.009577300849048245   -0.016419597688108044   -0.00036397763764699665
-0.009944407257963549   -0.010934359044803225   -0.0002232256893341859
-0.006649205809573855   -0.016425014895320493   -0.00027723659173056953
-0.009603609650635163   -0.016390921127671834   -0.00033341654988772027
-0.009944407257963549   -0.010934359044803225   -0.0002232256893341859
-0.009577300849048245   -0.016419597688108044   -0.00036397763764699665
-0.006649205809573855   -0.016425014895320493   -0.00027723659173056953
-0.009944407257963549   -0.010934359044803225   -0.0002232256893341859
-0.006954293741602487   -0.010937205350883059   -0.00015400698643981616
-0.006918653465840576   -0.010978489448956113   -0.00017595809452616493
-0.006649205809573855   -0.016425014895320493   -0.00027723659173056953
-0.009944407257963549   -0.010934359044803225   -0.0002232256893341859
-0.006918653465840576   -0.010978489448956113   -0.00017595809452616493
-0.009577300849048245   -0.016419597688108044   -0.00036397763764699665
-0.006649205809573855   -0.016425014895320493   -0.00027723659173056953
-0.006954293741602487   -0.010937205350883059   -0.00015400698643981616
-0.009603609650635163   -0.016390921127671834   -0.00033341654988772027
-0.006683416468033082   -0.01639075903408397   -0.00024944285281354927
-0.006954293741602487   -0.010937205350883059   -0.00015400698643981616
-0.009944407257963549   -0.010934359044803225   -0.0002232256893341859
-0.009603609650635163   -0.016390921127671834   -0.00033341654988772027
-0.009972885430605836   -0.01089887776658495   -0.00020082291328230064
-0.006683416468033082   -0.01639075903408397   -0.00024944285281354927
-0.009629748022554714   -0.016365441706930887   -0.00029992169219629895
-0.009972885430605836   -0.01089887776658495   -0.00020082291328230064
-0.009603609650635163   -0.016390921127671834   -0.00033341654988772027
-0.006683416468033082   -0.01639075903408397   -0.00024944285281354927
-0.009972885430605836   -0.01089887776658495   -0.00020082291328230064
-0.006989579485897796   -0.010895003113097506   -0.0001303047253839525
-0.006954293741602487   -0.010937205350883059   -0.00015400698643981616
-0.006683416468033082   -0.01639075903408397   -0.00024944285281354927
-0.009972885430605836   -0.01089887776658495   -0.00020082291328230064
-0.006954293741602487   -0.010937205350883059   -0.00015400698643981616
-0.009603609650635163   -0.016390921127671834   -0.00033341654988772027
-0.00954240610023126   -0.016450145544831832   -0.0003922056956177672
-0.009878611309398034   -0.011001825861194423   -0.0002629101321820747
-0.012684991312119573   -0.016387994614313173   -0.00044183034304870824
-0.009577300849048245   -0.016419597688108044   -0.00036397763764699665
-0.009878611309398034   -0.011001825861194423   -0.0002629101321820747
-0.013020056468165831   -0.010973139037472612   -0.0003117987169691037
-0.012684991312119573   -0.016387994614313173   -0.00044183034304870824
-0.01304179784118754   -0.010945819708006786   -0.00029716189003283194
-0.009577300849048245   -0.016419597688108044   -0.00036397763764699665
-0.012689487982592486   -0.016363860423522232   -0.0004103791151845728
-0.01304179784118754   -0.010945819708006786   -0.00029716189003283194
-0.012684991312119573   -0.016387994614313173   -0.00044183034304870824
-0.009577300849048245   -0.016419597688108044   -0.00036397763764699665
-0.01304179784118754   -0.010945819708006786   -0.00029716189003283194
-0.009914271512059102   -0.010968982285239324   -0.00024373365192485123
-0.009878611309398034   -0.011001825861194423   -0.0002629101321820747
-0.009577300849048245   -0.016419597688108044   -0.00036397763764699665
-0.01304179784118754   -0.010945819708006786   -0.00029716189003283194
-0.009878611309398034   -0.011001825861194423   -0.0002629101321820747
-0.012684991312119573   -0.016387994614313173   -0.00044183034304870824
-0.009577300849048245   -0.016419597688108044   -0.00036397763764699665
-0.009914271512059102   -0.010968982285239324   -0.00024373365192485123
-0.012689487982592486   -0.016363860423522232   -0.0004103791151845728
-0.009603609650635163   -0.016390921127671834   -0.00033341654988772027
-0.009914271512059102   -0.010968982285239324   -0.00024373365192485123
-0.01304179784118754   -0.010945819708006786   -0.00029716189003283194
-0.012689487982592486   -0.016363860423522232   -0.0004103791151845728
-0.013061678103621736   -0.010914801782463615   -0.00027929422317666446
-0.009603609650635163   -0.016390921127671834   -0.00033341654988772027
-0.012694248865207121   -0.016339603535384783   -0.00037424068678236326
-0.013061678103621736   -0.010914801782463615   -0.00027929422317666446
-0.012689487982592486   -0.016363860423522232   -0.0004103791151845728
-0.009603609650635163   -0.016390921127671834   -0.00033341654988772027
-0.013061678103621736   -0.010914801782463615   -0.00027929422317666446
-0.009944407257963549   -0.010934359044803225   -0.0002232256893341859
-0.009914271512059102   -0.010968982285239324   -0.00024373365192485123
-0.009603609650635163   -0.016390921127671834   -0.00033341654988772027
-0.013061678103621736   -0.010914801782463615   -0.00027929422317666446
-0.009914271512059102   -0.010968982285239324   -0.00024373365192485123
-0.012689487982592486   -0.016363860423522232   -0.0004103791151845728
-0.009603609650635163   -0.016390921127671834   -0.00033341654988772027
-0.009944407257963549   -0.010934359044803225   -0.0002232256893341859
-0.012694248865207121   -0.016339603535384783   -0.00037424068678236326
-0.009629748022554714   -0.016365441706930887   -0.00029992169219629895
-0.009944407257963549   -0.010934359044803225   -0.0002232256893341859
-0.013061678103621736   -0.010914801782463615   -0.00027929422317666446
-0.012694248865207121   -0.016339603535384783   -0.00037424068678236326
-0.013070839785862723   -0.010886651296480549   -0.0002589835749113334
-0.009629748022554714   -0.016365441706930887   -0.00029992169219629895
-0.012681110797127611   -0.016324346638236915   -0.0003339653142831938
-0.013070839785862723   -0.010886651296480549   -0.0002589835749113334
-0.012694248865207121   -0.016339603535384783   -0.00037424068678236326
-0.009629748022554714   -0.016365441706930887   -0.00029992169219629895
-0.013070839785862723   -0.010886651296480549   -0.0002589835749113334
-0.009972885430605836   -0.01089887776658495   -0.00020082291328230064
-0.009944407257963549   -0.010934359044803225   -0.0002232256893341859
-0.009629748022554714   -0.016365441706930887   -0.00029992169219629895
-0.013070839785862723   -0.010886651296480549   -0.0002589835749113334
-0.009944407257963549   -0.010934359044803225   -0.0002232256893341859
-0.012694248865207121   -0.016339603535384783   -0.00037424068678236326
0.0021718020005479744   -0.011087511699465896   6.49875734392093e-05
0.0015260488416521546   -0.005576458409584529   7.034078336608304e-05
-0.0009797700065580246   -0.011036168224217817   -2.7340977920310484e-05
0.0021044557122816667   -0.011022646524476081   9.231718126050707e-05
0.0015260488416521546   -0.005576458409584529   7.034078336608304e-05
-0.0014181399184525583   -0.005505541524896292   3.805731804566683e-05
-0.0009797700065580246   -0.011036168224217817   -2.7340977920310484e-05
-0.001461140684011945   -0.005479218730074581   6.927617784726394e-05
0.0021044557122816667   -0.011022646524476081   9.231718126050707e-05
-0.0010228133582215794   -0.010982650149988449   -5.075050641879284e-06
-0.001461140684011945   -0.005479218730074581   6.927617784726394e-05
-0.0009797700065580246   -0.011036168224217817   -2.7340977920310484e-05
0.0021044557122816667   -0.011022646524476081   9.231718126050707e-05
-0.001461140684011945   -0.005479218730074581   6.927617784726394e-05
0.0013918132207444238   -0.005507235865014406   0.00014734822389276007
0.0015260488416521546   -0.005576458409584529   7.034078336608304e-05
0.0021044557122816667   -0.011022646524476081   9.231718126050707e-05
-0.001461140684011945   -0.005479218730074581   6.927617784726394e-05
0.0015260488416521546   -0.005576458409584529   7.034078336608304e-05
-0.0009797700065580246   -0.011036168224217817   -2.7340977920310484e-05
0.0021044557122816667   -0.011022646524476081   9.231718126050707e-05
0.0013918132207444238   -0.005507235865014406   0.00014734822389276007
-0.0010228133582215794   -0.010982650149988449   -5.075050641879284e-06
0.00202888393975919   -0.010958461630043806   0.00013191897098404454
0.0013918132207444238   -0.005507235865014406   0.00014734822389276007
-0.001461140684011945   -0.005479218730074581   6.927617784726394e-05
-0.0010228133582215794   -0.010982650149988449   -5.075050641879284e-06
-0.0015179709810426332   -0.0054312688610872   0.00010727591855968942
0.00202888393975919   -0.010958461630043806   0.00013191897098404454
-0.0010732405848324269   -0.010926263414801192   2.1211049845350904e-05
-0.0015179709810426332   -0.0054312688610872   0.00010727591855968942
-0.0010228133582215794   -0.010982650149988449   -5.075050641879284e-06
0.00202888393975919   -0.010958461630043806   0.00013191897098404454
-0.0015179709810426332   -0.0054312688610872   0.00010727591855968942
0.0013133491164650014   -0.0054511207170286615   0.00020463984420738125
0.0013918132207444238   -0.005507235865014406   0.00014734822389276007
0.00202888393975919   -0.010958461630043806   0.00013191897098404454
-0.0015179709810426332   -0.0054312688610872   0.00010727591855968942
0.0013918132207444238   -0.005507235865014406   0.00014734822389276007
-0.0010228133582215794   -0.010982650149988449   -5.075050641879284e-06
0.00202888393975919   -0.010958461630043806   0.00013191897098404454
0.0013133491164650014   -0.0054511207170286615   0.00020463984420738125
-0.0010732405848324269   -0.010926263414801192   2.1211049845350904e-05
0.001936507631104939   -0.010879523745372589   0.00017555585969618976
0.0013133491164650014   -0.0054511207170286615   0.00020463984420738125
-0.0015179709810426332   -0.0054312688610872   0.00010727591855968942
-0.0010732405848324269   -0.010926263414801192   2.1211049845350904e-05
-0.0015658893702410815   -0.005379904508277863   0.0001407075289815026
0.001936507631104939   -0.010879523745372589   0.00017555585969618976
-0.0011254889117925922   -0.010866480329436604   5.1475487723384924e-05
-0.0015658893702410815   -0.005379904508277863   0.0001407075289815026
-0.0010732405848324269   -0.010926263414801192   2.1211049845350904e-05
0.001936507631104939   -0.010879523745372589   0.00017555585969618976
-0.0015658893702410815   -0.005379904508277863   0.0001407075289815026
0.001212566111879091   -0.005364883185212787   0.00027032368380280983
0.0013133491164650014   -0.0054511207170286615   0.00020463984420738125
0.001936507631104939   -0.010879523745372589   0.00017555585969618976
-0.0015658893702410815   -0.005379904508277863   0.0001407075289815026
0.0013133491164650014   -0.0054511207170286615   0.00020463984420738125
-0.0010732405848324269   -0.010926263414801192   2.1211049845350904e-05
-0.0009797700065580246   -0.011036168224217817   -2.7340977920310484e-05
-0.0014181399184525583   -0.005505541524896292   3.805731804566683e-05
-0.0039461960728700025   -0.011022848703901208   -0.00011605111313642756
-0.0010228133582215794   -0.010982650149988449   -5.075050641879284e-06
-0.0014181399184525583   -0.005505541524896292   3.805731804566683e-05
-0.004216334971912184   -0.0055879110848395105   -3.180034327113102e-05
-0.0039461960728700025   -0.011022848703901208   -0.00011605111313642756
-0.004256210013989429   -0.005546904087100039   -9.572263008426221e-06
-0.0010228133582215794   -0.010982650149988449   -5.075050641879284e-06
-0.003985251291173486   -0.01097635532119848   -9.514794195993909e-05
-0.004256210013989429   -0.005546904087100039   -9.572263008426221e-06
-0.0039461960728700025   -0.011022848703901208   -0.00011605111313642756
-0.0010228133582215794   -0.010982650149988449   -5.075050641879284e-06
-0.004256210013989429   -0.005546904087100039   -9.572263008426221e-06
-0.001461140684011945   -0.005479218730074581   6.927617784726394e-05
-0.0014181399184525583   -0.005505541524896292   3.805731804566683e-05
-0.0010228133582215794   -0.010982650149988449   -5.075050641879284e-06
-0.004256210013989429   -0.005546904087100039   -9.572263008426221e-06
-0.0014181399184525583   -0.005505541524896292   3.805731804566683e-05
-0.0039461960728700025   -0.011022848703901208   -0.00011605111313642756
-0.0010228133582215794   -0.010982650149988449   -5.075050641879284e-06
-0.001461140684011945   -0.005479218730074581   6.927617784726394e-05
-0.003985251291173486   -0.01097635532119848   -9.514794195993909e-05
-0.0010732405848324269   -0.010926263414801192   2.1211049845350904e-05
-0.001461140684011945   -0.005479218730074581   6.927617784726394e-05
-0.004256210013989429   -0.005546904087100039   -9.572263008426221e-06
-0.003985251291173486   -0.01097635532119848   -9.514794195993909e-05
-0.004298100481583698   -0.0055004089782708255   1.4028603194927116e-05
-0.0010732405848324269   -0.010926263414801192   2.1211049845350904e-05
-0.004025688642729156   -0.010928031153710107   -7.213540004948185e-05
-0.004298100481583698   -0.0055004089782708255   1.4028603194927116e-05
-0.003985251291173486   -0.01097635532119848   -9.514794195993909e-05
-0.0010732405848324269   -0.010926263414801192   2.1211049845350904e-05
-0.004298100481583698   -0.0055004089782708255   1.4028603194927116e-05
-0.0015179709810426332   -0.0054312688610872   0.00010727591855968942
-0.001461140684011945   -0.005479218730074581   6.927617784726394e-05
-0.0010732405848324269   -0.010926263414801192   2.1211049845350904e-05
-0.004298100481583698   -0.0055004089782708255   1.4028603194927116e-05
-0.001461140684011945   -0.005479218730074581   6.927617784726394e-05
-0.003985251291173486   -0.01097635532119848   -9.514794195993909e-05
-0.0010732405848324269   -0.010926263414801192   2.1211049845350904e-05
-0.0015179709810426332   -0.0054312688610872   0.00010727591855968942
-0.004025688642729156   -0.010928031153710107   -7.213540004948185e-05
-0.0011254889117925922   -0.010866480329436604   5.1475487723384924e-05
-0.0015179709810426332   -0.0054312688610872   0.00010727591855968942
-0.004298100481583698   -0.0055004089782708255   1.4028603194927116e-05
-0.004025688642729156   -0.010928031153710107   -7.213540004948185e-05
-0.0043380431754667876   -0.0054494480664742245   4.0102200802258484e-05
-0.0011254889117925922   -0.010866480329436604   5.1475487723384924e-05
-0.004067823972177942   -0.010878791853341226   -4.6600066220039524e-05
-0.0043380431754667876   -0.0054494480664742245   4.0102200802258484e-05
-0.004025688642729156   -0.010928031153710107   -7.213540004948185e-05
-0.0011254889117925922   -0.010866480329436604   5.1475487723384924e-05
-0.0043380431754667876   -0.0054494480664742245   4.0102200802258484e-05
-0.0015658893702410815   -0.005379904508277863   0.0001407075289815026
-0.0015179709810426332   -0.0054312688610872   0.00010727591855968942
-0.0011254889117925922   -0.010866480329436604   5.1475487723384924e-05
-0.0043380431754667876   -0.0054494480664742245   4.0102200802258484e-05
-0.0015179709810426332   -0.0054312688610872   0.00010727591855968942
-0.004025688642729156   -0.010928031153710107   -7.213540004948185e-05
-0.0039461960728700025   -0.011022848703901208   -0.00011605111313642756
-0.004216334971912184   -0.0055879110848395105   -3.180034327113102e-05
-0.006881244483219626   -0.011019100462284586   -0.00019605873695830448
-0.003985251291173486   -0.01097635532119848   -9.514794195993909e-05
-0.004216334971912184   -0.0055879110848395105   -3.180034327113102e-05
-0.007081428646110792   -0.005652284060075948   -0.00010971322760573341
-0.006881244483219626   -0.011019100462284586   -0.00019605873695830448
-0.007117365310938621   -0.005610126971178107   -9.239491667819187e-05
-0.003985251291173486   -0.01097635532119848   -9.514794195993909e-05
-0.006918653465840576   -0.010978489448956113   -0.00017595809452616493
-0.007117365310938621   -0.005610126971178107   -9.239491667819187e-05
-0.006881244483219626   -0.011019100462284586   -0.00019605873695830448
-0.003985251291173486   -0.01097635532119848   -9.514794195993909e-05
-0.007117365310938621   -0.005610126971178107   -9.239491667819187e-05
-0.004256210013989429   -0.005546904087100039   -9.572263008426221e-06
-0.004216334971912184   -0.0055879110848395105   -3.180034327113102e-05
-0.003985251291173486   -0.01097635532119848   -9.514794195993909e-05
-0.007117365310938621   -0.005610126971178107   -9.239491667819187e-05
-0.004216334971912184   -0.0055879110848395105   -3.180034327113102e-05
-0.006881244483219626   -0.011019100462284586   -0.00019605873695830448
-0.003985251291173486   -0.01097635532119848   -9.514794195993909e-05
-0.004256210013989429   -0.005546904087100039   -9.572263008426221e-06
-0.006918653465840576   -0.010978489448956113   -0.00017595809452616493
-0.004025688642729156   -0.010928031153710107   -7.213540004948185e-05
-0.004256210013989429   -0.005546904087100039   -9.572263008426221e-06
-0.007117365310938621   -0.005610126971178107   -9.239491667819187e-05
-0.006918653465840576   -0.010978489448956113   -0.00017595809452616493
-0.007151849252212769   -0.005565515988945546   -7.507832394444489e-05
-0.004025688642729156   -0.010928031153710107   -7.213540004948185e-05
-0.006954293741602487   -0.010937205350883059   -0.00015400698643981616
-0.007151849252212769   -0.005565515988945546   -7.507832394444489e-05
-0.006918653465840576   -0.010978489448956113   -0.00017595809452616493
-0.004025688642729156   -0.010928031153710107   -7.213540004948185e-05
-0.007151849252212769   -0.005565515988945546   -7.507832394444489e-05
-0.004298100481583698   -0.0055004089782708255   1.4028603194927116e-05
-0.004256210013989429   -0.005546904087100039   -9.572263008426221e-06
-0.004025688642729156   -0.010928031153710107   -7.213540004948185e-05
-0.007151849252212769   -0.005565515988945546   -7.507832394444489e-05
-0.004256210013989429   -0.005546904087100039   -9.572263008426221e-06
-0.006918653465840576   -0.010978489448956113   -0.00017595809452616493
-0.004025688642729156   -0.010928031153710107   -7.213540004948185e-05
-0.004298100481583698   -0.0055004089782708255   1.4028603194927116e-05
-0.006954293741602487   -0.010937205350883059   -0.00015400698643981616
-0.004067823972177942   -0.010878791853341226   -4.6600066220039524e-05
-0.004298100481583698   -0.0055004089782708255   1.4028603194927116e-05
-0.007151849252212769   -0.005565515988945546   -7.507832394444489e-05
-0.006954293741602487   -0.010937205350883059   -0.00015400698643981616
-0.007183705449790259   -0.005517148462996205   -5.616794423071894e-05
-0.004067823972177942   -0.010878791853341226   -4.6600066220039524e-05
-0.006989579485897796   -0.010895003113097506   -0.0001303047253839525
-0.007183705449790259   -0.005517148462996205   -5.616794423071894e-05
-0.006954293741602487   -0.010937205350883059   -0.00015400698643981616
-0.004067823972177942   -0.010878791853341226   -4.6600066220039524e-05
-0.007183705449790259   -0.005517148462996205   -5.616794423071894e-05
-0.0043380431754667876   -0.0054494480664742245   4.0102200802258484e-05
-0.004298100481583698   -0.0055004089782708255   1.4028603194927116e-05
-0.004067823972177942   -0.010878791853341226   -4.6600066220039524e-05
-0.007183705449790259   -0.005517148462996205   -5.616794423071894e-05
-0.004298100481583698   -0.0055004089782708255   1.4028603194927116e-05
-0.006954293741602487   -0.010937205350883059   -0.00015400698643981616
-0.006881244483219626   -0.011019100462284586   -0.00019605873695830448
-0.007081428646110792   -0.005652284060075948   -0.00010971322760573341
-0.009878611309398034   -0.011001825861194423   -0.0002629101321820747
-0.006918653465840576   -0.010978489448956113   -0.00017595809452616493
-0.007081428646110792   -0.005652284060075948   -0.00010971322760573341
-0.010047212153852852   -0.00567878591175801   -0.000181526280750146
-0.009878611309398034   -0.011001825861194423   -0.0002629101321820747
-0.010079615091416028   -0.005641068064092116   -0.000168824669256103
-0.006918653465840576   -0.010978489448956113   -0.00017595809452616493
-0.009914271512059102   -0.010968982285239324   -0.00024373365192485123
-0.010079615091416028   -0.005641068064092116   -0.000168824669256103
-0.009878611309398034   -0.011001825861194423   -0.0002629101321820747
-0.006918653465840576   -0.010978489448956113   -0.00017595809452616493
-0.010079615091416028   -0.005641068064092116   -0.000168824669256103
-0.007117365310938621   -0.005610126971178107   -9.239491667819187e-05
-0.007081428646110792   -0.005652284060075948   -0.00010971322760573341
-0.006918653465840576   -0.010978489448956113   -0.00017595809452616493
-0.010079615091416028   -0.005641068064092116   -0.000168824669256103
-0.007081428646110792   -0.005652284060075948   -0.00010971322760573341
-0.009878611309398034   -0.011001825861194423   -0.0002629101321820747
-0.006918653465840576   -0.010978489448956113   -0.00017595809452616493
-0.007117365310938621   -0.005610126971178107   -9.239491667819187e-05
-0.009914271512059102   -0.010968982285239324   -0.00024373365192485123
-0.006954293741602487   -0.010937205350883059   -0.00015400698643981616
-0.007117365310938621   -0.005610126971178107   -9.239491667819187e-05
-0.010079615091416028   -0.005641068064092116   -0.000168824669256103
-0.009914271512059102   -0.010968982285239324   -0.00024373365192485123
-0.010108495036059602   -0.0055998710791492585   -0.00015643518801057872
-0.006954293741602487   -0.010937205350883059   -0.00015400698643981616
-0.009944407257963549   -0.010934359044803225   -0.0002232256893341859
-0.010108495036059602   -0.0055998710791492585   -0.00015643518801057872
-0.009914271512059102   -0.010968982285239324   -0.00024373365192485123
-0.006954293741602487   -0.010937205350883059   -0.00015400698643981616
-0.010108495036059602   -0.0055998710791492585   -0.00015643518801057872
-0.007151849252212769   -0.005565515988945546   -7.507832394444489e-05
-0.007117365310938621   -0.005610126971178107   -9.239491667819187e-05
-0.006954293741602487   -0.010937205350883059   -0.00015400698643981616
-0.010108495036059602   -0.0055998710791492585   -0.00015643518801057872
-0.007117365310938621   -0.005610126971178107   -9.239491667819187e-05
-0.009914271512059102   -0.010968982285239324   -0.00024373365192485123
-0.006954293741602487   -0.010937205350883059   -0.00015400698643981616
-0.007151849252212769   -0.005565515988945546   -7.507832394444489e-05
-0.009944407257963549   -0.010934359044803225   -0.0002232256893341859
-0.006989579485897796   -0.010895003113097506   -0.0001303047253839525
-0.007151849252212769   -0.005565515988945546   -7.507832394444489e-05
-0.010108495036059602   -0.0055998710791492585   -0.00015643518801057872
-0.009944407257963549   -0.010934359044803225   -0.0002232256893341859
-0.010134667734629732   -0.005555960520848612   -0.00014361943073634651
-0.006989579485897796   -0.010895003113097506   -0.0001303047253839525
-0.009972885430605836   -0.01089887776658495   -0.00020082291328230064
-0.010134667734629732   -0.005555960520848612   -0.00014361943073634651
-0.009944407257963549   -0.010934359044803225   -0.0002232256893341859
-0.006989579485897796   -0.010895003113097506   -0.0001303047253839525
-0.010134667734629732   -0.005555960520848612   -0.00014361943073634651
-0.007183705449790259   -0.005517148462996205   -5.616794423071894e-05
-0.007151849252212769   -0.005565515988945546   -7.507832394444489e-05
-0.006989579485897796   -0.010895003113097506   -0.0001303047253839525
-0.010134667734629732   -0.005555960520848612   -0.00014361943073634651
-0.007151849252212769   -0.005565515988945546   -7.507832394444489e-05
-0.009944407257963549   -0.010934359044803225   -0.0002232256893341859
-0.009878611309398034   -0.011001825861194423   -0.0002629101321820747
-0.010047212153852852   -0.00567878591175801   -0.000181526280750146
-0.013020056468165831   -0.010973139037472612   -0.0003117987169691037
-0.009914271512059102   -0.010968982285239324   -0.00024373365192485123
-0.010047212153852852   -0.00567878591175801   -0.000181526280750146
-0.013120193124632886   -0.005681610233922342   -0.00024075875099364606
-0.013020056468165831   -0.010973139037472612   -0.0003117987169691037
-0.013147908049868982   -0.0056450650244619545   -0.00023515737327086588
-0.009914271512059102   -0.010968982285239324   -0.00024373365192485123
-0.01304179784118754   -0.010945819708006786   -0.00029716189003283194
-0.013147908049868982   -0.0056450650244619545   -0.00023515737327086588
-0.013020056468165831   -0.010973139037472612   -0.0003117987169691037
-0.009914271512059102   -0.010968982285239324   -0.00024373365192485123
-0.013147908049868982   -0.0056450650244619545   -0.00023515737327086588
-0.010079615091416028   -0.005641068064092116   -0.000168824669256103
-0.010047212153852852   -0.00567878591175801   -0.000181526280750146
-0.009914271512059102   -0.010968982285239324   -0.00024373365192485123
-0.013147908049868982   -0.0056450650244619545   -0.00023515737327086588
-0.010047212153852852   -0.00567878591175801   -0.000181526280750146
-0.013020056468165831   -0.010973139037472612   -0.0003117987169691037
-0.009914271512059102   -0.010968982285239324   -0.00024373365192485123
-0.010079615091416028   -0.005641068064092116   -0.000168824669256103
-0.01304179784118754   -0.010945819708006786   -0.00029716189003283194
-0.009944407257963549   -0.010934359044803225   -0.0002232256893341859
-0.010079615091416028   -0.005641068064092116   -0.000168824669256103
-0.013147908049868982   -0.0056450650244619545   -0.00023515737327086588
-0.01304179784118754   -0.010945819708006786   -0.00029716189003283194
-0.013172738353395977   -0.005605435833892301   -0.00022857876493058034
-0.009944407257963549   -0.010934359044803225   -0.0002232256893341859
-0.013061678103621736   -0.010914801782463615   -0.00027929422317666446
-0.013172738353395977   -0.005605435833892301   -0.00022857876493058034
-0.01304179784118754   -0.010945819708006786   -0.00029716189003283194
-0.009944407257963549   -0.010934359044803225   -0.0002232256893341859
-0.013172738353395977   -0.005605435833892301   -0.00022857876493058034
-0.010108495036059602   -0.0055998710791492585   -0.00015643518801057872
-0.010079615091416028   -0.005641068064092116   -0.000168824669256103
-0.009944407257963549   -0.010934359044803225   -0.0002232256893341859
-0.013172738353395977   -0.005605435833892301   -0.00022857876493058034
-0.010079615091416028   -0.005641068064092116   -0.000168824669256103
-0.01304179784118754   -0.010945819708006786   -0.00029716189003283194
-0.009944407257963549   -0.010934359044803225   -0.0002232256893341859
-0.010108495036059602   -0.0055998710791492585   -0.00015643518801057872
-0.013061678103621736   -0.010914801782463615   -0.00027929422317666446
-0.009972885430605836   -0.01089887776658495   -0.00020082291328230064
-0.010108495036059602   -0.0055998710791492585   -0.00015643518801057872
-0.013172738353395977   -0.005605435833892301   -0.00022857876493058034
-0.013061678103621736   -0.010914801782463615   -0.00027929422317666446
-0.013193456759522352   -0.005563494438509832   -0.0002223659821857998
-0.009972885430605836   -0.01089887776658495   -0.00020082291328230064
-0.013070839785862723   -0.010886651296480549   -0.0002589835749113334
-0.013193456759522352   -0.005563494438509832   -0.0002223659821857998
-0.013061678103621736   -0.010914801782463615   -0.00027929422317666446
-0.009972885430605836   -0.01089887776658495   -0.00020082291328230064
-0.013193456759522352   -0.005563494438509832   -0.0002223659821857998
-0.010134667734629732   -0.005555960520848612   -0.00014361943073634651
-0.010108495036059602   -0.0055998710791492585   -0.00015643518801057872
-0.009972885430605836   -0.01089887776658495   -0.00020082291328230064
-0.013193456759522352   -0.005563494438509832   -0.0002223659821857998
-0.010108495036059602   -0.0055998710791492585   -0.00015643518801057872
-0.013061678103621736   -0.010914801782463615   -0.00027929422317666446
0.0015260488416521546   -0.005576458409584529   7.034078336608304e-05
0.0   0.0   0.0
-0.0014181399184525583   -0.005505541524896292   3.805731804566683e-05
0.0013918132207444238   -0.005507235865014406   0.00014734822389276007
0.0   0.0   0.0
-0.00177510954215181   -0.0004588419812407406   -1.2880643876129856e-05
-0.0014181399184525583   -0.005505541524896292   3.805731804566683e-05
-0.0018813552508710931   -0.0003583590437999914   4.915841968900095e-05
0.0013918132207444238   -0.005507235865014406   0.00014734822389276007
-0.001461140684011945   -0.005479218730074581   6.927617784726394e-05
-0.0018813552508710931   -0.0003583590437999914   4.915841968900095e-05
-0.0014181399184525583   -0.005505541524896292   3.805731804566683e-05
0.0013918132207444238   -0.005507235865014406   0.00014734822389276007
-0.0018813552508710931   -0.0003583590437999914   4.915841968900095e-05
0.0   0.0   0.0
0.0   0.0   0.0
0.0013918132207444238   -0.005507235865014406   0.00014734822389276007
-0.0018813552508710931   -0.0003583590437999914   4.915841968900095e-05
0.0   0.0   0.0
-0.0014181399184525583   -0.005505541524896292   3.805731804566683e-05
0.0013918132207444238   -0.005507235865014406   0.00014734822389276007
0.0   0.0   0.0
-0.001461140684011945   -0.005479218730074581   6.927617784726394e-05
0.0013133491164650014   -0.0054511207170286615   0.00020463984420738125
0.0   0.0   0.0
-0.0018813552508710931   -0.0003583590437999914   4.915841968900095e-05
-0.001461140684011945   -0.005479218730074581   6.927617784726394e-05
-0.0019482989342370007   -0.0003101708378886623   8.526448720345705e-05
0.0013133491164650014   -0.0054511207170286615   0.00020463984420738125
-0.0015179709810426332   -0.0054312688610872   0.00010727591855968942
-0.0019482989342370007   -0.0003101708378886623   8.526448720345705e-05
-0.001461140684011945   -0.005479218730074581   6.927617784726394e-05
0.0013133491164650014   -0.0054511207170286615   0.00020463984420738125
-0.0019482989342370007   -0.0003101708378886623   8.526448720345705e-05
0.0   0.0   0.0
0.0   0.0   0.0
0.0013133491164650014   -0.0054511207170286615   0.00020463984420738125
-0.0019482989342370007   -0.0003101708378886623   8.526448720345705e-05
0.0   0.0   0.0
-0.001461140684011945   -0.005479218730074581   6.927617784726394e-05
0.0013133491164650014   -0.0054511207170286615   0.00020463984420738125
0.0   0.0   0.0
-0.0015179709810426332   -0.0054312688610872   0.00010727591855968942
0.001212566111879091   -0.005364883185212787   0.00027032368380280983
0.0   0.0   0.0
-0.0019482989342370007   -0.0003101708378886623   8.526448720345705e-05
-0.0015179709810426332   -0.0054312688610872   0.00010727591855968942
-0.0020385136124731963   -0.00024602969214009723   0.00012676454151952713
0.001212566111879091   -0.005364883185212787   0.00027032368380280983
-0.0015658893702410815   -0.005379904508277863   0.0001407075289815026
-0.0020385136124731963   -0.00024602969214009723   0.00012676454151952713
-0.0015179709810426332   -0.0054312688610872   0.00010727591855968942
0.001212566111879091   -0.005364883185212787   0.00027032368380280983
-0.0020385136124731963   -0.00024602969214009723   0.00012676454151952713
0.0   0.0   0.0
0.0   0.0   0.0
0.001212566111879091   -0.005364883185212787   0.00027032368380280983
-0.0020385136124731963   -0.00024602969214009723   0.00012676454151952713
0.0   0.0   0.0
-0.0015179709810426332   -0.0054312688610872   0.00010727591855968942
-0.0014181399184525583   -0.005505541524896292   3.805731804566683e-05
-0.00177510954215181   -0.0004588419812407406   -1.2880643876129856e-05
-0.004216334971912184   -0.0055879110848395105   -3.180034327113102e-05
-0.001461140684011945   -0.005479218730074581   6.927617784726394e-05
-0.00177510954215181   -0.0004588419812407406   -1.2880643876129856e-05
-0.004340159131196107   -0.0006042359463308021   -9.133336698459594e-06
-0.004216334971912184   -0.0055879110848395105   -3.180034327113102e-05
-0.004395253540729288   -0.0005498084600367059   7.164886508989054e-06
-0.001461140684011945   -0.005479218730074581   6.927617784726394e-05
-0.004256210013989429   -0.005546904087100039   -9.572263008426221e-06
-0.004395253540729288   -0.0005498084600367059   7.164886508989054e-06
-0.004216334971912184   -0.0055879110848395105   -3.180034327113102e-05
-0.001461140684011945   -0.005479218730074581   6.927617784726394e-05
-0.004395253540729288   -0.0005498084600367059   7.164886508989054e-06
-0.0018813552508710931   -0.0003583590437999914   4.915841968900095e-05
-0.00177510954215181   -0.0004588419812407406   -1.2880643876129856e-05
-0.001461140684011945   -0.005479218730074581   6.927617784726394e-05
-0.004395253540729288   -0.0005498084600367059   7.164886508989054e-06
-0.00177510954215181   -0.0004588419812407406   -1.2880643876129856e-05
-0.004216334971912184   -0.0055879110848395105   -3.180034327113102e-05
-0.001461140684011945   -0.005479218730074581   6.927617784726394e-05
-0.0018813552508710931   -0.0003583590437999914   4.915841968900095e-05
-0.004256210013989429   -0.005546904087100039   -9.572263008426221e-06
-0.0015179709810426332   -0.0054312688610872   0.00010727591855968942
-0.0018813552508710931   -0.0003583590437999914   4.915841968900095e-05
-0.004395253540729288   -0.0005498084600367059   7.164886508989054e-06
-0.004256210013989429   -0.005546904087100039   -9.572263008426221e-06
-0.004450238446884787   -0.00048599584497888544   3.605973964863301e-05
-0.0015179709810426332   -0.0054312688610872   0.00010727591855968942
-0.004298100481583698   -0.0055004089782708255   1.4028603194927116e-05
-0.004450238446884787   -0.00048599584497888544   3.605973964863301e-05
-0.004256210013989429   -0.005546904087100039   -9.572263008426221e-06
-0.0015179709810426332   -0.0054312688610872   0.00010727591855968942
-0.004450238446884787   -0.00048599584497888544   3.605973964863301e-05
-0.0019482989342370007   -0.0003101708378886623   8.526448720345705e-05
-0.0018813552508710931   -0.0003583590437999914   4.915841968900095e-05
-0.0015179709810426332   -0.0054312688610872   0.00010727591855968942
-0.004450238446884787   -0.00048599584497888544   3.605973964863301e-05
-0.0018813552508710931   -0.0003583590437999914   4.915841968900095e-05
-0.004256210013989429   -0.005546904087100039   -9.572263008426221e-06
-0.0015179709810426332   -0.0054312688610872   0.00010727591855968942
-0.0019482989342370007   -0.0003101708378886623   8.526448720345705e-05
-0.004298100481583698   -0.0055004089782708255   1.4028603194927116e-05
-0.0015658893702410815   -0.005379904508277863   0.0001407075289815026
-0.0019482989342370007   -0.0003101708378886623   8.526448720345705e-05
-0.004450238446884787   -0.00048599584497888544   3.605973964863301e-05
-0.004298100481583698   -0.0055004089782708255   1.4028603194927116e-05
-0.004511601802210012   -0.00041192232908745656   6.391348376501177e-05
-0.0015658893702410815   -0.005379904508277863   0.0001407075289815026
-0.0043380431754667876   -0.0054494480664742245   4.0102200802258484e-05
-0.004511601802210012   -0.00041192232908745656   6.391348376501177e-05
-0.004298100481583698   -0.0055004089782708255   1.4028603194927116e-05
-0.0015658893702410815   -0.005379904508277863   0.0001407075289815026
-0.004511601802210012   -0.00041192232908745656   6.391348376501177e-05
-0.0020385136124731963   -0.00024602969214009723   0.00012676454151952713
-0.0019482989342370007   -0.0003101708378886623   8.526448720345705e-05
-0.0015658893702410815   -0.005379904508277863   0.0001407075289815026
-0.004511601802210012   -0.00041192232908745656   6.391348376501177e-05
-0.0019482989342370007   -0.0003101708378886623   8.526448720345705e-05
-0.004298100481583698   -0.0055004089782708255   1.4028603194927116e-05
-0.004216334971912184   -0.0055879110848395105   -3.180034327113102e-05
-0.004340159131196107   -0.0006042359463308021   -9.133336698459594e-06
-0.007081428646110792   -0.005652284060075948   -0.00010971322760573341
-0.004256210013989429   -0.005546904087100039   -9.572263008426221e-06
-0.004340159131196107   -0.0006042359463308021   -9.133336698459594e-06
-0.007150836900805772   -0.0006466399002436874   -5.7344794934440205e-05
-0.007081428646110792   -0.005652284060075948   -0.00010971322760573341
-0.007184454934572173   -0.0006047277617089398   -5.2662411595983226e-05
-0.004256210013989429   -0.005546904087100039   -9.572263008426221e-06
-0.007117365310938621   -0.005610126971178107   -9.239491667819187e-05
-0.007184454934572173   -0.0006047277617089398   -5.2662411595983226e-05
-0.007081428646110792   -0.005652284060075948   -0.00010971322760573341
-0.004256210013989429   -0.005546904087100039   -9.572263008426221e-06
-0.007184454934572173   -0.0006047277617089398   -5.2662411595983226e-05
-0.004395253540729288   -0.0005498084600367059   7.164886508989054e-06
-0.004340159131196107   -0.0006042359463308021   -9.133336698459594e-06
-0.004256210013989429   -0.005546904087100039   -9.572263008426221e-06
-0.007184454934572173   -0.0006047277617089398   -5.2662411595983226e-05
-0.004340159131196107   -0.0006042359463308021   -9.133336698459594e-06
-0.007081428646110792   -0.005652284060075948   -0.00010971322760573341
-0.004256210013989429   -0.005546904087100039   -9.572263008426221e-06
-0.004395253540729288   -0.0005498084600367059   7.164886508989054e-06
-0.007117365310938621   -0.005610126971178107   -9.239491667819187e-05
-0.004298100481583698   -0.0055004089782708255   1.4028603194927116e-05
-0.004395253540729288   -0.0005498084600367059   7.164886508989054e-06
-0.007184454934572173   -0.0006047277617089398   -5.2662411595983226e-05
-0.007117365310938621   -0.005610126971178107   -9.239491667819187e-05
-0.007219445345301912   -0.000555818712419924   -4.4541240998847824e-05
-0.004298100481583698   -0.0055004089782708255   1.4028603194927116e-05
-0.007151849252212769   -0.005565515988945546   -7.507832394444489e-05
-0.007219445345301912   -0.000555818712419924   -4.4541240998847824e-05
-0.007117365310938621   -0.005610126971178107   -9.239491667819187e-05
-0.004298100481583698   -0.0055004089782708255   1.4028603194927116e-05
-0.007219445345301912   -0.000555818712419924   -4.4541240998847824e-05
-0.004450238446884787   -0.00048599584497888544   3.605973964863301e-05
-0.004395253540729288   -0.0005498084600367059   7.164886508989054e-06
-0.004298100481583698   -0.0055004089782708255   1.4028603194927116e-05
-0.007219445345301912   -0.000555818712419924   -4.4541240998847824e-05
-0.004395253540729288   -0.0005498084600367059   7.164886508989054e-06
-0.007117365310938621   -0.005610126971178107   -9.239491667819187e-05
-0.004298100481583698   -0.0055004089782708255   1.4028603194927116e-05
-0.004450238446884787   -0.00048599584497888544   3.605973964863301e-05
-0.007151849252212769   -0.005565515988945546   -7.507832394444489e-05
-0.0043380431754667876   -0.0054494480664742245   4.0102200802258484e-05
-0.004450238446884787   -0.00048599584497888544   3.605973964863301e-05
-0.007219445345301912   -0.000555818712419924   -4.4541240998847824e-05
-0.007151849252212769   -0.005565515988945546   -7.507832394444489e-05
-0.007253039354033793   -0.0004958734986478555   -3.3794681510821174e-05
-0.0043380431754667876   -0.0054494480664742245   4.0102200802258484e-05
-0.007183705449790259   -0.005517148462996205   -5.616794423071894e-05
-0.007253039354033793   -0.0004958734986478555   -3.3794681510821174e-05
-0.007151849252212769   -0.005565515988945546   -7.507832394444489e-05
-0.0043380431754667876   -0.0054494480664742245   4.0102200802258484e-05
-0.007253039354033793   -0.0004958734986478555   -3.3794681510821174e-05
-0.004511601802210012   -0.00041192232908745656   6.391348376501177e-05
-0.004450238446884787   -0.00048599584497888544   3.605973964863301e-05
-0.0043380431754667876   -0.0054494480664742245   4.0102200802258484e-05
-0.007253039354033793   -0.0004958734986478555   -3.3794681510821174e-05
-0.004450238446884787   -0.00048599584497888544   3.605973964863301e-05
-0.007151849252212769   -0.005565515988945546   -7.507832394444489e-05
-0.007081428646110792   -0.005652284060075948   -0.00010971322760573341
-0.007150836900805772   -0.0006466399002436874   -5.7344794934440205e-05
-0.010047212153852852   -0.00567878591175801   -0.000181526280750146
-0.007117365310938621   -0.005610126971178107   -9.239491667819187e-05
-0.007150836900805772   -0.0006466399002436874   -5.7344794934440205e-05
-0.010099500411806484   -0.0006413797598942344   -0.0001280472976308206
-0.010047212153852852   -0.00567878591175801   -0.000181526280750146
-0.01012225589716876   -0.0006041126702324953   -0.00012601726019224971
-0.007117365310938621   -0.005610126971178107   -9.239491667819187e-05
-0.010079615091416028   -0.005641068064092116   -0.000168824669256103
-0.01012225589716876   -0.0006041126702324953   -0.00012601726019224971
-0.010047212153852852   -0.00567878591175801   -0.000181526280750146
-0.007117365310938621   -0.005610126971178107   -9.239491667819187e-05
-0.01012225589716876   -0.0006041126702324953   -0.00012601726019224971
-0.007184454934572173   -0.0006047277617089398   -5.2662411595983226e-05
-0.007150836900805772   -0.0006466399002436874   -5.7344794934440205e-05
-0.007117365310938621   -0.005610126971178107   -9.239491667819187e-05
-0.01012225589716876   -0.0006041126702324953   -0.00012601726019224971
-0.007150836900805772   -0.0006466399002436874   -5.7344794934440205e-05
-0.010047212153852852   -0.00567878591175801   -0.000181526280750146
-0.007117365310938621   -0.005610126971178107   -9.239491667819187e-05
-0.007184454934572173   -0.0006047277617089398   -5.2662411595983226e-05
-0.010079615091416028   -0.005641068064092116   -0.000168824669256103
-0.007151849252212769   -0.005565515988945546   -7.507832394444489e-05
-0.007184454934572173   -0.0006047277617089398   -5.2662411595983226e-05
-0.01012225589716876   -0.0006041126702324953   -0.00012601726019224971
-0.010079615091416028   -0.005641068064092116   -0.000168824669256103
-0.010145984916527118   -0.0005623782342152426   -0.00012446348323976518
-0.007151849252212769   -0.005565515988945546   -7.507832394444489e-05
-0.010108495036059602   -0.0055998710791492585   -0.00015643518801057872
-0.010145984916527118   -0.0005623782342152426   -0.00012446348323976518
-0.010079615091416028   -0.005641068064092116   -0.000168824669256103
-0.007151849252212769   -0.005565515988945546   -7.507832394444489e-05
-0.010145984916527118   -0.0005623782342152426   -0.00012446348323976518
-0.007219445345301912   -0.000555818712419924   -4.4541240998847824e-05
-0.007184454934572173   -0.0006047277617089398   -5.2662411595983226e-05
-0.007151849252212769   -0.005565515988945546   -7.507832394444489e-05
-0.010145984916527118   -0.0005623782342152426   -0.00012446348323976518
-0.007184454934572173   -0.0006047277617089398   -5.2662411595983226e-05
-0.010079615091416028   -0.005641068064092116   -0.000168824669256103
-0.007151849252212769   -0.005565515988945546   -7.507832394444489e-05
-0.007219445345301912   -0.000555818712419924   -4.4541240998847824e-05
-0.010108495036059602   -0.0055998710791492585   -0.00015643518801057872
-0.007183705449790259   -0.005517148462996205   -5.616794423071894e-05
-0.007219445345301912   -0.000555818712419924   -4.4541240998847824e-05
-0.010145984916527118   -0.0005623782342152426   -0.00012446348323976518
-0.010108495036059602   -0.0055998710791492585   -0.00015643518801057872
-0.010164277323443454   -0.0005169321405260933   -0.00012347357730866848
-0.007183705449790259   -0.005517148462996205   -5.616794423071894e-05
-0.010134667734629732   -0.005555960520848612   -0.00014361943073634651
-0.010164277323443454   -0.0005169321405260933   -0.00012347357730866848
-0.010108495036059602   -0.0055998710791492585   -0.00015643518801057872
-0.007183705449790259   -0.005517148462996205   -5.616794423071894e-05
-0.010164277323443454   -0.0005169321405260933   -0.00012347357730866848
-0.007253039354033793   -0.0004958734986478555   -3.3794681510821174e-05
-0.007219445345301912   -0.000555818712419924   -4.4541240998847824e-05
-0.007183705449790259   -0.005517148462996205   -5.616794423071894e-05
-0.010164277323443454   -0.0005169321405260933   -0.00012347357730866848
-0.007219445345301912   -0.000555818712419924   -4.4541240998847824e-05
-0.010108495036059602   -0.0055998710791492585   -0.00015643518801057872
-0.010047212153852852   -0.00567878591175801   -0.000181526280750146
-0.010099500411806484   -0.0006413797598942344   -0.0001280472976308206
-0.013120193124632886   -0.005681610233922342   -0.00024075875099364606
-0.010079615091416028   -0.005641068064092116   -0.000168824669256103
-0.010099500411806484   -0.0006413797598942344   -0.0001280472976308206
-0.013130707571412048   -0.0006370777278559413   -0.00019777707163710825
-0.013120193124632886   -0.005681610233922342   -0.00024075875099364606
-0.013148977965518718   -0.0005967451622268708   -0.00019765922600120255
-0.010079615091416028   -0.005641068064092116   -0.000168824669256103
-0.013147908049868982   -0.0056450650244619545   -0.00023515737327086588
-0.013148977965518718   -0.0005967451622268708   -0.00019765922600120255
-0.013120193124632886   -0.005681610233922342   -0.00024075875099364606
-0.010079615091416028   -0.005641068064092116   -0.000168824669256103
-0.013148977965518718   -0.0005967451622268708   -0.00019765922600120255
-0.01012225589716876   -0.0006041126702324953   -0.00012601726019224971
-0.010099500411806484   -0.0006413797598942344   -0.0001280472976308206
-0.010079615091416028   -0.005641068064092116   -0.000168824669256103
-0.013148977965518718   -0.0005967451622268708   -0.00019765922600120255
-0.010099500411806484   -0.0006413797598942344   -0.0001280472976308206
-0.013120193124632886   -0.005681610233922342   -0.00024075875099364606
-0.010079615091416028   -0.005641068064092116   -0.000168824669256103
-0.01012225589716876   -0.0006041126702324953   -0.00012601726019224971
-0.013147908049868982   -0.0056450650244619545   -0.00023515737327086588
-0.010108495036059602   -0.0055998710791492585   -0.00015643518801057872
-0.01012225589716876   -0.0006041126702324953   -0.00012601726019224971
-0.013148977965518718   -0.0005967451622268708   -0.00019765922600120255
-0.013147908049868982   -0.0056450650244619545   -0.00023515737327086588
-0.013169010742753359   -0.0005562802576247127   -0.0002006976003820332
-0.010108495036059602   -0.0055998710791492585   -0.00015643518801057872
-0.013172738353395977   -0.005605435833892301   -0.00022857876493058034
-0.013169010742753359   -0.0005562802576247127   -0.0002006976003820332
-0.013147908049868982   -0.0056450650244619545   -0.00023515737327086588
-0.010108495036059602   -0.0055998710791492585   -0.00015643518801057872
-0.013169010742753359   -0.0005562802576247127   -0.0002006976003820332
-0.010145984916527118   -0.0005623782342152426   -0.00012446348323976518
-0.01012225589716876   -0.0006041126702324953   -0.00012601726019224971
-0.010108495036059602   -0.0055998710791492585   -0.00015643518801057872
-0.013169010742753359   -0.0005562802576247127   -0.0002006976003820332
-0.01012225589716876   -0.0006041126702324953   -0.00012601726019224971
-0.013147908049868982   -0.0056450650244619545   -0.00023515737327086588
-0.010108495036059602   -0.0055998710791492585   -0.00015643518801057872
-0.010145984916527118   -0.0005623782342152426   -0.00012446348323976518
-0.013172738353395977   -0.005605435833892301   -0.00022857876493058034
-0.010134667734629732   -0.005555960520848612   -0.00014361943073634651
-0.010145984916527118   -0.0005623782342152426   -0.00012446348323976518
-0.013169010742753359   -0.0005562802576247127   -0.0002006976003820332
-0.013172738353395977   -0.005605435833892301   -0.00022857876493058034
-0.013183857930579483   -0.0005121050088164835   -0.0002038875959435856
-0.010134667734629732   -0.005555960520848612   -0.00014361943073634651
-0.013193456759522352   -0.005563494438509832   -0.0002223659821857998
-0.013183857930579483   -0.0005121050088164835   -0.0002038875959435856
-0.013172738353395977   -0.005605435833892301   -0.00022857876493058034
-0.010134667734629732   -0.005555960520848612   -0.00014361943073634651
-0.013183857930579483   -0.0005121050088164835   -0.0002038875959435856
-0.010164277323443454   -0.0005169321405260933   -0.00012347357730866848
-0.010145984916527118   -0.0005623782342152426   -0.00012446348323976518
-0.010134667734629732   -0.005555960520848612   -0.00014361943073634651
-0.013183857930579483   -0.0005121050088164835   -0.0002038875959435856
-0.010145984916527118   -0.0005623782342152426   -0.00012446348323976518
-0.013172738353395977   -0.005605435833892301   -0.00022857876493058034
              </DataArray>   
          </PointData>  
       </Piece>  
   </UnstructuredGrid> 
</VTKFile> 
