<?xml version="1.0"?> 
<VTKFile type="UnstructuredGrid"> 
   <UnstructuredGrid> 
      <Piece NumberOfPoints="6000"  NumberOfCells="1500">  
          <Points>  
             <DataArray type="Float64" NumberOfComponents="3" format="ascii">   
-500.0   0.0   0.0
-450.0   0.0   0.0
-500.0   30.0   0.0
-500.0   0.0   16.666666666666668
-450.0   0.0   0.0
-450.0   30.0   0.0
-500.0   30.0   0.0
-450.0   30.0   16.666666666666668
-500.0   0.0   16.666666666666668
-500.0   30.0   16.666666666666668
-450.0   30.0   16.666666666666668
-500.0   30.0   0.0
-500.0   0.0   16.666666666666668
-450.0   30.0   16.666666666666668
-450.0   0.0   16.666666666666668
-450.0   0.0   0.0
-500.0   0.0   16.666666666666668
-450.0   30.0   16.666666666666668
-450.0   0.0   0.0
-500.0   30.0   0.0
-500.0   0.0   16.666666666666668
-450.0   0.0   16.666666666666668
-500.0   30.0   16.666666666666668
-500.0   0.0   33.333333333333336
-450.0   0.0   16.666666666666668
-450.0   30.0   16.666666666666668
-500.0   30.0   16.666666666666668
-450.0   30.0   33.333333333333336
-500.0   0.0   33.333333333333336
-500.0   30.0   33.333333333333336
-450.0   30.0   33.333333333333336
-500.0   30.0   16.666666666666668
-500.0   0.0   33.333333333333336
-450.0   30.0   33.333333333333336
-450.0   0.0   33.333333333333336
-450.0   0.0   16.666666666666668
-500.0   0.0   33.333333333333336
-450.0   30.0   33.333333333333336
-450.0   0.0   16.666666666666668
-500.0   30.0   16.666666666666668
-500.0   0.0   33.333333333333336
-450.0   0.0   33.333333333333336
-500.0   30.0   33.333333333333336
-500.0   0.0   50.0
-450.0   0.0   33.333333333333336
-450.0   30.0   33.333333333333336
-500.0   30.0   33.333333333333336
-450.0   30.0   50.0
-500.0   0.0   50.0
-500.0   30.0   50.0
-450.0   30.0   50.0
-500.0   30.0   33.333333333333336
-500.0   0.0   50.0
-450.0   30.0   50.0
-450.0   0.0   50.0
-450.0   0.0   33.333333333333336
-500.0   0.0   50.0
-450.0   30.0   50.0
-450.0   0.0   33.333333333333336
-500.0   30.0   33.333333333333336
-500.0   30.0   0.0
-450.0   30.0   0.0
-500.0   60.0   0.0
-500.0   30.0   16.666666666666668
-450.0   30.0   0.0
-450.0   60.0   0.0
-500.0   60.0   0.0
-450.0   60.0   16.666666666666668
-500.0   30.0   16.666666666666668
-500.0   60.0   16.666666666666668
-450.0   60.0   16.666666666666668
-500.0   60.0   0.0
-500.0   30.0   16.666666666666668
-450.0   60.0   16.666666666666668
-450.0   30.0   16.666666666666668
-450.0   30.0   0.0
-500.0   30.0   16.666666666666668
-450.0   60.0   16.666666666666668
-450.0   30.0   0.0
-500.0   60.0   0.0
-500.0   30.0   16.666666666666668
-450.0   30.0   16.666666666666668
-500.0   60.0   16.666666666666668
-500.0   30.0   33.333333333333336
-450.0   30.0   16.666666666666668
-450.0   60.0   16.666666666666668
-500.0   60.0   16.666666666666668
-450.0   60.0   33.333333333333336
-500.0   30.0   33.333333333333336
-500.0   60.0   33.333333333333336
-450.0   60.0   33.333333333333336
-500.0   60.0   16.666666666666668
-500.0   30.0   33.333333333333336
-450.0   60.0   33.333333333333336
-450.0   30.0   33.333333333333336
-450.0   30.0   16.666666666666668
-500.0   30.0   33.333333333333336
-450.0   60.0   33.333333333333336
-450.0   30.0   16.666666666666668
-500.0   60.0   16.666666666666668
-500.0   30.0   33.333333333333336
-450.0   30.0   33.333333333333336
-500.0   60.0   33.333333333333336
-500.0   30.0   50.0
-450.0   30.0   33.333333333333336
-450.0   60.0   33.333333333333336
-500.0   60.0   33.333333333333336
-450.0   60.0   50.0
-500.0   30.0   50.0
-500.0   60.0   50.0
-450.0   60.0   50.0
-500.0   60.0   33.333333333333336
-500.0   30.0   50.0
-450.0   60.0   50.0
-450.0   30.0   50.0
-450.0   30.0   33.333333333333336
-500.0   30.0   50.0
-450.0   60.0   50.0
-450.0   30.0   33.333333333333336
-500.0   60.0   33.333333333333336
-500.0   60.0   0.0
-450.0   60.0   0.0
-500.0   90.0   0.0
-500.0   60.0   16.666666666666668
-450.0   60.0   0.0
-450.0   90.0   0.0
-500.0   90.0   0.0
-450.0   90.0   16.666666666666668
-500.0   60.0   16.666666666666668
-500.0   90.0   16.666666666666668
-450.0   90.0   16.666666666666668
-500.0   90.0   0.0
-500.0   60.0   16.666666666666668
-450.0   90.0   16.666666666666668
-450.0   60.0   16.666666666666668
-450.0   60.0   0.0
-500.0   60.0   16.666666666666668
-450.0   90.0   16.666666666666668
-450.0   60.0   0.0
-500.0   90.0   0.0
-500.0   60.0   16.666666666666668
-450.0   60.0   16.666666666666668
-500.0   90.0   16.666666666666668
-500.0   60.0   33.333333333333336
-450.0   60.0   16.666666666666668
-450.0   90.0   16.666666666666668
-500.0   90.0   16.666666666666668
-450.0   90.0   33.333333333333336
-500.0   60.0   33.333333333333336
-500.0   90.0   33.333333333333336
-450.0   90.0   33.333333333333336
-500.0   90.0   16.666666666666668
-500.0   60.0   33.333333333333336
-450.0   90.0   33.333333333333336
-450.0   60.0   33.333333333333336
-450.0   60.0   16.666666666666668
-500.0   60.0   33.333333333333336
-450.0   90.0   33.333333333333336
-450.0   60.0   16.666666666666668
-500.0   90.0   16.666666666666668
-500.0   60.0   33.333333333333336
-450.0   60.0   33.333333333333336
-500.0   90.0   33.333333333333336
-500.0   60.0   50.0
-450.0   60.0   33.333333333333336
-450.0   90.0   33.333333333333336
-500.0   90.0   33.333333333333336
-450.0   90.0   50.0
-500.0   60.0   50.0
-500.0   90.0   50.0
-450.0   90.0   50.0
-500.0   90.0   33.333333333333336
-500.0   60.0   50.0
-450.0   90.0   50.0
-450.0   60.0   50.0
-450.0   60.0   33.333333333333336
-500.0   60.0   50.0
-450.0   90.0   50.0
-450.0   60.0   33.333333333333336
-500.0   90.0   33.333333333333336
-500.0   90.0   0.0
-450.0   90.0   0.0
-500.0   120.0   0.0
-500.0   90.0   16.666666666666668
-450.0   90.0   0.0
-450.0   120.0   0.0
-500.0   120.0   0.0
-450.0   120.0   16.666666666666668
-500.0   90.0   16.666666666666668
-500.0   120.0   16.666666666666668
-450.0   120.0   16.666666666666668
-500.0   120.0   0.0
-500.0   90.0   16.666666666666668
-450.0   120.0   16.666666666666668
-450.0   90.0   16.666666666666668
-450.0   90.0   0.0
-500.0   90.0   16.666666666666668
-450.0   120.0   16.666666666666668
-450.0   90.0   0.0
-500.0   120.0   0.0
-500.0   90.0   16.666666666666668
-450.0   90.0   16.666666666666668
-500.0   120.0   16.666666666666668
-500.0   90.0   33.333333333333336
-450.0   90.0   16.666666666666668
-450.0   120.0   16.666666666666668
-500.0   120.0   16.666666666666668
-450.0   120.0   33.333333333333336
-500.0   90.0   33.333333333333336
-500.0   120.0   33.333333333333336
-450.0   120.0   33.333333333333336
-500.0   120.0   16.666666666666668
-500.0   90.0   33.333333333333336
-450.0   120.0   33.333333333333336
-450.0   90.0   33.333333333333336
-450.0   90.0   16.666666666666668
-500.0   90.0   33.333333333333336
-450.0   120.0   33.333333333333336
-450.0   90.0   16.666666666666668
-500.0   120.0   16.666666666666668
-500.0   90.0   33.333333333333336
-450.0   90.0   33.333333333333336
-500.0   120.0   33.333333333333336
-500.0   90.0   50.0
-450.0   90.0   33.333333333333336
-450.0   120.0   33.333333333333336
-500.0   120.0   33.333333333333336
-450.0   120.0   50.0
-500.0   90.0   50.0
-500.0   120.0   50.0
-450.0   120.0   50.0
-500.0   120.0   33.333333333333336
-500.0   90.0   50.0
-450.0   120.0   50.0
-450.0   90.0   50.0
-450.0   90.0   33.333333333333336
-500.0   90.0   50.0
-450.0   120.0   50.0
-450.0   90.0   33.333333333333336
-500.0   120.0   33.333333333333336
-500.0   120.0   0.0
-450.0   120.0   0.0
-500.0   150.0   0.0
-500.0   120.0   16.666666666666668
-450.0   120.0   0.0
-450.0   150.0   0.0
-500.0   150.0   0.0
-450.0   150.0   16.666666666666668
-500.0   120.0   16.666666666666668
-500.0   150.0   16.666666666666668
-450.0   150.0   16.666666666666668
-500.0   150.0   0.0
-500.0   120.0   16.666666666666668
-450.0   150.0   16.666666666666668
-450.0   120.0   16.666666666666668
-450.0   120.0   0.0
-500.0   120.0   16.666666666666668
-450.0   150.0   16.666666666666668
-450.0   120.0   0.0
-500.0   150.0   0.0
-500.0   120.0   16.666666666666668
-450.0   120.0   16.666666666666668
-500.0   150.0   16.666666666666668
-500.0   120.0   33.333333333333336
-450.0   120.0   16.666666666666668
-450.0   150.0   16.666666666666668
-500.0   150.0   16.666666666666668
-450.0   150.0   33.333333333333336
-500.0   120.0   33.333333333333336
-500.0   150.0   33.333333333333336
-450.0   150.0   33.333333333333336
-500.0   150.0   16.666666666666668
-500.0   120.0   33.333333333333336
-450.0   150.0   33.333333333333336
-450.0   120.0   33.333333333333336
-450.0   120.0   16.666666666666668
-500.0   120.0   33.333333333333336
-450.0   150.0   33.333333333333336
-450.0   120.0   16.666666666666668
-500.0   150.0   16.666666666666668
-500.0   120.0   33.333333333333336
-450.0   120.0   33.333333333333336
-500.0   150.0   33.333333333333336
-500.0   120.0   50.0
-450.0   120.0   33.333333333333336
-450.0   150.0   33.333333333333336
-500.0   150.0   33.333333333333336
-450.0   150.0   50.0
-500.0   120.0   50.0
-500.0   150.0   50.0
-450.0   150.0   50.0
-500.0   150.0   33.333333333333336
-500.0   120.0   50.0
-450.0   150.0   50.0
-450.0   120.0   50.0
-450.0   120.0   33.333333333333336
-500.0   120.0   50.0
-450.0   150.0   50.0
-450.0   120.0   33.333333333333336
-500.0   150.0   33.333333333333336
-450.0   0.0   0.0
-400.0   0.0   0.0
-450.0   30.0   0.0
-450.0   0.0   16.666666666666668
-400.0   0.0   0.0
-400.0   30.0   0.0
-450.0   30.0   0.0
-400.0   30.0   16.666666666666668
-450.0   0.0   16.666666666666668
-450.0   30.0   16.666666666666668
-400.0   30.0   16.666666666666668
-450.0   30.0   0.0
-450.0   0.0   16.666666666666668
-400.0   30.0   16.666666666666668
-400.0   0.0   16.666666666666668
-400.0   0.0   0.0
-450.0   0.0   16.666666666666668
-400.0   30.0   16.666666666666668
-400.0   0.0   0.0
-450.0   30.0   0.0
-450.0   0.0   16.666666666666668
-400.0   0.0   16.666666666666668
-450.0   30.0   16.666666666666668
-450.0   0.0   33.333333333333336
-400.0   0.0   16.666666666666668
-400.0   30.0   16.666666666666668
-450.0   30.0   16.666666666666668
-400.0   30.0   33.333333333333336
-450.0   0.0   33.333333333333336
-450.0   30.0   33.333333333333336
-400.0   30.0   33.333333333333336
-450.0   30.0   16.666666666666668
-450.0   0.0   33.333333333333336
-400.0   30.0   33.333333333333336
-400.0   0.0   33.333333333333336
-400.0   0.0   16.666666666666668
-450.0   0.0   33.333333333333336
-400.0   30.0   33.333333333333336
-400.0   0.0   16.666666666666668
-450.0   30.0   16.666666666666668
-450.0   0.0   33.333333333333336
-400.0   0.0   33.333333333333336
-450.0   30.0   33.333333333333336
-450.0   0.0   50.0
-400.0   0.0   33.333333333333336
-400.0   30.0   33.333333333333336
-450.0   30.0   33.333333333333336
-400.0   30.0   50.0
-450.0   0.0   50.0
-450.0   30.0   50.0
-400.0   30.0   50.0
-450.0   30.0   33.333333333333336
-450.0   0.0   50.0
-400.0   30.0   50.0
-400.0   0.0   50.0
-400.0   0.0   33.333333333333336
-450.0   0.0   50.0
-400.0   30.0   50.0
-400.0   0.0   33.333333333333336
-450.0   30.0   33.333333333333336
-450.0   30.0   0.0
-400.0   30.0   0.0
-450.0   60.0   0.0
-450.0   30.0   16.666666666666668
-400.0   30.0   0.0
-400.0   60.0   0.0
-450.0   60.0   0.0
-400.0   60.0   16.666666666666668
-450.0   30.0   16.666666666666668
-450.0   60.0   16.666666666666668
-400.0   60.0   16.666666666666668
-450.0   60.0   0.0
-450.0   30.0   16.666666666666668
-400.0   60.0   16.666666666666668
-400.0   30.0   16.666666666666668
-400.0   30.0   0.0
-450.0   30.0   16.666666666666668
-400.0   60.0   16.666666666666668
-400.0   30.0   0.0
-450.0   60.0   0.0
-450.0   30.0   16.666666666666668
-400.0   30.0   16.666666666666668
-450.0   60.0   16.666666666666668
-450.0   30.0   33.333333333333336
-400.0   30.0   16.666666666666668
-400.0   60.0   16.666666666666668
-450.0   60.0   16.666666666666668
-400.0   60.0   33.333333333333336
-450.0   30.0   33.333333333333336
-450.0   60.0   33.333333333333336
-400.0   60.0   33.333333333333336
-450.0   60.0   16.666666666666668
-450.0   30.0   33.333333333333336
-400.0   60.0   33.333333333333336
-400.0   30.0   33.333333333333336
-400.0   30.0   16.666666666666668
-450.0   30.0   33.333333333333336
-400.0   60.0   33.333333333333336
-400.0   30.0   16.666666666666668
-450.0   60.0   16.666666666666668
-450.0   30.0   33.333333333333336
-400.0   30.0   33.333333333333336
-450.0   60.0   33.333333333333336
-450.0   30.0   50.0
-400.0   30.0   33.333333333333336
-400.0   60.0   33.333333333333336
-450.0   60.0   33.333333333333336
-400.0   60.0   50.0
-450.0   30.0   50.0
-450.0   60.0   50.0
-400.0   60.0   50.0
-450.0   60.0   33.333333333333336
-450.0   30.0   50.0
-400.0   60.0   50.0
-400.0   30.0   50.0
-400.0   30.0   33.333333333333336
-450.0   30.0   50.0
-400.0   60.0   50.0
-400.0   30.0   33.333333333333336
-450.0   60.0   33.333333333333336
-450.0   60.0   0.0
-400.0   60.0   0.0
-450.0   90.0   0.0
-450.0   60.0   16.666666666666668
-400.0   60.0   0.0
-400.0   90.0   0.0
-450.0   90.0   0.0
-400.0   90.0   16.666666666666668
-450.0   60.0   16.666666666666668
-450.0   90.0   16.666666666666668
-400.0   90.0   16.666666666666668
-450.0   90.0   0.0
-450.0   60.0   16.666666666666668
-400.0   90.0   16.666666666666668
-400.0   60.0   16.666666666666668
-400.0   60.0   0.0
-450.0   60.0   16.666666666666668
-400.0   90.0   16.666666666666668
-400.0   60.0   0.0
-450.0   90.0   0.0
-450.0   60.0   16.666666666666668
-400.0   60.0   16.666666666666668
-450.0   90.0   16.666666666666668
-450.0   60.0   33.333333333333336
-400.0   60.0   16.666666666666668
-400.0   90.0   16.666666666666668
-450.0   90.0   16.666666666666668
-400.0   90.0   33.333333333333336
-450.0   60.0   33.333333333333336
-450.0   90.0   33.333333333333336
-400.0   90.0   33.333333333333336
-450.0   90.0   16.666666666666668
-450.0   60.0   33.333333333333336
-400.0   90.0   33.333333333333336
-400.0   60.0   33.333333333333336
-400.0   60.0   16.666666666666668
-450.0   60.0   33.333333333333336
-400.0   90.0   33.333333333333336
-400.0   60.0   16.666666666666668
-450.0   90.0   16.666666666666668
-450.0   60.0   33.333333333333336
-400.0   60.0   33.333333333333336
-450.0   90.0   33.333333333333336
-450.0   60.0   50.0
-400.0   60.0   33.333333333333336
-400.0   90.0   33.333333333333336
-450.0   90.0   33.333333333333336
-400.0   90.0   50.0
-450.0   60.0   50.0
-450.0   90.0   50.0
-400.0   90.0   50.0
-450.0   90.0   33.333333333333336
-450.0   60.0   50.0
-400.0   90.0   50.0
-400.0   60.0   50.0
-400.0   60.0   33.333333333333336
-450.0   60.0   50.0
-400.0   90.0   50.0
-400.0   60.0   33.333333333333336
-450.0   90.0   33.333333333333336
-450.0   90.0   0.0
-400.0   90.0   0.0
-450.0   120.0   0.0
-450.0   90.0   16.666666666666668
-400.0   90.0   0.0
-400.0   120.0   0.0
-450.0   120.0   0.0
-400.0   120.0   16.666666666666668
-450.0   90.0   16.666666666666668
-450.0   120.0   16.666666666666668
-400.0   120.0   16.666666666666668
-450.0   120.0   0.0
-450.0   90.0   16.666666666666668
-400.0   120.0   16.666666666666668
-400.0   90.0   16.666666666666668
-400.0   90.0   0.0
-450.0   90.0   16.666666666666668
-400.0   120.0   16.666666666666668
-400.0   90.0   0.0
-450.0   120.0   0.0
-450.0   90.0   16.666666666666668
-400.0   90.0   16.666666666666668
-450.0   120.0   16.666666666666668
-450.0   90.0   33.333333333333336
-400.0   90.0   16.666666666666668
-400.0   120.0   16.666666666666668
-450.0   120.0   16.666666666666668
-400.0   120.0   33.333333333333336
-450.0   90.0   33.333333333333336
-450.0   120.0   33.333333333333336
-400.0   120.0   33.333333333333336
-450.0   120.0   16.666666666666668
-450.0   90.0   33.333333333333336
-400.0   120.0   33.333333333333336
-400.0   90.0   33.333333333333336
-400.0   90.0   16.666666666666668
-450.0   90.0   33.333333333333336
-400.0   120.0   33.333333333333336
-400.0   90.0   16.666666666666668
-450.0   120.0   16.666666666666668
-450.0   90.0   33.333333333333336
-400.0   90.0   33.333333333333336
-450.0   120.0   33.333333333333336
-450.0   90.0   50.0
-400.0   90.0   33.333333333333336
-400.0   120.0   33.333333333333336
-450.0   120.0   33.333333333333336
-400.0   120.0   50.0
-450.0   90.0   50.0
-450.0   120.0   50.0
-400.0   120.0   50.0
-450.0   120.0   33.333333333333336
-450.0   90.0   50.0
-400.0   120.0   50.0
-400.0   90.0   50.0
-400.0   90.0   33.333333333333336
-450.0   90.0   50.0
-400.0   120.0   50.0
-400.0   90.0   33.333333333333336
-450.0   120.0   33.333333333333336
-450.0   120.0   0.0
-400.0   120.0   0.0
-450.0   150.0   0.0
-450.0   120.0   16.666666666666668
-400.0   120.0   0.0
-400.0   150.0   0.0
-450.0   150.0   0.0
-400.0   150.0   16.666666666666668
-450.0   120.0   16.666666666666668
-450.0   150.0   16.666666666666668
-400.0   150.0   16.666666666666668
-450.0   150.0   0.0
-450.0   120.0   16.666666666666668
-400.0   150.0   16.666666666666668
-400.0   120.0   16.666666666666668
-400.0   120.0   0.0
-450.0   120.0   16.666666666666668
-400.0   150.0   16.666666666666668
-400.0   120.0   0.0
-450.0   150.0   0.0
-450.0   120.0   16.666666666666668
-400.0   120.0   16.666666666666668
-450.0   150.0   16.666666666666668
-450.0   120.0   33.333333333333336
-400.0   120.0   16.666666666666668
-400.0   150.0   16.666666666666668
-450.0   150.0   16.666666666666668
-400.0   150.0   33.333333333333336
-450.0   120.0   33.333333333333336
-450.0   150.0   33.333333333333336
-400.0   150.0   33.333333333333336
-450.0   150.0   16.666666666666668
-450.0   120.0   33.333333333333336
-400.0   150.0   33.333333333333336
-400.0   120.0   33.333333333333336
-400.0   120.0   16.666666666666668
-450.0   120.0   33.333333333333336
-400.0   150.0   33.333333333333336
-400.0   120.0   16.666666666666668
-450.0   150.0   16.666666666666668
-450.0   120.0   33.333333333333336
-400.0   120.0   33.333333333333336
-450.0   150.0   33.333333333333336
-450.0   120.0   50.0
-400.0   120.0   33.333333333333336
-400.0   150.0   33.333333333333336
-450.0   150.0   33.333333333333336
-400.0   150.0   50.0
-450.0   120.0   50.0
-450.0   150.0   50.0
-400.0   150.0   50.0
-450.0   150.0   33.333333333333336
-450.0   120.0   50.0
-400.0   150.0   50.0
-400.0   120.0   50.0
-400.0   120.0   33.333333333333336
-450.0   120.0   50.0
-400.0   150.0   50.0
-400.0   120.0   33.333333333333336
-450.0   150.0   33.333333333333336
-400.0   0.0   0.0
-350.0   0.0   0.0
-400.0   30.0   0.0
-400.0   0.0   16.666666666666668
-350.0   0.0   0.0
-350.0   30.0   0.0
-400.0   30.0   0.0
-350.0   30.0   16.666666666666668
-400.0   0.0   16.666666666666668
-400.0   30.0   16.666666666666668
-350.0   30.0   16.666666666666668
-400.0   30.0   0.0
-400.0   0.0   16.666666666666668
-350.0   30.0   16.666666666666668
-350.0   0.0   16.666666666666668
-350.0   0.0   0.0
-400.0   0.0   16.666666666666668
-350.0   30.0   16.666666666666668
-350.0   0.0   0.0
-400.0   30.0   0.0
-400.0   0.0   16.666666666666668
-350.0   0.0   16.666666666666668
-400.0   30.0   16.666666666666668
-400.0   0.0   33.333333333333336
-350.0   0.0   16.666666666666668
-350.0   30.0   16.666666666666668
-400.0   30.0   16.666666666666668
-350.0   30.0   33.333333333333336
-400.0   0.0   33.333333333333336
-400.0   30.0   33.333333333333336
-350.0   30.0   33.333333333333336
-400.0   30.0   16.666666666666668
-400.0   0.0   33.333333333333336
-350.0   30.0   33.333333333333336
-350.0   0.0   33.333333333333336
-350.0   0.0   16.666666666666668
-400.0   0.0   33.333333333333336
-350.0   30.0   33.333333333333336
-350.0   0.0   16.666666666666668
-400.0   30.0   16.666666666666668
-400.0   0.0   33.333333333333336
-350.0   0.0   33.333333333333336
-400.0   30.0   33.333333333333336
-400.0   0.0   50.0
-350.0   0.0   33.333333333333336
-350.0   30.0   33.333333333333336
-400.0   30.0   33.333333333333336
-350.0   30.0   50.0
-400.0   0.0   50.0
-400.0   30.0   50.0
-350.0   30.0   50.0
-400.0   30.0   33.333333333333336
-400.0   0.0   50.0
-350.0   30.0   50.0
-350.0   0.0   50.0
-350.0   0.0   33.333333333333336
-400.0   0.0   50.0
-350.0   30.0   50.0
-350.0   0.0   33.333333333333336
-400.0   30.0   33.333333333333336
-400.0   30.0   0.0
-350.0   30.0   0.0
-400.0   60.0   0.0
-400.0   30.0   16.666666666666668
-350.0   30.0   0.0
-350.0   60.0   0.0
-400.0   60.0   0.0
-350.0   60.0   16.666666666666668
-400.0   30.0   16.666666666666668
-400.0   60.0   16.666666666666668
-350.0   60.0   16.666666666666668
-400.0   60.0   0.0
-400.0   30.0   16.666666666666668
-350.0   60.0   16.666666666666668
-350.0   30.0   16.666666666666668
-350.0   30.0   0.0
-400.0   30.0   16.666666666666668
-350.0   60.0   16.666666666666668
-350.0   30.0   0.0
-400.0   60.0   0.0
-400.0   30.0   16.666666666666668
-350.0   30.0   16.666666666666668
-400.0   60.0   16.666666666666668
-400.0   30.0   33.333333333333336
-350.0   30.0   16.666666666666668
-350.0   60.0   16.666666666666668
-400.0   60.0   16.666666666666668
-350.0   60.0   33.333333333333336
-400.0   30.0   33.333333333333336
-400.0   60.0   33.333333333333336
-350.0   60.0   33.333333333333336
-400.0   60.0   16.666666666666668
-400.0   30.0   33.333333333333336
-350.0   60.0   33.333333333333336
-350.0   30.0   33.333333333333336
-350.0   30.0   16.666666666666668
-400.0   30.0   33.333333333333336
-350.0   60.0   33.333333333333336
-350.0   30.0   16.666666666666668
-400.0   60.0   16.666666666666668
-400.0   30.0   33.333333333333336
-350.0   30.0   33.333333333333336
-400.0   60.0   33.333333333333336
-400.0   30.0   50.0
-350.0   30.0   33.333333333333336
-350.0   60.0   33.333333333333336
-400.0   60.0   33.333333333333336
-350.0   60.0   50.0
-400.0   30.0   50.0
-400.0   60.0   50.0
-350.0   60.0   50.0
-400.0   60.0   33.333333333333336
-400.0   30.0   50.0
-350.0   60.0   50.0
-350.0   30.0   50.0
-350.0   30.0   33.333333333333336
-400.0   30.0   50.0
-350.0   60.0   50.0
-350.0   30.0   33.333333333333336
-400.0   60.0   33.333333333333336
-400.0   60.0   0.0
-350.0   60.0   0.0
-400.0   90.0   0.0
-400.0   60.0   16.666666666666668
-350.0   60.0   0.0
-350.0   90.0   0.0
-400.0   90.0   0.0
-350.0   90.0   16.666666666666668
-400.0   60.0   16.666666666666668
-400.0   90.0   16.666666666666668
-350.0   90.0   16.666666666666668
-400.0   90.0   0.0
-400.0   60.0   16.666666666666668
-350.0   90.0   16.666666666666668
-350.0   60.0   16.666666666666668
-350.0   60.0   0.0
-400.0   60.0   16.666666666666668
-350.0   90.0   16.666666666666668
-350.0   60.0   0.0
-400.0   90.0   0.0
-400.0   60.0   16.666666666666668
-350.0   60.0   16.666666666666668
-400.0   90.0   16.666666666666668
-400.0   60.0   33.333333333333336
-350.0   60.0   16.666666666666668
-350.0   90.0   16.666666666666668
-400.0   90.0   16.666666666666668
-350.0   90.0   33.333333333333336
-400.0   60.0   33.333333333333336
-400.0   90.0   33.333333333333336
-350.0   90.0   33.333333333333336
-400.0   90.0   16.666666666666668
-400.0   60.0   33.333333333333336
-350.0   90.0   33.333333333333336
-350.0   60.0   33.333333333333336
-350.0   60.0   16.666666666666668
-400.0   60.0   33.333333333333336
-350.0   90.0   33.333333333333336
-350.0   60.0   16.666666666666668
-400.0   90.0   16.666666666666668
-400.0   60.0   33.333333333333336
-350.0   60.0   33.333333333333336
-400.0   90.0   33.333333333333336
-400.0   60.0   50.0
-350.0   60.0   33.333333333333336
-350.0   90.0   33.333333333333336
-400.0   90.0   33.333333333333336
-350.0   90.0   50.0
-400.0   60.0   50.0
-400.0   90.0   50.0
-350.0   90.0   50.0
-400.0   90.0   33.333333333333336
-400.0   60.0   50.0
-350.0   90.0   50.0
-350.0   60.0   50.0
-350.0   60.0   33.333333333333336
-400.0   60.0   50.0
-350.0   90.0   50.0
-350.0   60.0   33.333333333333336
-400.0   90.0   33.333333333333336
-400.0   90.0   0.0
-350.0   90.0   0.0
-400.0   120.0   0.0
-400.0   90.0   16.666666666666668
-350.0   90.0   0.0
-350.0   120.0   0.0
-400.0   120.0   0.0
-350.0   120.0   16.666666666666668
-400.0   90.0   16.666666666666668
-400.0   120.0   16.666666666666668
-350.0   120.0   16.666666666666668
-400.0   120.0   0.0
-400.0   90.0   16.666666666666668
-350.0   120.0   16.666666666666668
-350.0   90.0   16.666666666666668
-350.0   90.0   0.0
-400.0   90.0   16.666666666666668
-350.0   120.0   16.666666666666668
-350.0   90.0   0.0
-400.0   120.0   0.0
-400.0   90.0   16.666666666666668
-350.0   90.0   16.666666666666668
-400.0   120.0   16.666666666666668
-400.0   90.0   33.333333333333336
-350.0   90.0   16.666666666666668
-350.0   120.0   16.666666666666668
-400.0   120.0   16.666666666666668
-350.0   120.0   33.333333333333336
-400.0   90.0   33.333333333333336
-400.0   120.0   33.333333333333336
-350.0   120.0   33.333333333333336
-400.0   120.0   16.666666666666668
-400.0   90.0   33.333333333333336
-350.0   120.0   33.333333333333336
-350.0   90.0   33.333333333333336
-350.0   90.0   16.666666666666668
-400.0   90.0   33.333333333333336
-350.0   120.0   33.333333333333336
-350.0   90.0   16.666666666666668
-400.0   120.0   16.666666666666668
-400.0   90.0   33.333333333333336
-350.0   90.0   33.333333333333336
-400.0   120.0   33.333333333333336
-400.0   90.0   50.0
-350.0   90.0   33.333333333333336
-350.0   120.0   33.333333333333336
-400.0   120.0   33.333333333333336
-350.0   120.0   50.0
-400.0   90.0   50.0
-400.0   120.0   50.0
-350.0   120.0   50.0
-400.0   120.0   33.333333333333336
-400.0   90.0   50.0
-350.0   120.0   50.0
-350.0   90.0   50.0
-350.0   90.0   33.333333333333336
-400.0   90.0   50.0
-350.0   120.0   50.0
-350.0   90.0   33.333333333333336
-400.0   120.0   33.333333333333336
-400.0   120.0   0.0
-350.0   120.0   0.0
-400.0   150.0   0.0
-400.0   120.0   16.666666666666668
-350.0   120.0   0.0
-350.0   150.0   0.0
-400.0   150.0   0.0
-350.0   150.0   16.666666666666668
-400.0   120.0   16.666666666666668
-400.0   150.0   16.666666666666668
-350.0   150.0   16.666666666666668
-400.0   150.0   0.0
-400.0   120.0   16.666666666666668
-350.0   150.0   16.666666666666668
-350.0   120.0   16.666666666666668
-350.0   120.0   0.0
-400.0   120.0   16.666666666666668
-350.0   150.0   16.666666666666668
-350.0   120.0   0.0
-400.0   150.0   0.0
-400.0   120.0   16.666666666666668
-350.0   120.0   16.666666666666668
-400.0   150.0   16.666666666666668
-400.0   120.0   33.333333333333336
-350.0   120.0   16.666666666666668
-350.0   150.0   16.666666666666668
-400.0   150.0   16.666666666666668
-350.0   150.0   33.333333333333336
-400.0   120.0   33.333333333333336
-400.0   150.0   33.333333333333336
-350.0   150.0   33.333333333333336
-400.0   150.0   16.666666666666668
-400.0   120.0   33.333333333333336
-350.0   150.0   33.333333333333336
-350.0   120.0   33.333333333333336
-350.0   120.0   16.666666666666668
-400.0   120.0   33.333333333333336
-350.0   150.0   33.333333333333336
-350.0   120.0   16.666666666666668
-400.0   150.0   16.666666666666668
-400.0   120.0   33.333333333333336
-350.0   120.0   33.333333333333336
-400.0   150.0   33.333333333333336
-400.0   120.0   50.0
-350.0   120.0   33.333333333333336
-350.0   150.0   33.333333333333336
-400.0   150.0   33.333333333333336
-350.0   150.0   50.0
-400.0   120.0   50.0
-400.0   150.0   50.0
-350.0   150.0   50.0
-400.0   150.0   33.333333333333336
-400.0   120.0   50.0
-350.0   150.0   50.0
-350.0   120.0   50.0
-350.0   120.0   33.333333333333336
-400.0   120.0   50.0
-350.0   150.0   50.0
-350.0   120.0   33.333333333333336
-400.0   150.0   33.333333333333336
-350.0   0.0   0.0
-300.0   0.0   0.0
-350.0   30.0   0.0
-350.0   0.0   16.666666666666668
-300.0   0.0   0.0
-300.0   30.0   0.0
-350.0   30.0   0.0
-300.0   30.0   16.666666666666668
-350.0   0.0   16.666666666666668
-350.0   30.0   16.666666666666668
-300.0   30.0   16.666666666666668
-350.0   30.0   0.0
-350.0   0.0   16.666666666666668
-300.0   30.0   16.666666666666668
-300.0   0.0   16.666666666666668
-300.0   0.0   0.0
-350.0   0.0   16.666666666666668
-300.0   30.0   16.666666666666668
-300.0   0.0   0.0
-350.0   30.0   0.0
-350.0   0.0   16.666666666666668
-300.0   0.0   16.666666666666668
-350.0   30.0   16.666666666666668
-350.0   0.0   33.333333333333336
-300.0   0.0   16.666666666666668
-300.0   30.0   16.666666666666668
-350.0   30.0   16.666666666666668
-300.0   30.0   33.333333333333336
-350.0   0.0   33.333333333333336
-350.0   30.0   33.333333333333336
-300.0   30.0   33.333333333333336
-350.0   30.0   16.666666666666668
-350.0   0.0   33.333333333333336
-300.0   30.0   33.333333333333336
-300.0   0.0   33.333333333333336
-300.0   0.0   16.666666666666668
-350.0   0.0   33.333333333333336
-300.0   30.0   33.333333333333336
-300.0   0.0   16.666666666666668
-350.0   30.0   16.666666666666668
-350.0   0.0   33.333333333333336
-300.0   0.0   33.333333333333336
-350.0   30.0   33.333333333333336
-350.0   0.0   50.0
-300.0   0.0   33.333333333333336
-300.0   30.0   33.333333333333336
-350.0   30.0   33.333333333333336
-300.0   30.0   50.0
-350.0   0.0   50.0
-350.0   30.0   50.0
-300.0   30.0   50.0
-350.0   30.0   33.333333333333336
-350.0   0.0   50.0
-300.0   30.0   50.0
-300.0   0.0   50.0
-300.0   0.0   33.333333333333336
-350.0   0.0   50.0
-300.0   30.0   50.0
-300.0   0.0   33.333333333333336
-350.0   30.0   33.333333333333336
-350.0   30.0   0.0
-300.0   30.0   0.0
-350.0   60.0   0.0
-350.0   30.0   16.666666666666668
-300.0   30.0   0.0
-300.0   60.0   0.0
-350.0   60.0   0.0
-300.0   60.0   16.666666666666668
-350.0   30.0   16.666666666666668
-350.0   60.0   16.666666666666668
-300.0   60.0   16.666666666666668
-350.0   60.0   0.0
-350.0   30.0   16.666666666666668
-300.0   60.0   16.666666666666668
-300.0   30.0   16.666666666666668
-300.0   30.0   0.0
-350.0   30.0   16.666666666666668
-300.0   60.0   16.666666666666668
-300.0   30.0   0.0
-350.0   60.0   0.0
-350.0   30.0   16.666666666666668
-300.0   30.0   16.666666666666668
-350.0   60.0   16.666666666666668
-350.0   30.0   33.333333333333336
-300.0   30.0   16.666666666666668
-300.0   60.0   16.666666666666668
-350.0   60.0   16.666666666666668
-300.0   60.0   33.333333333333336
-350.0   30.0   33.333333333333336
-350.0   60.0   33.333333333333336
-300.0   60.0   33.333333333333336
-350.0   60.0   16.666666666666668
-350.0   30.0   33.333333333333336
-300.0   60.0   33.333333333333336
-300.0   30.0   33.333333333333336
-300.0   30.0   16.666666666666668
-350.0   30.0   33.333333333333336
-300.0   60.0   33.333333333333336
-300.0   30.0   16.666666666666668
-350.0   60.0   16.666666666666668
-350.0   30.0   33.333333333333336
-300.0   30.0   33.333333333333336
-350.0   60.0   33.333333333333336
-350.0   30.0   50.0
-300.0   30.0   33.333333333333336
-300.0   60.0   33.333333333333336
-350.0   60.0   33.333333333333336
-300.0   60.0   50.0
-350.0   30.0   50.0
-350.0   60.0   50.0
-300.0   60.0   50.0
-350.0   60.0   33.333333333333336
-350.0   30.0   50.0
-300.0   60.0   50.0
-300.0   30.0   50.0
-300.0   30.0   33.333333333333336
-350.0   30.0   50.0
-300.0   60.0   50.0
-300.0   30.0   33.333333333333336
-350.0   60.0   33.333333333333336
-350.0   60.0   0.0
-300.0   60.0   0.0
-350.0   90.0   0.0
-350.0   60.0   16.666666666666668
-300.0   60.0   0.0
-300.0   90.0   0.0
-350.0   90.0   0.0
-300.0   90.0   16.666666666666668
-350.0   60.0   16.666666666666668
-350.0   90.0   16.666666666666668
-300.0   90.0   16.666666666666668
-350.0   90.0   0.0
-350.0   60.0   16.666666666666668
-300.0   90.0   16.666666666666668
-300.0   60.0   16.666666666666668
-300.0   60.0   0.0
-350.0   60.0   16.666666666666668
-300.0   90.0   16.666666666666668
-300.0   60.0   0.0
-350.0   90.0   0.0
-350.0   60.0   16.666666666666668
-300.0   60.0   16.666666666666668
-350.0   90.0   16.666666666666668
-350.0   60.0   33.333333333333336
-300.0   60.0   16.666666666666668
-300.0   90.0   16.666666666666668
-350.0   90.0   16.666666666666668
-300.0   90.0   33.333333333333336
-350.0   60.0   33.333333333333336
-350.0   90.0   33.333333333333336
-300.0   90.0   33.333333333333336
-350.0   90.0   16.666666666666668
-350.0   60.0   33.333333333333336
-300.0   90.0   33.333333333333336
-300.0   60.0   33.333333333333336
-300.0   60.0   16.666666666666668
-350.0   60.0   33.333333333333336
-300.0   90.0   33.333333333333336
-300.0   60.0   16.666666666666668
-350.0   90.0   16.666666666666668
-350.0   60.0   33.333333333333336
-300.0   60.0   33.333333333333336
-350.0   90.0   33.333333333333336
-350.0   60.0   50.0
-300.0   60.0   33.333333333333336
-300.0   90.0   33.333333333333336
-350.0   90.0   33.333333333333336
-300.0   90.0   50.0
-350.0   60.0   50.0
-350.0   90.0   50.0
-300.0   90.0   50.0
-350.0   90.0   33.333333333333336
-350.0   60.0   50.0
-300.0   90.0   50.0
-300.0   60.0   50.0
-300.0   60.0   33.333333333333336
-350.0   60.0   50.0
-300.0   90.0   50.0
-300.0   60.0   33.333333333333336
-350.0   90.0   33.333333333333336
-350.0   90.0   0.0
-300.0   90.0   0.0
-350.0   120.0   0.0
-350.0   90.0   16.666666666666668
-300.0   90.0   0.0
-300.0   120.0   0.0
-350.0   120.0   0.0
-300.0   120.0   16.666666666666668
-350.0   90.0   16.666666666666668
-350.0   120.0   16.666666666666668
-300.0   120.0   16.666666666666668
-350.0   120.0   0.0
-350.0   90.0   16.666666666666668
-300.0   120.0   16.666666666666668
-300.0   90.0   16.666666666666668
-300.0   90.0   0.0
-350.0   90.0   16.666666666666668
-300.0   120.0   16.666666666666668
-300.0   90.0   0.0
-350.0   120.0   0.0
-350.0   90.0   16.666666666666668
-300.0   90.0   16.666666666666668
-350.0   120.0   16.666666666666668
-350.0   90.0   33.333333333333336
-300.0   90.0   16.666666666666668
-300.0   120.0   16.666666666666668
-350.0   120.0   16.666666666666668
-300.0   120.0   33.333333333333336
-350.0   90.0   33.333333333333336
-350.0   120.0   33.333333333333336
-300.0   120.0   33.333333333333336
-350.0   120.0   16.666666666666668
-350.0   90.0   33.333333333333336
-300.0   120.0   33.333333333333336
-300.0   90.0   33.333333333333336
-300.0   90.0   16.666666666666668
-350.0   90.0   33.333333333333336
-300.0   120.0   33.333333333333336
-300.0   90.0   16.666666666666668
-350.0   120.0   16.666666666666668
-350.0   90.0   33.333333333333336
-300.0   90.0   33.333333333333336
-350.0   120.0   33.333333333333336
-350.0   90.0   50.0
-300.0   90.0   33.333333333333336
-300.0   120.0   33.333333333333336
-350.0   120.0   33.333333333333336
-300.0   120.0   50.0
-350.0   90.0   50.0
-350.0   120.0   50.0
-300.0   120.0   50.0
-350.0   120.0   33.333333333333336
-350.0   90.0   50.0
-300.0   120.0   50.0
-300.0   90.0   50.0
-300.0   90.0   33.333333333333336
-350.0   90.0   50.0
-300.0   120.0   50.0
-300.0   90.0   33.333333333333336
-350.0   120.0   33.333333333333336
-350.0   120.0   0.0
-300.0   120.0   0.0
-350.0   150.0   0.0
-350.0   120.0   16.666666666666668
-300.0   120.0   0.0
-300.0   150.0   0.0
-350.0   150.0   0.0
-300.0   150.0   16.666666666666668
-350.0   120.0   16.666666666666668
-350.0   150.0   16.666666666666668
-300.0   150.0   16.666666666666668
-350.0   150.0   0.0
-350.0   120.0   16.666666666666668
-300.0   150.0   16.666666666666668
-300.0   120.0   16.666666666666668
-300.0   120.0   0.0
-350.0   120.0   16.666666666666668
-300.0   150.0   16.666666666666668
-300.0   120.0   0.0
-350.0   150.0   0.0
-350.0   120.0   16.666666666666668
-300.0   120.0   16.666666666666668
-350.0   150.0   16.666666666666668
-350.0   120.0   33.333333333333336
-300.0   120.0   16.666666666666668
-300.0   150.0   16.666666666666668
-350.0   150.0   16.666666666666668
-300.0   150.0   33.333333333333336
-350.0   120.0   33.333333333333336
-350.0   150.0   33.333333333333336
-300.0   150.0   33.333333333333336
-350.0   150.0   16.666666666666668
-350.0   120.0   33.333333333333336
-300.0   150.0   33.333333333333336
-300.0   120.0   33.333333333333336
-300.0   120.0   16.666666666666668
-350.0   120.0   33.333333333333336
-300.0   150.0   33.333333333333336
-300.0   120.0   16.666666666666668
-350.0   150.0   16.666666666666668
-350.0   120.0   33.333333333333336
-300.0   120.0   33.333333333333336
-350.0   150.0   33.333333333333336
-350.0   120.0   50.0
-300.0   120.0   33.333333333333336
-300.0   150.0   33.333333333333336
-350.0   150.0   33.333333333333336
-300.0   150.0   50.0
-350.0   120.0   50.0
-350.0   150.0   50.0
-300.0   150.0   50.0
-350.0   150.0   33.333333333333336
-350.0   120.0   50.0
-300.0   150.0   50.0
-300.0   120.0   50.0
-300.0   120.0   33.333333333333336
-350.0   120.0   50.0
-300.0   150.0   50.0
-300.0   120.0   33.333333333333336
-350.0   150.0   33.333333333333336
-300.0   0.0   0.0
-250.0   0.0   0.0
-300.0   30.0   0.0
-300.0   0.0   16.666666666666668
-250.0   0.0   0.0
-250.0   30.0   0.0
-300.0   30.0   0.0
-250.0   30.0   16.666666666666668
-300.0   0.0   16.666666666666668
-300.0   30.0   16.666666666666668
-250.0   30.0   16.666666666666668
-300.0   30.0   0.0
-300.0   0.0   16.666666666666668
-250.0   30.0   16.666666666666668
-250.0   0.0   16.666666666666668
-250.0   0.0   0.0
-300.0   0.0   16.666666666666668
-250.0   30.0   16.666666666666668
-250.0   0.0   0.0
-300.0   30.0   0.0
-300.0   0.0   16.666666666666668
-250.0   0.0   16.666666666666668
-300.0   30.0   16.666666666666668
-300.0   0.0   33.333333333333336
-250.0   0.0   16.666666666666668
-250.0   30.0   16.666666666666668
-300.0   30.0   16.666666666666668
-250.0   30.0   33.333333333333336
-300.0   0.0   33.333333333333336
-300.0   30.0   33.333333333333336
-250.0   30.0   33.333333333333336
-300.0   30.0   16.666666666666668
-300.0   0.0   33.333333333333336
-250.0   30.0   33.333333333333336
-250.0   0.0   33.333333333333336
-250.0   0.0   16.666666666666668
-300.0   0.0   33.333333333333336
-250.0   30.0   33.333333333333336
-250.0   0.0   16.666666666666668
-300.0   30.0   16.666666666666668
-300.0   0.0   33.333333333333336
-250.0   0.0   33.333333333333336
-300.0   30.0   33.333333333333336
-300.0   0.0   50.0
-250.0   0.0   33.333333333333336
-250.0   30.0   33.333333333333336
-300.0   30.0   33.333333333333336
-250.0   30.0   50.0
-300.0   0.0   50.0
-300.0   30.0   50.0
-250.0   30.0   50.0
-300.0   30.0   33.333333333333336
-300.0   0.0   50.0
-250.0   30.0   50.0
-250.0   0.0   50.0
-250.0   0.0   33.333333333333336
-300.0   0.0   50.0
-250.0   30.0   50.0
-250.0   0.0   33.333333333333336
-300.0   30.0   33.333333333333336
-300.0   30.0   0.0
-250.0   30.0   0.0
-300.0   60.0   0.0
-300.0   30.0   16.666666666666668
-250.0   30.0   0.0
-250.0   60.0   0.0
-300.0   60.0   0.0
-250.0   60.0   16.666666666666668
-300.0   30.0   16.666666666666668
-300.0   60.0   16.666666666666668
-250.0   60.0   16.666666666666668
-300.0   60.0   0.0
-300.0   30.0   16.666666666666668
-250.0   60.0   16.666666666666668
-250.0   30.0   16.666666666666668
-250.0   30.0   0.0
-300.0   30.0   16.666666666666668
-250.0   60.0   16.666666666666668
-250.0   30.0   0.0
-300.0   60.0   0.0
-300.0   30.0   16.666666666666668
-250.0   30.0   16.666666666666668
-300.0   60.0   16.666666666666668
-300.0   30.0   33.333333333333336
-250.0   30.0   16.666666666666668
-250.0   60.0   16.666666666666668
-300.0   60.0   16.666666666666668
-250.0   60.0   33.333333333333336
-300.0   30.0   33.333333333333336
-300.0   60.0   33.333333333333336
-250.0   60.0   33.333333333333336
-300.0   60.0   16.666666666666668
-300.0   30.0   33.333333333333336
-250.0   60.0   33.333333333333336
-250.0   30.0   33.333333333333336
-250.0   30.0   16.666666666666668
-300.0   30.0   33.333333333333336
-250.0   60.0   33.333333333333336
-250.0   30.0   16.666666666666668
-300.0   60.0   16.666666666666668
-300.0   30.0   33.333333333333336
-250.0   30.0   33.333333333333336
-300.0   60.0   33.333333333333336
-300.0   30.0   50.0
-250.0   30.0   33.333333333333336
-250.0   60.0   33.333333333333336
-300.0   60.0   33.333333333333336
-250.0   60.0   50.0
-300.0   30.0   50.0
-300.0   60.0   50.0
-250.0   60.0   50.0
-300.0   60.0   33.333333333333336
-300.0   30.0   50.0
-250.0   60.0   50.0
-250.0   30.0   50.0
-250.0   30.0   33.333333333333336
-300.0   30.0   50.0
-250.0   60.0   50.0
-250.0   30.0   33.333333333333336
-300.0   60.0   33.333333333333336
-300.0   60.0   0.0
-250.0   60.0   0.0
-300.0   90.0   0.0
-300.0   60.0   16.666666666666668
-250.0   60.0   0.0
-250.0   90.0   0.0
-300.0   90.0   0.0
-250.0   90.0   16.666666666666668
-300.0   60.0   16.666666666666668
-300.0   90.0   16.666666666666668
-250.0   90.0   16.666666666666668
-300.0   90.0   0.0
-300.0   60.0   16.666666666666668
-250.0   90.0   16.666666666666668
-250.0   60.0   16.666666666666668
-250.0   60.0   0.0
-300.0   60.0   16.666666666666668
-250.0   90.0   16.666666666666668
-250.0   60.0   0.0
-300.0   90.0   0.0
-300.0   60.0   16.666666666666668
-250.0   60.0   16.666666666666668
-300.0   90.0   16.666666666666668
-300.0   60.0   33.333333333333336
-250.0   60.0   16.666666666666668
-250.0   90.0   16.666666666666668
-300.0   90.0   16.666666666666668
-250.0   90.0   33.333333333333336
-300.0   60.0   33.333333333333336
-300.0   90.0   33.333333333333336
-250.0   90.0   33.333333333333336
-300.0   90.0   16.666666666666668
-300.0   60.0   33.333333333333336
-250.0   90.0   33.333333333333336
-250.0   60.0   33.333333333333336
-250.0   60.0   16.666666666666668
-300.0   60.0   33.333333333333336
-250.0   90.0   33.333333333333336
-250.0   60.0   16.666666666666668
-300.0   90.0   16.666666666666668
-300.0   60.0   33.333333333333336
-250.0   60.0   33.333333333333336
-300.0   90.0   33.333333333333336
-300.0   60.0   50.0
-250.0   60.0   33.333333333333336
-250.0   90.0   33.333333333333336
-300.0   90.0   33.333333333333336
-250.0   90.0   50.0
-300.0   60.0   50.0
-300.0   90.0   50.0
-250.0   90.0   50.0
-300.0   90.0   33.333333333333336
-300.0   60.0   50.0
-250.0   90.0   50.0
-250.0   60.0   50.0
-250.0   60.0   33.333333333333336
-300.0   60.0   50.0
-250.0   90.0   50.0
-250.0   60.0   33.333333333333336
-300.0   90.0   33.333333333333336
-300.0   90.0   0.0
-250.0   90.0   0.0
-300.0   120.0   0.0
-300.0   90.0   16.666666666666668
-250.0   90.0   0.0
-250.0   120.0   0.0
-300.0   120.0   0.0
-250.0   120.0   16.666666666666668
-300.0   90.0   16.666666666666668
-300.0   120.0   16.666666666666668
-250.0   120.0   16.666666666666668
-300.0   120.0   0.0
-300.0   90.0   16.666666666666668
-250.0   120.0   16.666666666666668
-250.0   90.0   16.666666666666668
-250.0   90.0   0.0
-300.0   90.0   16.666666666666668
-250.0   120.0   16.666666666666668
-250.0   90.0   0.0
-300.0   120.0   0.0
-300.0   90.0   16.666666666666668
-250.0   90.0   16.666666666666668
-300.0   120.0   16.666666666666668
-300.0   90.0   33.333333333333336
-250.0   90.0   16.666666666666668
-250.0   120.0   16.666666666666668
-300.0   120.0   16.666666666666668
-250.0   120.0   33.333333333333336
-300.0   90.0   33.333333333333336
-300.0   120.0   33.333333333333336
-250.0   120.0   33.333333333333336
-300.0   120.0   16.666666666666668
-300.0   90.0   33.333333333333336
-250.0   120.0   33.333333333333336
-250.0   90.0   33.333333333333336
-250.0   90.0   16.666666666666668
-300.0   90.0   33.333333333333336
-250.0   120.0   33.333333333333336
-250.0   90.0   16.666666666666668
-300.0   120.0   16.666666666666668
-300.0   90.0   33.333333333333336
-250.0   90.0   33.333333333333336
-300.0   120.0   33.333333333333336
-300.0   90.0   50.0
-250.0   90.0   33.333333333333336
-250.0   120.0   33.333333333333336
-300.0   120.0   33.333333333333336
-250.0   120.0   50.0
-300.0   90.0   50.0
-300.0   120.0   50.0
-250.0   120.0   50.0
-300.0   120.0   33.333333333333336
-300.0   90.0   50.0
-250.0   120.0   50.0
-250.0   90.0   50.0
-250.0   90.0   33.333333333333336
-300.0   90.0   50.0
-250.0   120.0   50.0
-250.0   90.0   33.333333333333336
-300.0   120.0   33.333333333333336
-300.0   120.0   0.0
-250.0   120.0   0.0
-300.0   150.0   0.0
-300.0   120.0   16.666666666666668
-250.0   120.0   0.0
-250.0   150.0   0.0
-300.0   150.0   0.0
-250.0   150.0   16.666666666666668
-300.0   120.0   16.666666666666668
-300.0   150.0   16.666666666666668
-250.0   150.0   16.666666666666668
-300.0   150.0   0.0
-300.0   120.0   16.666666666666668
-250.0   150.0   16.666666666666668
-250.0   120.0   16.666666666666668
-250.0   120.0   0.0
-300.0   120.0   16.666666666666668
-250.0   150.0   16.666666666666668
-250.0   120.0   0.0
-300.0   150.0   0.0
-300.0   120.0   16.666666666666668
-250.0   120.0   16.666666666666668
-300.0   150.0   16.666666666666668
-300.0   120.0   33.333333333333336
-250.0   120.0   16.666666666666668
-250.0   150.0   16.666666666666668
-300.0   150.0   16.666666666666668
-250.0   150.0   33.333333333333336
-300.0   120.0   33.333333333333336
-300.0   150.0   33.333333333333336
-250.0   150.0   33.333333333333336
-300.0   150.0   16.666666666666668
-300.0   120.0   33.333333333333336
-250.0   150.0   33.333333333333336
-250.0   120.0   33.333333333333336
-250.0   120.0   16.666666666666668
-300.0   120.0   33.333333333333336
-250.0   150.0   33.333333333333336
-250.0   120.0   16.666666666666668
-300.0   150.0   16.666666666666668
-300.0   120.0   33.333333333333336
-250.0   120.0   33.333333333333336
-300.0   150.0   33.333333333333336
-300.0   120.0   50.0
-250.0   120.0   33.333333333333336
-250.0   150.0   33.333333333333336
-300.0   150.0   33.333333333333336
-250.0   150.0   50.0
-300.0   120.0   50.0
-300.0   150.0   50.0
-250.0   150.0   50.0
-300.0   150.0   33.333333333333336
-300.0   120.0   50.0
-250.0   150.0   50.0
-250.0   120.0   50.0
-250.0   120.0   33.333333333333336
-300.0   120.0   50.0
-250.0   150.0   50.0
-250.0   120.0   33.333333333333336
-300.0   150.0   33.333333333333336
-250.0   0.0   0.0
-200.0   0.0   0.0
-250.0   30.0   0.0
-250.0   0.0   16.666666666666668
-200.0   0.0   0.0
-200.0   30.0   0.0
-250.0   30.0   0.0
-200.0   30.0   16.666666666666668
-250.0   0.0   16.666666666666668
-250.0   30.0   16.666666666666668
-200.0   30.0   16.666666666666668
-250.0   30.0   0.0
-250.0   0.0   16.666666666666668
-200.0   30.0   16.666666666666668
-200.0   0.0   16.666666666666668
-200.0   0.0   0.0
-250.0   0.0   16.666666666666668
-200.0   30.0   16.666666666666668
-200.0   0.0   0.0
-250.0   30.0   0.0
-250.0   0.0   16.666666666666668
-200.0   0.0   16.666666666666668
-250.0   30.0   16.666666666666668
-250.0   0.0   33.333333333333336
-200.0   0.0   16.666666666666668
-200.0   30.0   16.666666666666668
-250.0   30.0   16.666666666666668
-200.0   30.0   33.333333333333336
-250.0   0.0   33.333333333333336
-250.0   30.0   33.333333333333336
-200.0   30.0   33.333333333333336
-250.0   30.0   16.666666666666668
-250.0   0.0   33.333333333333336
-200.0   30.0   33.333333333333336
-200.0   0.0   33.333333333333336
-200.0   0.0   16.666666666666668
-250.0   0.0   33.333333333333336
-200.0   30.0   33.333333333333336
-200.0   0.0   16.666666666666668
-250.0   30.0   16.666666666666668
-250.0   0.0   33.333333333333336
-200.0   0.0   33.333333333333336
-250.0   30.0   33.333333333333336
-250.0   0.0   50.0
-200.0   0.0   33.333333333333336
-200.0   30.0   33.333333333333336
-250.0   30.0   33.333333333333336
-200.0   30.0   50.0
-250.0   0.0   50.0
-250.0   30.0   50.0
-200.0   30.0   50.0
-250.0   30.0   33.333333333333336
-250.0   0.0   50.0
-200.0   30.0   50.0
-200.0   0.0   50.0
-200.0   0.0   33.333333333333336
-250.0   0.0   50.0
-200.0   30.0   50.0
-200.0   0.0   33.333333333333336
-250.0   30.0   33.333333333333336
-250.0   30.0   0.0
-200.0   30.0   0.0
-250.0   60.0   0.0
-250.0   30.0   16.666666666666668
-200.0   30.0   0.0
-200.0   60.0   0.0
-250.0   60.0   0.0
-200.0   60.0   16.666666666666668
-250.0   30.0   16.666666666666668
-250.0   60.0   16.666666666666668
-200.0   60.0   16.666666666666668
-250.0   60.0   0.0
-250.0   30.0   16.666666666666668
-200.0   60.0   16.666666666666668
-200.0   30.0   16.666666666666668
-200.0   30.0   0.0
-250.0   30.0   16.666666666666668
-200.0   60.0   16.666666666666668
-200.0   30.0   0.0
-250.0   60.0   0.0
-250.0   30.0   16.666666666666668
-200.0   30.0   16.666666666666668
-250.0   60.0   16.666666666666668
-250.0   30.0   33.333333333333336
-200.0   30.0   16.666666666666668
-200.0   60.0   16.666666666666668
-250.0   60.0   16.666666666666668
-200.0   60.0   33.333333333333336
-250.0   30.0   33.333333333333336
-250.0   60.0   33.333333333333336
-200.0   60.0   33.333333333333336
-250.0   60.0   16.666666666666668
-250.0   30.0   33.333333333333336
-200.0   60.0   33.333333333333336
-200.0   30.0   33.333333333333336
-200.0   30.0   16.666666666666668
-250.0   30.0   33.333333333333336
-200.0   60.0   33.333333333333336
-200.0   30.0   16.666666666666668
-250.0   60.0   16.666666666666668
-250.0   30.0   33.333333333333336
-200.0   30.0   33.333333333333336
-250.0   60.0   33.333333333333336
-250.0   30.0   50.0
-200.0   30.0   33.333333333333336
-200.0   60.0   33.333333333333336
-250.0   60.0   33.333333333333336
-200.0   60.0   50.0
-250.0   30.0   50.0
-250.0   60.0   50.0
-200.0   60.0   50.0
-250.0   60.0   33.333333333333336
-250.0   30.0   50.0
-200.0   60.0   50.0
-200.0   30.0   50.0
-200.0   30.0   33.333333333333336
-250.0   30.0   50.0
-200.0   60.0   50.0
-200.0   30.0   33.333333333333336
-250.0   60.0   33.333333333333336
-250.0   60.0   0.0
-200.0   60.0   0.0
-250.0   90.0   0.0
-250.0   60.0   16.666666666666668
-200.0   60.0   0.0
-200.0   90.0   0.0
-250.0   90.0   0.0
-200.0   90.0   16.666666666666668
-250.0   60.0   16.666666666666668
-250.0   90.0   16.666666666666668
-200.0   90.0   16.666666666666668
-250.0   90.0   0.0
-250.0   60.0   16.666666666666668
-200.0   90.0   16.666666666666668
-200.0   60.0   16.666666666666668
-200.0   60.0   0.0
-250.0   60.0   16.666666666666668
-200.0   90.0   16.666666666666668
-200.0   60.0   0.0
-250.0   90.0   0.0
-250.0   60.0   16.666666666666668
-200.0   60.0   16.666666666666668
-250.0   90.0   16.666666666666668
-250.0   60.0   33.333333333333336
-200.0   60.0   16.666666666666668
-200.0   90.0   16.666666666666668
-250.0   90.0   16.666666666666668
-200.0   90.0   33.333333333333336
-250.0   60.0   33.333333333333336
-250.0   90.0   33.333333333333336
-200.0   90.0   33.333333333333336
-250.0   90.0   16.666666666666668
-250.0   60.0   33.333333333333336
-200.0   90.0   33.333333333333336
-200.0   60.0   33.333333333333336
-200.0   60.0   16.666666666666668
-250.0   60.0   33.333333333333336
-200.0   90.0   33.333333333333336
-200.0   60.0   16.666666666666668
-250.0   90.0   16.666666666666668
-250.0   60.0   33.333333333333336
-200.0   60.0   33.333333333333336
-250.0   90.0   33.333333333333336
-250.0   60.0   50.0
-200.0   60.0   33.333333333333336
-200.0   90.0   33.333333333333336
-250.0   90.0   33.333333333333336
-200.0   90.0   50.0
-250.0   60.0   50.0
-250.0   90.0   50.0
-200.0   90.0   50.0
-250.0   90.0   33.333333333333336
-250.0   60.0   50.0
-200.0   90.0   50.0
-200.0   60.0   50.0
-200.0   60.0   33.333333333333336
-250.0   60.0   50.0
-200.0   90.0   50.0
-200.0   60.0   33.333333333333336
-250.0   90.0   33.333333333333336
-250.0   90.0   0.0
-200.0   90.0   0.0
-250.0   120.0   0.0
-250.0   90.0   16.666666666666668
-200.0   90.0   0.0
-200.0   120.0   0.0
-250.0   120.0   0.0
-200.0   120.0   16.666666666666668
-250.0   90.0   16.666666666666668
-250.0   120.0   16.666666666666668
-200.0   120.0   16.666666666666668
-250.0   120.0   0.0
-250.0   90.0   16.666666666666668
-200.0   120.0   16.666666666666668
-200.0   90.0   16.666666666666668
-200.0   90.0   0.0
-250.0   90.0   16.666666666666668
-200.0   120.0   16.666666666666668
-200.0   90.0   0.0
-250.0   120.0   0.0
-250.0   90.0   16.666666666666668
-200.0   90.0   16.666666666666668
-250.0   120.0   16.666666666666668
-250.0   90.0   33.333333333333336
-200.0   90.0   16.666666666666668
-200.0   120.0   16.666666666666668
-250.0   120.0   16.666666666666668
-200.0   120.0   33.333333333333336
-250.0   90.0   33.333333333333336
-250.0   120.0   33.333333333333336
-200.0   120.0   33.333333333333336
-250.0   120.0   16.666666666666668
-250.0   90.0   33.333333333333336
-200.0   120.0   33.333333333333336
-200.0   90.0   33.333333333333336
-200.0   90.0   16.666666666666668
-250.0   90.0   33.333333333333336
-200.0   120.0   33.333333333333336
-200.0   90.0   16.666666666666668
-250.0   120.0   16.666666666666668
-250.0   90.0   33.333333333333336
-200.0   90.0   33.333333333333336
-250.0   120.0   33.333333333333336
-250.0   90.0   50.0
-200.0   90.0   33.333333333333336
-200.0   120.0   33.333333333333336
-250.0   120.0   33.333333333333336
-200.0   120.0   50.0
-250.0   90.0   50.0
-250.0   120.0   50.0
-200.0   120.0   50.0
-250.0   120.0   33.333333333333336
-250.0   90.0   50.0
-200.0   120.0   50.0
-200.0   90.0   50.0
-200.0   90.0   33.333333333333336
-250.0   90.0   50.0
-200.0   120.0   50.0
-200.0   90.0   33.333333333333336
-250.0   120.0   33.333333333333336
-250.0   120.0   0.0
-200.0   120.0   0.0
-250.0   150.0   0.0
-250.0   120.0   16.666666666666668
-200.0   120.0   0.0
-200.0   150.0   0.0
-250.0   150.0   0.0
-200.0   150.0   16.666666666666668
-250.0   120.0   16.666666666666668
-250.0   150.0   16.666666666666668
-200.0   150.0   16.666666666666668
-250.0   150.0   0.0
-250.0   120.0   16.666666666666668
-200.0   150.0   16.666666666666668
-200.0   120.0   16.666666666666668
-200.0   120.0   0.0
-250.0   120.0   16.666666666666668
-200.0   150.0   16.666666666666668
-200.0   120.0   0.0
-250.0   150.0   0.0
-250.0   120.0   16.666666666666668
-200.0   120.0   16.666666666666668
-250.0   150.0   16.666666666666668
-250.0   120.0   33.333333333333336
-200.0   120.0   16.666666666666668
-200.0   150.0   16.666666666666668
-250.0   150.0   16.666666666666668
-200.0   150.0   33.333333333333336
-250.0   120.0   33.333333333333336
-250.0   150.0   33.333333333333336
-200.0   150.0   33.333333333333336
-250.0   150.0   16.666666666666668
-250.0   120.0   33.333333333333336
-200.0   150.0   33.333333333333336
-200.0   120.0   33.333333333333336
-200.0   120.0   16.666666666666668
-250.0   120.0   33.333333333333336
-200.0   150.0   33.333333333333336
-200.0   120.0   16.666666666666668
-250.0   150.0   16.666666666666668
-250.0   120.0   33.333333333333336
-200.0   120.0   33.333333333333336
-250.0   150.0   33.333333333333336
-250.0   120.0   50.0
-200.0   120.0   33.333333333333336
-200.0   150.0   33.333333333333336
-250.0   150.0   33.333333333333336
-200.0   150.0   50.0
-250.0   120.0   50.0
-250.0   150.0   50.0
-200.0   150.0   50.0
-250.0   150.0   33.333333333333336
-250.0   120.0   50.0
-200.0   150.0   50.0
-200.0   120.0   50.0
-200.0   120.0   33.333333333333336
-250.0   120.0   50.0
-200.0   150.0   50.0
-200.0   120.0   33.333333333333336
-250.0   150.0   33.333333333333336
-200.0   0.0   0.0
-150.0   0.0   0.0
-200.0   30.0   0.0
-200.0   0.0   16.666666666666668
-150.0   0.0   0.0
-150.0   30.0   0.0
-200.0   30.0   0.0
-150.0   30.0   16.666666666666668
-200.0   0.0   16.666666666666668
-200.0   30.0   16.666666666666668
-150.0   30.0   16.666666666666668
-200.0   30.0   0.0
-200.0   0.0   16.666666666666668
-150.0   30.0   16.666666666666668
-150.0   0.0   16.666666666666668
-150.0   0.0   0.0
-200.0   0.0   16.666666666666668
-150.0   30.0   16.666666666666668
-150.0   0.0   0.0
-200.0   30.0   0.0
-200.0   0.0   16.666666666666668
-150.0   0.0   16.666666666666668
-200.0   30.0   16.666666666666668
-200.0   0.0   33.333333333333336
-150.0   0.0   16.666666666666668
-150.0   30.0   16.666666666666668
-200.0   30.0   16.666666666666668
-150.0   30.0   33.333333333333336
-200.0   0.0   33.333333333333336
-200.0   30.0   33.333333333333336
-150.0   30.0   33.333333333333336
-200.0   30.0   16.666666666666668
-200.0   0.0   33.333333333333336
-150.0   30.0   33.333333333333336
-150.0   0.0   33.333333333333336
-150.0   0.0   16.666666666666668
-200.0   0.0   33.333333333333336
-150.0   30.0   33.333333333333336
-150.0   0.0   16.666666666666668
-200.0   30.0   16.666666666666668
-200.0   0.0   33.333333333333336
-150.0   0.0   33.333333333333336
-200.0   30.0   33.333333333333336
-200.0   0.0   50.0
-150.0   0.0   33.333333333333336
-150.0   30.0   33.333333333333336
-200.0   30.0   33.333333333333336
-150.0   30.0   50.0
-200.0   0.0   50.0
-200.0   30.0   50.0
-150.0   30.0   50.0
-200.0   30.0   33.333333333333336
-200.0   0.0   50.0
-150.0   30.0   50.0
-150.0   0.0   50.0
-150.0   0.0   33.333333333333336
-200.0   0.0   50.0
-150.0   30.0   50.0
-150.0   0.0   33.333333333333336
-200.0   30.0   33.333333333333336
-200.0   30.0   0.0
-150.0   30.0   0.0
-200.0   60.0   0.0
-200.0   30.0   16.666666666666668
-150.0   30.0   0.0
-150.0   60.0   0.0
-200.0   60.0   0.0
-150.0   60.0   16.666666666666668
-200.0   30.0   16.666666666666668
-200.0   60.0   16.666666666666668
-150.0   60.0   16.666666666666668
-200.0   60.0   0.0
-200.0   30.0   16.666666666666668
-150.0   60.0   16.666666666666668
-150.0   30.0   16.666666666666668
-150.0   30.0   0.0
-200.0   30.0   16.666666666666668
-150.0   60.0   16.666666666666668
-150.0   30.0   0.0
-200.0   60.0   0.0
-200.0   30.0   16.666666666666668
-150.0   30.0   16.666666666666668
-200.0   60.0   16.666666666666668
-200.0   30.0   33.333333333333336
-150.0   30.0   16.666666666666668
-150.0   60.0   16.666666666666668
-200.0   60.0   16.666666666666668
-150.0   60.0   33.333333333333336
-200.0   30.0   33.333333333333336
-200.0   60.0   33.333333333333336
-150.0   60.0   33.333333333333336
-200.0   60.0   16.666666666666668
-200.0   30.0   33.333333333333336
-150.0   60.0   33.333333333333336
-150.0   30.0   33.333333333333336
-150.0   30.0   16.666666666666668
-200.0   30.0   33.333333333333336
-150.0   60.0   33.333333333333336
-150.0   30.0   16.666666666666668
-200.0   60.0   16.666666666666668
-200.0   30.0   33.333333333333336
-150.0   30.0   33.333333333333336
-200.0   60.0   33.333333333333336
-200.0   30.0   50.0
-150.0   30.0   33.333333333333336
-150.0   60.0   33.333333333333336
-200.0   60.0   33.333333333333336
-150.0   60.0   50.0
-200.0   30.0   50.0
-200.0   60.0   50.0
-150.0   60.0   50.0
-200.0   60.0   33.333333333333336
-200.0   30.0   50.0
-150.0   60.0   50.0
-150.0   30.0   50.0
-150.0   30.0   33.333333333333336
-200.0   30.0   50.0
-150.0   60.0   50.0
-150.0   30.0   33.333333333333336
-200.0   60.0   33.333333333333336
-200.0   60.0   0.0
-150.0   60.0   0.0
-200.0   90.0   0.0
-200.0   60.0   16.666666666666668
-150.0   60.0   0.0
-150.0   90.0   0.0
-200.0   90.0   0.0
-150.0   90.0   16.666666666666668
-200.0   60.0   16.666666666666668
-200.0   90.0   16.666666666666668
-150.0   90.0   16.666666666666668
-200.0   90.0   0.0
-200.0   60.0   16.666666666666668
-150.0   90.0   16.666666666666668
-150.0   60.0   16.666666666666668
-150.0   60.0   0.0
-200.0   60.0   16.666666666666668
-150.0   90.0   16.666666666666668
-150.0   60.0   0.0
-200.0   90.0   0.0
-200.0   60.0   16.666666666666668
-150.0   60.0   16.666666666666668
-200.0   90.0   16.666666666666668
-200.0   60.0   33.333333333333336
-150.0   60.0   16.666666666666668
-150.0   90.0   16.666666666666668
-200.0   90.0   16.666666666666668
-150.0   90.0   33.333333333333336
-200.0   60.0   33.333333333333336
-200.0   90.0   33.333333333333336
-150.0   90.0   33.333333333333336
-200.0   90.0   16.666666666666668
-200.0   60.0   33.333333333333336
-150.0   90.0   33.333333333333336
-150.0   60.0   33.333333333333336
-150.0   60.0   16.666666666666668
-200.0   60.0   33.333333333333336
-150.0   90.0   33.333333333333336
-150.0   60.0   16.666666666666668
-200.0   90.0   16.666666666666668
-200.0   60.0   33.333333333333336
-150.0   60.0   33.333333333333336
-200.0   90.0   33.333333333333336
-200.0   60.0   50.0
-150.0   60.0   33.333333333333336
-150.0   90.0   33.333333333333336
-200.0   90.0   33.333333333333336
-150.0   90.0   50.0
-200.0   60.0   50.0
-200.0   90.0   50.0
-150.0   90.0   50.0
-200.0   90.0   33.333333333333336
-200.0   60.0   50.0
-150.0   90.0   50.0
-150.0   60.0   50.0
-150.0   60.0   33.333333333333336
-200.0   60.0   50.0
-150.0   90.0   50.0
-150.0   60.0   33.333333333333336
-200.0   90.0   33.333333333333336
-200.0   90.0   0.0
-150.0   90.0   0.0
-200.0   120.0   0.0
-200.0   90.0   16.666666666666668
-150.0   90.0   0.0
-150.0   120.0   0.0
-200.0   120.0   0.0
-150.0   120.0   16.666666666666668
-200.0   90.0   16.666666666666668
-200.0   120.0   16.666666666666668
-150.0   120.0   16.666666666666668
-200.0   120.0   0.0
-200.0   90.0   16.666666666666668
-150.0   120.0   16.666666666666668
-150.0   90.0   16.666666666666668
-150.0   90.0   0.0
-200.0   90.0   16.666666666666668
-150.0   120.0   16.666666666666668
-150.0   90.0   0.0
-200.0   120.0   0.0
-200.0   90.0   16.666666666666668
-150.0   90.0   16.666666666666668
-200.0   120.0   16.666666666666668
-200.0   90.0   33.333333333333336
-150.0   90.0   16.666666666666668
-150.0   120.0   16.666666666666668
-200.0   120.0   16.666666666666668
-150.0   120.0   33.333333333333336
-200.0   90.0   33.333333333333336
-200.0   120.0   33.333333333333336
-150.0   120.0   33.333333333333336
-200.0   120.0   16.666666666666668
-200.0   90.0   33.333333333333336
-150.0   120.0   33.333333333333336
-150.0   90.0   33.333333333333336
-150.0   90.0   16.666666666666668
-200.0   90.0   33.333333333333336
-150.0   120.0   33.333333333333336
-150.0   90.0   16.666666666666668
-200.0   120.0   16.666666666666668
-200.0   90.0   33.333333333333336
-150.0   90.0   33.333333333333336
-200.0   120.0   33.333333333333336
-200.0   90.0   50.0
-150.0   90.0   33.333333333333336
-150.0   120.0   33.333333333333336
-200.0   120.0   33.333333333333336
-150.0   120.0   50.0
-200.0   90.0   50.0
-200.0   120.0   50.0
-150.0   120.0   50.0
-200.0   120.0   33.333333333333336
-200.0   90.0   50.0
-150.0   120.0   50.0
-150.0   90.0   50.0
-150.0   90.0   33.333333333333336
-200.0   90.0   50.0
-150.0   120.0   50.0
-150.0   90.0   33.333333333333336
-200.0   120.0   33.333333333333336
-200.0   120.0   0.0
-150.0   120.0   0.0
-200.0   150.0   0.0
-200.0   120.0   16.666666666666668
-150.0   120.0   0.0
-150.0   150.0   0.0
-200.0   150.0   0.0
-150.0   150.0   16.666666666666668
-200.0   120.0   16.666666666666668
-200.0   150.0   16.666666666666668
-150.0   150.0   16.666666666666668
-200.0   150.0   0.0
-200.0   120.0   16.666666666666668
-150.0   150.0   16.666666666666668
-150.0   120.0   16.666666666666668
-150.0   120.0   0.0
-200.0   120.0   16.666666666666668
-150.0   150.0   16.666666666666668
-150.0   120.0   0.0
-200.0   150.0   0.0
-200.0   120.0   16.666666666666668
-150.0   120.0   16.666666666666668
-200.0   150.0   16.666666666666668
-200.0   120.0   33.333333333333336
-150.0   120.0   16.666666666666668
-150.0   150.0   16.666666666666668
-200.0   150.0   16.666666666666668
-150.0   150.0   33.333333333333336
-200.0   120.0   33.333333333333336
-200.0   150.0   33.333333333333336
-150.0   150.0   33.333333333333336
-200.0   150.0   16.666666666666668
-200.0   120.0   33.333333333333336
-150.0   150.0   33.333333333333336
-150.0   120.0   33.333333333333336
-150.0   120.0   16.666666666666668
-200.0   120.0   33.333333333333336
-150.0   150.0   33.333333333333336
-150.0   120.0   16.666666666666668
-200.0   150.0   16.666666666666668
-200.0   120.0   33.333333333333336
-150.0   120.0   33.333333333333336
-200.0   150.0   33.333333333333336
-200.0   120.0   50.0
-150.0   120.0   33.333333333333336
-150.0   150.0   33.333333333333336
-200.0   150.0   33.333333333333336
-150.0   150.0   50.0
-200.0   120.0   50.0
-200.0   150.0   50.0
-150.0   150.0   50.0
-200.0   150.0   33.333333333333336
-200.0   120.0   50.0
-150.0   150.0   50.0
-150.0   120.0   50.0
-150.0   120.0   33.333333333333336
-200.0   120.0   50.0
-150.0   150.0   50.0
-150.0   120.0   33.333333333333336
-200.0   150.0   33.333333333333336
-150.0   0.0   0.0
-100.0   0.0   0.0
-150.0   30.0   0.0
-150.0   0.0   16.666666666666668
-100.0   0.0   0.0
-100.0   30.0   0.0
-150.0   30.0   0.0
-100.0   30.0   16.666666666666668
-150.0   0.0   16.666666666666668
-150.0   30.0   16.666666666666668
-100.0   30.0   16.666666666666668
-150.0   30.0   0.0
-150.0   0.0   16.666666666666668
-100.0   30.0   16.666666666666668
-100.0   0.0   16.666666666666668
-100.0   0.0   0.0
-150.0   0.0   16.666666666666668
-100.0   30.0   16.666666666666668
-100.0   0.0   0.0
-150.0   30.0   0.0
-150.0   0.0   16.666666666666668
-100.0   0.0   16.666666666666668
-150.0   30.0   16.666666666666668
-150.0   0.0   33.333333333333336
-100.0   0.0   16.666666666666668
-100.0   30.0   16.666666666666668
-150.0   30.0   16.666666666666668
-100.0   30.0   33.333333333333336
-150.0   0.0   33.333333333333336
-150.0   30.0   33.333333333333336
-100.0   30.0   33.333333333333336
-150.0   30.0   16.666666666666668
-150.0   0.0   33.333333333333336
-100.0   30.0   33.333333333333336
-100.0   0.0   33.333333333333336
-100.0   0.0   16.666666666666668
-150.0   0.0   33.333333333333336
-100.0   30.0   33.333333333333336
-100.0   0.0   16.666666666666668
-150.0   30.0   16.666666666666668
-150.0   0.0   33.333333333333336
-100.0   0.0   33.333333333333336
-150.0   30.0   33.333333333333336
-150.0   0.0   50.0
-100.0   0.0   33.333333333333336
-100.0   30.0   33.333333333333336
-150.0   30.0   33.333333333333336
-100.0   30.0   50.0
-150.0   0.0   50.0
-150.0   30.0   50.0
-100.0   30.0   50.0
-150.0   30.0   33.333333333333336
-150.0   0.0   50.0
-100.0   30.0   50.0
-100.0   0.0   50.0
-100.0   0.0   33.333333333333336
-150.0   0.0   50.0
-100.0   30.0   50.0
-100.0   0.0   33.333333333333336
-150.0   30.0   33.333333333333336
-150.0   30.0   0.0
-100.0   30.0   0.0
-150.0   60.0   0.0
-150.0   30.0   16.666666666666668
-100.0   30.0   0.0
-100.0   60.0   0.0
-150.0   60.0   0.0
-100.0   60.0   16.666666666666668
-150.0   30.0   16.666666666666668
-150.0   60.0   16.666666666666668
-100.0   60.0   16.666666666666668
-150.0   60.0   0.0
-150.0   30.0   16.666666666666668
-100.0   60.0   16.666666666666668
-100.0   30.0   16.666666666666668
-100.0   30.0   0.0
-150.0   30.0   16.666666666666668
-100.0   60.0   16.666666666666668
-100.0   30.0   0.0
-150.0   60.0   0.0
-150.0   30.0   16.666666666666668
-100.0   30.0   16.666666666666668
-150.0   60.0   16.666666666666668
-150.0   30.0   33.333333333333336
-100.0   30.0   16.666666666666668
-100.0   60.0   16.666666666666668
-150.0   60.0   16.666666666666668
-100.0   60.0   33.333333333333336
-150.0   30.0   33.333333333333336
-150.0   60.0   33.333333333333336
-100.0   60.0   33.333333333333336
-150.0   60.0   16.666666666666668
-150.0   30.0   33.333333333333336
-100.0   60.0   33.333333333333336
-100.0   30.0   33.333333333333336
-100.0   30.0   16.666666666666668
-150.0   30.0   33.333333333333336
-100.0   60.0   33.333333333333336
-100.0   30.0   16.666666666666668
-150.0   60.0   16.666666666666668
-150.0   30.0   33.333333333333336
-100.0   30.0   33.333333333333336
-150.0   60.0   33.333333333333336
-150.0   30.0   50.0
-100.0   30.0   33.333333333333336
-100.0   60.0   33.333333333333336
-150.0   60.0   33.333333333333336
-100.0   60.0   50.0
-150.0   30.0   50.0
-150.0   60.0   50.0
-100.0   60.0   50.0
-150.0   60.0   33.333333333333336
-150.0   30.0   50.0
-100.0   60.0   50.0
-100.0   30.0   50.0
-100.0   30.0   33.333333333333336
-150.0   30.0   50.0
-100.0   60.0   50.0
-100.0   30.0   33.333333333333336
-150.0   60.0   33.333333333333336
-150.0   60.0   0.0
-100.0   60.0   0.0
-150.0   90.0   0.0
-150.0   60.0   16.666666666666668
-100.0   60.0   0.0
-100.0   90.0   0.0
-150.0   90.0   0.0
-100.0   90.0   16.666666666666668
-150.0   60.0   16.666666666666668
-150.0   90.0   16.666666666666668
-100.0   90.0   16.666666666666668
-150.0   90.0   0.0
-150.0   60.0   16.666666666666668
-100.0   90.0   16.666666666666668
-100.0   60.0   16.666666666666668
-100.0   60.0   0.0
-150.0   60.0   16.666666666666668
-100.0   90.0   16.666666666666668
-100.0   60.0   0.0
-150.0   90.0   0.0
-150.0   60.0   16.666666666666668
-100.0   60.0   16.666666666666668
-150.0   90.0   16.666666666666668
-150.0   60.0   33.333333333333336
-100.0   60.0   16.666666666666668
-100.0   90.0   16.666666666666668
-150.0   90.0   16.666666666666668
-100.0   90.0   33.333333333333336
-150.0   60.0   33.333333333333336
-150.0   90.0   33.333333333333336
-100.0   90.0   33.333333333333336
-150.0   90.0   16.666666666666668
-150.0   60.0   33.333333333333336
-100.0   90.0   33.333333333333336
-100.0   60.0   33.333333333333336
-100.0   60.0   16.666666666666668
-150.0   60.0   33.333333333333336
-100.0   90.0   33.333333333333336
-100.0   60.0   16.666666666666668
-150.0   90.0   16.666666666666668
-150.0   60.0   33.333333333333336
-100.0   60.0   33.333333333333336
-150.0   90.0   33.333333333333336
-150.0   60.0   50.0
-100.0   60.0   33.333333333333336
-100.0   90.0   33.333333333333336
-150.0   90.0   33.333333333333336
-100.0   90.0   50.0
-150.0   60.0   50.0
-150.0   90.0   50.0
-100.0   90.0   50.0
-150.0   90.0   33.333333333333336
-150.0   60.0   50.0
-100.0   90.0   50.0
-100.0   60.0   50.0
-100.0   60.0   33.333333333333336
-150.0   60.0   50.0
-100.0   90.0   50.0
-100.0   60.0   33.333333333333336
-150.0   90.0   33.333333333333336
-150.0   90.0   0.0
-100.0   90.0   0.0
-150.0   120.0   0.0
-150.0   90.0   16.666666666666668
-100.0   90.0   0.0
-100.0   120.0   0.0
-150.0   120.0   0.0
-100.0   120.0   16.666666666666668
-150.0   90.0   16.666666666666668
-150.0   120.0   16.666666666666668
-100.0   120.0   16.666666666666668
-150.0   120.0   0.0
-150.0   90.0   16.666666666666668
-100.0   120.0   16.666666666666668
-100.0   90.0   16.666666666666668
-100.0   90.0   0.0
-150.0   90.0   16.666666666666668
-100.0   120.0   16.666666666666668
-100.0   90.0   0.0
-150.0   120.0   0.0
-150.0   90.0   16.666666666666668
-100.0   90.0   16.666666666666668
-150.0   120.0   16.666666666666668
-150.0   90.0   33.333333333333336
-100.0   90.0   16.666666666666668
-100.0   120.0   16.666666666666668
-150.0   120.0   16.666666666666668
-100.0   120.0   33.333333333333336
-150.0   90.0   33.333333333333336
-150.0   120.0   33.333333333333336
-100.0   120.0   33.333333333333336
-150.0   120.0   16.666666666666668
-150.0   90.0   33.333333333333336
-100.0   120.0   33.333333333333336
-100.0   90.0   33.333333333333336
-100.0   90.0   16.666666666666668
-150.0   90.0   33.333333333333336
-100.0   120.0   33.333333333333336
-100.0   90.0   16.666666666666668
-150.0   120.0   16.666666666666668
-150.0   90.0   33.333333333333336
-100.0   90.0   33.333333333333336
-150.0   120.0   33.333333333333336
-150.0   90.0   50.0
-100.0   90.0   33.333333333333336
-100.0   120.0   33.333333333333336
-150.0   120.0   33.333333333333336
-100.0   120.0   50.0
-150.0   90.0   50.0
-150.0   120.0   50.0
-100.0   120.0   50.0
-150.0   120.0   33.333333333333336
-150.0   90.0   50.0
-100.0   120.0   50.0
-100.0   90.0   50.0
-100.0   90.0   33.333333333333336
-150.0   90.0   50.0
-100.0   120.0   50.0
-100.0   90.0   33.333333333333336
-150.0   120.0   33.333333333333336
-150.0   120.0   0.0
-100.0   120.0   0.0
-150.0   150.0   0.0
-150.0   120.0   16.666666666666668
-100.0   120.0   0.0
-100.0   150.0   0.0
-150.0   150.0   0.0
-100.0   150.0   16.666666666666668
-150.0   120.0   16.666666666666668
-150.0   150.0   16.666666666666668
-100.0   150.0   16.666666666666668
-150.0   150.0   0.0
-150.0   120.0   16.666666666666668
-100.0   150.0   16.666666666666668
-100.0   120.0   16.666666666666668
-100.0   120.0   0.0
-150.0   120.0   16.666666666666668
-100.0   150.0   16.666666666666668
-100.0   120.0   0.0
-150.0   150.0   0.0
-150.0   120.0   16.666666666666668
-100.0   120.0   16.666666666666668
-150.0   150.0   16.666666666666668
-150.0   120.0   33.333333333333336
-100.0   120.0   16.666666666666668
-100.0   150.0   16.666666666666668
-150.0   150.0   16.666666666666668
-100.0   150.0   33.333333333333336
-150.0   120.0   33.333333333333336
-150.0   150.0   33.333333333333336
-100.0   150.0   33.333333333333336
-150.0   150.0   16.666666666666668
-150.0   120.0   33.333333333333336
-100.0   150.0   33.333333333333336
-100.0   120.0   33.333333333333336
-100.0   120.0   16.666666666666668
-150.0   120.0   33.333333333333336
-100.0   150.0   33.333333333333336
-100.0   120.0   16.666666666666668
-150.0   150.0   16.666666666666668
-150.0   120.0   33.333333333333336
-100.0   120.0   33.333333333333336
-150.0   150.0   33.333333333333336
-150.0   120.0   50.0
-100.0   120.0   33.333333333333336
-100.0   150.0   33.333333333333336
-150.0   150.0   33.333333333333336
-100.0   150.0   50.0
-150.0   120.0   50.0
-150.0   150.0   50.0
-100.0   150.0   50.0
-150.0   150.0   33.333333333333336
-150.0   120.0   50.0
-100.0   150.0   50.0
-100.0   120.0   50.0
-100.0   120.0   33.333333333333336
-150.0   120.0   50.0
-100.0   150.0   50.0
-100.0   120.0   33.333333333333336
-150.0   150.0   33.333333333333336
-100.0   0.0   0.0
-50.0   0.0   0.0
-100.0   30.0   0.0
-100.0   0.0   16.666666666666668
-50.0   0.0   0.0
-50.0   30.0   0.0
-100.0   30.0   0.0
-50.0   30.0   16.666666666666668
-100.0   0.0   16.666666666666668
-100.0   30.0   16.666666666666668
-50.0   30.0   16.666666666666668
-100.0   30.0   0.0
-100.0   0.0   16.666666666666668
-50.0   30.0   16.666666666666668
-50.0   0.0   16.666666666666668
-50.0   0.0   0.0
-100.0   0.0   16.666666666666668
-50.0   30.0   16.666666666666668
-50.0   0.0   0.0
-100.0   30.0   0.0
-100.0   0.0   16.666666666666668
-50.0   0.0   16.666666666666668
-100.0   30.0   16.666666666666668
-100.0   0.0   33.333333333333336
-50.0   0.0   16.666666666666668
-50.0   30.0   16.666666666666668
-100.0   30.0   16.666666666666668
-50.0   30.0   33.333333333333336
-100.0   0.0   33.333333333333336
-100.0   30.0   33.333333333333336
-50.0   30.0   33.333333333333336
-100.0   30.0   16.666666666666668
-100.0   0.0   33.333333333333336
-50.0   30.0   33.333333333333336
-50.0   0.0   33.333333333333336
-50.0   0.0   16.666666666666668
-100.0   0.0   33.333333333333336
-50.0   30.0   33.333333333333336
-50.0   0.0   16.666666666666668
-100.0   30.0   16.666666666666668
-100.0   0.0   33.333333333333336
-50.0   0.0   33.333333333333336
-100.0   30.0   33.333333333333336
-100.0   0.0   50.0
-50.0   0.0   33.333333333333336
-50.0   30.0   33.333333333333336
-100.0   30.0   33.333333333333336
-50.0   30.0   50.0
-100.0   0.0   50.0
-100.0   30.0   50.0
-50.0   30.0   50.0
-100.0   30.0   33.333333333333336
-100.0   0.0   50.0
-50.0   30.0   50.0
-50.0   0.0   50.0
-50.0   0.0   33.333333333333336
-100.0   0.0   50.0
-50.0   30.0   50.0
-50.0   0.0   33.333333333333336
-100.0   30.0   33.333333333333336
-100.0   30.0   0.0
-50.0   30.0   0.0
-100.0   60.0   0.0
-100.0   30.0   16.666666666666668
-50.0   30.0   0.0
-50.0   60.0   0.0
-100.0   60.0   0.0
-50.0   60.0   16.666666666666668
-100.0   30.0   16.666666666666668
-100.0   60.0   16.666666666666668
-50.0   60.0   16.666666666666668
-100.0   60.0   0.0
-100.0   30.0   16.666666666666668
-50.0   60.0   16.666666666666668
-50.0   30.0   16.666666666666668
-50.0   30.0   0.0
-100.0   30.0   16.666666666666668
-50.0   60.0   16.666666666666668
-50.0   30.0   0.0
-100.0   60.0   0.0
-100.0   30.0   16.666666666666668
-50.0   30.0   16.666666666666668
-100.0   60.0   16.666666666666668
-100.0   30.0   33.333333333333336
-50.0   30.0   16.666666666666668
-50.0   60.0   16.666666666666668
-100.0   60.0   16.666666666666668
-50.0   60.0   33.333333333333336
-100.0   30.0   33.333333333333336
-100.0   60.0   33.333333333333336
-50.0   60.0   33.333333333333336
-100.0   60.0   16.666666666666668
-100.0   30.0   33.333333333333336
-50.0   60.0   33.333333333333336
-50.0   30.0   33.333333333333336
-50.0   30.0   16.666666666666668
-100.0   30.0   33.333333333333336
-50.0   60.0   33.333333333333336
-50.0   30.0   16.666666666666668
-100.0   60.0   16.666666666666668
-100.0   30.0   33.333333333333336
-50.0   30.0   33.333333333333336
-100.0   60.0   33.333333333333336
-100.0   30.0   50.0
-50.0   30.0   33.333333333333336
-50.0   60.0   33.333333333333336
-100.0   60.0   33.333333333333336
-50.0   60.0   50.0
-100.0   30.0   50.0
-100.0   60.0   50.0
-50.0   60.0   50.0
-100.0   60.0   33.333333333333336
-100.0   30.0   50.0
-50.0   60.0   50.0
-50.0   30.0   50.0
-50.0   30.0   33.333333333333336
-100.0   30.0   50.0
-50.0   60.0   50.0
-50.0   30.0   33.333333333333336
-100.0   60.0   33.333333333333336
-100.0   60.0   0.0
-50.0   60.0   0.0
-100.0   90.0   0.0
-100.0   60.0   16.666666666666668
-50.0   60.0   0.0
-50.0   90.0   0.0
-100.0   90.0   0.0
-50.0   90.0   16.666666666666668
-100.0   60.0   16.666666666666668
-100.0   90.0   16.666666666666668
-50.0   90.0   16.666666666666668
-100.0   90.0   0.0
-100.0   60.0   16.666666666666668
-50.0   90.0   16.666666666666668
-50.0   60.0   16.666666666666668
-50.0   60.0   0.0
-100.0   60.0   16.666666666666668
-50.0   90.0   16.666666666666668
-50.0   60.0   0.0
-100.0   90.0   0.0
-100.0   60.0   16.666666666666668
-50.0   60.0   16.666666666666668
-100.0   90.0   16.666666666666668
-100.0   60.0   33.333333333333336
-50.0   60.0   16.666666666666668
-50.0   90.0   16.666666666666668
-100.0   90.0   16.666666666666668
-50.0   90.0   33.333333333333336
-100.0   60.0   33.333333333333336
-100.0   90.0   33.333333333333336
-50.0   90.0   33.333333333333336
-100.0   90.0   16.666666666666668
-100.0   60.0   33.333333333333336
-50.0   90.0   33.333333333333336
-50.0   60.0   33.333333333333336
-50.0   60.0   16.666666666666668
-100.0   60.0   33.333333333333336
-50.0   90.0   33.333333333333336
-50.0   60.0   16.666666666666668
-100.0   90.0   16.666666666666668
-100.0   60.0   33.333333333333336
-50.0   60.0   33.333333333333336
-100.0   90.0   33.333333333333336
-100.0   60.0   50.0
-50.0   60.0   33.333333333333336
-50.0   90.0   33.333333333333336
-100.0   90.0   33.333333333333336
-50.0   90.0   50.0
-100.0   60.0   50.0
-100.0   90.0   50.0
-50.0   90.0   50.0
-100.0   90.0   33.333333333333336
-100.0   60.0   50.0
-50.0   90.0   50.0
-50.0   60.0   50.0
-50.0   60.0   33.333333333333336
-100.0   60.0   50.0
-50.0   90.0   50.0
-50.0   60.0   33.333333333333336
-100.0   90.0   33.333333333333336
-100.0   90.0   0.0
-50.0   90.0   0.0
-100.0   120.0   0.0
-100.0   90.0   16.666666666666668
-50.0   90.0   0.0
-50.0   120.0   0.0
-100.0   120.0   0.0
-50.0   120.0   16.666666666666668
-100.0   90.0   16.666666666666668
-100.0   120.0   16.666666666666668
-50.0   120.0   16.666666666666668
-100.0   120.0   0.0
-100.0   90.0   16.666666666666668
-50.0   120.0   16.666666666666668
-50.0   90.0   16.666666666666668
-50.0   90.0   0.0
-100.0   90.0   16.666666666666668
-50.0   120.0   16.666666666666668
-50.0   90.0   0.0
-100.0   120.0   0.0
-100.0   90.0   16.666666666666668
-50.0   90.0   16.666666666666668
-100.0   120.0   16.666666666666668
-100.0   90.0   33.333333333333336
-50.0   90.0   16.666666666666668
-50.0   120.0   16.666666666666668
-100.0   120.0   16.666666666666668
-50.0   120.0   33.333333333333336
-100.0   90.0   33.333333333333336
-100.0   120.0   33.333333333333336
-50.0   120.0   33.333333333333336
-100.0   120.0   16.666666666666668
-100.0   90.0   33.333333333333336
-50.0   120.0   33.333333333333336
-50.0   90.0   33.333333333333336
-50.0   90.0   16.666666666666668
-100.0   90.0   33.333333333333336
-50.0   120.0   33.333333333333336
-50.0   90.0   16.666666666666668
-100.0   120.0   16.666666666666668
-100.0   90.0   33.333333333333336
-50.0   90.0   33.333333333333336
-100.0   120.0   33.333333333333336
-100.0   90.0   50.0
-50.0   90.0   33.333333333333336
-50.0   120.0   33.333333333333336
-100.0   120.0   33.333333333333336
-50.0   120.0   50.0
-100.0   90.0   50.0
-100.0   120.0   50.0
-50.0   120.0   50.0
-100.0   120.0   33.333333333333336
-100.0   90.0   50.0
-50.0   120.0   50.0
-50.0   90.0   50.0
-50.0   90.0   33.333333333333336
-100.0   90.0   50.0
-50.0   120.0   50.0
-50.0   90.0   33.333333333333336
-100.0   120.0   33.333333333333336
-100.0   120.0   0.0
-50.0   120.0   0.0
-100.0   150.0   0.0
-100.0   120.0   16.666666666666668
-50.0   120.0   0.0
-50.0   150.0   0.0
-100.0   150.0   0.0
-50.0   150.0   16.666666666666668
-100.0   120.0   16.666666666666668
-100.0   150.0   16.666666666666668
-50.0   150.0   16.666666666666668
-100.0   150.0   0.0
-100.0   120.0   16.666666666666668
-50.0   150.0   16.666666666666668
-50.0   120.0   16.666666666666668
-50.0   120.0   0.0
-100.0   120.0   16.666666666666668
-50.0   150.0   16.666666666666668
-50.0   120.0   0.0
-100.0   150.0   0.0
-100.0   120.0   16.666666666666668
-50.0   120.0   16.666666666666668
-100.0   150.0   16.666666666666668
-100.0   120.0   33.333333333333336
-50.0   120.0   16.666666666666668
-50.0   150.0   16.666666666666668
-100.0   150.0   16.666666666666668
-50.0   150.0   33.333333333333336
-100.0   120.0   33.333333333333336
-100.0   150.0   33.333333333333336
-50.0   150.0   33.333333333333336
-100.0   150.0   16.666666666666668
-100.0   120.0   33.333333333333336
-50.0   150.0   33.333333333333336
-50.0   120.0   33.333333333333336
-50.0   120.0   16.666666666666668
-100.0   120.0   33.333333333333336
-50.0   150.0   33.333333333333336
-50.0   120.0   16.666666666666668
-100.0   150.0   16.666666666666668
-100.0   120.0   33.333333333333336
-50.0   120.0   33.333333333333336
-100.0   150.0   33.333333333333336
-100.0   120.0   50.0
-50.0   120.0   33.333333333333336
-50.0   150.0   33.333333333333336
-100.0   150.0   33.333333333333336
-50.0   150.0   50.0
-100.0   120.0   50.0
-100.0   150.0   50.0
-50.0   150.0   50.0
-100.0   150.0   33.333333333333336
-100.0   120.0   50.0
-50.0   150.0   50.0
-50.0   120.0   50.0
-50.0   120.0   33.333333333333336
-100.0   120.0   50.0
-50.0   150.0   50.0
-50.0   120.0   33.333333333333336
-100.0   150.0   33.333333333333336
-50.0   0.0   0.0
0.0   0.0   0.0
-50.0   30.0   0.0
-50.0   0.0   16.666666666666668
0.0   0.0   0.0
0.0   30.0   0.0
-50.0   30.0   0.0
0.0   30.0   16.666666666666668
-50.0   0.0   16.666666666666668
-50.0   30.0   16.666666666666668
0.0   30.0   16.666666666666668
-50.0   30.0   0.0
-50.0   0.0   16.666666666666668
0.0   30.0   16.666666666666668
0.0   0.0   16.666666666666668
0.0   0.0   0.0
-50.0   0.0   16.666666666666668
0.0   30.0   16.666666666666668
0.0   0.0   0.0
-50.0   30.0   0.0
-50.0   0.0   16.666666666666668
0.0   0.0   16.666666666666668
-50.0   30.0   16.666666666666668
-50.0   0.0   33.333333333333336
0.0   0.0   16.666666666666668
0.0   30.0   16.666666666666668
-50.0   30.0   16.666666666666668
0.0   30.0   33.333333333333336
-50.0   0.0   33.333333333333336
-50.0   30.0   33.333333333333336
0.0   30.0   33.333333333333336
-50.0   30.0   16.666666666666668
-50.0   0.0   33.333333333333336
0.0   30.0   33.333333333333336
0.0   0.0   33.333333333333336
0.0   0.0   16.666666666666668
-50.0   0.0   33.333333333333336
0.0   30.0   33.333333333333336
0.0   0.0   16.666666666666668
-50.0   30.0   16.666666666666668
-50.0   0.0   33.333333333333336
0.0   0.0   33.333333333333336
-50.0   30.0   33.333333333333336
-50.0   0.0   50.0
0.0   0.0   33.333333333333336
0.0   30.0   33.333333333333336
-50.0   30.0   33.333333333333336
0.0   30.0   50.0
-50.0   0.0   50.0
-50.0   30.0   50.0
0.0   30.0   50.0
-50.0   30.0   33.333333333333336
-50.0   0.0   50.0
0.0   30.0   50.0
0.0   0.0   50.0
0.0   0.0   33.333333333333336
-50.0   0.0   50.0
0.0   30.0   50.0
0.0   0.0   33.333333333333336
-50.0   30.0   33.333333333333336
-50.0   30.0   0.0
0.0   30.0   0.0
-50.0   60.0   0.0
-50.0   30.0   16.666666666666668
0.0   30.0   0.0
0.0   60.0   0.0
-50.0   60.0   0.0
0.0   60.0   16.666666666666668
-50.0   30.0   16.666666666666668
-50.0   60.0   16.666666666666668
0.0   60.0   16.666666666666668
-50.0   60.0   0.0
-50.0   30.0   16.666666666666668
0.0   60.0   16.666666666666668
0.0   30.0   16.666666666666668
0.0   30.0   0.0
-50.0   30.0   16.666666666666668
0.0   60.0   16.666666666666668
0.0   30.0   0.0
-50.0   60.0   0.0
-50.0   30.0   16.666666666666668
0.0   30.0   16.666666666666668
-50.0   60.0   16.666666666666668
-50.0   30.0   33.333333333333336
0.0   30.0   16.666666666666668
0.0   60.0   16.666666666666668
-50.0   60.0   16.666666666666668
0.0   60.0   33.333333333333336
-50.0   30.0   33.333333333333336
-50.0   60.0   33.333333333333336
0.0   60.0   33.333333333333336
-50.0   60.0   16.666666666666668
-50.0   30.0   33.333333333333336
0.0   60.0   33.333333333333336
0.0   30.0   33.333333333333336
0.0   30.0   16.666666666666668
-50.0   30.0   33.333333333333336
0.0   60.0   33.333333333333336
0.0   30.0   16.666666666666668
-50.0   60.0   16.666666666666668
-50.0   30.0   33.333333333333336
0.0   30.0   33.333333333333336
-50.0   60.0   33.333333333333336
-50.0   30.0   50.0
0.0   30.0   33.333333333333336
0.0   60.0   33.333333333333336
-50.0   60.0   33.333333333333336
0.0   60.0   50.0
-50.0   30.0   50.0
-50.0   60.0   50.0
0.0   60.0   50.0
-50.0   60.0   33.333333333333336
-50.0   30.0   50.0
0.0   60.0   50.0
0.0   30.0   50.0
0.0   30.0   33.333333333333336
-50.0   30.0   50.0
0.0   60.0   50.0
0.0   30.0   33.333333333333336
-50.0   60.0   33.333333333333336
-50.0   60.0   0.0
0.0   60.0   0.0
-50.0   90.0   0.0
-50.0   60.0   16.666666666666668
0.0   60.0   0.0
0.0   90.0   0.0
-50.0   90.0   0.0
0.0   90.0   16.666666666666668
-50.0   60.0   16.666666666666668
-50.0   90.0   16.666666666666668
0.0   90.0   16.666666666666668
-50.0   90.0   0.0
-50.0   60.0   16.666666666666668
0.0   90.0   16.666666666666668
0.0   60.0   16.666666666666668
0.0   60.0   0.0
-50.0   60.0   16.666666666666668
0.0   90.0   16.666666666666668
0.0   60.0   0.0
-50.0   90.0   0.0
-50.0   60.0   16.666666666666668
0.0   60.0   16.666666666666668
-50.0   90.0   16.666666666666668
-50.0   60.0   33.333333333333336
0.0   60.0   16.666666666666668
0.0   90.0   16.666666666666668
-50.0   90.0   16.666666666666668
0.0   90.0   33.333333333333336
-50.0   60.0   33.333333333333336
-50.0   90.0   33.333333333333336
0.0   90.0   33.333333333333336
-50.0   90.0   16.666666666666668
-50.0   60.0   33.333333333333336
0.0   90.0   33.333333333333336
0.0   60.0   33.333333333333336
0.0   60.0   16.666666666666668
-50.0   60.0   33.333333333333336
0.0   90.0   33.333333333333336
0.0   60.0   16.666666666666668
-50.0   90.0   16.666666666666668
-50.0   60.0   33.333333333333336
0.0   60.0   33.333333333333336
-50.0   90.0   33.333333333333336
-50.0   60.0   50.0
0.0   60.0   33.333333333333336
0.0   90.0   33.333333333333336
-50.0   90.0   33.333333333333336
0.0   90.0   50.0
-50.0   60.0   50.0
-50.0   90.0   50.0
0.0   90.0   50.0
-50.0   90.0   33.333333333333336
-50.0   60.0   50.0
0.0   90.0   50.0
0.0   60.0   50.0
0.0   60.0   33.333333333333336
-50.0   60.0   50.0
0.0   90.0   50.0
0.0   60.0   33.333333333333336
-50.0   90.0   33.333333333333336
-50.0   90.0   0.0
0.0   90.0   0.0
-50.0   120.0   0.0
-50.0   90.0   16.666666666666668
0.0   90.0   0.0
0.0   120.0   0.0
-50.0   120.0   0.0
0.0   120.0   16.666666666666668
-50.0   90.0   16.666666666666668
-50.0   120.0   16.666666666666668
0.0   120.0   16.666666666666668
-50.0   120.0   0.0
-50.0   90.0   16.666666666666668
0.0   120.0   16.666666666666668
0.0   90.0   16.666666666666668
0.0   90.0   0.0
-50.0   90.0   16.666666666666668
0.0   120.0   16.666666666666668
0.0   90.0   0.0
-50.0   120.0   0.0
-50.0   90.0   16.666666666666668
0.0   90.0   16.666666666666668
-50.0   120.0   16.666666666666668
-50.0   90.0   33.333333333333336
0.0   90.0   16.666666666666668
0.0   120.0   16.666666666666668
-50.0   120.0   16.666666666666668
0.0   120.0   33.333333333333336
-50.0   90.0   33.333333333333336
-50.0   120.0   33.333333333333336
0.0   120.0   33.333333333333336
-50.0   120.0   16.666666666666668
-50.0   90.0   33.333333333333336
0.0   120.0   33.333333333333336
0.0   90.0   33.333333333333336
0.0   90.0   16.666666666666668
-50.0   90.0   33.333333333333336
0.0   120.0   33.333333333333336
0.0   90.0   16.666666666666668
-50.0   120.0   16.666666666666668
-50.0   90.0   33.333333333333336
0.0   90.0   33.333333333333336
-50.0   120.0   33.333333333333336
-50.0   90.0   50.0
0.0   90.0   33.333333333333336
0.0   120.0   33.333333333333336
-50.0   120.0   33.333333333333336
0.0   120.0   50.0
-50.0   90.0   50.0
-50.0   120.0   50.0
0.0   120.0   50.0
-50.0   120.0   33.333333333333336
-50.0   90.0   50.0
0.0   120.0   50.0
0.0   90.0   50.0
0.0   90.0   33.333333333333336
-50.0   90.0   50.0
0.0   120.0   50.0
0.0   90.0   33.333333333333336
-50.0   120.0   33.333333333333336
-50.0   120.0   0.0
0.0   120.0   0.0
-50.0   150.0   0.0
-50.0   120.0   16.666666666666668
0.0   120.0   0.0
0.0   150.0   0.0
-50.0   150.0   0.0
0.0   150.0   16.666666666666668
-50.0   120.0   16.666666666666668
-50.0   150.0   16.666666666666668
0.0   150.0   16.666666666666668
-50.0   150.0   0.0
-50.0   120.0   16.666666666666668
0.0   150.0   16.666666666666668
0.0   120.0   16.666666666666668
0.0   120.0   0.0
-50.0   120.0   16.666666666666668
0.0   150.0   16.666666666666668
0.0   120.0   0.0
-50.0   150.0   0.0
-50.0   120.0   16.666666666666668
0.0   120.0   16.666666666666668
-50.0   150.0   16.666666666666668
-50.0   120.0   33.333333333333336
0.0   120.0   16.666666666666668
0.0   150.0   16.666666666666668
-50.0   150.0   16.666666666666668
0.0   150.0   33.333333333333336
-50.0   120.0   33.333333333333336
-50.0   150.0   33.333333333333336
0.0   150.0   33.333333333333336
-50.0   150.0   16.666666666666668
-50.0   120.0   33.333333333333336
0.0   150.0   33.333333333333336
0.0   120.0   33.333333333333336
0.0   120.0   16.666666666666668
-50.0   120.0   33.333333333333336
0.0   150.0   33.333333333333336
0.0   120.0   16.666666666666668
-50.0   150.0   16.666666666666668
-50.0   120.0   33.333333333333336
0.0   120.0   33.333333333333336
-50.0   150.0   33.333333333333336
-50.0   120.0   50.0
0.0   120.0   33.333333333333336
0.0   150.0   33.333333333333336
-50.0   150.0   33.333333333333336
0.0   150.0   50.0
-50.0   120.0   50.0
-50.0   150.0   50.0
0.0   150.0   50.0
-50.0   150.0   33.333333333333336
-50.0   120.0   50.0
0.0   150.0   50.0
0.0   120.0   50.0
0.0   120.0   33.333333333333336
-50.0   120.0   50.0
0.0   150.0   50.0
0.0   120.0   33.333333333333336
-50.0   150.0   33.333333333333336
0.0   0.0   0.0
50.0   0.0   0.0
0.0   30.0   0.0
0.0   0.0   16.666666666666668
50.0   0.0   0.0
50.0   30.0   0.0
0.0   30.0   0.0
50.0   30.0   16.666666666666668
0.0   0.0   16.666666666666668
0.0   30.0   16.666666666666668
50.0   30.0   16.666666666666668
0.0   30.0   0.0
0.0   0.0   16.666666666666668
50.0   30.0   16.666666666666668
50.0   0.0   16.666666666666668
50.0   0.0   0.0
0.0   0.0   16.666666666666668
50.0   30.0   16.666666666666668
50.0   0.0   0.0
0.0   30.0   0.0
0.0   0.0   16.666666666666668
50.0   0.0   16.666666666666668
0.0   30.0   16.666666666666668
0.0   0.0   33.333333333333336
50.0   0.0   16.666666666666668
50.0   30.0   16.666666666666668
0.0   30.0   16.666666666666668
50.0   30.0   33.333333333333336
0.0   0.0   33.333333333333336
0.0   30.0   33.333333333333336
50.0   30.0   33.333333333333336
0.0   30.0   16.666666666666668
0.0   0.0   33.333333333333336
50.0   30.0   33.333333333333336
50.0   0.0   33.333333333333336
50.0   0.0   16.666666666666668
0.0   0.0   33.333333333333336
50.0   30.0   33.333333333333336
50.0   0.0   16.666666666666668
0.0   30.0   16.666666666666668
0.0   0.0   33.333333333333336
50.0   0.0   33.333333333333336
0.0   30.0   33.333333333333336
0.0   0.0   50.0
50.0   0.0   33.333333333333336
50.0   30.0   33.333333333333336
0.0   30.0   33.333333333333336
50.0   30.0   50.0
0.0   0.0   50.0
0.0   30.0   50.0
50.0   30.0   50.0
0.0   30.0   33.333333333333336
0.0   0.0   50.0
50.0   30.0   50.0
50.0   0.0   50.0
50.0   0.0   33.333333333333336
0.0   0.0   50.0
50.0   30.0   50.0
50.0   0.0   33.333333333333336
0.0   30.0   33.333333333333336
0.0   30.0   0.0
50.0   30.0   0.0
0.0   60.0   0.0
0.0   30.0   16.666666666666668
50.0   30.0   0.0
50.0   60.0   0.0
0.0   60.0   0.0
50.0   60.0   16.666666666666668
0.0   30.0   16.666666666666668
0.0   60.0   16.666666666666668
50.0   60.0   16.666666666666668
0.0   60.0   0.0
0.0   30.0   16.666666666666668
50.0   60.0   16.666666666666668
50.0   30.0   16.666666666666668
50.0   30.0   0.0
0.0   30.0   16.666666666666668
50.0   60.0   16.666666666666668
50.0   30.0   0.0
0.0   60.0   0.0
0.0   30.0   16.666666666666668
50.0   30.0   16.666666666666668
0.0   60.0   16.666666666666668
0.0   30.0   33.333333333333336
50.0   30.0   16.666666666666668
50.0   60.0   16.666666666666668
0.0   60.0   16.666666666666668
50.0   60.0   33.333333333333336
0.0   30.0   33.333333333333336
0.0   60.0   33.333333333333336
50.0   60.0   33.333333333333336
0.0   60.0   16.666666666666668
0.0   30.0   33.333333333333336
50.0   60.0   33.333333333333336
50.0   30.0   33.333333333333336
50.0   30.0   16.666666666666668
0.0   30.0   33.333333333333336
50.0   60.0   33.333333333333336
50.0   30.0   16.666666666666668
0.0   60.0   16.666666666666668
0.0   30.0   33.333333333333336
50.0   30.0   33.333333333333336
0.0   60.0   33.333333333333336
0.0   30.0   50.0
50.0   30.0   33.333333333333336
50.0   60.0   33.333333333333336
0.0   60.0   33.333333333333336
50.0   60.0   50.0
0.0   30.0   50.0
0.0   60.0   50.0
50.0   60.0   50.0
0.0   60.0   33.333333333333336
0.0   30.0   50.0
50.0   60.0   50.0
50.0   30.0   50.0
50.0   30.0   33.333333333333336
0.0   30.0   50.0
50.0   60.0   50.0
50.0   30.0   33.333333333333336
0.0   60.0   33.333333333333336
0.0   60.0   0.0
50.0   60.0   0.0
0.0   90.0   0.0
0.0   60.0   16.666666666666668
50.0   60.0   0.0
50.0   90.0   0.0
0.0   90.0   0.0
50.0   90.0   16.666666666666668
0.0   60.0   16.666666666666668
0.0   90.0   16.666666666666668
50.0   90.0   16.666666666666668
0.0   90.0   0.0
0.0   60.0   16.666666666666668
50.0   90.0   16.666666666666668
50.0   60.0   16.666666666666668
50.0   60.0   0.0
0.0   60.0   16.666666666666668
50.0   90.0   16.666666666666668
50.0   60.0   0.0
0.0   90.0   0.0
0.0   60.0   16.666666666666668
50.0   60.0   16.666666666666668
0.0   90.0   16.666666666666668
0.0   60.0   33.333333333333336
50.0   60.0   16.666666666666668
50.0   90.0   16.666666666666668
0.0   90.0   16.666666666666668
50.0   90.0   33.333333333333336
0.0   60.0   33.333333333333336
0.0   90.0   33.333333333333336
50.0   90.0   33.333333333333336
0.0   90.0   16.666666666666668
0.0   60.0   33.333333333333336
50.0   90.0   33.333333333333336
50.0   60.0   33.333333333333336
50.0   60.0   16.666666666666668
0.0   60.0   33.333333333333336
50.0   90.0   33.333333333333336
50.0   60.0   16.666666666666668
0.0   90.0   16.666666666666668
0.0   60.0   33.333333333333336
50.0   60.0   33.333333333333336
0.0   90.0   33.333333333333336
0.0   60.0   50.0
50.0   60.0   33.333333333333336
50.0   90.0   33.333333333333336
0.0   90.0   33.333333333333336
50.0   90.0   50.0
0.0   60.0   50.0
0.0   90.0   50.0
50.0   90.0   50.0
0.0   90.0   33.333333333333336
0.0   60.0   50.0
50.0   90.0   50.0
50.0   60.0   50.0
50.0   60.0   33.333333333333336
0.0   60.0   50.0
50.0   90.0   50.0
50.0   60.0   33.333333333333336
0.0   90.0   33.333333333333336
0.0   90.0   0.0
50.0   90.0   0.0
0.0   120.0   0.0
0.0   90.0   16.666666666666668
50.0   90.0   0.0
50.0   120.0   0.0
0.0   120.0   0.0
50.0   120.0   16.666666666666668
0.0   90.0   16.666666666666668
0.0   120.0   16.666666666666668
50.0   120.0   16.666666666666668
0.0   120.0   0.0
0.0   90.0   16.666666666666668
50.0   120.0   16.666666666666668
50.0   90.0   16.666666666666668
50.0   90.0   0.0
0.0   90.0   16.666666666666668
50.0   120.0   16.666666666666668
50.0   90.0   0.0
0.0   120.0   0.0
0.0   90.0   16.666666666666668
50.0   90.0   16.666666666666668
0.0   120.0   16.666666666666668
0.0   90.0   33.333333333333336
50.0   90.0   16.666666666666668
50.0   120.0   16.666666666666668
0.0   120.0   16.666666666666668
50.0   120.0   33.333333333333336
0.0   90.0   33.333333333333336
0.0   120.0   33.333333333333336
50.0   120.0   33.333333333333336
0.0   120.0   16.666666666666668
0.0   90.0   33.333333333333336
50.0   120.0   33.333333333333336
50.0   90.0   33.333333333333336
50.0   90.0   16.666666666666668
0.0   90.0   33.333333333333336
50.0   120.0   33.333333333333336
50.0   90.0   16.666666666666668
0.0   120.0   16.666666666666668
0.0   90.0   33.333333333333336
50.0   90.0   33.333333333333336
0.0   120.0   33.333333333333336
0.0   90.0   50.0
50.0   90.0   33.333333333333336
50.0   120.0   33.333333333333336
0.0   120.0   33.333333333333336
50.0   120.0   50.0
0.0   90.0   50.0
0.0   120.0   50.0
50.0   120.0   50.0
0.0   120.0   33.333333333333336
0.0   90.0   50.0
50.0   120.0   50.0
50.0   90.0   50.0
50.0   90.0   33.333333333333336
0.0   90.0   50.0
50.0   120.0   50.0
50.0   90.0   33.333333333333336
0.0   120.0   33.333333333333336
0.0   120.0   0.0
50.0   120.0   0.0
0.0   150.0   0.0
0.0   120.0   16.666666666666668
50.0   120.0   0.0
50.0   150.0   0.0
0.0   150.0   0.0
50.0   150.0   16.666666666666668
0.0   120.0   16.666666666666668
0.0   150.0   16.666666666666668
50.0   150.0   16.666666666666668
0.0   150.0   0.0
0.0   120.0   16.666666666666668
50.0   150.0   16.666666666666668
50.0   120.0   16.666666666666668
50.0   120.0   0.0
0.0   120.0   16.666666666666668
50.0   150.0   16.666666666666668
50.0   120.0   0.0
0.0   150.0   0.0
0.0   120.0   16.666666666666668
50.0   120.0   16.666666666666668
0.0   150.0   16.666666666666668
0.0   120.0   33.333333333333336
50.0   120.0   16.666666666666668
50.0   150.0   16.666666666666668
0.0   150.0   16.666666666666668
50.0   150.0   33.333333333333336
0.0   120.0   33.333333333333336
0.0   150.0   33.333333333333336
50.0   150.0   33.333333333333336
0.0   150.0   16.666666666666668
0.0   120.0   33.333333333333336
50.0   150.0   33.333333333333336
50.0   120.0   33.333333333333336
50.0   120.0   16.666666666666668
0.0   120.0   33.333333333333336
50.0   150.0   33.333333333333336
50.0   120.0   16.666666666666668
0.0   150.0   16.666666666666668
0.0   120.0   33.333333333333336
50.0   120.0   33.333333333333336
0.0   150.0   33.333333333333336
0.0   120.0   50.0
50.0   120.0   33.333333333333336
50.0   150.0   33.333333333333336
0.0   150.0   33.333333333333336
50.0   150.0   50.0
0.0   120.0   50.0
0.0   150.0   50.0
50.0   150.0   50.0
0.0   150.0   33.333333333333336
0.0   120.0   50.0
50.0   150.0   50.0
50.0   120.0   50.0
50.0   120.0   33.333333333333336
0.0   120.0   50.0
50.0   150.0   50.0
50.0   120.0   33.333333333333336
0.0   150.0   33.333333333333336
50.0   0.0   0.0
100.0   0.0   0.0
50.0   30.0   0.0
50.0   0.0   16.666666666666668
100.0   0.0   0.0
100.0   30.0   0.0
50.0   30.0   0.0
100.0   30.0   16.666666666666668
50.0   0.0   16.666666666666668
50.0   30.0   16.666666666666668
100.0   30.0   16.666666666666668
50.0   30.0   0.0
50.0   0.0   16.666666666666668
100.0   30.0   16.666666666666668
100.0   0.0   16.666666666666668
100.0   0.0   0.0
50.0   0.0   16.666666666666668
100.0   30.0   16.666666666666668
100.0   0.0   0.0
50.0   30.0   0.0
50.0   0.0   16.666666666666668
100.0   0.0   16.666666666666668
50.0   30.0   16.666666666666668
50.0   0.0   33.333333333333336
100.0   0.0   16.666666666666668
100.0   30.0   16.666666666666668
50.0   30.0   16.666666666666668
100.0   30.0   33.333333333333336
50.0   0.0   33.333333333333336
50.0   30.0   33.333333333333336
100.0   30.0   33.333333333333336
50.0   30.0   16.666666666666668
50.0   0.0   33.333333333333336
100.0   30.0   33.333333333333336
100.0   0.0   33.333333333333336
100.0   0.0   16.666666666666668
50.0   0.0   33.333333333333336
100.0   30.0   33.333333333333336
100.0   0.0   16.666666666666668
50.0   30.0   16.666666666666668
50.0   0.0   33.333333333333336
100.0   0.0   33.333333333333336
50.0   30.0   33.333333333333336
50.0   0.0   50.0
100.0   0.0   33.333333333333336
100.0   30.0   33.333333333333336
50.0   30.0   33.333333333333336
100.0   30.0   50.0
50.0   0.0   50.0
50.0   30.0   50.0
100.0   30.0   50.0
50.0   30.0   33.333333333333336
50.0   0.0   50.0
100.0   30.0   50.0
100.0   0.0   50.0
100.0   0.0   33.333333333333336
50.0   0.0   50.0
100.0   30.0   50.0
100.0   0.0   33.333333333333336
50.0   30.0   33.333333333333336
50.0   30.0   0.0
100.0   30.0   0.0
50.0   60.0   0.0
50.0   30.0   16.666666666666668
100.0   30.0   0.0
100.0   60.0   0.0
50.0   60.0   0.0
100.0   60.0   16.666666666666668
50.0   30.0   16.666666666666668
50.0   60.0   16.666666666666668
100.0   60.0   16.666666666666668
50.0   60.0   0.0
50.0   30.0   16.666666666666668
100.0   60.0   16.666666666666668
100.0   30.0   16.666666666666668
100.0   30.0   0.0
50.0   30.0   16.666666666666668
100.0   60.0   16.666666666666668
100.0   30.0   0.0
50.0   60.0   0.0
50.0   30.0   16.666666666666668
100.0   30.0   16.666666666666668
50.0   60.0   16.666666666666668
50.0   30.0   33.333333333333336
100.0   30.0   16.666666666666668
100.0   60.0   16.666666666666668
50.0   60.0   16.666666666666668
100.0   60.0   33.333333333333336
50.0   30.0   33.333333333333336
50.0   60.0   33.333333333333336
100.0   60.0   33.333333333333336
50.0   60.0   16.666666666666668
50.0   30.0   33.333333333333336
100.0   60.0   33.333333333333336
100.0   30.0   33.333333333333336
100.0   30.0   16.666666666666668
50.0   30.0   33.333333333333336
100.0   60.0   33.333333333333336
100.0   30.0   16.666666666666668
50.0   60.0   16.666666666666668
50.0   30.0   33.333333333333336
100.0   30.0   33.333333333333336
50.0   60.0   33.333333333333336
50.0   30.0   50.0
100.0   30.0   33.333333333333336
100.0   60.0   33.333333333333336
50.0   60.0   33.333333333333336
100.0   60.0   50.0
50.0   30.0   50.0
50.0   60.0   50.0
100.0   60.0   50.0
50.0   60.0   33.333333333333336
50.0   30.0   50.0
100.0   60.0   50.0
100.0   30.0   50.0
100.0   30.0   33.333333333333336
50.0   30.0   50.0
100.0   60.0   50.0
100.0   30.0   33.333333333333336
50.0   60.0   33.333333333333336
50.0   60.0   0.0
100.0   60.0   0.0
50.0   90.0   0.0
50.0   60.0   16.666666666666668
100.0   60.0   0.0
100.0   90.0   0.0
50.0   90.0   0.0
100.0   90.0   16.666666666666668
50.0   60.0   16.666666666666668
50.0   90.0   16.666666666666668
100.0   90.0   16.666666666666668
50.0   90.0   0.0
50.0   60.0   16.666666666666668
100.0   90.0   16.666666666666668
100.0   60.0   16.666666666666668
100.0   60.0   0.0
50.0   60.0   16.666666666666668
100.0   90.0   16.666666666666668
100.0   60.0   0.0
50.0   90.0   0.0
50.0   60.0   16.666666666666668
100.0   60.0   16.666666666666668
50.0   90.0   16.666666666666668
50.0   60.0   33.333333333333336
100.0   60.0   16.666666666666668
100.0   90.0   16.666666666666668
50.0   90.0   16.666666666666668
100.0   90.0   33.333333333333336
50.0   60.0   33.333333333333336
50.0   90.0   33.333333333333336
100.0   90.0   33.333333333333336
50.0   90.0   16.666666666666668
50.0   60.0   33.333333333333336
100.0   90.0   33.333333333333336
100.0   60.0   33.333333333333336
100.0   60.0   16.666666666666668
50.0   60.0   33.333333333333336
100.0   90.0   33.333333333333336
100.0   60.0   16.666666666666668
50.0   90.0   16.666666666666668
50.0   60.0   33.333333333333336
100.0   60.0   33.333333333333336
50.0   90.0   33.333333333333336
50.0   60.0   50.0
100.0   60.0   33.333333333333336
100.0   90.0   33.333333333333336
50.0   90.0   33.333333333333336
100.0   90.0   50.0
50.0   60.0   50.0
50.0   90.0   50.0
100.0   90.0   50.0
50.0   90.0   33.333333333333336
50.0   60.0   50.0
100.0   90.0   50.0
100.0   60.0   50.0
100.0   60.0   33.333333333333336
50.0   60.0   50.0
100.0   90.0   50.0
100.0   60.0   33.333333333333336
50.0   90.0   33.333333333333336
50.0   90.0   0.0
100.0   90.0   0.0
50.0   120.0   0.0
50.0   90.0   16.666666666666668
100.0   90.0   0.0
100.0   120.0   0.0
50.0   120.0   0.0
100.0   120.0   16.666666666666668
50.0   90.0   16.666666666666668
50.0   120.0   16.666666666666668
100.0   120.0   16.666666666666668
50.0   120.0   0.0
50.0   90.0   16.666666666666668
100.0   120.0   16.666666666666668
100.0   90.0   16.666666666666668
100.0   90.0   0.0
50.0   90.0   16.666666666666668
100.0   120.0   16.666666666666668
100.0   90.0   0.0
50.0   120.0   0.0
50.0   90.0   16.666666666666668
100.0   90.0   16.666666666666668
50.0   120.0   16.666666666666668
50.0   90.0   33.333333333333336
100.0   90.0   16.666666666666668
100.0   120.0   16.666666666666668
50.0   120.0   16.666666666666668
100.0   120.0   33.333333333333336
50.0   90.0   33.333333333333336
50.0   120.0   33.333333333333336
100.0   120.0   33.333333333333336
50.0   120.0   16.666666666666668
50.0   90.0   33.333333333333336
100.0   120.0   33.333333333333336
100.0   90.0   33.333333333333336
100.0   90.0   16.666666666666668
50.0   90.0   33.333333333333336
100.0   120.0   33.333333333333336
100.0   90.0   16.666666666666668
50.0   120.0   16.666666666666668
50.0   90.0   33.333333333333336
100.0   90.0   33.333333333333336
50.0   120.0   33.333333333333336
50.0   90.0   50.0
100.0   90.0   33.333333333333336
100.0   120.0   33.333333333333336
50.0   120.0   33.333333333333336
100.0   120.0   50.0
50.0   90.0   50.0
50.0   120.0   50.0
100.0   120.0   50.0
50.0   120.0   33.333333333333336
50.0   90.0   50.0
100.0   120.0   50.0
100.0   90.0   50.0
100.0   90.0   33.333333333333336
50.0   90.0   50.0
100.0   120.0   50.0
100.0   90.0   33.333333333333336
50.0   120.0   33.333333333333336
50.0   120.0   0.0
100.0   120.0   0.0
50.0   150.0   0.0
50.0   120.0   16.666666666666668
100.0   120.0   0.0
100.0   150.0   0.0
50.0   150.0   0.0
100.0   150.0   16.666666666666668
50.0   120.0   16.666666666666668
50.0   150.0   16.666666666666668
100.0   150.0   16.666666666666668
50.0   150.0   0.0
50.0   120.0   16.666666666666668
100.0   150.0   16.666666666666668
100.0   120.0   16.666666666666668
100.0   120.0   0.0
50.0   120.0   16.666666666666668
100.0   150.0   16.666666666666668
100.0   120.0   0.0
50.0   150.0   0.0
50.0   120.0   16.666666666666668
100.0   120.0   16.666666666666668
50.0   150.0   16.666666666666668
50.0   120.0   33.333333333333336
100.0   120.0   16.666666666666668
100.0   150.0   16.666666666666668
50.0   150.0   16.666666666666668
100.0   150.0   33.333333333333336
50.0   120.0   33.333333333333336
50.0   150.0   33.333333333333336
100.0   150.0   33.333333333333336
50.0   150.0   16.666666666666668
50.0   120.0   33.333333333333336
100.0   150.0   33.333333333333336
100.0   120.0   33.333333333333336
100.0   120.0   16.666666666666668
50.0   120.0   33.333333333333336
100.0   150.0   33.333333333333336
100.0   120.0   16.666666666666668
50.0   150.0   16.666666666666668
50.0   120.0   33.333333333333336
100.0   120.0   33.333333333333336
50.0   150.0   33.333333333333336
50.0   120.0   50.0
100.0   120.0   33.333333333333336
100.0   150.0   33.333333333333336
50.0   150.0   33.333333333333336
100.0   150.0   50.0
50.0   120.0   50.0
50.0   150.0   50.0
100.0   150.0   50.0
50.0   150.0   33.333333333333336
50.0   120.0   50.0
100.0   150.0   50.0
100.0   120.0   50.0
100.0   120.0   33.333333333333336
50.0   120.0   50.0
100.0   150.0   50.0
100.0   120.0   33.333333333333336
50.0   150.0   33.333333333333336
100.0   0.0   0.0
150.0   0.0   0.0
100.0   30.0   0.0
100.0   0.0   16.666666666666668
150.0   0.0   0.0
150.0   30.0   0.0
100.0   30.0   0.0
150.0   30.0   16.666666666666668
100.0   0.0   16.666666666666668
100.0   30.0   16.666666666666668
150.0   30.0   16.666666666666668
100.0   30.0   0.0
100.0   0.0   16.666666666666668
150.0   30.0   16.666666666666668
150.0   0.0   16.666666666666668
150.0   0.0   0.0
100.0   0.0   16.666666666666668
150.0   30.0   16.666666666666668
150.0   0.0   0.0
100.0   30.0   0.0
100.0   0.0   16.666666666666668
150.0   0.0   16.666666666666668
100.0   30.0   16.666666666666668
100.0   0.0   33.333333333333336
150.0   0.0   16.666666666666668
150.0   30.0   16.666666666666668
100.0   30.0   16.666666666666668
150.0   30.0   33.333333333333336
100.0   0.0   33.333333333333336
100.0   30.0   33.333333333333336
150.0   30.0   33.333333333333336
100.0   30.0   16.666666666666668
100.0   0.0   33.333333333333336
150.0   30.0   33.333333333333336
150.0   0.0   33.333333333333336
150.0   0.0   16.666666666666668
100.0   0.0   33.333333333333336
150.0   30.0   33.333333333333336
150.0   0.0   16.666666666666668
100.0   30.0   16.666666666666668
100.0   0.0   33.333333333333336
150.0   0.0   33.333333333333336
100.0   30.0   33.333333333333336
100.0   0.0   50.0
150.0   0.0   33.333333333333336
150.0   30.0   33.333333333333336
100.0   30.0   33.333333333333336
150.0   30.0   50.0
100.0   0.0   50.0
100.0   30.0   50.0
150.0   30.0   50.0
100.0   30.0   33.333333333333336
100.0   0.0   50.0
150.0   30.0   50.0
150.0   0.0   50.0
150.0   0.0   33.333333333333336
100.0   0.0   50.0
150.0   30.0   50.0
150.0   0.0   33.333333333333336
100.0   30.0   33.333333333333336
100.0   30.0   0.0
150.0   30.0   0.0
100.0   60.0   0.0
100.0   30.0   16.666666666666668
150.0   30.0   0.0
150.0   60.0   0.0
100.0   60.0   0.0
150.0   60.0   16.666666666666668
100.0   30.0   16.666666666666668
100.0   60.0   16.666666666666668
150.0   60.0   16.666666666666668
100.0   60.0   0.0
100.0   30.0   16.666666666666668
150.0   60.0   16.666666666666668
150.0   30.0   16.666666666666668
150.0   30.0   0.0
100.0   30.0   16.666666666666668
150.0   60.0   16.666666666666668
150.0   30.0   0.0
100.0   60.0   0.0
100.0   30.0   16.666666666666668
150.0   30.0   16.666666666666668
100.0   60.0   16.666666666666668
100.0   30.0   33.333333333333336
150.0   30.0   16.666666666666668
150.0   60.0   16.666666666666668
100.0   60.0   16.666666666666668
150.0   60.0   33.333333333333336
100.0   30.0   33.333333333333336
100.0   60.0   33.333333333333336
150.0   60.0   33.333333333333336
100.0   60.0   16.666666666666668
100.0   30.0   33.333333333333336
150.0   60.0   33.333333333333336
150.0   30.0   33.333333333333336
150.0   30.0   16.666666666666668
100.0   30.0   33.333333333333336
150.0   60.0   33.333333333333336
150.0   30.0   16.666666666666668
100.0   60.0   16.666666666666668
100.0   30.0   33.333333333333336
150.0   30.0   33.333333333333336
100.0   60.0   33.333333333333336
100.0   30.0   50.0
150.0   30.0   33.333333333333336
150.0   60.0   33.333333333333336
100.0   60.0   33.333333333333336
150.0   60.0   50.0
100.0   30.0   50.0
100.0   60.0   50.0
150.0   60.0   50.0
100.0   60.0   33.333333333333336
100.0   30.0   50.0
150.0   60.0   50.0
150.0   30.0   50.0
150.0   30.0   33.333333333333336
100.0   30.0   50.0
150.0   60.0   50.0
150.0   30.0   33.333333333333336
100.0   60.0   33.333333333333336
100.0   60.0   0.0
150.0   60.0   0.0
100.0   90.0   0.0
100.0   60.0   16.666666666666668
150.0   60.0   0.0
150.0   90.0   0.0
100.0   90.0   0.0
150.0   90.0   16.666666666666668
100.0   60.0   16.666666666666668
100.0   90.0   16.666666666666668
150.0   90.0   16.666666666666668
100.0   90.0   0.0
100.0   60.0   16.666666666666668
150.0   90.0   16.666666666666668
150.0   60.0   16.666666666666668
150.0   60.0   0.0
100.0   60.0   16.666666666666668
150.0   90.0   16.666666666666668
150.0   60.0   0.0
100.0   90.0   0.0
100.0   60.0   16.666666666666668
150.0   60.0   16.666666666666668
100.0   90.0   16.666666666666668
100.0   60.0   33.333333333333336
150.0   60.0   16.666666666666668
150.0   90.0   16.666666666666668
100.0   90.0   16.666666666666668
150.0   90.0   33.333333333333336
100.0   60.0   33.333333333333336
100.0   90.0   33.333333333333336
150.0   90.0   33.333333333333336
100.0   90.0   16.666666666666668
100.0   60.0   33.333333333333336
150.0   90.0   33.333333333333336
150.0   60.0   33.333333333333336
150.0   60.0   16.666666666666668
100.0   60.0   33.333333333333336
150.0   90.0   33.333333333333336
150.0   60.0   16.666666666666668
100.0   90.0   16.666666666666668
100.0   60.0   33.333333333333336
150.0   60.0   33.333333333333336
100.0   90.0   33.333333333333336
100.0   60.0   50.0
150.0   60.0   33.333333333333336
150.0   90.0   33.333333333333336
100.0   90.0   33.333333333333336
150.0   90.0   50.0
100.0   60.0   50.0
100.0   90.0   50.0
150.0   90.0   50.0
100.0   90.0   33.333333333333336
100.0   60.0   50.0
150.0   90.0   50.0
150.0   60.0   50.0
150.0   60.0   33.333333333333336
100.0   60.0   50.0
150.0   90.0   50.0
150.0   60.0   33.333333333333336
100.0   90.0   33.333333333333336
100.0   90.0   0.0
150.0   90.0   0.0
100.0   120.0   0.0
100.0   90.0   16.666666666666668
150.0   90.0   0.0
150.0   120.0   0.0
100.0   120.0   0.0
150.0   120.0   16.666666666666668
100.0   90.0   16.666666666666668
100.0   120.0   16.666666666666668
150.0   120.0   16.666666666666668
100.0   120.0   0.0
100.0   90.0   16.666666666666668
150.0   120.0   16.666666666666668
150.0   90.0   16.666666666666668
150.0   90.0   0.0
100.0   90.0   16.666666666666668
150.0   120.0   16.666666666666668
150.0   90.0   0.0
100.0   120.0   0.0
100.0   90.0   16.666666666666668
150.0   90.0   16.666666666666668
100.0   120.0   16.666666666666668
100.0   90.0   33.333333333333336
150.0   90.0   16.666666666666668
150.0   120.0   16.666666666666668
100.0   120.0   16.666666666666668
150.0   120.0   33.333333333333336
100.0   90.0   33.333333333333336
100.0   120.0   33.333333333333336
150.0   120.0   33.333333333333336
100.0   120.0   16.666666666666668
100.0   90.0   33.333333333333336
150.0   120.0   33.333333333333336
150.0   90.0   33.333333333333336
150.0   90.0   16.666666666666668
100.0   90.0   33.333333333333336
150.0   120.0   33.333333333333336
150.0   90.0   16.666666666666668
100.0   120.0   16.666666666666668
100.0   90.0   33.333333333333336
150.0   90.0   33.333333333333336
100.0   120.0   33.333333333333336
100.0   90.0   50.0
150.0   90.0   33.333333333333336
150.0   120.0   33.333333333333336
100.0   120.0   33.333333333333336
150.0   120.0   50.0
100.0   90.0   50.0
100.0   120.0   50.0
150.0   120.0   50.0
100.0   120.0   33.333333333333336
100.0   90.0   50.0
150.0   120.0   50.0
150.0   90.0   50.0
150.0   90.0   33.333333333333336
100.0   90.0   50.0
150.0   120.0   50.0
150.0   90.0   33.333333333333336
100.0   120.0   33.333333333333336
100.0   120.0   0.0
150.0   120.0   0.0
100.0   150.0   0.0
100.0   120.0   16.666666666666668
150.0   120.0   0.0
150.0   150.0   0.0
100.0   150.0   0.0
150.0   150.0   16.666666666666668
100.0   120.0   16.666666666666668
100.0   150.0   16.666666666666668
150.0   150.0   16.666666666666668
100.0   150.0   0.0
100.0   120.0   16.666666666666668
150.0   150.0   16.666666666666668
150.0   120.0   16.666666666666668
150.0   120.0   0.0
100.0   120.0   16.666666666666668
150.0   150.0   16.666666666666668
150.0   120.0   0.0
100.0   150.0   0.0
100.0   120.0   16.666666666666668
150.0   120.0   16.666666666666668
100.0   150.0   16.666666666666668
100.0   120.0   33.333333333333336
150.0   120.0   16.666666666666668
150.0   150.0   16.666666666666668
100.0   150.0   16.666666666666668
150.0   150.0   33.333333333333336
100.0   120.0   33.333333333333336
100.0   150.0   33.333333333333336
150.0   150.0   33.333333333333336
100.0   150.0   16.666666666666668
100.0   120.0   33.333333333333336
150.0   150.0   33.333333333333336
150.0   120.0   33.333333333333336
150.0   120.0   16.666666666666668
100.0   120.0   33.333333333333336
150.0   150.0   33.333333333333336
150.0   120.0   16.666666666666668
100.0   150.0   16.666666666666668
100.0   120.0   33.333333333333336
150.0   120.0   33.333333333333336
100.0   150.0   33.333333333333336
100.0   120.0   50.0
150.0   120.0   33.333333333333336
150.0   150.0   33.333333333333336
100.0   150.0   33.333333333333336
150.0   150.0   50.0
100.0   120.0   50.0
100.0   150.0   50.0
150.0   150.0   50.0
100.0   150.0   33.333333333333336
100.0   120.0   50.0
150.0   150.0   50.0
150.0   120.0   50.0
150.0   120.0   33.333333333333336
100.0   120.0   50.0
150.0   150.0   50.0
150.0   120.0   33.333333333333336
100.0   150.0   33.333333333333336
150.0   0.0   0.0
200.0   0.0   0.0
150.0   30.0   0.0
150.0   0.0   16.666666666666668
200.0   0.0   0.0
200.0   30.0   0.0
150.0   30.0   0.0
200.0   30.0   16.666666666666668
150.0   0.0   16.666666666666668
150.0   30.0   16.666666666666668
200.0   30.0   16.666666666666668
150.0   30.0   0.0
150.0   0.0   16.666666666666668
200.0   30.0   16.666666666666668
200.0   0.0   16.666666666666668
200.0   0.0   0.0
150.0   0.0   16.666666666666668
200.0   30.0   16.666666666666668
200.0   0.0   0.0
150.0   30.0   0.0
150.0   0.0   16.666666666666668
200.0   0.0   16.666666666666668
150.0   30.0   16.666666666666668
150.0   0.0   33.333333333333336
200.0   0.0   16.666666666666668
200.0   30.0   16.666666666666668
150.0   30.0   16.666666666666668
200.0   30.0   33.333333333333336
150.0   0.0   33.333333333333336
150.0   30.0   33.333333333333336
200.0   30.0   33.333333333333336
150.0   30.0   16.666666666666668
150.0   0.0   33.333333333333336
200.0   30.0   33.333333333333336
200.0   0.0   33.333333333333336
200.0   0.0   16.666666666666668
150.0   0.0   33.333333333333336
200.0   30.0   33.333333333333336
200.0   0.0   16.666666666666668
150.0   30.0   16.666666666666668
150.0   0.0   33.333333333333336
200.0   0.0   33.333333333333336
150.0   30.0   33.333333333333336
150.0   0.0   50.0
200.0   0.0   33.333333333333336
200.0   30.0   33.333333333333336
150.0   30.0   33.333333333333336
200.0   30.0   50.0
150.0   0.0   50.0
150.0   30.0   50.0
200.0   30.0   50.0
150.0   30.0   33.333333333333336
150.0   0.0   50.0
200.0   30.0   50.0
200.0   0.0   50.0
200.0   0.0   33.333333333333336
150.0   0.0   50.0
200.0   30.0   50.0
200.0   0.0   33.333333333333336
150.0   30.0   33.333333333333336
150.0   30.0   0.0
200.0   30.0   0.0
150.0   60.0   0.0
150.0   30.0   16.666666666666668
200.0   30.0   0.0
200.0   60.0   0.0
150.0   60.0   0.0
200.0   60.0   16.666666666666668
150.0   30.0   16.666666666666668
150.0   60.0   16.666666666666668
200.0   60.0   16.666666666666668
150.0   60.0   0.0
150.0   30.0   16.666666666666668
200.0   60.0   16.666666666666668
200.0   30.0   16.666666666666668
200.0   30.0   0.0
150.0   30.0   16.666666666666668
200.0   60.0   16.666666666666668
200.0   30.0   0.0
150.0   60.0   0.0
150.0   30.0   16.666666666666668
200.0   30.0   16.666666666666668
150.0   60.0   16.666666666666668
150.0   30.0   33.333333333333336
200.0   30.0   16.666666666666668
200.0   60.0   16.666666666666668
150.0   60.0   16.666666666666668
200.0   60.0   33.333333333333336
150.0   30.0   33.333333333333336
150.0   60.0   33.333333333333336
200.0   60.0   33.333333333333336
150.0   60.0   16.666666666666668
150.0   30.0   33.333333333333336
200.0   60.0   33.333333333333336
200.0   30.0   33.333333333333336
200.0   30.0   16.666666666666668
150.0   30.0   33.333333333333336
200.0   60.0   33.333333333333336
200.0   30.0   16.666666666666668
150.0   60.0   16.666666666666668
150.0   30.0   33.333333333333336
200.0   30.0   33.333333333333336
150.0   60.0   33.333333333333336
150.0   30.0   50.0
200.0   30.0   33.333333333333336
200.0   60.0   33.333333333333336
150.0   60.0   33.333333333333336
200.0   60.0   50.0
150.0   30.0   50.0
150.0   60.0   50.0
200.0   60.0   50.0
150.0   60.0   33.333333333333336
150.0   30.0   50.0
200.0   60.0   50.0
200.0   30.0   50.0
200.0   30.0   33.333333333333336
150.0   30.0   50.0
200.0   60.0   50.0
200.0   30.0   33.333333333333336
150.0   60.0   33.333333333333336
150.0   60.0   0.0
200.0   60.0   0.0
150.0   90.0   0.0
150.0   60.0   16.666666666666668
200.0   60.0   0.0
200.0   90.0   0.0
150.0   90.0   0.0
200.0   90.0   16.666666666666668
150.0   60.0   16.666666666666668
150.0   90.0   16.666666666666668
200.0   90.0   16.666666666666668
150.0   90.0   0.0
150.0   60.0   16.666666666666668
200.0   90.0   16.666666666666668
200.0   60.0   16.666666666666668
200.0   60.0   0.0
150.0   60.0   16.666666666666668
200.0   90.0   16.666666666666668
200.0   60.0   0.0
150.0   90.0   0.0
150.0   60.0   16.666666666666668
200.0   60.0   16.666666666666668
150.0   90.0   16.666666666666668
150.0   60.0   33.333333333333336
200.0   60.0   16.666666666666668
200.0   90.0   16.666666666666668
150.0   90.0   16.666666666666668
200.0   90.0   33.333333333333336
150.0   60.0   33.333333333333336
150.0   90.0   33.333333333333336
200.0   90.0   33.333333333333336
150.0   90.0   16.666666666666668
150.0   60.0   33.333333333333336
200.0   90.0   33.333333333333336
200.0   60.0   33.333333333333336
200.0   60.0   16.666666666666668
150.0   60.0   33.333333333333336
200.0   90.0   33.333333333333336
200.0   60.0   16.666666666666668
150.0   90.0   16.666666666666668
150.0   60.0   33.333333333333336
200.0   60.0   33.333333333333336
150.0   90.0   33.333333333333336
150.0   60.0   50.0
200.0   60.0   33.333333333333336
200.0   90.0   33.333333333333336
150.0   90.0   33.333333333333336
200.0   90.0   50.0
150.0   60.0   50.0
150.0   90.0   50.0
200.0   90.0   50.0
150.0   90.0   33.333333333333336
150.0   60.0   50.0
200.0   90.0   50.0
200.0   60.0   50.0
200.0   60.0   33.333333333333336
150.0   60.0   50.0
200.0   90.0   50.0
200.0   60.0   33.333333333333336
150.0   90.0   33.333333333333336
150.0   90.0   0.0
200.0   90.0   0.0
150.0   120.0   0.0
150.0   90.0   16.666666666666668
200.0   90.0   0.0
200.0   120.0   0.0
150.0   120.0   0.0
200.0   120.0   16.666666666666668
150.0   90.0   16.666666666666668
150.0   120.0   16.666666666666668
200.0   120.0   16.666666666666668
150.0   120.0   0.0
150.0   90.0   16.666666666666668
200.0   120.0   16.666666666666668
200.0   90.0   16.666666666666668
200.0   90.0   0.0
150.0   90.0   16.666666666666668
200.0   120.0   16.666666666666668
200.0   90.0   0.0
150.0   120.0   0.0
150.0   90.0   16.666666666666668
200.0   90.0   16.666666666666668
150.0   120.0   16.666666666666668
150.0   90.0   33.333333333333336
200.0   90.0   16.666666666666668
200.0   120.0   16.666666666666668
150.0   120.0   16.666666666666668
200.0   120.0   33.333333333333336
150.0   90.0   33.333333333333336
150.0   120.0   33.333333333333336
200.0   120.0   33.333333333333336
150.0   120.0   16.666666666666668
150.0   90.0   33.333333333333336
200.0   120.0   33.333333333333336
200.0   90.0   33.333333333333336
200.0   90.0   16.666666666666668
150.0   90.0   33.333333333333336
200.0   120.0   33.333333333333336
200.0   90.0   16.666666666666668
150.0   120.0   16.666666666666668
150.0   90.0   33.333333333333336
200.0   90.0   33.333333333333336
150.0   120.0   33.333333333333336
150.0   90.0   50.0
200.0   90.0   33.333333333333336
200.0   120.0   33.333333333333336
150.0   120.0   33.333333333333336
200.0   120.0   50.0
150.0   90.0   50.0
150.0   120.0   50.0
200.0   120.0   50.0
150.0   120.0   33.333333333333336
150.0   90.0   50.0
200.0   120.0   50.0
200.0   90.0   50.0
200.0   90.0   33.333333333333336
150.0   90.0   50.0
200.0   120.0   50.0
200.0   90.0   33.333333333333336
150.0   120.0   33.333333333333336
150.0   120.0   0.0
200.0   120.0   0.0
150.0   150.0   0.0
150.0   120.0   16.666666666666668
200.0   120.0   0.0
200.0   150.0   0.0
150.0   150.0   0.0
200.0   150.0   16.666666666666668
150.0   120.0   16.666666666666668
150.0   150.0   16.666666666666668
200.0   150.0   16.666666666666668
150.0   150.0   0.0
150.0   120.0   16.666666666666668
200.0   150.0   16.666666666666668
200.0   120.0   16.666666666666668
200.0   120.0   0.0
150.0   120.0   16.666666666666668
200.0   150.0   16.666666666666668
200.0   120.0   0.0
150.0   150.0   0.0
150.0   120.0   16.666666666666668
200.0   120.0   16.666666666666668
150.0   150.0   16.666666666666668
150.0   120.0   33.333333333333336
200.0   120.0   16.666666666666668
200.0   150.0   16.666666666666668
150.0   150.0   16.666666666666668
200.0   150.0   33.333333333333336
150.0   120.0   33.333333333333336
150.0   150.0   33.333333333333336
200.0   150.0   33.333333333333336
150.0   150.0   16.666666666666668
150.0   120.0   33.333333333333336
200.0   150.0   33.333333333333336
200.0   120.0   33.333333333333336
200.0   120.0   16.666666666666668
150.0   120.0   33.333333333333336
200.0   150.0   33.333333333333336
200.0   120.0   16.666666666666668
150.0   150.0   16.666666666666668
150.0   120.0   33.333333333333336
200.0   120.0   33.333333333333336
150.0   150.0   33.333333333333336
150.0   120.0   50.0
200.0   120.0   33.333333333333336
200.0   150.0   33.333333333333336
150.0   150.0   33.333333333333336
200.0   150.0   50.0
150.0   120.0   50.0
150.0   150.0   50.0
200.0   150.0   50.0
150.0   150.0   33.333333333333336
150.0   120.0   50.0
200.0   150.0   50.0
200.0   120.0   50.0
200.0   120.0   33.333333333333336
150.0   120.0   50.0
200.0   150.0   50.0
200.0   120.0   33.333333333333336
150.0   150.0   33.333333333333336
200.0   0.0   0.0
250.0   0.0   0.0
200.0   30.0   0.0
200.0   0.0   16.666666666666668
250.0   0.0   0.0
250.0   30.0   0.0
200.0   30.0   0.0
250.0   30.0   16.666666666666668
200.0   0.0   16.666666666666668
200.0   30.0   16.666666666666668
250.0   30.0   16.666666666666668
200.0   30.0   0.0
200.0   0.0   16.666666666666668
250.0   30.0   16.666666666666668
250.0   0.0   16.666666666666668
250.0   0.0   0.0
200.0   0.0   16.666666666666668
250.0   30.0   16.666666666666668
250.0   0.0   0.0
200.0   30.0   0.0
200.0   0.0   16.666666666666668
250.0   0.0   16.666666666666668
200.0   30.0   16.666666666666668
200.0   0.0   33.333333333333336
250.0   0.0   16.666666666666668
250.0   30.0   16.666666666666668
200.0   30.0   16.666666666666668
250.0   30.0   33.333333333333336
200.0   0.0   33.333333333333336
200.0   30.0   33.333333333333336
250.0   30.0   33.333333333333336
200.0   30.0   16.666666666666668
200.0   0.0   33.333333333333336
250.0   30.0   33.333333333333336
250.0   0.0   33.333333333333336
250.0   0.0   16.666666666666668
200.0   0.0   33.333333333333336
250.0   30.0   33.333333333333336
250.0   0.0   16.666666666666668
200.0   30.0   16.666666666666668
200.0   0.0   33.333333333333336
250.0   0.0   33.333333333333336
200.0   30.0   33.333333333333336
200.0   0.0   50.0
250.0   0.0   33.333333333333336
250.0   30.0   33.333333333333336
200.0   30.0   33.333333333333336
250.0   30.0   50.0
200.0   0.0   50.0
200.0   30.0   50.0
250.0   30.0   50.0
200.0   30.0   33.333333333333336
200.0   0.0   50.0
250.0   30.0   50.0
250.0   0.0   50.0
250.0   0.0   33.333333333333336
200.0   0.0   50.0
250.0   30.0   50.0
250.0   0.0   33.333333333333336
200.0   30.0   33.333333333333336
200.0   30.0   0.0
250.0   30.0   0.0
200.0   60.0   0.0
200.0   30.0   16.666666666666668
250.0   30.0   0.0
250.0   60.0   0.0
200.0   60.0   0.0
250.0   60.0   16.666666666666668
200.0   30.0   16.666666666666668
200.0   60.0   16.666666666666668
250.0   60.0   16.666666666666668
200.0   60.0   0.0
200.0   30.0   16.666666666666668
250.0   60.0   16.666666666666668
250.0   30.0   16.666666666666668
250.0   30.0   0.0
200.0   30.0   16.666666666666668
250.0   60.0   16.666666666666668
250.0   30.0   0.0
200.0   60.0   0.0
200.0   30.0   16.666666666666668
250.0   30.0   16.666666666666668
200.0   60.0   16.666666666666668
200.0   30.0   33.333333333333336
250.0   30.0   16.666666666666668
250.0   60.0   16.666666666666668
200.0   60.0   16.666666666666668
250.0   60.0   33.333333333333336
200.0   30.0   33.333333333333336
200.0   60.0   33.333333333333336
250.0   60.0   33.333333333333336
200.0   60.0   16.666666666666668
200.0   30.0   33.333333333333336
250.0   60.0   33.333333333333336
250.0   30.0   33.333333333333336
250.0   30.0   16.666666666666668
200.0   30.0   33.333333333333336
250.0   60.0   33.333333333333336
250.0   30.0   16.666666666666668
200.0   60.0   16.666666666666668
200.0   30.0   33.333333333333336
250.0   30.0   33.333333333333336
200.0   60.0   33.333333333333336
200.0   30.0   50.0
250.0   30.0   33.333333333333336
250.0   60.0   33.333333333333336
200.0   60.0   33.333333333333336
250.0   60.0   50.0
200.0   30.0   50.0
200.0   60.0   50.0
250.0   60.0   50.0
200.0   60.0   33.333333333333336
200.0   30.0   50.0
250.0   60.0   50.0
250.0   30.0   50.0
250.0   30.0   33.333333333333336
200.0   30.0   50.0
250.0   60.0   50.0
250.0   30.0   33.333333333333336
200.0   60.0   33.333333333333336
200.0   60.0   0.0
250.0   60.0   0.0
200.0   90.0   0.0
200.0   60.0   16.666666666666668
250.0   60.0   0.0
250.0   90.0   0.0
200.0   90.0   0.0
250.0   90.0   16.666666666666668
200.0   60.0   16.666666666666668
200.0   90.0   16.666666666666668
250.0   90.0   16.666666666666668
200.0   90.0   0.0
200.0   60.0   16.666666666666668
250.0   90.0   16.666666666666668
250.0   60.0   16.666666666666668
250.0   60.0   0.0
200.0   60.0   16.666666666666668
250.0   90.0   16.666666666666668
250.0   60.0   0.0
200.0   90.0   0.0
200.0   60.0   16.666666666666668
250.0   60.0   16.666666666666668
200.0   90.0   16.666666666666668
200.0   60.0   33.333333333333336
250.0   60.0   16.666666666666668
250.0   90.0   16.666666666666668
200.0   90.0   16.666666666666668
250.0   90.0   33.333333333333336
200.0   60.0   33.333333333333336
200.0   90.0   33.333333333333336
250.0   90.0   33.333333333333336
200.0   90.0   16.666666666666668
200.0   60.0   33.333333333333336
250.0   90.0   33.333333333333336
250.0   60.0   33.333333333333336
250.0   60.0   16.666666666666668
200.0   60.0   33.333333333333336
250.0   90.0   33.333333333333336
250.0   60.0   16.666666666666668
200.0   90.0   16.666666666666668
200.0   60.0   33.333333333333336
250.0   60.0   33.333333333333336
200.0   90.0   33.333333333333336
200.0   60.0   50.0
250.0   60.0   33.333333333333336
250.0   90.0   33.333333333333336
200.0   90.0   33.333333333333336
250.0   90.0   50.0
200.0   60.0   50.0
200.0   90.0   50.0
250.0   90.0   50.0
200.0   90.0   33.333333333333336
200.0   60.0   50.0
250.0   90.0   50.0
250.0   60.0   50.0
250.0   60.0   33.333333333333336
200.0   60.0   50.0
250.0   90.0   50.0
250.0   60.0   33.333333333333336
200.0   90.0   33.333333333333336
200.0   90.0   0.0
250.0   90.0   0.0
200.0   120.0   0.0
200.0   90.0   16.666666666666668
250.0   90.0   0.0
250.0   120.0   0.0
200.0   120.0   0.0
250.0   120.0   16.666666666666668
200.0   90.0   16.666666666666668
200.0   120.0   16.666666666666668
250.0   120.0   16.666666666666668
200.0   120.0   0.0
200.0   90.0   16.666666666666668
250.0   120.0   16.666666666666668
250.0   90.0   16.666666666666668
250.0   90.0   0.0
200.0   90.0   16.666666666666668
250.0   120.0   16.666666666666668
250.0   90.0   0.0
200.0   120.0   0.0
200.0   90.0   16.666666666666668
250.0   90.0   16.666666666666668
200.0   120.0   16.666666666666668
200.0   90.0   33.333333333333336
250.0   90.0   16.666666666666668
250.0   120.0   16.666666666666668
200.0   120.0   16.666666666666668
250.0   120.0   33.333333333333336
200.0   90.0   33.333333333333336
200.0   120.0   33.333333333333336
250.0   120.0   33.333333333333336
200.0   120.0   16.666666666666668
200.0   90.0   33.333333333333336
250.0   120.0   33.333333333333336
250.0   90.0   33.333333333333336
250.0   90.0   16.666666666666668
200.0   90.0   33.333333333333336
250.0   120.0   33.333333333333336
250.0   90.0   16.666666666666668
200.0   120.0   16.666666666666668
200.0   90.0   33.333333333333336
250.0   90.0   33.333333333333336
200.0   120.0   33.333333333333336
200.0   90.0   50.0
250.0   90.0   33.333333333333336
250.0   120.0   33.333333333333336
200.0   120.0   33.333333333333336
250.0   120.0   50.0
200.0   90.0   50.0
200.0   120.0   50.0
250.0   120.0   50.0
200.0   120.0   33.333333333333336
200.0   90.0   50.0
250.0   120.0   50.0
250.0   90.0   50.0
250.0   90.0   33.333333333333336
200.0   90.0   50.0
250.0   120.0   50.0
250.0   90.0   33.333333333333336
200.0   120.0   33.333333333333336
200.0   120.0   0.0
250.0   120.0   0.0
200.0   150.0   0.0
200.0   120.0   16.666666666666668
250.0   120.0   0.0
250.0   150.0   0.0
200.0   150.0   0.0
250.0   150.0   16.666666666666668
200.0   120.0   16.666666666666668
200.0   150.0   16.666666666666668
250.0   150.0   16.666666666666668
200.0   150.0   0.0
200.0   120.0   16.666666666666668
250.0   150.0   16.666666666666668
250.0   120.0   16.666666666666668
250.0   120.0   0.0
200.0   120.0   16.666666666666668
250.0   150.0   16.666666666666668
250.0   120.0   0.0
200.0   150.0   0.0
200.0   120.0   16.666666666666668
250.0   120.0   16.666666666666668
200.0   150.0   16.666666666666668
200.0   120.0   33.333333333333336
250.0   120.0   16.666666666666668
250.0   150.0   16.666666666666668
200.0   150.0   16.666666666666668
250.0   150.0   33.333333333333336
200.0   120.0   33.333333333333336
200.0   150.0   33.333333333333336
250.0   150.0   33.333333333333336
200.0   150.0   16.666666666666668
200.0   120.0   33.333333333333336
250.0   150.0   33.333333333333336
250.0   120.0   33.333333333333336
250.0   120.0   16.666666666666668
200.0   120.0   33.333333333333336
250.0   150.0   33.333333333333336
250.0   120.0   16.666666666666668
200.0   150.0   16.666666666666668
200.0   120.0   33.333333333333336
250.0   120.0   33.333333333333336
200.0   150.0   33.333333333333336
200.0   120.0   50.0
250.0   120.0   33.333333333333336
250.0   150.0   33.333333333333336
200.0   150.0   33.333333333333336
250.0   150.0   50.0
200.0   120.0   50.0
200.0   150.0   50.0
250.0   150.0   50.0
200.0   150.0   33.333333333333336
200.0   120.0   50.0
250.0   150.0   50.0
250.0   120.0   50.0
250.0   120.0   33.333333333333336
200.0   120.0   50.0
250.0   150.0   50.0
250.0   120.0   33.333333333333336
200.0   150.0   33.333333333333336
250.0   0.0   0.0
300.0   0.0   0.0
250.0   30.0   0.0
250.0   0.0   16.666666666666668
300.0   0.0   0.0
300.0   30.0   0.0
250.0   30.0   0.0
300.0   30.0   16.666666666666668
250.0   0.0   16.666666666666668
250.0   30.0   16.666666666666668
300.0   30.0   16.666666666666668
250.0   30.0   0.0
250.0   0.0   16.666666666666668
300.0   30.0   16.666666666666668
300.0   0.0   16.666666666666668
300.0   0.0   0.0
250.0   0.0   16.666666666666668
300.0   30.0   16.666666666666668
300.0   0.0   0.0
250.0   30.0   0.0
250.0   0.0   16.666666666666668
300.0   0.0   16.666666666666668
250.0   30.0   16.666666666666668
250.0   0.0   33.333333333333336
300.0   0.0   16.666666666666668
300.0   30.0   16.666666666666668
250.0   30.0   16.666666666666668
300.0   30.0   33.333333333333336
250.0   0.0   33.333333333333336
250.0   30.0   33.333333333333336
300.0   30.0   33.333333333333336
250.0   30.0   16.666666666666668
250.0   0.0   33.333333333333336
300.0   30.0   33.333333333333336
300.0   0.0   33.333333333333336
300.0   0.0   16.666666666666668
250.0   0.0   33.333333333333336
300.0   30.0   33.333333333333336
300.0   0.0   16.666666666666668
250.0   30.0   16.666666666666668
250.0   0.0   33.333333333333336
300.0   0.0   33.333333333333336
250.0   30.0   33.333333333333336
250.0   0.0   50.0
300.0   0.0   33.333333333333336
300.0   30.0   33.333333333333336
250.0   30.0   33.333333333333336
300.0   30.0   50.0
250.0   0.0   50.0
250.0   30.0   50.0
300.0   30.0   50.0
250.0   30.0   33.333333333333336
250.0   0.0   50.0
300.0   30.0   50.0
300.0   0.0   50.0
300.0   0.0   33.333333333333336
250.0   0.0   50.0
300.0   30.0   50.0
300.0   0.0   33.333333333333336
250.0   30.0   33.333333333333336
250.0   30.0   0.0
300.0   30.0   0.0
250.0   60.0   0.0
250.0   30.0   16.666666666666668
300.0   30.0   0.0
300.0   60.0   0.0
250.0   60.0   0.0
300.0   60.0   16.666666666666668
250.0   30.0   16.666666666666668
250.0   60.0   16.666666666666668
300.0   60.0   16.666666666666668
250.0   60.0   0.0
250.0   30.0   16.666666666666668
300.0   60.0   16.666666666666668
300.0   30.0   16.666666666666668
300.0   30.0   0.0
250.0   30.0   16.666666666666668
300.0   60.0   16.666666666666668
300.0   30.0   0.0
250.0   60.0   0.0
250.0   30.0   16.666666666666668
300.0   30.0   16.666666666666668
250.0   60.0   16.666666666666668
250.0   30.0   33.333333333333336
300.0   30.0   16.666666666666668
300.0   60.0   16.666666666666668
250.0   60.0   16.666666666666668
300.0   60.0   33.333333333333336
250.0   30.0   33.333333333333336
250.0   60.0   33.333333333333336
300.0   60.0   33.333333333333336
250.0   60.0   16.666666666666668
250.0   30.0   33.333333333333336
300.0   60.0   33.333333333333336
300.0   30.0   33.333333333333336
300.0   30.0   16.666666666666668
250.0   30.0   33.333333333333336
300.0   60.0   33.333333333333336
300.0   30.0   16.666666666666668
250.0   60.0   16.666666666666668
250.0   30.0   33.333333333333336
300.0   30.0   33.333333333333336
250.0   60.0   33.333333333333336
250.0   30.0   50.0
300.0   30.0   33.333333333333336
300.0   60.0   33.333333333333336
250.0   60.0   33.333333333333336
300.0   60.0   50.0
250.0   30.0   50.0
250.0   60.0   50.0
300.0   60.0   50.0
250.0   60.0   33.333333333333336
250.0   30.0   50.0
300.0   60.0   50.0
300.0   30.0   50.0
300.0   30.0   33.333333333333336
250.0   30.0   50.0
300.0   60.0   50.0
300.0   30.0   33.333333333333336
250.0   60.0   33.333333333333336
250.0   60.0   0.0
300.0   60.0   0.0
250.0   90.0   0.0
250.0   60.0   16.666666666666668
300.0   60.0   0.0
300.0   90.0   0.0
250.0   90.0   0.0
300.0   90.0   16.666666666666668
250.0   60.0   16.666666666666668
250.0   90.0   16.666666666666668
300.0   90.0   16.666666666666668
250.0   90.0   0.0
250.0   60.0   16.666666666666668
300.0   90.0   16.666666666666668
300.0   60.0   16.666666666666668
300.0   60.0   0.0
250.0   60.0   16.666666666666668
300.0   90.0   16.666666666666668
300.0   60.0   0.0
250.0   90.0   0.0
250.0   60.0   16.666666666666668
300.0   60.0   16.666666666666668
250.0   90.0   16.666666666666668
250.0   60.0   33.333333333333336
300.0   60.0   16.666666666666668
300.0   90.0   16.666666666666668
250.0   90.0   16.666666666666668
300.0   90.0   33.333333333333336
250.0   60.0   33.333333333333336
250.0   90.0   33.333333333333336
300.0   90.0   33.333333333333336
250.0   90.0   16.666666666666668
250.0   60.0   33.333333333333336
300.0   90.0   33.333333333333336
300.0   60.0   33.333333333333336
300.0   60.0   16.666666666666668
250.0   60.0   33.333333333333336
300.0   90.0   33.333333333333336
300.0   60.0   16.666666666666668
250.0   90.0   16.666666666666668
250.0   60.0   33.333333333333336
300.0   60.0   33.333333333333336
250.0   90.0   33.333333333333336
250.0   60.0   50.0
300.0   60.0   33.333333333333336
300.0   90.0   33.333333333333336
250.0   90.0   33.333333333333336
300.0   90.0   50.0
250.0   60.0   50.0
250.0   90.0   50.0
300.0   90.0   50.0
250.0   90.0   33.333333333333336
250.0   60.0   50.0
300.0   90.0   50.0
300.0   60.0   50.0
300.0   60.0   33.333333333333336
250.0   60.0   50.0
300.0   90.0   50.0
300.0   60.0   33.333333333333336
250.0   90.0   33.333333333333336
250.0   90.0   0.0
300.0   90.0   0.0
250.0   120.0   0.0
250.0   90.0   16.666666666666668
300.0   90.0   0.0
300.0   120.0   0.0
250.0   120.0   0.0
300.0   120.0   16.666666666666668
250.0   90.0   16.666666666666668
250.0   120.0   16.666666666666668
300.0   120.0   16.666666666666668
250.0   120.0   0.0
250.0   90.0   16.666666666666668
300.0   120.0   16.666666666666668
300.0   90.0   16.666666666666668
300.0   90.0   0.0
250.0   90.0   16.666666666666668
300.0   120.0   16.666666666666668
300.0   90.0   0.0
250.0   120.0   0.0
250.0   90.0   16.666666666666668
300.0   90.0   16.666666666666668
250.0   120.0   16.666666666666668
250.0   90.0   33.333333333333336
300.0   90.0   16.666666666666668
300.0   120.0   16.666666666666668
250.0   120.0   16.666666666666668
300.0   120.0   33.333333333333336
250.0   90.0   33.333333333333336
250.0   120.0   33.333333333333336
300.0   120.0   33.333333333333336
250.0   120.0   16.666666666666668
250.0   90.0   33.333333333333336
300.0   120.0   33.333333333333336
300.0   90.0   33.333333333333336
300.0   90.0   16.666666666666668
250.0   90.0   33.333333333333336
300.0   120.0   33.333333333333336
300.0   90.0   16.666666666666668
250.0   120.0   16.666666666666668
250.0   90.0   33.333333333333336
300.0   90.0   33.333333333333336
250.0   120.0   33.333333333333336
250.0   90.0   50.0
300.0   90.0   33.333333333333336
300.0   120.0   33.333333333333336
250.0   120.0   33.333333333333336
300.0   120.0   50.0
250.0   90.0   50.0
250.0   120.0   50.0
300.0   120.0   50.0
250.0   120.0   33.333333333333336
250.0   90.0   50.0
300.0   120.0   50.0
300.0   90.0   50.0
300.0   90.0   33.333333333333336
250.0   90.0   50.0
300.0   120.0   50.0
300.0   90.0   33.333333333333336
250.0   120.0   33.333333333333336
250.0   120.0   0.0
300.0   120.0   0.0
250.0   150.0   0.0
250.0   120.0   16.666666666666668
300.0   120.0   0.0
300.0   150.0   0.0
250.0   150.0   0.0
300.0   150.0   16.666666666666668
250.0   120.0   16.666666666666668
250.0   150.0   16.666666666666668
300.0   150.0   16.666666666666668
250.0   150.0   0.0
250.0   120.0   16.666666666666668
300.0   150.0   16.666666666666668
300.0   120.0   16.666666666666668
300.0   120.0   0.0
250.0   120.0   16.666666666666668
300.0   150.0   16.666666666666668
300.0   120.0   0.0
250.0   150.0   0.0
250.0   120.0   16.666666666666668
300.0   120.0   16.666666666666668
250.0   150.0   16.666666666666668
250.0   120.0   33.333333333333336
300.0   120.0   16.666666666666668
300.0   150.0   16.666666666666668
250.0   150.0   16.666666666666668
300.0   150.0   33.333333333333336
250.0   120.0   33.333333333333336
250.0   150.0   33.333333333333336
300.0   150.0   33.333333333333336
250.0   150.0   16.666666666666668
250.0   120.0   33.333333333333336
300.0   150.0   33.333333333333336
300.0   120.0   33.333333333333336
300.0   120.0   16.666666666666668
250.0   120.0   33.333333333333336
300.0   150.0   33.333333333333336
300.0   120.0   16.666666666666668
250.0   150.0   16.666666666666668
250.0   120.0   33.333333333333336
300.0   120.0   33.333333333333336
250.0   150.0   33.333333333333336
250.0   120.0   50.0
300.0   120.0   33.333333333333336
300.0   150.0   33.333333333333336
250.0   150.0   33.333333333333336
300.0   150.0   50.0
250.0   120.0   50.0
250.0   150.0   50.0
300.0   150.0   50.0
250.0   150.0   33.333333333333336
250.0   120.0   50.0
300.0   150.0   50.0
300.0   120.0   50.0
300.0   120.0   33.333333333333336
250.0   120.0   50.0
300.0   150.0   50.0
300.0   120.0   33.333333333333336
250.0   150.0   33.333333333333336
300.0   0.0   0.0
350.0   0.0   0.0
300.0   30.0   0.0
300.0   0.0   16.666666666666668
350.0   0.0   0.0
350.0   30.0   0.0
300.0   30.0   0.0
350.0   30.0   16.666666666666668
300.0   0.0   16.666666666666668
300.0   30.0   16.666666666666668
350.0   30.0   16.666666666666668
300.0   30.0   0.0
300.0   0.0   16.666666666666668
350.0   30.0   16.666666666666668
350.0   0.0   16.666666666666668
350.0   0.0   0.0
300.0   0.0   16.666666666666668
350.0   30.0   16.666666666666668
350.0   0.0   0.0
300.0   30.0   0.0
300.0   0.0   16.666666666666668
350.0   0.0   16.666666666666668
300.0   30.0   16.666666666666668
300.0   0.0   33.333333333333336
350.0   0.0   16.666666666666668
350.0   30.0   16.666666666666668
300.0   30.0   16.666666666666668
350.0   30.0   33.333333333333336
300.0   0.0   33.333333333333336
300.0   30.0   33.333333333333336
350.0   30.0   33.333333333333336
300.0   30.0   16.666666666666668
300.0   0.0   33.333333333333336
350.0   30.0   33.333333333333336
350.0   0.0   33.333333333333336
350.0   0.0   16.666666666666668
300.0   0.0   33.333333333333336
350.0   30.0   33.333333333333336
350.0   0.0   16.666666666666668
300.0   30.0   16.666666666666668
300.0   0.0   33.333333333333336
350.0   0.0   33.333333333333336
300.0   30.0   33.333333333333336
300.0   0.0   50.0
350.0   0.0   33.333333333333336
350.0   30.0   33.333333333333336
300.0   30.0   33.333333333333336
350.0   30.0   50.0
300.0   0.0   50.0
300.0   30.0   50.0
350.0   30.0   50.0
300.0   30.0   33.333333333333336
300.0   0.0   50.0
350.0   30.0   50.0
350.0   0.0   50.0
350.0   0.0   33.333333333333336
300.0   0.0   50.0
350.0   30.0   50.0
350.0   0.0   33.333333333333336
300.0   30.0   33.333333333333336
300.0   30.0   0.0
350.0   30.0   0.0
300.0   60.0   0.0
300.0   30.0   16.666666666666668
350.0   30.0   0.0
350.0   60.0   0.0
300.0   60.0   0.0
350.0   60.0   16.666666666666668
300.0   30.0   16.666666666666668
300.0   60.0   16.666666666666668
350.0   60.0   16.666666666666668
300.0   60.0   0.0
300.0   30.0   16.666666666666668
350.0   60.0   16.666666666666668
350.0   30.0   16.666666666666668
350.0   30.0   0.0
300.0   30.0   16.666666666666668
350.0   60.0   16.666666666666668
350.0   30.0   0.0
300.0   60.0   0.0
300.0   30.0   16.666666666666668
350.0   30.0   16.666666666666668
300.0   60.0   16.666666666666668
300.0   30.0   33.333333333333336
350.0   30.0   16.666666666666668
350.0   60.0   16.666666666666668
300.0   60.0   16.666666666666668
350.0   60.0   33.333333333333336
300.0   30.0   33.333333333333336
300.0   60.0   33.333333333333336
350.0   60.0   33.333333333333336
300.0   60.0   16.666666666666668
300.0   30.0   33.333333333333336
350.0   60.0   33.333333333333336
350.0   30.0   33.333333333333336
350.0   30.0   16.666666666666668
300.0   30.0   33.333333333333336
350.0   60.0   33.333333333333336
350.0   30.0   16.666666666666668
300.0   60.0   16.666666666666668
300.0   30.0   33.333333333333336
350.0   30.0   33.333333333333336
300.0   60.0   33.333333333333336
300.0   30.0   50.0
350.0   30.0   33.333333333333336
350.0   60.0   33.333333333333336
300.0   60.0   33.333333333333336
350.0   60.0   50.0
300.0   30.0   50.0
300.0   60.0   50.0
350.0   60.0   50.0
300.0   60.0   33.333333333333336
300.0   30.0   50.0
350.0   60.0   50.0
350.0   30.0   50.0
350.0   30.0   33.333333333333336
300.0   30.0   50.0
350.0   60.0   50.0
350.0   30.0   33.333333333333336
300.0   60.0   33.333333333333336
300.0   60.0   0.0
350.0   60.0   0.0
300.0   90.0   0.0
300.0   60.0   16.666666666666668
350.0   60.0   0.0
350.0   90.0   0.0
300.0   90.0   0.0
350.0   90.0   16.666666666666668
300.0   60.0   16.666666666666668
300.0   90.0   16.666666666666668
350.0   90.0   16.666666666666668
300.0   90.0   0.0
300.0   60.0   16.666666666666668
350.0   90.0   16.666666666666668
350.0   60.0   16.666666666666668
350.0   60.0   0.0
300.0   60.0   16.666666666666668
350.0   90.0   16.666666666666668
350.0   60.0   0.0
300.0   90.0   0.0
300.0   60.0   16.666666666666668
350.0   60.0   16.666666666666668
300.0   90.0   16.666666666666668
300.0   60.0   33.333333333333336
350.0   60.0   16.666666666666668
350.0   90.0   16.666666666666668
300.0   90.0   16.666666666666668
350.0   90.0   33.333333333333336
300.0   60.0   33.333333333333336
300.0   90.0   33.333333333333336
350.0   90.0   33.333333333333336
300.0   90.0   16.666666666666668
300.0   60.0   33.333333333333336
350.0   90.0   33.333333333333336
350.0   60.0   33.333333333333336
350.0   60.0   16.666666666666668
300.0   60.0   33.333333333333336
350.0   90.0   33.333333333333336
350.0   60.0   16.666666666666668
300.0   90.0   16.666666666666668
300.0   60.0   33.333333333333336
350.0   60.0   33.333333333333336
300.0   90.0   33.333333333333336
300.0   60.0   50.0
350.0   60.0   33.333333333333336
350.0   90.0   33.333333333333336
300.0   90.0   33.333333333333336
350.0   90.0   50.0
300.0   60.0   50.0
300.0   90.0   50.0
350.0   90.0   50.0
300.0   90.0   33.333333333333336
300.0   60.0   50.0
350.0   90.0   50.0
350.0   60.0   50.0
350.0   60.0   33.333333333333336
300.0   60.0   50.0
350.0   90.0   50.0
350.0   60.0   33.333333333333336
300.0   90.0   33.333333333333336
300.0   90.0   0.0
350.0   90.0   0.0
300.0   120.0   0.0
300.0   90.0   16.666666666666668
350.0   90.0   0.0
350.0   120.0   0.0
300.0   120.0   0.0
350.0   120.0   16.666666666666668
300.0   90.0   16.666666666666668
300.0   120.0   16.666666666666668
350.0   120.0   16.666666666666668
300.0   120.0   0.0
300.0   90.0   16.666666666666668
350.0   120.0   16.666666666666668
350.0   90.0   16.666666666666668
350.0   90.0   0.0
300.0   90.0   16.666666666666668
350.0   120.0   16.666666666666668
350.0   90.0   0.0
300.0   120.0   0.0
300.0   90.0   16.666666666666668
350.0   90.0   16.666666666666668
300.0   120.0   16.666666666666668
300.0   90.0   33.333333333333336
350.0   90.0   16.666666666666668
350.0   120.0   16.666666666666668
300.0   120.0   16.666666666666668
350.0   120.0   33.333333333333336
300.0   90.0   33.333333333333336
300.0   120.0   33.333333333333336
350.0   120.0   33.333333333333336
300.0   120.0   16.666666666666668
300.0   90.0   33.333333333333336
350.0   120.0   33.333333333333336
350.0   90.0   33.333333333333336
350.0   90.0   16.666666666666668
300.0   90.0   33.333333333333336
350.0   120.0   33.333333333333336
350.0   90.0   16.666666666666668
300.0   120.0   16.666666666666668
300.0   90.0   33.333333333333336
350.0   90.0   33.333333333333336
300.0   120.0   33.333333333333336
300.0   90.0   50.0
350.0   90.0   33.333333333333336
350.0   120.0   33.333333333333336
300.0   120.0   33.333333333333336
350.0   120.0   50.0
300.0   90.0   50.0
300.0   120.0   50.0
350.0   120.0   50.0
300.0   120.0   33.333333333333336
300.0   90.0   50.0
350.0   120.0   50.0
350.0   90.0   50.0
350.0   90.0   33.333333333333336
300.0   90.0   50.0
350.0   120.0   50.0
350.0   90.0   33.333333333333336
300.0   120.0   33.333333333333336
300.0   120.0   0.0
350.0   120.0   0.0
300.0   150.0   0.0
300.0   120.0   16.666666666666668
350.0   120.0   0.0
350.0   150.0   0.0
300.0   150.0   0.0
350.0   150.0   16.666666666666668
300.0   120.0   16.666666666666668
300.0   150.0   16.666666666666668
350.0   150.0   16.666666666666668
300.0   150.0   0.0
300.0   120.0   16.666666666666668
350.0   150.0   16.666666666666668
350.0   120.0   16.666666666666668
350.0   120.0   0.0
300.0   120.0   16.666666666666668
350.0   150.0   16.666666666666668
350.0   120.0   0.0
300.0   150.0   0.0
300.0   120.0   16.666666666666668
350.0   120.0   16.666666666666668
300.0   150.0   16.666666666666668
300.0   120.0   33.333333333333336
350.0   120.0   16.666666666666668
350.0   150.0   16.666666666666668
300.0   150.0   16.666666666666668
350.0   150.0   33.333333333333336
300.0   120.0   33.333333333333336
300.0   150.0   33.333333333333336
350.0   150.0   33.333333333333336
300.0   150.0   16.666666666666668
300.0   120.0   33.333333333333336
350.0   150.0   33.333333333333336
350.0   120.0   33.333333333333336
350.0   120.0   16.666666666666668
300.0   120.0   33.333333333333336
350.0   150.0   33.333333333333336
350.0   120.0   16.666666666666668
300.0   150.0   16.666666666666668
300.0   120.0   33.333333333333336
350.0   120.0   33.333333333333336
300.0   150.0   33.333333333333336
300.0   120.0   50.0
350.0   120.0   33.333333333333336
350.0   150.0   33.333333333333336
300.0   150.0   33.333333333333336
350.0   150.0   50.0
300.0   120.0   50.0
300.0   150.0   50.0
350.0   150.0   50.0
300.0   150.0   33.333333333333336
300.0   120.0   50.0
350.0   150.0   50.0
350.0   120.0   50.0
350.0   120.0   33.333333333333336
300.0   120.0   50.0
350.0   150.0   50.0
350.0   120.0   33.333333333333336
300.0   150.0   33.333333333333336
350.0   0.0   0.0
400.0   0.0   0.0
350.0   30.0   0.0
350.0   0.0   16.666666666666668
400.0   0.0   0.0
400.0   30.0   0.0
350.0   30.0   0.0
400.0   30.0   16.666666666666668
350.0   0.0   16.666666666666668
350.0   30.0   16.666666666666668
400.0   30.0   16.666666666666668
350.0   30.0   0.0
350.0   0.0   16.666666666666668
400.0   30.0   16.666666666666668
400.0   0.0   16.666666666666668
400.0   0.0   0.0
350.0   0.0   16.666666666666668
400.0   30.0   16.666666666666668
400.0   0.0   0.0
350.0   30.0   0.0
350.0   0.0   16.666666666666668
400.0   0.0   16.666666666666668
350.0   30.0   16.666666666666668
350.0   0.0   33.333333333333336
400.0   0.0   16.666666666666668
400.0   30.0   16.666666666666668
350.0   30.0   16.666666666666668
400.0   30.0   33.333333333333336
350.0   0.0   33.333333333333336
350.0   30.0   33.333333333333336
400.0   30.0   33.333333333333336
350.0   30.0   16.666666666666668
350.0   0.0   33.333333333333336
400.0   30.0   33.333333333333336
400.0   0.0   33.333333333333336
400.0   0.0   16.666666666666668
350.0   0.0   33.333333333333336
400.0   30.0   33.333333333333336
400.0   0.0   16.666666666666668
350.0   30.0   16.666666666666668
350.0   0.0   33.333333333333336
400.0   0.0   33.333333333333336
350.0   30.0   33.333333333333336
350.0   0.0   50.0
400.0   0.0   33.333333333333336
400.0   30.0   33.333333333333336
350.0   30.0   33.333333333333336
400.0   30.0   50.0
350.0   0.0   50.0
350.0   30.0   50.0
400.0   30.0   50.0
350.0   30.0   33.333333333333336
350.0   0.0   50.0
400.0   30.0   50.0
400.0   0.0   50.0
400.0   0.0   33.333333333333336
350.0   0.0   50.0
400.0   30.0   50.0
400.0   0.0   33.333333333333336
350.0   30.0   33.333333333333336
350.0   30.0   0.0
400.0   30.0   0.0
350.0   60.0   0.0
350.0   30.0   16.666666666666668
400.0   30.0   0.0
400.0   60.0   0.0
350.0   60.0   0.0
400.0   60.0   16.666666666666668
350.0   30.0   16.666666666666668
350.0   60.0   16.666666666666668
400.0   60.0   16.666666666666668
350.0   60.0   0.0
350.0   30.0   16.666666666666668
400.0   60.0   16.666666666666668
400.0   30.0   16.666666666666668
400.0   30.0   0.0
350.0   30.0   16.666666666666668
400.0   60.0   16.666666666666668
400.0   30.0   0.0
350.0   60.0   0.0
350.0   30.0   16.666666666666668
400.0   30.0   16.666666666666668
350.0   60.0   16.666666666666668
350.0   30.0   33.333333333333336
400.0   30.0   16.666666666666668
400.0   60.0   16.666666666666668
350.0   60.0   16.666666666666668
400.0   60.0   33.333333333333336
350.0   30.0   33.333333333333336
350.0   60.0   33.333333333333336
400.0   60.0   33.333333333333336
350.0   60.0   16.666666666666668
350.0   30.0   33.333333333333336
400.0   60.0   33.333333333333336
400.0   30.0   33.333333333333336
400.0   30.0   16.666666666666668
350.0   30.0   33.333333333333336
400.0   60.0   33.333333333333336
400.0   30.0   16.666666666666668
350.0   60.0   16.666666666666668
350.0   30.0   33.333333333333336
400.0   30.0   33.333333333333336
350.0   60.0   33.333333333333336
350.0   30.0   50.0
400.0   30.0   33.333333333333336
400.0   60.0   33.333333333333336
350.0   60.0   33.333333333333336
400.0   60.0   50.0
350.0   30.0   50.0
350.0   60.0   50.0
400.0   60.0   50.0
350.0   60.0   33.333333333333336
350.0   30.0   50.0
400.0   60.0   50.0
400.0   30.0   50.0
400.0   30.0   33.333333333333336
350.0   30.0   50.0
400.0   60.0   50.0
400.0   30.0   33.333333333333336
350.0   60.0   33.333333333333336
350.0   60.0   0.0
400.0   60.0   0.0
350.0   90.0   0.0
350.0   60.0   16.666666666666668
400.0   60.0   0.0
400.0   90.0   0.0
350.0   90.0   0.0
400.0   90.0   16.666666666666668
350.0   60.0   16.666666666666668
350.0   90.0   16.666666666666668
400.0   90.0   16.666666666666668
350.0   90.0   0.0
350.0   60.0   16.666666666666668
400.0   90.0   16.666666666666668
400.0   60.0   16.666666666666668
400.0   60.0   0.0
350.0   60.0   16.666666666666668
400.0   90.0   16.666666666666668
400.0   60.0   0.0
350.0   90.0   0.0
350.0   60.0   16.666666666666668
400.0   60.0   16.666666666666668
350.0   90.0   16.666666666666668
350.0   60.0   33.333333333333336
400.0   60.0   16.666666666666668
400.0   90.0   16.666666666666668
350.0   90.0   16.666666666666668
400.0   90.0   33.333333333333336
350.0   60.0   33.333333333333336
350.0   90.0   33.333333333333336
400.0   90.0   33.333333333333336
350.0   90.0   16.666666666666668
350.0   60.0   33.333333333333336
400.0   90.0   33.333333333333336
400.0   60.0   33.333333333333336
400.0   60.0   16.666666666666668
350.0   60.0   33.333333333333336
400.0   90.0   33.333333333333336
400.0   60.0   16.666666666666668
350.0   90.0   16.666666666666668
350.0   60.0   33.333333333333336
400.0   60.0   33.333333333333336
350.0   90.0   33.333333333333336
350.0   60.0   50.0
400.0   60.0   33.333333333333336
400.0   90.0   33.333333333333336
350.0   90.0   33.333333333333336
400.0   90.0   50.0
350.0   60.0   50.0
350.0   90.0   50.0
400.0   90.0   50.0
350.0   90.0   33.333333333333336
350.0   60.0   50.0
400.0   90.0   50.0
400.0   60.0   50.0
400.0   60.0   33.333333333333336
350.0   60.0   50.0
400.0   90.0   50.0
400.0   60.0   33.333333333333336
350.0   90.0   33.333333333333336
350.0   90.0   0.0
400.0   90.0   0.0
350.0   120.0   0.0
350.0   90.0   16.666666666666668
400.0   90.0   0.0
400.0   120.0   0.0
350.0   120.0   0.0
400.0   120.0   16.666666666666668
350.0   90.0   16.666666666666668
350.0   120.0   16.666666666666668
400.0   120.0   16.666666666666668
350.0   120.0   0.0
350.0   90.0   16.666666666666668
400.0   120.0   16.666666666666668
400.0   90.0   16.666666666666668
400.0   90.0   0.0
350.0   90.0   16.666666666666668
400.0   120.0   16.666666666666668
400.0   90.0   0.0
350.0   120.0   0.0
350.0   90.0   16.666666666666668
400.0   90.0   16.666666666666668
350.0   120.0   16.666666666666668
350.0   90.0   33.333333333333336
400.0   90.0   16.666666666666668
400.0   120.0   16.666666666666668
350.0   120.0   16.666666666666668
400.0   120.0   33.333333333333336
350.0   90.0   33.333333333333336
350.0   120.0   33.333333333333336
400.0   120.0   33.333333333333336
350.0   120.0   16.666666666666668
350.0   90.0   33.333333333333336
400.0   120.0   33.333333333333336
400.0   90.0   33.333333333333336
400.0   90.0   16.666666666666668
350.0   90.0   33.333333333333336
400.0   120.0   33.333333333333336
400.0   90.0   16.666666666666668
350.0   120.0   16.666666666666668
350.0   90.0   33.333333333333336
400.0   90.0   33.333333333333336
350.0   120.0   33.333333333333336
350.0   90.0   50.0
400.0   90.0   33.333333333333336
400.0   120.0   33.333333333333336
350.0   120.0   33.333333333333336
400.0   120.0   50.0
350.0   90.0   50.0
350.0   120.0   50.0
400.0   120.0   50.0
350.0   120.0   33.333333333333336
350.0   90.0   50.0
400.0   120.0   50.0
400.0   90.0   50.0
400.0   90.0   33.333333333333336
350.0   90.0   50.0
400.0   120.0   50.0
400.0   90.0   33.333333333333336
350.0   120.0   33.333333333333336
350.0   120.0   0.0
400.0   120.0   0.0
350.0   150.0   0.0
350.0   120.0   16.666666666666668
400.0   120.0   0.0
400.0   150.0   0.0
350.0   150.0   0.0
400.0   150.0   16.666666666666668
350.0   120.0   16.666666666666668
350.0   150.0   16.666666666666668
400.0   150.0   16.666666666666668
350.0   150.0   0.0
350.0   120.0   16.666666666666668
400.0   150.0   16.666666666666668
400.0   120.0   16.666666666666668
400.0   120.0   0.0
350.0   120.0   16.666666666666668
400.0   150.0   16.666666666666668
400.0   120.0   0.0
350.0   150.0   0.0
350.0   120.0   16.666666666666668
400.0   120.0   16.666666666666668
350.0   150.0   16.666666666666668
350.0   120.0   33.333333333333336
400.0   120.0   16.666666666666668
400.0   150.0   16.666666666666668
350.0   150.0   16.666666666666668
400.0   150.0   33.333333333333336
350.0   120.0   33.333333333333336
350.0   150.0   33.333333333333336
400.0   150.0   33.333333333333336
350.0   150.0   16.666666666666668
350.0   120.0   33.333333333333336
400.0   150.0   33.333333333333336
400.0   120.0   33.333333333333336
400.0   120.0   16.666666666666668
350.0   120.0   33.333333333333336
400.0   150.0   33.333333333333336
400.0   120.0   16.666666666666668
350.0   150.0   16.666666666666668
350.0   120.0   33.333333333333336
400.0   120.0   33.333333333333336
350.0   150.0   33.333333333333336
350.0   120.0   50.0
400.0   120.0   33.333333333333336
400.0   150.0   33.333333333333336
350.0   150.0   33.333333333333336
400.0   150.0   50.0
350.0   120.0   50.0
350.0   150.0   50.0
400.0   150.0   50.0
350.0   150.0   33.333333333333336
350.0   120.0   50.0
400.0   150.0   50.0
400.0   120.0   50.0
400.0   120.0   33.333333333333336
350.0   120.0   50.0
400.0   150.0   50.0
400.0   120.0   33.333333333333336
350.0   150.0   33.333333333333336
400.0   0.0   0.0
450.0   0.0   0.0
400.0   30.0   0.0
400.0   0.0   16.666666666666668
450.0   0.0   0.0
450.0   30.0   0.0
400.0   30.0   0.0
450.0   30.0   16.666666666666668
400.0   0.0   16.666666666666668
400.0   30.0   16.666666666666668
450.0   30.0   16.666666666666668
400.0   30.0   0.0
400.0   0.0   16.666666666666668
450.0   30.0   16.666666666666668
450.0   0.0   16.666666666666668
450.0   0.0   0.0
400.0   0.0   16.666666666666668
450.0   30.0   16.666666666666668
450.0   0.0   0.0
400.0   30.0   0.0
400.0   0.0   16.666666666666668
450.0   0.0   16.666666666666668
400.0   30.0   16.666666666666668
400.0   0.0   33.333333333333336
450.0   0.0   16.666666666666668
450.0   30.0   16.666666666666668
400.0   30.0   16.666666666666668
450.0   30.0   33.333333333333336
400.0   0.0   33.333333333333336
400.0   30.0   33.333333333333336
450.0   30.0   33.333333333333336
400.0   30.0   16.666666666666668
400.0   0.0   33.333333333333336
450.0   30.0   33.333333333333336
450.0   0.0   33.333333333333336
450.0   0.0   16.666666666666668
400.0   0.0   33.333333333333336
450.0   30.0   33.333333333333336
450.0   0.0   16.666666666666668
400.0   30.0   16.666666666666668
400.0   0.0   33.333333333333336
450.0   0.0   33.333333333333336
400.0   30.0   33.333333333333336
400.0   0.0   50.0
450.0   0.0   33.333333333333336
450.0   30.0   33.333333333333336
400.0   30.0   33.333333333333336
450.0   30.0   50.0
400.0   0.0   50.0
400.0   30.0   50.0
450.0   30.0   50.0
400.0   30.0   33.333333333333336
400.0   0.0   50.0
450.0   30.0   50.0
450.0   0.0   50.0
450.0   0.0   33.333333333333336
400.0   0.0   50.0
450.0   30.0   50.0
450.0   0.0   33.333333333333336
400.0   30.0   33.333333333333336
400.0   30.0   0.0
450.0   30.0   0.0
400.0   60.0   0.0
400.0   30.0   16.666666666666668
450.0   30.0   0.0
450.0   60.0   0.0
400.0   60.0   0.0
450.0   60.0   16.666666666666668
400.0   30.0   16.666666666666668
400.0   60.0   16.666666666666668
450.0   60.0   16.666666666666668
400.0   60.0   0.0
400.0   30.0   16.666666666666668
450.0   60.0   16.666666666666668
450.0   30.0   16.666666666666668
450.0   30.0   0.0
400.0   30.0   16.666666666666668
450.0   60.0   16.666666666666668
450.0   30.0   0.0
400.0   60.0   0.0
400.0   30.0   16.666666666666668
450.0   30.0   16.666666666666668
400.0   60.0   16.666666666666668
400.0   30.0   33.333333333333336
450.0   30.0   16.666666666666668
450.0   60.0   16.666666666666668
400.0   60.0   16.666666666666668
450.0   60.0   33.333333333333336
400.0   30.0   33.333333333333336
400.0   60.0   33.333333333333336
450.0   60.0   33.333333333333336
400.0   60.0   16.666666666666668
400.0   30.0   33.333333333333336
450.0   60.0   33.333333333333336
450.0   30.0   33.333333333333336
450.0   30.0   16.666666666666668
400.0   30.0   33.333333333333336
450.0   60.0   33.333333333333336
450.0   30.0   16.666666666666668
400.0   60.0   16.666666666666668
400.0   30.0   33.333333333333336
450.0   30.0   33.333333333333336
400.0   60.0   33.333333333333336
400.0   30.0   50.0
450.0   30.0   33.333333333333336
450.0   60.0   33.333333333333336
400.0   60.0   33.333333333333336
450.0   60.0   50.0
400.0   30.0   50.0
400.0   60.0   50.0
450.0   60.0   50.0
400.0   60.0   33.333333333333336
400.0   30.0   50.0
450.0   60.0   50.0
450.0   30.0   50.0
450.0   30.0   33.333333333333336
400.0   30.0   50.0
450.0   60.0   50.0
450.0   30.0   33.333333333333336
400.0   60.0   33.333333333333336
400.0   60.0   0.0
450.0   60.0   0.0
400.0   90.0   0.0
400.0   60.0   16.666666666666668
450.0   60.0   0.0
450.0   90.0   0.0
400.0   90.0   0.0
450.0   90.0   16.666666666666668
400.0   60.0   16.666666666666668
400.0   90.0   16.666666666666668
450.0   90.0   16.666666666666668
400.0   90.0   0.0
400.0   60.0   16.666666666666668
450.0   90.0   16.666666666666668
450.0   60.0   16.666666666666668
450.0   60.0   0.0
400.0   60.0   16.666666666666668
450.0   90.0   16.666666666666668
450.0   60.0   0.0
400.0   90.0   0.0
400.0   60.0   16.666666666666668
450.0   60.0   16.666666666666668
400.0   90.0   16.666666666666668
400.0   60.0   33.333333333333336
450.0   60.0   16.666666666666668
450.0   90.0   16.666666666666668
400.0   90.0   16.666666666666668
450.0   90.0   33.333333333333336
400.0   60.0   33.333333333333336
400.0   90.0   33.333333333333336
450.0   90.0   33.333333333333336
400.0   90.0   16.666666666666668
400.0   60.0   33.333333333333336
450.0   90.0   33.333333333333336
450.0   60.0   33.333333333333336
450.0   60.0   16.666666666666668
400.0   60.0   33.333333333333336
450.0   90.0   33.333333333333336
450.0   60.0   16.666666666666668
400.0   90.0   16.666666666666668
400.0   60.0   33.333333333333336
450.0   60.0   33.333333333333336
400.0   90.0   33.333333333333336
400.0   60.0   50.0
450.0   60.0   33.333333333333336
450.0   90.0   33.333333333333336
400.0   90.0   33.333333333333336
450.0   90.0   50.0
400.0   60.0   50.0
400.0   90.0   50.0
450.0   90.0   50.0
400.0   90.0   33.333333333333336
400.0   60.0   50.0
450.0   90.0   50.0
450.0   60.0   50.0
450.0   60.0   33.333333333333336
400.0   60.0   50.0
450.0   90.0   50.0
450.0   60.0   33.333333333333336
400.0   90.0   33.333333333333336
400.0   90.0   0.0
450.0   90.0   0.0
400.0   120.0   0.0
400.0   90.0   16.666666666666668
450.0   90.0   0.0
450.0   120.0   0.0
400.0   120.0   0.0
450.0   120.0   16.666666666666668
400.0   90.0   16.666666666666668
400.0   120.0   16.666666666666668
450.0   120.0   16.666666666666668
400.0   120.0   0.0
400.0   90.0   16.666666666666668
450.0   120.0   16.666666666666668
450.0   90.0   16.666666666666668
450.0   90.0   0.0
400.0   90.0   16.666666666666668
450.0   120.0   16.666666666666668
450.0   90.0   0.0
400.0   120.0   0.0
400.0   90.0   16.666666666666668
450.0   90.0   16.666666666666668
400.0   120.0   16.666666666666668
400.0   90.0   33.333333333333336
450.0   90.0   16.666666666666668
450.0   120.0   16.666666666666668
400.0   120.0   16.666666666666668
450.0   120.0   33.333333333333336
400.0   90.0   33.333333333333336
400.0   120.0   33.333333333333336
450.0   120.0   33.333333333333336
400.0   120.0   16.666666666666668
400.0   90.0   33.333333333333336
450.0   120.0   33.333333333333336
450.0   90.0   33.333333333333336
450.0   90.0   16.666666666666668
400.0   90.0   33.333333333333336
450.0   120.0   33.333333333333336
450.0   90.0   16.666666666666668
400.0   120.0   16.666666666666668
400.0   90.0   33.333333333333336
450.0   90.0   33.333333333333336
400.0   120.0   33.333333333333336
400.0   90.0   50.0
450.0   90.0   33.333333333333336
450.0   120.0   33.333333333333336
400.0   120.0   33.333333333333336
450.0   120.0   50.0
400.0   90.0   50.0
400.0   120.0   50.0
450.0   120.0   50.0
400.0   120.0   33.333333333333336
400.0   90.0   50.0
450.0   120.0   50.0
450.0   90.0   50.0
450.0   90.0   33.333333333333336
400.0   90.0   50.0
450.0   120.0   50.0
450.0   90.0   33.333333333333336
400.0   120.0   33.333333333333336
400.0   120.0   0.0
450.0   120.0   0.0
400.0   150.0   0.0
400.0   120.0   16.666666666666668
450.0   120.0   0.0
450.0   150.0   0.0
400.0   150.0   0.0
450.0   150.0   16.666666666666668
400.0   120.0   16.666666666666668
400.0   150.0   16.666666666666668
450.0   150.0   16.666666666666668
400.0   150.0   0.0
400.0   120.0   16.666666666666668
450.0   150.0   16.666666666666668
450.0   120.0   16.666666666666668
450.0   120.0   0.0
400.0   120.0   16.666666666666668
450.0   150.0   16.666666666666668
450.0   120.0   0.0
400.0   150.0   0.0
400.0   120.0   16.666666666666668
450.0   120.0   16.666666666666668
400.0   150.0   16.666666666666668
400.0   120.0   33.333333333333336
450.0   120.0   16.666666666666668
450.0   150.0   16.666666666666668
400.0   150.0   16.666666666666668
450.0   150.0   33.333333333333336
400.0   120.0   33.333333333333336
400.0   150.0   33.333333333333336
450.0   150.0   33.333333333333336
400.0   150.0   16.666666666666668
400.0   120.0   33.333333333333336
450.0   150.0   33.333333333333336
450.0   120.0   33.333333333333336
450.0   120.0   16.666666666666668
400.0   120.0   33.333333333333336
450.0   150.0   33.333333333333336
450.0   120.0   16.666666666666668
400.0   150.0   16.666666666666668
400.0   120.0   33.333333333333336
450.0   120.0   33.333333333333336
400.0   150.0   33.333333333333336
400.0   120.0   50.0
450.0   120.0   33.333333333333336
450.0   150.0   33.333333333333336
400.0   150.0   33.333333333333336
450.0   150.0   50.0
400.0   120.0   50.0
400.0   150.0   50.0
450.0   150.0   50.0
400.0   150.0   33.333333333333336
400.0   120.0   50.0
450.0   150.0   50.0
450.0   120.0   50.0
450.0   120.0   33.333333333333336
400.0   120.0   50.0
450.0   150.0   50.0
450.0   120.0   33.333333333333336
400.0   150.0   33.333333333333336
450.0   0.0   0.0
500.0   0.0   0.0
450.0   30.0   0.0
450.0   0.0   16.666666666666668
500.0   0.0   0.0
500.0   30.0   0.0
450.0   30.0   0.0
500.0   30.0   16.666666666666668
450.0   0.0   16.666666666666668
450.0   30.0   16.666666666666668
500.0   30.0   16.666666666666668
450.0   30.0   0.0
450.0   0.0   16.666666666666668
500.0   30.0   16.666666666666668
500.0   0.0   16.666666666666668
500.0   0.0   0.0
450.0   0.0   16.666666666666668
500.0   30.0   16.666666666666668
500.0   0.0   0.0
450.0   30.0   0.0
450.0   0.0   16.666666666666668
500.0   0.0   16.666666666666668
450.0   30.0   16.666666666666668
450.0   0.0   33.333333333333336
500.0   0.0   16.666666666666668
500.0   30.0   16.666666666666668
450.0   30.0   16.666666666666668
500.0   30.0   33.333333333333336
450.0   0.0   33.333333333333336
450.0   30.0   33.333333333333336
500.0   30.0   33.333333333333336
450.0   30.0   16.666666666666668
450.0   0.0   33.333333333333336
500.0   30.0   33.333333333333336
500.0   0.0   33.333333333333336
500.0   0.0   16.666666666666668
450.0   0.0   33.333333333333336
500.0   30.0   33.333333333333336
500.0   0.0   16.666666666666668
450.0   30.0   16.666666666666668
450.0   0.0   33.333333333333336
500.0   0.0   33.333333333333336
450.0   30.0   33.333333333333336
450.0   0.0   50.0
500.0   0.0   33.333333333333336
500.0   30.0   33.333333333333336
450.0   30.0   33.333333333333336
500.0   30.0   50.0
450.0   0.0   50.0
450.0   30.0   50.0
500.0   30.0   50.0
450.0   30.0   33.333333333333336
450.0   0.0   50.0
500.0   30.0   50.0
500.0   0.0   50.0
500.0   0.0   33.333333333333336
450.0   0.0   50.0
500.0   30.0   50.0
500.0   0.0   33.333333333333336
450.0   30.0   33.333333333333336
450.0   30.0   0.0
500.0   30.0   0.0
450.0   60.0   0.0
450.0   30.0   16.666666666666668
500.0   30.0   0.0
500.0   60.0   0.0
450.0   60.0   0.0
500.0   60.0   16.666666666666668
450.0   30.0   16.666666666666668
450.0   60.0   16.666666666666668
500.0   60.0   16.666666666666668
450.0   60.0   0.0
450.0   30.0   16.666666666666668
500.0   60.0   16.666666666666668
500.0   30.0   16.666666666666668
500.0   30.0   0.0
450.0   30.0   16.666666666666668
500.0   60.0   16.666666666666668
500.0   30.0   0.0
450.0   60.0   0.0
450.0   30.0   16.666666666666668
500.0   30.0   16.666666666666668
450.0   60.0   16.666666666666668
450.0   30.0   33.333333333333336
500.0   30.0   16.666666666666668
500.0   60.0   16.666666666666668
450.0   60.0   16.666666666666668
500.0   60.0   33.333333333333336
450.0   30.0   33.333333333333336
450.0   60.0   33.333333333333336
500.0   60.0   33.333333333333336
450.0   60.0   16.666666666666668
450.0   30.0   33.333333333333336
500.0   60.0   33.333333333333336
500.0   30.0   33.333333333333336
500.0   30.0   16.666666666666668
450.0   30.0   33.333333333333336
500.0   60.0   33.333333333333336
500.0   30.0   16.666666666666668
450.0   60.0   16.666666666666668
450.0   30.0   33.333333333333336
500.0   30.0   33.333333333333336
450.0   60.0   33.333333333333336
450.0   30.0   50.0
500.0   30.0   33.333333333333336
500.0   60.0   33.333333333333336
450.0   60.0   33.333333333333336
500.0   60.0   50.0
450.0   30.0   50.0
450.0   60.0   50.0
500.0   60.0   50.0
450.0   60.0   33.333333333333336
450.0   30.0   50.0
500.0   60.0   50.0
500.0   30.0   50.0
500.0   30.0   33.333333333333336
450.0   30.0   50.0
500.0   60.0   50.0
500.0   30.0   33.333333333333336
450.0   60.0   33.333333333333336
450.0   60.0   0.0
500.0   60.0   0.0
450.0   90.0   0.0
450.0   60.0   16.666666666666668
500.0   60.0   0.0
500.0   90.0   0.0
450.0   90.0   0.0
500.0   90.0   16.666666666666668
450.0   60.0   16.666666666666668
450.0   90.0   16.666666666666668
500.0   90.0   16.666666666666668
450.0   90.0   0.0
450.0   60.0   16.666666666666668
500.0   90.0   16.666666666666668
500.0   60.0   16.666666666666668
500.0   60.0   0.0
450.0   60.0   16.666666666666668
500.0   90.0   16.666666666666668
500.0   60.0   0.0
450.0   90.0   0.0
450.0   60.0   16.666666666666668
500.0   60.0   16.666666666666668
450.0   90.0   16.666666666666668
450.0   60.0   33.333333333333336
500.0   60.0   16.666666666666668
500.0   90.0   16.666666666666668
450.0   90.0   16.666666666666668
500.0   90.0   33.333333333333336
450.0   60.0   33.333333333333336
450.0   90.0   33.333333333333336
500.0   90.0   33.333333333333336
450.0   90.0   16.666666666666668
450.0   60.0   33.333333333333336
500.0   90.0   33.333333333333336
500.0   60.0   33.333333333333336
500.0   60.0   16.666666666666668
450.0   60.0   33.333333333333336
500.0   90.0   33.333333333333336
500.0   60.0   16.666666666666668
450.0   90.0   16.666666666666668
450.0   60.0   33.333333333333336
500.0   60.0   33.333333333333336
450.0   90.0   33.333333333333336
450.0   60.0   50.0
500.0   60.0   33.333333333333336
500.0   90.0   33.333333333333336
450.0   90.0   33.333333333333336
500.0   90.0   50.0
450.0   60.0   50.0
450.0   90.0   50.0
500.0   90.0   50.0
450.0   90.0   33.333333333333336
450.0   60.0   50.0
500.0   90.0   50.0
500.0   60.0   50.0
500.0   60.0   33.333333333333336
450.0   60.0   50.0
500.0   90.0   50.0
500.0   60.0   33.333333333333336
450.0   90.0   33.333333333333336
450.0   90.0   0.0
500.0   90.0   0.0
450.0   120.0   0.0
450.0   90.0   16.666666666666668
500.0   90.0   0.0
500.0   120.0   0.0
450.0   120.0   0.0
500.0   120.0   16.666666666666668
450.0   90.0   16.666666666666668
450.0   120.0   16.666666666666668
500.0   120.0   16.666666666666668
450.0   120.0   0.0
450.0   90.0   16.666666666666668
500.0   120.0   16.666666666666668
500.0   90.0   16.666666666666668
500.0   90.0   0.0
450.0   90.0   16.666666666666668
500.0   120.0   16.666666666666668
500.0   90.0   0.0
450.0   120.0   0.0
450.0   90.0   16.666666666666668
500.0   90.0   16.666666666666668
450.0   120.0   16.666666666666668
450.0   90.0   33.333333333333336
500.0   90.0   16.666666666666668
500.0   120.0   16.666666666666668
450.0   120.0   16.666666666666668
500.0   120.0   33.333333333333336
450.0   90.0   33.333333333333336
450.0   120.0   33.333333333333336
500.0   120.0   33.333333333333336
450.0   120.0   16.666666666666668
450.0   90.0   33.333333333333336
500.0   120.0   33.333333333333336
500.0   90.0   33.333333333333336
500.0   90.0   16.666666666666668
450.0   90.0   33.333333333333336
500.0   120.0   33.333333333333336
500.0   90.0   16.666666666666668
450.0   120.0   16.666666666666668
450.0   90.0   33.333333333333336
500.0   90.0   33.333333333333336
450.0   120.0   33.333333333333336
450.0   90.0   50.0
500.0   90.0   33.333333333333336
500.0   120.0   33.333333333333336
450.0   120.0   33.333333333333336
500.0   120.0   50.0
450.0   90.0   50.0
450.0   120.0   50.0
500.0   120.0   50.0
450.0   120.0   33.333333333333336
450.0   90.0   50.0
500.0   120.0   50.0
500.0   90.0   50.0
500.0   90.0   33.333333333333336
450.0   90.0   50.0
500.0   120.0   50.0
500.0   90.0   33.333333333333336
450.0   120.0   33.333333333333336
450.0   120.0   0.0
500.0   120.0   0.0
450.0   150.0   0.0
450.0   120.0   16.666666666666668
500.0   120.0   0.0
500.0   150.0   0.0
450.0   150.0   0.0
500.0   150.0   16.666666666666668
450.0   120.0   16.666666666666668
450.0   150.0   16.666666666666668
500.0   150.0   16.666666666666668
450.0   150.0   0.0
450.0   120.0   16.666666666666668
500.0   150.0   16.666666666666668
500.0   120.0   16.666666666666668
500.0   120.0   0.0
450.0   120.0   16.666666666666668
500.0   150.0   16.666666666666668
500.0   120.0   0.0
450.0   150.0   0.0
450.0   120.0   16.666666666666668
500.0   120.0   16.666666666666668
450.0   150.0   16.666666666666668
450.0   120.0   33.333333333333336
500.0   120.0   16.666666666666668
500.0   150.0   16.666666666666668
450.0   150.0   16.666666666666668
500.0   150.0   33.333333333333336
450.0   120.0   33.333333333333336
450.0   150.0   33.333333333333336
500.0   150.0   33.333333333333336
450.0   150.0   16.666666666666668
450.0   120.0   33.333333333333336
500.0   150.0   33.333333333333336
500.0   120.0   33.333333333333336
500.0   120.0   16.666666666666668
450.0   120.0   33.333333333333336
500.0   150.0   33.333333333333336
500.0   120.0   16.666666666666668
450.0   150.0   16.666666666666668
450.0   120.0   33.333333333333336
500.0   120.0   33.333333333333336
450.0   150.0   33.333333333333336
450.0   120.0   50.0
500.0   120.0   33.333333333333336
500.0   150.0   33.333333333333336
450.0   150.0   33.333333333333336
500.0   150.0   50.0
450.0   120.0   50.0
450.0   150.0   50.0
500.0   150.0   50.0
450.0   150.0   33.333333333333336
450.0   120.0   50.0
500.0   150.0   50.0
500.0   120.0   50.0
500.0   120.0   33.333333333333336
450.0   120.0   50.0
500.0   150.0   50.0
500.0   120.0   33.333333333333336
450.0   150.0   33.333333333333336
             </DataArray>   
          </Points>  
          <Cells>  
             <DataArray type="Int32" Name="connectivity" format="ascii">   
0   1   2   3
4   5   6   7
8   9   10   11
12   13   14   15
16   17   18   19
20   21   22   23
24   25   26   27
28   29   30   31
32   33   34   35
36   37   38   39
40   41   42   43
44   45   46   47
48   49   50   51
52   53   54   55
56   57   58   59
60   61   62   63
64   65   66   67
68   69   70   71
72   73   74   75
76   77   78   79
80   81   82   83
84   85   86   87
88   89   90   91
92   93   94   95
96   97   98   99
100   101   102   103
104   105   106   107
108   109   110   111
112   113   114   115
116   117   118   119
120   121   122   123
124   125   126   127
128   129   130   131
132   133   134   135
136   137   138   139
140   141   142   143
144   145   146   147
148   149   150   151
152   153   154   155
156   157   158   159
160   161   162   163
164   165   166   167
168   169   170   171
172   173   174   175
176   177   178   179
180   181   182   183
184   185   186   187
188   189   190   191
192   193   194   195
196   197   198   199
200   201   202   203
204   205   206   207
208   209   210   211
212   213   214   215
216   217   218   219
220   221   222   223
224   225   226   227
228   229   230   231
232   233   234   235
236   237   238   239
240   241   242   243
244   245   246   247
248   249   250   251
252   253   254   255
256   257   258   259
260   261   262   263
264   265   266   267
268   269   270   271
272   273   274   275
276   277   278   279
280   281   282   283
284   285   286   287
288   289   290   291
292   293   294   295
296   297   298   299
300   301   302   303
304   305   306   307
308   309   310   311
312   313   314   315
316   317   318   319
320   321   322   323
324   325   326   327
328   329   330   331
332   333   334   335
336   337   338   339
340   341   342   343
344   345   346   347
348   349   350   351
352   353   354   355
356   357   358   359
360   361   362   363
364   365   366   367
368   369   370   371
372   373   374   375
376   377   378   379
380   381   382   383
384   385   386   387
388   389   390   391
392   393   394   395
396   397   398   399
400   401   402   403
404   405   406   407
408   409   410   411
412   413   414   415
416   417   418   419
420   421   422   423
424   425   426   427
428   429   430   431
432   433   434   435
436   437   438   439
440   441   442   443
444   445   446   447
448   449   450   451
452   453   454   455
456   457   458   459
460   461   462   463
464   465   466   467
468   469   470   471
472   473   474   475
476   477   478   479
480   481   482   483
484   485   486   487
488   489   490   491
492   493   494   495
496   497   498   499
500   501   502   503
504   505   506   507
508   509   510   511
512   513   514   515
516   517   518   519
520   521   522   523
524   525   526   527
528   529   530   531
532   533   534   535
536   537   538   539
540   541   542   543
544   545   546   547
548   549   550   551
552   553   554   555
556   557   558   559
560   561   562   563
564   565   566   567
568   569   570   571
572   573   574   575
576   577   578   579
580   581   582   583
584   585   586   587
588   589   590   591
592   593   594   595
596   597   598   599
600   601   602   603
604   605   606   607
608   609   610   611
612   613   614   615
616   617   618   619
620   621   622   623
624   625   626   627
628   629   630   631
632   633   634   635
636   637   638   639
640   641   642   643
644   645   646   647
648   649   650   651
652   653   654   655
656   657   658   659
660   661   662   663
664   665   666   667
668   669   670   671
672   673   674   675
676   677   678   679
680   681   682   683
684   685   686   687
688   689   690   691
692   693   694   695
696   697   698   699
700   701   702   703
704   705   706   707
708   709   710   711
712   713   714   715
716   717   718   719
720   721   722   723
724   725   726   727
728   729   730   731
732   733   734   735
736   737   738   739
740   741   742   743
744   745   746   747
748   749   750   751
752   753   754   755
756   757   758   759
760   761   762   763
764   765   766   767
768   769   770   771
772   773   774   775
776   777   778   779
780   781   782   783
784   785   786   787
788   789   790   791
792   793   794   795
796   797   798   799
800   801   802   803
804   805   806   807
808   809   810   811
812   813   814   815
816   817   818   819
820   821   822   823
824   825   826   827
828   829   830   831
832   833   834   835
836   837   838   839
840   841   842   843
844   845   846   847
848   849   850   851
852   853   854   855
856   857   858   859
860   861   862   863
864   865   866   867
868   869   870   871
872   873   874   875
876   877   878   879
880   881   882   883
884   885   886   887
888   889   890   891
892   893   894   895
896   897   898   899
900   901   902   903
904   905   906   907
908   909   910   911
912   913   914   915
916   917   918   919
920   921   922   923
924   925   926   927
928   929   930   931
932   933   934   935
936   937   938   939
940   941   942   943
944   945   946   947
948   949   950   951
952   953   954   955
956   957   958   959
960   961   962   963
964   965   966   967
968   969   970   971
972   973   974   975
976   977   978   979
980   981   982   983
984   985   986   987
988   989   990   991
992   993   994   995
996   997   998   999
1000   1001   1002   1003
1004   1005   1006   1007
1008   1009   1010   1011
1012   1013   1014   1015
1016   1017   1018   1019
1020   1021   1022   1023
1024   1025   1026   1027
1028   1029   1030   1031
1032   1033   1034   1035
1036   1037   1038   1039
1040   1041   1042   1043
1044   1045   1046   1047
1048   1049   1050   1051
1052   1053   1054   1055
1056   1057   1058   1059
1060   1061   1062   1063
1064   1065   1066   1067
1068   1069   1070   1071
1072   1073   1074   1075
1076   1077   1078   1079
1080   1081   1082   1083
1084   1085   1086   1087
1088   1089   1090   1091
1092   1093   1094   1095
1096   1097   1098   1099
1100   1101   1102   1103
1104   1105   1106   1107
1108   1109   1110   1111
1112   1113   1114   1115
1116   1117   1118   1119
1120   1121   1122   1123
1124   1125   1126   1127
1128   1129   1130   1131
1132   1133   1134   1135
1136   1137   1138   1139
1140   1141   1142   1143
1144   1145   1146   1147
1148   1149   1150   1151
1152   1153   1154   1155
1156   1157   1158   1159
1160   1161   1162   1163
1164   1165   1166   1167
1168   1169   1170   1171
1172   1173   1174   1175
1176   1177   1178   1179
1180   1181   1182   1183
1184   1185   1186   1187
1188   1189   1190   1191
1192   1193   1194   1195
1196   1197   1198   1199
1200   1201   1202   1203
1204   1205   1206   1207
1208   1209   1210   1211
1212   1213   1214   1215
1216   1217   1218   1219
1220   1221   1222   1223
1224   1225   1226   1227
1228   1229   1230   1231
1232   1233   1234   1235
1236   1237   1238   1239
1240   1241   1242   1243
1244   1245   1246   1247
1248   1249   1250   1251
1252   1253   1254   1255
1256   1257   1258   1259
1260   1261   1262   1263
1264   1265   1266   1267
1268   1269   1270   1271
1272   1273   1274   1275
1276   1277   1278   1279
1280   1281   1282   1283
1284   1285   1286   1287
1288   1289   1290   1291
1292   1293   1294   1295
1296   1297   1298   1299
1300   1301   1302   1303
1304   1305   1306   1307
1308   1309   1310   1311
1312   1313   1314   1315
1316   1317   1318   1319
1320   1321   1322   1323
1324   1325   1326   1327
1328   1329   1330   1331
1332   1333   1334   1335
1336   1337   1338   1339
1340   1341   1342   1343
1344   1345   1346   1347
1348   1349   1350   1351
1352   1353   1354   1355
1356   1357   1358   1359
1360   1361   1362   1363
1364   1365   1366   1367
1368   1369   1370   1371
1372   1373   1374   1375
1376   1377   1378   1379
1380   1381   1382   1383
1384   1385   1386   1387
1388   1389   1390   1391
1392   1393   1394   1395
1396   1397   1398   1399
1400   1401   1402   1403
1404   1405   1406   1407
1408   1409   1410   1411
1412   1413   1414   1415
1416   1417   1418   1419
1420   1421   1422   1423
1424   1425   1426   1427
1428   1429   1430   1431
1432   1433   1434   1435
1436   1437   1438   1439
1440   1441   1442   1443
1444   1445   1446   1447
1448   1449   1450   1451
1452   1453   1454   1455
1456   1457   1458   1459
1460   1461   1462   1463
1464   1465   1466   1467
1468   1469   1470   1471
1472   1473   1474   1475
1476   1477   1478   1479
1480   1481   1482   1483
1484   1485   1486   1487
1488   1489   1490   1491
1492   1493   1494   1495
1496   1497   1498   1499
1500   1501   1502   1503
1504   1505   1506   1507
1508   1509   1510   1511
1512   1513   1514   1515
1516   1517   1518   1519
1520   1521   1522   1523
1524   1525   1526   1527
1528   1529   1530   1531
1532   1533   1534   1535
1536   1537   1538   1539
1540   1541   1542   1543
1544   1545   1546   1547
1548   1549   1550   1551
1552   1553   1554   1555
1556   1557   1558   1559
1560   1561   1562   1563
1564   1565   1566   1567
1568   1569   1570   1571
1572   1573   1574   1575
1576   1577   1578   1579
1580   1581   1582   1583
1584   1585   1586   1587
1588   1589   1590   1591
1592   1593   1594   1595
1596   1597   1598   1599
1600   1601   1602   1603
1604   1605   1606   1607
1608   1609   1610   1611
1612   1613   1614   1615
1616   1617   1618   1619
1620   1621   1622   1623
1624   1625   1626   1627
1628   1629   1630   1631
1632   1633   1634   1635
1636   1637   1638   1639
1640   1641   1642   1643
1644   1645   1646   1647
1648   1649   1650   1651
1652   1653   1654   1655
1656   1657   1658   1659
1660   1661   1662   1663
1664   1665   1666   1667
1668   1669   1670   1671
1672   1673   1674   1675
1676   1677   1678   1679
1680   1681   1682   1683
1684   1685   1686   1687
1688   1689   1690   1691
1692   1693   1694   1695
1696   1697   1698   1699
1700   1701   1702   1703
1704   1705   1706   1707
1708   1709   1710   1711
1712   1713   1714   1715
1716   1717   1718   1719
1720   1721   1722   1723
1724   1725   1726   1727
1728   1729   1730   1731
1732   1733   1734   1735
1736   1737   1738   1739
1740   1741   1742   1743
1744   1745   1746   1747
1748   1749   1750   1751
1752   1753   1754   1755
1756   1757   1758   1759
1760   1761   1762   1763
1764   1765   1766   1767
1768   1769   1770   1771
1772   1773   1774   1775
1776   1777   1778   1779
1780   1781   1782   1783
1784   1785   1786   1787
1788   1789   1790   1791
1792   1793   1794   1795
1796   1797   1798   1799
1800   1801   1802   1803
1804   1805   1806   1807
1808   1809   1810   1811
1812   1813   1814   1815
1816   1817   1818   1819
1820   1821   1822   1823
1824   1825   1826   1827
1828   1829   1830   1831
1832   1833   1834   1835
1836   1837   1838   1839
1840   1841   1842   1843
1844   1845   1846   1847
1848   1849   1850   1851
1852   1853   1854   1855
1856   1857   1858   1859
1860   1861   1862   1863
1864   1865   1866   1867
1868   1869   1870   1871
1872   1873   1874   1875
1876   1877   1878   1879
1880   1881   1882   1883
1884   1885   1886   1887
1888   1889   1890   1891
1892   1893   1894   1895
1896   1897   1898   1899
1900   1901   1902   1903
1904   1905   1906   1907
1908   1909   1910   1911
1912   1913   1914   1915
1916   1917   1918   1919
1920   1921   1922   1923
1924   1925   1926   1927
1928   1929   1930   1931
1932   1933   1934   1935
1936   1937   1938   1939
1940   1941   1942   1943
1944   1945   1946   1947
1948   1949   1950   1951
1952   1953   1954   1955
1956   1957   1958   1959
1960   1961   1962   1963
1964   1965   1966   1967
1968   1969   1970   1971
1972   1973   1974   1975
1976   1977   1978   1979
1980   1981   1982   1983
1984   1985   1986   1987
1988   1989   1990   1991
1992   1993   1994   1995
1996   1997   1998   1999
2000   2001   2002   2003
2004   2005   2006   2007
2008   2009   2010   2011
2012   2013   2014   2015
2016   2017   2018   2019
2020   2021   2022   2023
2024   2025   2026   2027
2028   2029   2030   2031
2032   2033   2034   2035
2036   2037   2038   2039
2040   2041   2042   2043
2044   2045   2046   2047
2048   2049   2050   2051
2052   2053   2054   2055
2056   2057   2058   2059
2060   2061   2062   2063
2064   2065   2066   2067
2068   2069   2070   2071
2072   2073   2074   2075
2076   2077   2078   2079
2080   2081   2082   2083
2084   2085   2086   2087
2088   2089   2090   2091
2092   2093   2094   2095
2096   2097   2098   2099
2100   2101   2102   2103
2104   2105   2106   2107
2108   2109   2110   2111
2112   2113   2114   2115
2116   2117   2118   2119
2120   2121   2122   2123
2124   2125   2126   2127
2128   2129   2130   2131
2132   2133   2134   2135
2136   2137   2138   2139
2140   2141   2142   2143
2144   2145   2146   2147
2148   2149   2150   2151
2152   2153   2154   2155
2156   2157   2158   2159
2160   2161   2162   2163
2164   2165   2166   2167
2168   2169   2170   2171
2172   2173   2174   2175
2176   2177   2178   2179
2180   2181   2182   2183
2184   2185   2186   2187
2188   2189   2190   2191
2192   2193   2194   2195
2196   2197   2198   2199
2200   2201   2202   2203
2204   2205   2206   2207
2208   2209   2210   2211
2212   2213   2214   2215
2216   2217   2218   2219
2220   2221   2222   2223
2224   2225   2226   2227
2228   2229   2230   2231
2232   2233   2234   2235
2236   2237   2238   2239
2240   2241   2242   2243
2244   2245   2246   2247
2248   2249   2250   2251
2252   2253   2254   2255
2256   2257   2258   2259
2260   2261   2262   2263
2264   2265   2266   2267
2268   2269   2270   2271
2272   2273   2274   2275
2276   2277   2278   2279
2280   2281   2282   2283
2284   2285   2286   2287
2288   2289   2290   2291
2292   2293   2294   2295
2296   2297   2298   2299
2300   2301   2302   2303
2304   2305   2306   2307
2308   2309   2310   2311
2312   2313   2314   2315
2316   2317   2318   2319
2320   2321   2322   2323
2324   2325   2326   2327
2328   2329   2330   2331
2332   2333   2334   2335
2336   2337   2338   2339
2340   2341   2342   2343
2344   2345   2346   2347
2348   2349   2350   2351
2352   2353   2354   2355
2356   2357   2358   2359
2360   2361   2362   2363
2364   2365   2366   2367
2368   2369   2370   2371
2372   2373   2374   2375
2376   2377   2378   2379
2380   2381   2382   2383
2384   2385   2386   2387
2388   2389   2390   2391
2392   2393   2394   2395
2396   2397   2398   2399
2400   2401   2402   2403
2404   2405   2406   2407
2408   2409   2410   2411
2412   2413   2414   2415
2416   2417   2418   2419
2420   2421   2422   2423
2424   2425   2426   2427
2428   2429   2430   2431
2432   2433   2434   2435
2436   2437   2438   2439
2440   2441   2442   2443
2444   2445   2446   2447
2448   2449   2450   2451
2452   2453   2454   2455
2456   2457   2458   2459
2460   2461   2462   2463
2464   2465   2466   2467
2468   2469   2470   2471
2472   2473   2474   2475
2476   2477   2478   2479
2480   2481   2482   2483
2484   2485   2486   2487
2488   2489   2490   2491
2492   2493   2494   2495
2496   2497   2498   2499
2500   2501   2502   2503
2504   2505   2506   2507
2508   2509   2510   2511
2512   2513   2514   2515
2516   2517   2518   2519
2520   2521   2522   2523
2524   2525   2526   2527
2528   2529   2530   2531
2532   2533   2534   2535
2536   2537   2538   2539
2540   2541   2542   2543
2544   2545   2546   2547
2548   2549   2550   2551
2552   2553   2554   2555
2556   2557   2558   2559
2560   2561   2562   2563
2564   2565   2566   2567
2568   2569   2570   2571
2572   2573   2574   2575
2576   2577   2578   2579
2580   2581   2582   2583
2584   2585   2586   2587
2588   2589   2590   2591
2592   2593   2594   2595
2596   2597   2598   2599
2600   2601   2602   2603
2604   2605   2606   2607
2608   2609   2610   2611
2612   2613   2614   2615
2616   2617   2618   2619
2620   2621   2622   2623
2624   2625   2626   2627
2628   2629   2630   2631
2632   2633   2634   2635
2636   2637   2638   2639
2640   2641   2642   2643
2644   2645   2646   2647
2648   2649   2650   2651
2652   2653   2654   2655
2656   2657   2658   2659
2660   2661   2662   2663
2664   2665   2666   2667
2668   2669   2670   2671
2672   2673   2674   2675
2676   2677   2678   2679
2680   2681   2682   2683
2684   2685   2686   2687
2688   2689   2690   2691
2692   2693   2694   2695
2696   2697   2698   2699
2700   2701   2702   2703
2704   2705   2706   2707
2708   2709   2710   2711
2712   2713   2714   2715
2716   2717   2718   2719
2720   2721   2722   2723
2724   2725   2726   2727
2728   2729   2730   2731
2732   2733   2734   2735
2736   2737   2738   2739
2740   2741   2742   2743
2744   2745   2746   2747
2748   2749   2750   2751
2752   2753   2754   2755
2756   2757   2758   2759
2760   2761   2762   2763
2764   2765   2766   2767
2768   2769   2770   2771
2772   2773   2774   2775
2776   2777   2778   2779
2780   2781   2782   2783
2784   2785   2786   2787
2788   2789   2790   2791
2792   2793   2794   2795
2796   2797   2798   2799
2800   2801   2802   2803
2804   2805   2806   2807
2808   2809   2810   2811
2812   2813   2814   2815
2816   2817   2818   2819
2820   2821   2822   2823
2824   2825   2826   2827
2828   2829   2830   2831
2832   2833   2834   2835
2836   2837   2838   2839
2840   2841   2842   2843
2844   2845   2846   2847
2848   2849   2850   2851
2852   2853   2854   2855
2856   2857   2858   2859
2860   2861   2862   2863
2864   2865   2866   2867
2868   2869   2870   2871
2872   2873   2874   2875
2876   2877   2878   2879
2880   2881   2882   2883
2884   2885   2886   2887
2888   2889   2890   2891
2892   2893   2894   2895
2896   2897   2898   2899
2900   2901   2902   2903
2904   2905   2906   2907
2908   2909   2910   2911
2912   2913   2914   2915
2916   2917   2918   2919
2920   2921   2922   2923
2924   2925   2926   2927
2928   2929   2930   2931
2932   2933   2934   2935
2936   2937   2938   2939
2940   2941   2942   2943
2944   2945   2946   2947
2948   2949   2950   2951
2952   2953   2954   2955
2956   2957   2958   2959
2960   2961   2962   2963
2964   2965   2966   2967
2968   2969   2970   2971
2972   2973   2974   2975
2976   2977   2978   2979
2980   2981   2982   2983
2984   2985   2986   2987
2988   2989   2990   2991
2992   2993   2994   2995
2996   2997   2998   2999
3000   3001   3002   3003
3004   3005   3006   3007
3008   3009   3010   3011
3012   3013   3014   3015
3016   3017   3018   3019
3020   3021   3022   3023
3024   3025   3026   3027
3028   3029   3030   3031
3032   3033   3034   3035
3036   3037   3038   3039
3040   3041   3042   3043
3044   3045   3046   3047
3048   3049   3050   3051
3052   3053   3054   3055
3056   3057   3058   3059
3060   3061   3062   3063
3064   3065   3066   3067
3068   3069   3070   3071
3072   3073   3074   3075
3076   3077   3078   3079
3080   3081   3082   3083
3084   3085   3086   3087
3088   3089   3090   3091
3092   3093   3094   3095
3096   3097   3098   3099
3100   3101   3102   3103
3104   3105   3106   3107
3108   3109   3110   3111
3112   3113   3114   3115
3116   3117   3118   3119
3120   3121   3122   3123
3124   3125   3126   3127
3128   3129   3130   3131
3132   3133   3134   3135
3136   3137   3138   3139
3140   3141   3142   3143
3144   3145   3146   3147
3148   3149   3150   3151
3152   3153   3154   3155
3156   3157   3158   3159
3160   3161   3162   3163
3164   3165   3166   3167
3168   3169   3170   3171
3172   3173   3174   3175
3176   3177   3178   3179
3180   3181   3182   3183
3184   3185   3186   3187
3188   3189   3190   3191
3192   3193   3194   3195
3196   3197   3198   3199
3200   3201   3202   3203
3204   3205   3206   3207
3208   3209   3210   3211
3212   3213   3214   3215
3216   3217   3218   3219
3220   3221   3222   3223
3224   3225   3226   3227
3228   3229   3230   3231
3232   3233   3234   3235
3236   3237   3238   3239
3240   3241   3242   3243
3244   3245   3246   3247
3248   3249   3250   3251
3252   3253   3254   3255
3256   3257   3258   3259
3260   3261   3262   3263
3264   3265   3266   3267
3268   3269   3270   3271
3272   3273   3274   3275
3276   3277   3278   3279
3280   3281   3282   3283
3284   3285   3286   3287
3288   3289   3290   3291
3292   3293   3294   3295
3296   3297   3298   3299
3300   3301   3302   3303
3304   3305   3306   3307
3308   3309   3310   3311
3312   3313   3314   3315
3316   3317   3318   3319
3320   3321   3322   3323
3324   3325   3326   3327
3328   3329   3330   3331
3332   3333   3334   3335
3336   3337   3338   3339
3340   3341   3342   3343
3344   3345   3346   3347
3348   3349   3350   3351
3352   3353   3354   3355
3356   3357   3358   3359
3360   3361   3362   3363
3364   3365   3366   3367
3368   3369   3370   3371
3372   3373   3374   3375
3376   3377   3378   3379
3380   3381   3382   3383
3384   3385   3386   3387
3388   3389   3390   3391
3392   3393   3394   3395
3396   3397   3398   3399
3400   3401   3402   3403
3404   3405   3406   3407
3408   3409   3410   3411
3412   3413   3414   3415
3416   3417   3418   3419
3420   3421   3422   3423
3424   3425   3426   3427
3428   3429   3430   3431
3432   3433   3434   3435
3436   3437   3438   3439
3440   3441   3442   3443
3444   3445   3446   3447
3448   3449   3450   3451
3452   3453   3454   3455
3456   3457   3458   3459
3460   3461   3462   3463
3464   3465   3466   3467
3468   3469   3470   3471
3472   3473   3474   3475
3476   3477   3478   3479
3480   3481   3482   3483
3484   3485   3486   3487
3488   3489   3490   3491
3492   3493   3494   3495
3496   3497   3498   3499
3500   3501   3502   3503
3504   3505   3506   3507
3508   3509   3510   3511
3512   3513   3514   3515
3516   3517   3518   3519
3520   3521   3522   3523
3524   3525   3526   3527
3528   3529   3530   3531
3532   3533   3534   3535
3536   3537   3538   3539
3540   3541   3542   3543
3544   3545   3546   3547
3548   3549   3550   3551
3552   3553   3554   3555
3556   3557   3558   3559
3560   3561   3562   3563
3564   3565   3566   3567
3568   3569   3570   3571
3572   3573   3574   3575
3576   3577   3578   3579
3580   3581   3582   3583
3584   3585   3586   3587
3588   3589   3590   3591
3592   3593   3594   3595
3596   3597   3598   3599
3600   3601   3602   3603
3604   3605   3606   3607
3608   3609   3610   3611
3612   3613   3614   3615
3616   3617   3618   3619
3620   3621   3622   3623
3624   3625   3626   3627
3628   3629   3630   3631
3632   3633   3634   3635
3636   3637   3638   3639
3640   3641   3642   3643
3644   3645   3646   3647
3648   3649   3650   3651
3652   3653   3654   3655
3656   3657   3658   3659
3660   3661   3662   3663
3664   3665   3666   3667
3668   3669   3670   3671
3672   3673   3674   3675
3676   3677   3678   3679
3680   3681   3682   3683
3684   3685   3686   3687
3688   3689   3690   3691
3692   3693   3694   3695
3696   3697   3698   3699
3700   3701   3702   3703
3704   3705   3706   3707
3708   3709   3710   3711
3712   3713   3714   3715
3716   3717   3718   3719
3720   3721   3722   3723
3724   3725   3726   3727
3728   3729   3730   3731
3732   3733   3734   3735
3736   3737   3738   3739
3740   3741   3742   3743
3744   3745   3746   3747
3748   3749   3750   3751
3752   3753   3754   3755
3756   3757   3758   3759
3760   3761   3762   3763
3764   3765   3766   3767
3768   3769   3770   3771
3772   3773   3774   3775
3776   3777   3778   3779
3780   3781   3782   3783
3784   3785   3786   3787
3788   3789   3790   3791
3792   3793   3794   3795
3796   3797   3798   3799
3800   3801   3802   3803
3804   3805   3806   3807
3808   3809   3810   3811
3812   3813   3814   3815
3816   3817   3818   3819
3820   3821   3822   3823
3824   3825   3826   3827
3828   3829   3830   3831
3832   3833   3834   3835
3836   3837   3838   3839
3840   3841   3842   3843
3844   3845   3846   3847
3848   3849   3850   3851
3852   3853   3854   3855
3856   3857   3858   3859
3860   3861   3862   3863
3864   3865   3866   3867
3868   3869   3870   3871
3872   3873   3874   3875
3876   3877   3878   3879
3880   3881   3882   3883
3884   3885   3886   3887
3888   3889   3890   3891
3892   3893   3894   3895
3896   3897   3898   3899
3900   3901   3902   3903
3904   3905   3906   3907
3908   3909   3910   3911
3912   3913   3914   3915
3916   3917   3918   3919
3920   3921   3922   3923
3924   3925   3926   3927
3928   3929   3930   3931
3932   3933   3934   3935
3936   3937   3938   3939
3940   3941   3942   3943
3944   3945   3946   3947
3948   3949   3950   3951
3952   3953   3954   3955
3956   3957   3958   3959
3960   3961   3962   3963
3964   3965   3966   3967
3968   3969   3970   3971
3972   3973   3974   3975
3976   3977   3978   3979
3980   3981   3982   3983
3984   3985   3986   3987
3988   3989   3990   3991
3992   3993   3994   3995
3996   3997   3998   3999
4000   4001   4002   4003
4004   4005   4006   4007
4008   4009   4010   4011
4012   4013   4014   4015
4016   4017   4018   4019
4020   4021   4022   4023
4024   4025   4026   4027
4028   4029   4030   4031
4032   4033   4034   4035
4036   4037   4038   4039
4040   4041   4042   4043
4044   4045   4046   4047
4048   4049   4050   4051
4052   4053   4054   4055
4056   4057   4058   4059
4060   4061   4062   4063
4064   4065   4066   4067
4068   4069   4070   4071
4072   4073   4074   4075
4076   4077   4078   4079
4080   4081   4082   4083
4084   4085   4086   4087
4088   4089   4090   4091
4092   4093   4094   4095
4096   4097   4098   4099
4100   4101   4102   4103
4104   4105   4106   4107
4108   4109   4110   4111
4112   4113   4114   4115
4116   4117   4118   4119
4120   4121   4122   4123
4124   4125   4126   4127
4128   4129   4130   4131
4132   4133   4134   4135
4136   4137   4138   4139
4140   4141   4142   4143
4144   4145   4146   4147
4148   4149   4150   4151
4152   4153   4154   4155
4156   4157   4158   4159
4160   4161   4162   4163
4164   4165   4166   4167
4168   4169   4170   4171
4172   4173   4174   4175
4176   4177   4178   4179
4180   4181   4182   4183
4184   4185   4186   4187
4188   4189   4190   4191
4192   4193   4194   4195
4196   4197   4198   4199
4200   4201   4202   4203
4204   4205   4206   4207
4208   4209   4210   4211
4212   4213   4214   4215
4216   4217   4218   4219
4220   4221   4222   4223
4224   4225   4226   4227
4228   4229   4230   4231
4232   4233   4234   4235
4236   4237   4238   4239
4240   4241   4242   4243
4244   4245   4246   4247
4248   4249   4250   4251
4252   4253   4254   4255
4256   4257   4258   4259
4260   4261   4262   4263
4264   4265   4266   4267
4268   4269   4270   4271
4272   4273   4274   4275
4276   4277   4278   4279
4280   4281   4282   4283
4284   4285   4286   4287
4288   4289   4290   4291
4292   4293   4294   4295
4296   4297   4298   4299
4300   4301   4302   4303
4304   4305   4306   4307
4308   4309   4310   4311
4312   4313   4314   4315
4316   4317   4318   4319
4320   4321   4322   4323
4324   4325   4326   4327
4328   4329   4330   4331
4332   4333   4334   4335
4336   4337   4338   4339
4340   4341   4342   4343
4344   4345   4346   4347
4348   4349   4350   4351
4352   4353   4354   4355
4356   4357   4358   4359
4360   4361   4362   4363
4364   4365   4366   4367
4368   4369   4370   4371
4372   4373   4374   4375
4376   4377   4378   4379
4380   4381   4382   4383
4384   4385   4386   4387
4388   4389   4390   4391
4392   4393   4394   4395
4396   4397   4398   4399
4400   4401   4402   4403
4404   4405   4406   4407
4408   4409   4410   4411
4412   4413   4414   4415
4416   4417   4418   4419
4420   4421   4422   4423
4424   4425   4426   4427
4428   4429   4430   4431
4432   4433   4434   4435
4436   4437   4438   4439
4440   4441   4442   4443
4444   4445   4446   4447
4448   4449   4450   4451
4452   4453   4454   4455
4456   4457   4458   4459
4460   4461   4462   4463
4464   4465   4466   4467
4468   4469   4470   4471
4472   4473   4474   4475
4476   4477   4478   4479
4480   4481   4482   4483
4484   4485   4486   4487
4488   4489   4490   4491
4492   4493   4494   4495
4496   4497   4498   4499
4500   4501   4502   4503
4504   4505   4506   4507
4508   4509   4510   4511
4512   4513   4514   4515
4516   4517   4518   4519
4520   4521   4522   4523
4524   4525   4526   4527
4528   4529   4530   4531
4532   4533   4534   4535
4536   4537   4538   4539
4540   4541   4542   4543
4544   4545   4546   4547
4548   4549   4550   4551
4552   4553   4554   4555
4556   4557   4558   4559
4560   4561   4562   4563
4564   4565   4566   4567
4568   4569   4570   4571
4572   4573   4574   4575
4576   4577   4578   4579
4580   4581   4582   4583
4584   4585   4586   4587
4588   4589   4590   4591
4592   4593   4594   4595
4596   4597   4598   4599
4600   4601   4602   4603
4604   4605   4606   4607
4608   4609   4610   4611
4612   4613   4614   4615
4616   4617   4618   4619
4620   4621   4622   4623
4624   4625   4626   4627
4628   4629   4630   4631
4632   4633   4634   4635
4636   4637   4638   4639
4640   4641   4642   4643
4644   4645   4646   4647
4648   4649   4650   4651
4652   4653   4654   4655
4656   4657   4658   4659
4660   4661   4662   4663
4664   4665   4666   4667
4668   4669   4670   4671
4672   4673   4674   4675
4676   4677   4678   4679
4680   4681   4682   4683
4684   4685   4686   4687
4688   4689   4690   4691
4692   4693   4694   4695
4696   4697   4698   4699
4700   4701   4702   4703
4704   4705   4706   4707
4708   4709   4710   4711
4712   4713   4714   4715
4716   4717   4718   4719
4720   4721   4722   4723
4724   4725   4726   4727
4728   4729   4730   4731
4732   4733   4734   4735
4736   4737   4738   4739
4740   4741   4742   4743
4744   4745   4746   4747
4748   4749   4750   4751
4752   4753   4754   4755
4756   4757   4758   4759
4760   4761   4762   4763
4764   4765   4766   4767
4768   4769   4770   4771
4772   4773   4774   4775
4776   4777   4778   4779
4780   4781   4782   4783
4784   4785   4786   4787
4788   4789   4790   4791
4792   4793   4794   4795
4796   4797   4798   4799
4800   4801   4802   4803
4804   4805   4806   4807
4808   4809   4810   4811
4812   4813   4814   4815
4816   4817   4818   4819
4820   4821   4822   4823
4824   4825   4826   4827
4828   4829   4830   4831
4832   4833   4834   4835
4836   4837   4838   4839
4840   4841   4842   4843
4844   4845   4846   4847
4848   4849   4850   4851
4852   4853   4854   4855
4856   4857   4858   4859
4860   4861   4862   4863
4864   4865   4866   4867
4868   4869   4870   4871
4872   4873   4874   4875
4876   4877   4878   4879
4880   4881   4882   4883
4884   4885   4886   4887
4888   4889   4890   4891
4892   4893   4894   4895
4896   4897   4898   4899
4900   4901   4902   4903
4904   4905   4906   4907
4908   4909   4910   4911
4912   4913   4914   4915
4916   4917   4918   4919
4920   4921   4922   4923
4924   4925   4926   4927
4928   4929   4930   4931
4932   4933   4934   4935
4936   4937   4938   4939
4940   4941   4942   4943
4944   4945   4946   4947
4948   4949   4950   4951
4952   4953   4954   4955
4956   4957   4958   4959
4960   4961   4962   4963
4964   4965   4966   4967
4968   4969   4970   4971
4972   4973   4974   4975
4976   4977   4978   4979
4980   4981   4982   4983
4984   4985   4986   4987
4988   4989   4990   4991
4992   4993   4994   4995
4996   4997   4998   4999
5000   5001   5002   5003
5004   5005   5006   5007
5008   5009   5010   5011
5012   5013   5014   5015
5016   5017   5018   5019
5020   5021   5022   5023
5024   5025   5026   5027
5028   5029   5030   5031
5032   5033   5034   5035
5036   5037   5038   5039
5040   5041   5042   5043
5044   5045   5046   5047
5048   5049   5050   5051
5052   5053   5054   5055
5056   5057   5058   5059
5060   5061   5062   5063
5064   5065   5066   5067
5068   5069   5070   5071
5072   5073   5074   5075
5076   5077   5078   5079
5080   5081   5082   5083
5084   5085   5086   5087
5088   5089   5090   5091
5092   5093   5094   5095
5096   5097   5098   5099
5100   5101   5102   5103
5104   5105   5106   5107
5108   5109   5110   5111
5112   5113   5114   5115
5116   5117   5118   5119
5120   5121   5122   5123
5124   5125   5126   5127
5128   5129   5130   5131
5132   5133   5134   5135
5136   5137   5138   5139
5140   5141   5142   5143
5144   5145   5146   5147
5148   5149   5150   5151
5152   5153   5154   5155
5156   5157   5158   5159
5160   5161   5162   5163
5164   5165   5166   5167
5168   5169   5170   5171
5172   5173   5174   5175
5176   5177   5178   5179
5180   5181   5182   5183
5184   5185   5186   5187
5188   5189   5190   5191
5192   5193   5194   5195
5196   5197   5198   5199
5200   5201   5202   5203
5204   5205   5206   5207
5208   5209   5210   5211
5212   5213   5214   5215
5216   5217   5218   5219
5220   5221   5222   5223
5224   5225   5226   5227
5228   5229   5230   5231
5232   5233   5234   5235
5236   5237   5238   5239
5240   5241   5242   5243
5244   5245   5246   5247
5248   5249   5250   5251
5252   5253   5254   5255
5256   5257   5258   5259
5260   5261   5262   5263
5264   5265   5266   5267
5268   5269   5270   5271
5272   5273   5274   5275
5276   5277   5278   5279
5280   5281   5282   5283
5284   5285   5286   5287
5288   5289   5290   5291
5292   5293   5294   5295
5296   5297   5298   5299
5300   5301   5302   5303
5304   5305   5306   5307
5308   5309   5310   5311
5312   5313   5314   5315
5316   5317   5318   5319
5320   5321   5322   5323
5324   5325   5326   5327
5328   5329   5330   5331
5332   5333   5334   5335
5336   5337   5338   5339
5340   5341   5342   5343
5344   5345   5346   5347
5348   5349   5350   5351
5352   5353   5354   5355
5356   5357   5358   5359
5360   5361   5362   5363
5364   5365   5366   5367
5368   5369   5370   5371
5372   5373   5374   5375
5376   5377   5378   5379
5380   5381   5382   5383
5384   5385   5386   5387
5388   5389   5390   5391
5392   5393   5394   5395
5396   5397   5398   5399
5400   5401   5402   5403
5404   5405   5406   5407
5408   5409   5410   5411
5412   5413   5414   5415
5416   5417   5418   5419
5420   5421   5422   5423
5424   5425   5426   5427
5428   5429   5430   5431
5432   5433   5434   5435
5436   5437   5438   5439
5440   5441   5442   5443
5444   5445   5446   5447
5448   5449   5450   5451
5452   5453   5454   5455
5456   5457   5458   5459
5460   5461   5462   5463
5464   5465   5466   5467
5468   5469   5470   5471
5472   5473   5474   5475
5476   5477   5478   5479
5480   5481   5482   5483
5484   5485   5486   5487
5488   5489   5490   5491
5492   5493   5494   5495
5496   5497   5498   5499
5500   5501   5502   5503
5504   5505   5506   5507
5508   5509   5510   5511
5512   5513   5514   5515
5516   5517   5518   5519
5520   5521   5522   5523
5524   5525   5526   5527
5528   5529   5530   5531
5532   5533   5534   5535
5536   5537   5538   5539
5540   5541   5542   5543
5544   5545   5546   5547
5548   5549   5550   5551
5552   5553   5554   5555
5556   5557   5558   5559
5560   5561   5562   5563
5564   5565   5566   5567
5568   5569   5570   5571
5572   5573   5574   5575
5576   5577   5578   5579
5580   5581   5582   5583
5584   5585   5586   5587
5588   5589   5590   5591
5592   5593   5594   5595
5596   5597   5598   5599
5600   5601   5602   5603
5604   5605   5606   5607
5608   5609   5610   5611
5612   5613   5614   5615
5616   5617   5618   5619
5620   5621   5622   5623
5624   5625   5626   5627
5628   5629   5630   5631
5632   5633   5634   5635
5636   5637   5638   5639
5640   5641   5642   5643
5644   5645   5646   5647
5648   5649   5650   5651
5652   5653   5654   5655
5656   5657   5658   5659
5660   5661   5662   5663
5664   5665   5666   5667
5668   5669   5670   5671
5672   5673   5674   5675
5676   5677   5678   5679
5680   5681   5682   5683
5684   5685   5686   5687
5688   5689   5690   5691
5692   5693   5694   5695
5696   5697   5698   5699
5700   5701   5702   5703
5704   5705   5706   5707
5708   5709   5710   5711
5712   5713   5714   5715
5716   5717   5718   5719
5720   5721   5722   5723
5724   5725   5726   5727
5728   5729   5730   5731
5732   5733   5734   5735
5736   5737   5738   5739
5740   5741   5742   5743
5744   5745   5746   5747
5748   5749   5750   5751
5752   5753   5754   5755
5756   5757   5758   5759
5760   5761   5762   5763
5764   5765   5766   5767
5768   5769   5770   5771
5772   5773   5774   5775
5776   5777   5778   5779
5780   5781   5782   5783
5784   5785   5786   5787
5788   5789   5790   5791
5792   5793   5794   5795
5796   5797   5798   5799
5800   5801   5802   5803
5804   5805   5806   5807
5808   5809   5810   5811
5812   5813   5814   5815
5816   5817   5818   5819
5820   5821   5822   5823
5824   5825   5826   5827
5828   5829   5830   5831
5832   5833   5834   5835
5836   5837   5838   5839
5840   5841   5842   5843
5844   5845   5846   5847
5848   5849   5850   5851
5852   5853   5854   5855
5856   5857   5858   5859
5860   5861   5862   5863
5864   5865   5866   5867
5868   5869   5870   5871
5872   5873   5874   5875
5876   5877   5878   5879
5880   5881   5882   5883
5884   5885   5886   5887
5888   5889   5890   5891
5892   5893   5894   5895
5896   5897   5898   5899
5900   5901   5902   5903
5904   5905   5906   5907
5908   5909   5910   5911
5912   5913   5914   5915
5916   5917   5918   5919
5920   5921   5922   5923
5924   5925   5926   5927
5928   5929   5930   5931
5932   5933   5934   5935
5936   5937   5938   5939
5940   5941   5942   5943
5944   5945   5946   5947
5948   5949   5950   5951
5952   5953   5954   5955
5956   5957   5958   5959
5960   5961   5962   5963
5964   5965   5966   5967
5968   5969   5970   5971
5972   5973   5974   5975
5976   5977   5978   5979
5980   5981   5982   5983
5984   5985   5986   5987
5988   5989   5990   5991
5992   5993   5994   5995
5996   5997   5998   5999
              </DataArray>   
              <DataArray type="Int32" Name="offsets" format="ascii">   
4
8
12
16
20
24
28
32
36
40
44
48
52
56
60
64
68
72
76
80
84
88
92
96
100
104
108
112
116
120
124
128
132
136
140
144
148
152
156
160
164
168
172
176
180
184
188
192
196
200
204
208
212
216
220
224
228
232
236
240
244
248
252
256
260
264
268
272
276
280
284
288
292
296
300
304
308
312
316
320
324
328
332
336
340
344
348
352
356
360
364
368
372
376
380
384
388
392
396
400
404
408
412
416
420
424
428
432
436
440
444
448
452
456
460
464
468
472
476
480
484
488
492
496
500
504
508
512
516
520
524
528
532
536
540
544
548
552
556
560
564
568
572
576
580
584
588
592
596
600
604
608
612
616
620
624
628
632
636
640
644
648
652
656
660
664
668
672
676
680
684
688
692
696
700
704
708
712
716
720
724
728
732
736
740
744
748
752
756
760
764
768
772
776
780
784
788
792
796
800
804
808
812
816
820
824
828
832
836
840
844
848
852
856
860
864
868
872
876
880
884
888
892
896
900
904
908
912
916
920
924
928
932
936
940
944
948
952
956
960
964
968
972
976
980
984
988
992
996
1000
1004
1008
1012
1016
1020
1024
1028
1032
1036
1040
1044
1048
1052
1056
1060
1064
1068
1072
1076
1080
1084
1088
1092
1096
1100
1104
1108
1112
1116
1120
1124
1128
1132
1136
1140
1144
1148
1152
1156
1160
1164
1168
1172
1176
1180
1184
1188
1192
1196
1200
1204
1208
1212
1216
1220
1224
1228
1232
1236
1240
1244
1248
1252
1256
1260
1264
1268
1272
1276
1280
1284
1288
1292
1296
1300
1304
1308
1312
1316
1320
1324
1328
1332
1336
1340
1344
1348
1352
1356
1360
1364
1368
1372
1376
1380
1384
1388
1392
1396
1400
1404
1408
1412
1416
1420
1424
1428
1432
1436
1440
1444
1448
1452
1456
1460
1464
1468
1472
1476
1480
1484
1488
1492
1496
1500
1504
1508
1512
1516
1520
1524
1528
1532
1536
1540
1544
1548
1552
1556
1560
1564
1568
1572
1576
1580
1584
1588
1592
1596
1600
1604
1608
1612
1616
1620
1624
1628
1632
1636
1640
1644
1648
1652
1656
1660
1664
1668
1672
1676
1680
1684
1688
1692
1696
1700
1704
1708
1712
1716
1720
1724
1728
1732
1736
1740
1744
1748
1752
1756
1760
1764
1768
1772
1776
1780
1784
1788
1792
1796
1800
1804
1808
1812
1816
1820
1824
1828
1832
1836
1840
1844
1848
1852
1856
1860
1864
1868
1872
1876
1880
1884
1888
1892
1896
1900
1904
1908
1912
1916
1920
1924
1928
1932
1936
1940
1944
1948
1952
1956
1960
1964
1968
1972
1976
1980
1984
1988
1992
1996
2000
2004
2008
2012
2016
2020
2024
2028
2032
2036
2040
2044
2048
2052
2056
2060
2064
2068
2072
2076
2080
2084
2088
2092
2096
2100
2104
2108
2112
2116
2120
2124
2128
2132
2136
2140
2144
2148
2152
2156
2160
2164
2168
2172
2176
2180
2184
2188
2192
2196
2200
2204
2208
2212
2216
2220
2224
2228
2232
2236
2240
2244
2248
2252
2256
2260
2264
2268
2272
2276
2280
2284
2288
2292
2296
2300
2304
2308
2312
2316
2320
2324
2328
2332
2336
2340
2344
2348
2352
2356
2360
2364
2368
2372
2376
2380
2384
2388
2392
2396
2400
2404
2408
2412
2416
2420
2424
2428
2432
2436
2440
2444
2448
2452
2456
2460
2464
2468
2472
2476
2480
2484
2488
2492
2496
2500
2504
2508
2512
2516
2520
2524
2528
2532
2536
2540
2544
2548
2552
2556
2560
2564
2568
2572
2576
2580
2584
2588
2592
2596
2600
2604
2608
2612
2616
2620
2624
2628
2632
2636
2640
2644
2648
2652
2656
2660
2664
2668
2672
2676
2680
2684
2688
2692
2696
2700
2704
2708
2712
2716
2720
2724
2728
2732
2736
2740
2744
2748
2752
2756
2760
2764
2768
2772
2776
2780
2784
2788
2792
2796
2800
2804
2808
2812
2816
2820
2824
2828
2832
2836
2840
2844
2848
2852
2856
2860
2864
2868
2872
2876
2880
2884
2888
2892
2896
2900
2904
2908
2912
2916
2920
2924
2928
2932
2936
2940
2944
2948
2952
2956
2960
2964
2968
2972
2976
2980
2984
2988
2992
2996
3000
3004
3008
3012
3016
3020
3024
3028
3032
3036
3040
3044
3048
3052
3056
3060
3064
3068
3072
3076
3080
3084
3088
3092
3096
3100
3104
3108
3112
3116
3120
3124
3128
3132
3136
3140
3144
3148
3152
3156
3160
3164
3168
3172
3176
3180
3184
3188
3192
3196
3200
3204
3208
3212
3216
3220
3224
3228
3232
3236
3240
3244
3248
3252
3256
3260
3264
3268
3272
3276
3280
3284
3288
3292
3296
3300
3304
3308
3312
3316
3320
3324
3328
3332
3336
3340
3344
3348
3352
3356
3360
3364
3368
3372
3376
3380
3384
3388
3392
3396
3400
3404
3408
3412
3416
3420
3424
3428
3432
3436
3440
3444
3448
3452
3456
3460
3464
3468
3472
3476
3480
3484
3488
3492
3496
3500
3504
3508
3512
3516
3520
3524
3528
3532
3536
3540
3544
3548
3552
3556
3560
3564
3568
3572
3576
3580
3584
3588
3592
3596
3600
3604
3608
3612
3616
3620
3624
3628
3632
3636
3640
3644
3648
3652
3656
3660
3664
3668
3672
3676
3680
3684
3688
3692
3696
3700
3704
3708
3712
3716
3720
3724
3728
3732
3736
3740
3744
3748
3752
3756
3760
3764
3768
3772
3776
3780
3784
3788
3792
3796
3800
3804
3808
3812
3816
3820
3824
3828
3832
3836
3840
3844
3848
3852
3856
3860
3864
3868
3872
3876
3880
3884
3888
3892
3896
3900
3904
3908
3912
3916
3920
3924
3928
3932
3936
3940
3944
3948
3952
3956
3960
3964
3968
3972
3976
3980
3984
3988
3992
3996
4000
4004
4008
4012
4016
4020
4024
4028
4032
4036
4040
4044
4048
4052
4056
4060
4064
4068
4072
4076
4080
4084
4088
4092
4096
4100
4104
4108
4112
4116
4120
4124
4128
4132
4136
4140
4144
4148
4152
4156
4160
4164
4168
4172
4176
4180
4184
4188
4192
4196
4200
4204
4208
4212
4216
4220
4224
4228
4232
4236
4240
4244
4248
4252
4256
4260
4264
4268
4272
4276
4280
4284
4288
4292
4296
4300
4304
4308
4312
4316
4320
4324
4328
4332
4336
4340
4344
4348
4352
4356
4360
4364
4368
4372
4376
4380
4384
4388
4392
4396
4400
4404
4408
4412
4416
4420
4424
4428
4432
4436
4440
4444
4448
4452
4456
4460
4464
4468
4472
4476
4480
4484
4488
4492
4496
4500
4504
4508
4512
4516
4520
4524
4528
4532
4536
4540
4544
4548
4552
4556
4560
4564
4568
4572
4576
4580
4584
4588
4592
4596
4600
4604
4608
4612
4616
4620
4624
4628
4632
4636
4640
4644
4648
4652
4656
4660
4664
4668
4672
4676
4680
4684
4688
4692
4696
4700
4704
4708
4712
4716
4720
4724
4728
4732
4736
4740
4744
4748
4752
4756
4760
4764
4768
4772
4776
4780
4784
4788
4792
4796
4800
4804
4808
4812
4816
4820
4824
4828
4832
4836
4840
4844
4848
4852
4856
4860
4864
4868
4872
4876
4880
4884
4888
4892
4896
4900
4904
4908
4912
4916
4920
4924
4928
4932
4936
4940
4944
4948
4952
4956
4960
4964
4968
4972
4976
4980
4984
4988
4992
4996
5000
5004
5008
5012
5016
5020
5024
5028
5032
5036
5040
5044
5048
5052
5056
5060
5064
5068
5072
5076
5080
5084
5088
5092
5096
5100
5104
5108
5112
5116
5120
5124
5128
5132
5136
5140
5144
5148
5152
5156
5160
5164
5168
5172
5176
5180
5184
5188
5192
5196
5200
5204
5208
5212
5216
5220
5224
5228
5232
5236
5240
5244
5248
5252
5256
5260
5264
5268
5272
5276
5280
5284
5288
5292
5296
5300
5304
5308
5312
5316
5320
5324
5328
5332
5336
5340
5344
5348
5352
5356
5360
5364
5368
5372
5376
5380
5384
5388
5392
5396
5400
5404
5408
5412
5416
5420
5424
5428
5432
5436
5440
5444
5448
5452
5456
5460
5464
5468
5472
5476
5480
5484
5488
5492
5496
5500
5504
5508
5512
5516
5520
5524
5528
5532
5536
5540
5544
5548
5552
5556
5560
5564
5568
5572
5576
5580
5584
5588
5592
5596
5600
5604
5608
5612
5616
5620
5624
5628
5632
5636
5640
5644
5648
5652
5656
5660
5664
5668
5672
5676
5680
5684
5688
5692
5696
5700
5704
5708
5712
5716
5720
5724
5728
5732
5736
5740
5744
5748
5752
5756
5760
5764
5768
5772
5776
5780
5784
5788
5792
5796
5800
5804
5808
5812
5816
5820
5824
5828
5832
5836
5840
5844
5848
5852
5856
5860
5864
5868
5872
5876
5880
5884
5888
5892
5896
5900
5904
5908
5912
5916
5920
5924
5928
5932
5936
5940
5944
5948
5952
5956
5960
5964
5968
5972
5976
5980
5984
5988
5992
5996
6000
              </DataArray>   
              <DataArray type="UInt8" Name="types" format="ascii">   
10
10
10
10
10
10
10
10
10
10
10
10
10
10
10
10
10
10
10
10
10
10
10
10
10
10
10
10
10
10
10
10
10
10
10
10
10
10
10
10
10
10
10
10
10
10
10
10
10
10
10
10
10
10
10
10
10
10
10
10
10
10
10
10
10
10
10
10
10
10
10
10
10
10
10
10
10
10
10
10
10
10
10
10
10
10
10
10
10
10
10
10
10
10
10
10
10
10
10
10
10
10
10
10
10
10
10
10
10
10
10
10
10
10
10
10
10
10
10
10
10
10
10
10
10
10
10
10
10
10
10
10
10
10
10
10
10
10
10
10
10
10
10
10
10
10
10
10
10
10
10
10
10
10
10
10
10
10
10
10
10
10
10
10
10
10
10
10
10
10
10
10
10
10
10
10
10
10
10
10
10
10
10
10
10
10
10
10
10
10
10
10
10
10
10
10
10
10
10
10
10
10
10
10
10
10
10
10
10
10
10
10
10
10
10
10
10
10
10
10
10
10
10
10
10
10
10
10
10
10
10
10
10
10
10
10
10
10
10
10
10
10
10
10
10
10
10
10
10
10
10
10
10
10
10
10
10
10
10
10
10
10
10
10
10
10
10
10
10
10
10
10
10
10
10
10
10
10
10
10
10
10
10
10
10
10
10
10
10
10
10
10
10
10
10
10
10
10
10
10
10
10
10
10
10
10
10
10
10
10
10
10
10
10
10
10
10
10
10
10
10
10
10
10
10
10
10
10
10
10
10
10
10
10
10
10
10
10
10
10
10
10
10
10
10
10
10
10
10
10
10
10
10
10
10
10
10
10
10
10
10
10
10
10
10
10
10
10
10
10
10
10
10
10
10
10
10
10
10
10
10
10
10
10
10
10
10
10
10
10
10
10
10
10
10
10
10
10
10
10
10
10
10
10
10
10
10
10
10
10
10
10
10
10
10
10
10
10
10
10
10
10
10
10
10
10
10
10
10
10
10
10
10
10
10
10
10
10
10
10
10
10
10
10
10
10
10
10
10
10
10
10
10
10
10
10
10
10
10
10
10
10
10
10
10
10
10
10
10
10
10
10
10
10
10
10
10
10
10
10
10
10
10
10
10
10
10
10
10
10
10
10
10
10
10
10
10
10
10
10
10
10
10
10
10
10
10
10
10
10
10
10
10
10
10
10
10
10
10
10
10
10
10
10
10
10
10
10
10
10
10
10
10
10
10
10
10
10
10
10
10
10
10
10
10
10
10
10
10
10
10
10
10
10
10
10
10
10
10
10
10
10
10
10
10
10
10
10
10
10
10
10
10
10
10
10
10
10
10
10
10
10
10
10
10
10
10
10
10
10
10
10
10
10
10
10
10
10
10
10
10
10
10
10
10
10
10
10
10
10
10
10
10
10
10
10
10
10
10
10
10
10
10
10
10
10
10
10
10
10
10
10
10
10
10
10
10
10
10
10
10
10
10
10
10
10
10
10
10
10
10
10
10
10
10
10
10
10
10
10
10
10
10
10
10
10
10
10
10
10
10
10
10
10
10
10
10
10
10
10
10
10
10
10
10
10
10
10
10
10
10
10
10
10
10
10
10
10
10
10
10
10
10
10
10
10
10
10
10
10
10
10
10
10
10
10
10
10
10
10
10
10
10
10
10
10
10
10
10
10
10
10
10
10
10
10
10
10
10
10
10
10
10
10
10
10
10
10
10
10
10
10
10
10
10
10
10
10
10
10
10
10
10
10
10
10
10
10
10
10
10
10
10
10
10
10
10
10
10
10
10
10
10
10
10
10
10
10
10
10
10
10
10
10
10
10
10
10
10
10
10
10
10
10
10
10
10
10
10
10
10
10
10
10
10
10
10
10
10
10
10
10
10
10
10
10
10
10
10
10
10
10
10
10
10
10
10
10
10
10
10
10
10
10
10
10
10
10
10
10
10
10
10
10
10
10
10
10
10
10
10
10
10
10
10
10
10
10
10
10
10
10
10
10
10
10
10
10
10
10
10
10
10
10
10
10
10
10
10
10
10
10
10
10
10
10
10
10
10
10
10
10
10
10
10
10
10
10
10
10
10
10
10
10
10
10
10
10
10
10
10
10
10
10
10
10
10
10
10
10
10
10
10
10
10
10
10
10
10
10
10
10
10
10
10
10
10
10
10
10
10
10
10
10
10
10
10
10
10
10
10
10
10
10
10
10
10
10
10
10
10
10
10
10
10
10
10
10
10
10
10
10
10
10
10
10
10
10
10
10
10
10
10
10
10
10
10
10
10
10
10
10
10
10
10
10
10
10
10
10
10
10
10
10
10
10
10
10
10
10
10
10
10
10
10
10
10
10
10
10
10
10
10
10
10
10
10
10
10
10
10
10
10
10
10
10
10
10
10
10
10
10
10
10
10
10
10
10
10
10
10
10
10
10
10
10
10
10
10
10
10
10
10
10
10
10
10
10
10
10
10
10
10
10
10
10
10
10
10
10
10
10
10
10
10
10
10
10
10
10
10
10
10
10
10
10
10
10
10
10
10
10
10
10
10
10
10
10
10
10
10
10
10
10
10
10
10
10
10
10
10
10
10
10
10
10
10
10
10
10
10
10
10
10
10
10
10
10
10
10
10
10
10
10
10
10
10
10
10
10
10
10
10
10
10
10
10
10
10
10
10
10
10
10
10
10
10
10
10
10
10
10
10
10
10
10
10
10
10
10
10
10
10
10
10
10
10
10
10
10
10
10
10
10
10
10
10
10
10
10
10
10
10
10
10
10
10
10
10
10
10
10
10
10
10
10
10
10
10
10
10
10
10
10
10
10
10
10
10
10
10
10
10
10
10
10
10
10
10
10
10
10
10
10
10
10
10
10
10
10
10
10
10
10
10
10
10
10
10
10
10
10
10
10
10
10
10
10
10
10
10
10
10
10
10
10
10
10
10
10
10
10
10
10
10
10
10
10
10
10
10
10
10
10
10
10
10
10
10
10
10
10
10
10
10
10
10
10
10
10
10
10
10
10
10
10
10
10
10
10
10
10
10
10
10
10
10
10
10
10
10
10
10
10
10
10
10
10
10
10
10
10
10
10
10
10
10
10
10
10
10
10
10
10
10
10
10
10
10
10
10
10
10
10
10
10
10
10
10
10
10
10
10
10
10
10
10
10
10
10
10
10
10
10
10
10
10
10
10
10
10
10
10
10
10
10
10
10
10
10
10
10
10
10
10
10
10
10
10
10
10
10
10
10
10
10
10
10
10
10
10
10
10
10
10
10
10
10
10
10
10
10
10
10
10
10
10
10
10
10
10
10
10
10
10
10
10
10
10
10
10
10
10
10
10
10
10
10
10
10
10
10
10
10
10
10
10
10
10
10
10
10
10
10
10
10
10
10
10
10
10
10
10
10
10
10
10
10
10
10
              </DataArray>   
          </Cells>  
          <PointData>  
             <DataArray type="Float64" NumberOfComponents="3" Name="Strains" format="ascii">   
-7.559751794597473e-05   0.0   -4.9667250200052277e-05
-7.559751794597473e-05   0.0   -4.9667250200052277e-05
-7.559751794597473e-05   0.0   -4.9667250200052277e-05
-7.559751794597473e-05   0.0   -4.9667250200052277e-05
-4.809897554787255e-05   8.367793695234884e-06   1.1843300139255099e-06
-4.809897554787255e-05   8.367793695234884e-06   1.1843300139255099e-06
-4.809897554787255e-05   8.367793695234884e-06   1.1843300139255099e-06
-4.809897554787255e-05   8.367793695234884e-06   1.1843300139255099e-06
-4.714428092673307e-05   0.0   -4.688299571181108e-05
-4.714428092673307e-05   0.0   -4.688299571181108e-05
-4.714428092673307e-05   0.0   -4.688299571181108e-05
-4.714428092673307e-05   0.0   -4.688299571181108e-05
-7.911211086391973e-05   1.0045100136217938e-05   3.696607684361246e-07
-7.911211086391973e-05   1.0045100136217938e-05   3.696607684361246e-07
-7.911211086391973e-05   1.0045100136217938e-05   3.696607684361246e-07
-7.911211086391973e-05   1.0045100136217938e-05   3.696607684361246e-07
-6.13708994363538e-05   2.32021207353433e-06   -2.4564092106563578e-05
-6.13708994363538e-05   2.32021207353433e-06   -2.4564092106563578e-05
-6.13708994363538e-05   2.32021207353433e-06   -2.4564092106563578e-05
-6.13708994363538e-05   2.32021207353433e-06   -2.4564092106563578e-05
-7.911211086391986e-05   0.0   -5.291005579354185e-05
-7.911211086391986e-05   0.0   -5.291005579354185e-05
-7.911211086391986e-05   0.0   -5.291005579354185e-05
-7.911211086391986e-05   0.0   -5.291005579354185e-05
-4.714428092673307e-05   1.0045100136217951e-05   6.396720850166882e-06
-4.714428092673307e-05   1.0045100136217951e-05   6.396720850166882e-06
-4.714428092673307e-05   1.0045100136217951e-05   6.396720850166882e-06
-4.714428092673307e-05   1.0045100136217951e-05   6.396720850166882e-06
-4.7273502812163744e-05   0.0   -4.802952184766026e-05
-4.7273502812163744e-05   0.0   -4.802952184766026e-05
-4.7273502812163744e-05   0.0   -4.802952184766026e-05
-4.7273502812163744e-05   0.0   -4.802952184766026e-05
-8.157866113598408e-05   1.076271513860994e-05   2.6881129422078444e-06
-8.157866113598408e-05   1.076271513860994e-05   2.6881129422078444e-06
-8.157866113598408e-05   1.076271513860994e-05   2.6881129422078444e-06
-8.157866113598408e-05   1.076271513860994e-05   2.6881129422078444e-06
-6.319280683804169e-05   4.067111621567993e-06   -2.3937615444137572e-05
-6.319280683804169e-05   4.067111621567993e-06   -2.3937615444137572e-05
-6.319280683804169e-05   4.067111621567993e-06   -2.3937615444137572e-05
-6.319280683804169e-05   4.067111621567993e-06   -2.3937615444137572e-05
-8.157866113598421e-05   0.0   -5.4487150930826236e-05
-8.157866113598421e-05   0.0   -5.4487150930826236e-05
-8.157866113598421e-05   0.0   -5.4487150930826236e-05
-8.157866113598421e-05   0.0   -5.4487150930826236e-05
-4.7273502812163744e-05   1.0762715138609954e-05   9.145742025373866e-06
-4.7273502812163744e-05   1.0762715138609954e-05   9.145742025373866e-06
-4.7273502812163744e-05   1.0762715138609954e-05   9.145742025373866e-06
-4.7273502812163744e-05   1.0762715138609954e-05   9.145742025373866e-06
-4.724444631024908e-05   0.0   -4.8324722044892836e-05
-4.724444631024908e-05   0.0   -4.8324722044892836e-05
-4.724444631024908e-05   0.0   -4.8324722044892836e-05
-4.724444631024908e-05   0.0   -4.8324722044892836e-05
-8.689599485992557e-05   1.2263762306800042e-05   1.0402934820488176e-05
-8.689599485992557e-05   1.2263762306800042e-05   1.0402934820488176e-05
-8.689599485992557e-05   1.2263762306800042e-05   1.0402934820488176e-05
-8.689599485992557e-05   1.2263762306800042e-05   1.0402934820488176e-05
-6.441155372311654e-05   5.135357404944498e-06   -2.2794090799746877e-05
-6.441155372311654e-05   5.135357404944498e-06   -2.2794090799746877e-05
-6.441155372311654e-05   5.135357404944498e-06   -2.2794090799746877e-05
-6.441155372311654e-05   5.135357404944498e-06   -2.2794090799746877e-05
-4.809897554787263e-05   0.0   -4.464657398291134e-05
-4.809897554787263e-05   0.0   -4.464657398291134e-05
-4.809897554787263e-05   0.0   -4.464657398291134e-05
-4.809897554787263e-05   0.0   -4.464657398291134e-05
-2.1908850886841327e-05   3.0676345000518133e-06   8.442144855052241e-07
-2.1908850886841327e-05   3.0676345000518133e-06   8.442144855052241e-07
-2.1908850886841327e-05   3.0676345000518133e-06   8.442144855052241e-07
-2.1908850886841327e-05   3.0676345000518133e-06   8.442144855052241e-07
-2.106798418718988e-05   0.0   -4.426120294235412e-05
-2.106798418718988e-05   0.0   -4.426120294235412e-05
-2.106798418718988e-05   0.0   -4.426120294235412e-05
-2.106798418718988e-05   0.0   -4.426120294235412e-05
-4.714428092673307e-05   4.369654615761606e-06   -3.4225011459057748e-06
-4.714428092673307e-05   4.369654615761606e-06   -3.4225011459057748e-06
-4.714428092673307e-05   4.369654615761606e-06   -3.4225011459057748e-06
-4.714428092673307e-05   4.369654615761606e-06   -3.4225011459057748e-06
-3.45834798675312e-05   3.2114253379769095e-07   -2.192806232873038e-05
-3.45834798675312e-05   3.2114253379769095e-07   -2.192806232873038e-05
-3.45834798675312e-05   3.2114253379769095e-07   -2.192806232873038e-05
-3.45834798675312e-05   3.2114253379769095e-07   -2.192806232873038e-05
-4.714428092673303e-05   0.0   -4.688299571181104e-05
-4.714428092673303e-05   0.0   -4.688299571181104e-05
-4.714428092673303e-05   0.0   -4.688299571181104e-05
-4.714428092673303e-05   0.0   -4.688299571181104e-05
-2.106798418718988e-05   4.369654615761606e-06   -8.007083764488069e-07
-2.106798418718988e-05   4.369654615761606e-06   -8.007083764488069e-07
-2.106798418718988e-05   4.369654615761606e-06   -8.007083764488069e-07
-2.106798418718988e-05   4.369654615761606e-06   -8.007083764488069e-07
-2.0594201467593157e-05   0.0   -4.481602839126881e-05
-2.0594201467593157e-05   0.0   -4.481602839126881e-05
-2.0594201467593157e-05   0.0   -4.481602839126881e-05
-2.0594201467593157e-05   0.0   -4.481602839126881e-05
-4.7273502812163744e-05   5.3558224273190965e-06   -3.5640196067092904e-06
-4.7273502812163744e-05   5.3558224273190965e-06   -3.5640196067092904e-06
-4.7273502812163744e-05   5.3558224273190965e-06   -3.5640196067092904e-06
-4.7273502812163744e-05   5.3558224273190965e-06   -3.5640196067092904e-06
-3.386924119716304e-05   1.7224727671185592e-06   -2.372444583558994e-05
-3.386924119716304e-05   1.7224727671185592e-06   -2.372444583558994e-05
-3.386924119716304e-05   1.7224727671185592e-06   -2.372444583558994e-05
-3.386924119716304e-05   1.7224727671185592e-06   -2.372444583558994e-05
-4.7273502812163744e-05   0.0   -4.802952184766026e-05
-4.7273502812163744e-05   0.0   -4.802952184766026e-05
-4.7273502812163744e-05   0.0   -4.802952184766026e-05
-4.7273502812163744e-05   0.0   -4.802952184766026e-05
-2.0594201467593157e-05   5.3558224273190965e-06   -3.505261503178352e-07
-2.0594201467593157e-05   5.3558224273190965e-06   -3.505261503178352e-07
-2.0594201467593157e-05   5.3558224273190965e-06   -3.505261503178352e-07
-2.0594201467593157e-05   5.3558224273190965e-06   -3.505261503178352e-07
-2.0162168465862413e-05   0.0   -4.4584916035513365e-05
-2.0162168465862413e-05   0.0   -4.4584916035513365e-05
-2.0162168465862413e-05   0.0   -4.4584916035513365e-05
-2.0162168465862413e-05   0.0   -4.4584916035513365e-05
-4.7244446310248955e-05   6.233010015632373e-06   -3.187592304248381e-06
-4.7244446310248955e-05   6.233010015632373e-06   -3.187592304248381e-06
-4.7244446310248955e-05   6.233010015632373e-06   -3.187592304248381e-06
-4.7244446310248955e-05   6.233010015632373e-06   -3.187592304248381e-06
-3.371783563901307e-05   2.8705048434557137e-06   -2.371444031966904e-05
-3.371783563901307e-05   2.8705048434557137e-06   -2.371444031966904e-05
-3.371783563901307e-05   2.8705048434557137e-06   -2.371444031966904e-05
-3.371783563901307e-05   2.8705048434557137e-06   -2.371444031966904e-05
-2.1908850886841364e-05   0.0   -4.280599328288026e-05
-2.1908850886841364e-05   0.0   -4.280599328288026e-05
-2.1908850886841364e-05   0.0   -4.280599328288026e-05
-2.1908850886841364e-05   0.0   -4.280599328288026e-05
2.8327063272853215e-06   -3.9402000814892926e-07   -1.8064765975584311e-06
2.8327063272853215e-06   -3.9402000814892926e-07   -1.8064765975584311e-06
2.8327063272853215e-06   -3.9402000814892926e-07   -1.8064765975584311e-06
2.8327063272853215e-06   -3.9402000814892926e-07   -1.8064765975584311e-06
3.3711607618815088e-06   0.0   -4.3796130219142014e-05
3.3711607618815088e-06   0.0   -4.3796130219142014e-05
3.3711607618815088e-06   0.0   -4.3796130219142014e-05
3.3711607618815088e-06   0.0   -4.3796130219142014e-05
-2.106798418718984e-05   7.751212053532544e-07   -3.5292946939017813e-06
-2.106798418718984e-05   7.751212053532544e-07   -3.5292946939017813e-06
-2.106798418718984e-05   7.751212053532544e-07   -3.5292946939017813e-06
-2.106798418718984e-05   7.751212053532544e-07   -3.5292946939017813e-06
-9.268845062479891e-06   -8.251141135515885e-07   -2.2234385377075382e-05
-9.268845062479891e-06   -8.251141135515885e-07   -2.2234385377075382e-05
-9.268845062479891e-06   -8.251141135515885e-07   -2.2234385377075382e-05
-9.268845062479891e-06   -8.251141135515885e-07   -2.2234385377075382e-05
-2.106798418718988e-05   0.0   -4.426120294235412e-05
-2.106798418718988e-05   0.0   -4.426120294235412e-05
-2.106798418718988e-05   0.0   -4.426120294235412e-05
-2.106798418718988e-05   0.0   -4.426120294235412e-05
3.3711607618815147e-06   7.751212053532544e-07   -3.064221970689827e-06
3.3711607618815147e-06   7.751212053532544e-07   -3.064221970689827e-06
3.3711607618815147e-06   7.751212053532544e-07   -3.064221970689827e-06
3.3711607618815147e-06   7.751212053532544e-07   -3.064221970689827e-06
3.7966365835906763e-06   0.0   -4.373318655434556e-05
3.7966365835906763e-06   0.0   -4.373318655434556e-05
3.7966365835906763e-06   0.0   -4.373318655434556e-05
3.7966365835906763e-06   0.0   -4.373318655434556e-05
-2.0594201467593086e-05   1.8047363948719454e-06   -4.164631639295734e-06
-2.0594201467593086e-05   1.8047363948719454e-06   -4.164631639295734e-06
-2.0594201467593086e-05   1.8047363948719454e-06   -4.164631639295734e-06
-2.0594201467593086e-05   1.8047363948719454e-06   -4.164631639295734e-06
-8.635673801799582e-06   4.4001365667372874e-07   -2.3276677439366023e-05
-8.635673801799582e-06   4.4001365667372874e-07   -2.3276677439366023e-05
-8.635673801799582e-06   4.4001365667372874e-07   -2.3276677439366023e-05
-8.635673801799582e-06   4.4001365667372874e-07   -2.3276677439366023e-05
-2.0594201467593157e-05   0.0   -4.481602839126881e-05
-2.0594201467593157e-05   0.0   -4.481602839126881e-05
-2.0594201467593157e-05   0.0   -4.481602839126881e-05
-2.0594201467593157e-05   0.0   -4.481602839126881e-05
3.796636583590683e-06   1.8047363948719454e-06   -3.08178980237258e-06
3.796636583590683e-06   1.8047363948719454e-06   -3.08178980237258e-06
3.796636583590683e-06   1.8047363948719454e-06   -3.08178980237258e-06
3.796636583590683e-06   1.8047363948719454e-06   -3.08178980237258e-06
4.367877033093362e-06   0.0   -4.278667330203626e-05
4.367877033093362e-06   0.0   -4.278667330203626e-05
4.367877033093362e-06   0.0   -4.278667330203626e-05
4.367877033093362e-06   0.0   -4.278667330203626e-05
-2.0162168465862362e-05   2.9970712224617783e-06   -3.7015068705870648e-06
-2.0162168465862362e-05   2.9970712224617783e-06   -3.7015068705870648e-06
-2.0162168465862362e-05   2.9970712224617783e-06   -3.7015068705870648e-06
-2.0162168465862362e-05   2.9970712224617783e-06   -3.7015068705870648e-06
-8.113162217249878e-06   1.6911292410270613e-06   -2.299961876274708e-05
-8.113162217249878e-06   1.6911292410270613e-06   -2.299961876274708e-05
-8.113162217249878e-06   1.6911292410270613e-06   -2.299961876274708e-05
-8.113162217249878e-06   1.6911292410270613e-06   -2.299961876274708e-05
2.832706327285326e-06   0.0   -4.304240528776961e-05
2.832706327285326e-06   0.0   -4.304240528776961e-05
2.832706327285326e-06   0.0   -4.304240528776961e-05
2.832706327285326e-06   0.0   -4.304240528776961e-05
2.969246854814113e-05   -3.4826429502911435e-06   -3.6572068985125597e-07
2.969246854814113e-05   -3.4826429502911435e-06   -3.6572068985125597e-07
2.969246854814113e-05   -3.4826429502911435e-06   -3.6572068985125597e-07
2.969246854814113e-05   -3.4826429502911435e-06   -3.6572068985125597e-07
2.974950275252005e-05   0.0   -4.537076997999293e-05
2.974950275252005e-05   0.0   -4.537076997999293e-05
2.974950275252005e-05   0.0   -4.537076997999293e-05
2.974950275252005e-05   0.0   -4.537076997999293e-05
3.3711607618815206e-06   -2.624399601417935e-06   1.6777309858871579e-07
3.3711607618815206e-06   -2.624399601417935e-06   1.6777309858871579e-07
3.3711607618815206e-06   -2.624399601417935e-06   1.6777309858871579e-07
3.3711607618815206e-06   -2.624399601417935e-06   1.6777309858871579e-07
1.629110453990269e-05   -1.940303910186098e-06   -2.1775923946185654e-05
1.629110453990269e-05   -1.940303910186098e-06   -2.1775923946185654e-05
1.629110453990269e-05   -1.940303910186098e-06   -2.1775923946185654e-05
1.629110453990269e-05   -1.940303910186098e-06   -2.1775923946185654e-05
3.3711607618815206e-06   0.0   -4.379613021914216e-05
3.3711607618815206e-06   0.0   -4.379613021914216e-05
3.3711607618815206e-06   0.0   -4.379613021914216e-05
3.3711607618815206e-06   0.0   -4.379613021914216e-05
2.974950275252005e-05   -2.624399601417935e-06   -1.4068666622620496e-06
2.974950275252005e-05   -2.624399601417935e-06   -1.4068666622620496e-06
2.974950275252005e-05   -2.624399601417935e-06   -1.4068666622620496e-06
2.974950275252005e-05   -2.624399601417935e-06   -1.4068666622620496e-06
2.962574045080846e-05   0.0   -4.472292286245422e-05
2.962574045080846e-05   0.0   -4.472292286245422e-05
2.962574045080846e-05   0.0   -4.472292286245422e-05
2.962574045080846e-05   0.0   -4.472292286245422e-05
3.796636583590683e-06   -1.6495605135143028e-06   -6.8468010898268e-07
3.796636583590683e-06   -1.6495605135143028e-06   -6.8468010898268e-07
3.796636583590683e-06   -1.6495605135143028e-06   -6.8468010898268e-07
3.796636583590683e-06   -1.6495605135143028e-06   -6.8468010898268e-07
1.649845060634499e-05   -7.723272027600499e-07   -2.238071013335906e-05
1.649845060634499e-05   -7.723272027600499e-07   -2.238071013335906e-05
1.649845060634499e-05   -7.723272027600499e-07   -2.238071013335906e-05
1.649845060634499e-05   -7.723272027600499e-07   -2.238071013335906e-05
3.7966365835906797e-06   0.0   -4.3733186554345596e-05
3.7966365835906797e-06   0.0   -4.3733186554345596e-05
3.7966365835906797e-06   0.0   -4.3733186554345596e-05
3.7966365835906797e-06   0.0   -4.3733186554345596e-05
2.962574045080846e-05   -1.6495605135143028e-06   -1.6744164170912637e-06
2.962574045080846e-05   -1.6495605135143028e-06   -1.6744164170912637e-06
2.962574045080846e-05   -1.6495605135143028e-06   -1.6744164170912637e-06
2.962574045080846e-05   -1.6495605135143028e-06   -1.6744164170912637e-06
3.0203009547992458e-05   0.0   -4.299056344119743e-05
3.0203009547992458e-05   0.0   -4.299056344119743e-05
3.0203009547992458e-05   0.0   -4.299056344119743e-05
3.0203009547992458e-05   0.0   -4.299056344119743e-05
4.3678770330933694e-06   -3.3981689860182094e-07   2.7188088946214067e-07
4.3678770330933694e-06   -3.3981689860182094e-07   2.7188088946214067e-07
4.3678770330933694e-06   -3.3981689860182094e-07   2.7188088946214067e-07
4.3678770330933694e-06   -3.3981689860182094e-07   2.7188088946214067e-07
1.699982306579156e-05   6.188525942901781e-07   -2.1356564194103353e-05
1.699982306579156e-05   6.188525942901781e-07   -2.1356564194103353e-05
1.699982306579156e-05   6.188525942901781e-07   -2.1356564194103353e-05
1.699982306579156e-05   6.188525942901781e-07   -2.1356564194103353e-05
2.969246854814113e-05   0.0   -4.51319910579443e-05
2.969246854814113e-05   0.0   -4.51319910579443e-05
2.969246854814113e-05   0.0   -4.51319910579443e-05
2.969246854814113e-05   0.0   -4.51319910579443e-05
6.705738513660078e-05   -8.83133352278259e-06   1.1844069809152617e-05
6.705738513660078e-05   -8.83133352278259e-06   1.1844069809152617e-05
6.705738513660078e-05   -8.83133352278259e-06   1.1844069809152617e-05
6.705738513660078e-05   -8.83133352278259e-06   1.1844069809152617e-05
6.298320852315742e-05   0.0   -4.987786328827188e-05
6.298320852315742e-05   0.0   -4.987786328827188e-05
6.298320852315742e-05   0.0   -4.987786328827188e-05
6.298320852315742e-05   0.0   -4.987786328827188e-05
2.974950275252005e-05   -7.511822180464921e-06   1.0018739637736011e-05
2.974950275252005e-05   -7.511822180464921e-06   1.0018739637736011e-05
2.974950275252005e-05   -7.511822180464921e-06   1.0018739637736011e-05
2.974950275252005e-05   -7.511822180464921e-06   1.0018739637736011e-05
4.633783853564927e-05   -3.954893525272987e-06   -1.9762643860594497e-05
4.633783853564927e-05   -3.954893525272987e-06   -1.9762643860594497e-05
4.633783853564927e-05   -3.954893525272987e-06   -1.9762643860594497e-05
4.633783853564927e-05   -3.954893525272987e-06   -1.9762643860594497e-05
2.9749502752520024e-05   0.0   -4.537076997999289e-05
2.9749502752520024e-05   0.0   -4.537076997999289e-05
2.9749502752520024e-05   0.0   -4.537076997999289e-05
2.9749502752520024e-05   0.0   -4.537076997999289e-05
6.29832085231572e-05   -7.511822180464881e-06   5.5116463294570316e-06
6.29832085231572e-05   -7.511822180464881e-06   5.5116463294570316e-06
6.29832085231572e-05   -7.511822180464881e-06   5.5116463294570316e-06
6.29832085231572e-05   -7.511822180464881e-06   5.5116463294570316e-06
6.110609167844273e-05   0.0   -4.884091523118176e-05
6.110609167844273e-05   0.0   -4.884091523118176e-05
6.110609167844273e-05   0.0   -4.884091523118176e-05
6.110609167844273e-05   0.0   -4.884091523118176e-05
2.962574045080846e-05   -6.863320614545917e-06   7.744329183602881e-06
2.962574045080846e-05   -6.863320614545917e-06   7.744329183602881e-06
2.962574045080846e-05   -6.863320614545917e-06   7.744329183602881e-06
2.962574045080846e-05   -6.863320614545917e-06   7.744329183602881e-06
4.5427797215481364e-05   -2.8917877093240343e-06   -2.0975351833985087e-05
4.5427797215481364e-05   -2.8917877093240343e-06   -2.0975351833985087e-05
4.5427797215481364e-05   -2.8917877093240343e-06   -2.0975351833985087e-05
4.5427797215481364e-05   -2.8917877093240343e-06   -2.0975351833985087e-05
2.962574045080846e-05   0.0   -4.472292286245422e-05
2.962574045080846e-05   0.0   -4.472292286245422e-05
2.962574045080846e-05   0.0   -4.472292286245422e-05
2.962574045080846e-05   0.0   -4.472292286245422e-05
6.110609167844251e-05   -6.863320614545877e-06   3.6263368148753156e-06
6.110609167844251e-05   -6.863320614545877e-06   3.6263368148753156e-06
6.110609167844251e-05   -6.863320614545877e-06   3.6263368148753156e-06
6.110609167844251e-05   -6.863320614545877e-06   3.6263368148753156e-06
5.830904119642801e-05   0.0   -4.6189588486465106e-05
5.830904119642801e-05   0.0   -4.6189588486465106e-05
5.830904119642801e-05   0.0   -4.6189588486465106e-05
5.830904119642801e-05   0.0   -4.6189588486465106e-05
3.0203009547992458e-05   -5.331708408779588e-06   3.852822639528644e-06
3.0203009547992458e-05   -5.331708408779588e-06   3.852822639528644e-06
3.0203009547992458e-05   -5.331708408779588e-06   3.852822639528644e-06
3.0203009547992458e-05   -5.331708408779588e-06   3.852822639528644e-06
4.396739082361829e-05   -1.2222213533424713e-06   -2.1553505053109972e-05
4.396739082361829e-05   -1.2222213533424713e-06   -2.1553505053109972e-05
4.396739082361829e-05   -1.2222213533424713e-06   -2.1553505053109972e-05
4.396739082361829e-05   -1.2222213533424713e-06   -2.1553505053109972e-05
-6.555275043412638e-05   8.36779369523487e-06   -4.304596421235178e-05
-6.555275043412638e-05   8.36779369523487e-06   -4.304596421235178e-05
-6.555275043412638e-05   8.36779369523487e-06   -4.304596421235178e-05
-6.555275043412638e-05   8.36779369523487e-06   -4.304596421235178e-05
-4.1989494194993095e-05   7.522661766480278e-06   -4.280949637715679e-06
-4.1989494194993095e-05   7.522661766480278e-06   -4.280949637715679e-06
-4.1989494194993095e-05   7.522661766480278e-06   -4.280949637715679e-06
-4.1989494194993095e-05   7.522661766480278e-06   -4.280949637715679e-06
-4.3044103967565354e-05   1.0045100136217924e-05   -3.615500753587864e-05
-4.3044103967565354e-05   1.0045100136217924e-05   -3.615500753587864e-05
-4.3044103967565354e-05   1.0045100136217924e-05   -3.615500753587864e-05
-4.3044103967565354e-05   1.0045100136217924e-05   -3.615500753587864e-05
-6.625846277543133e-05   9.031043934157313e-06   3.144024198467756e-06
-6.625846277543133e-05   9.031043934157313e-06   3.144024198467756e-06
-6.625846277543133e-05   9.031043934157313e-06   3.144024198467756e-06
-6.625846277543133e-05   9.031043934157313e-06   3.144024198467756e-06
-5.2063783431303615e-05   8.741567008503046e-06   -2.0340088553019476e-05
-5.2063783431303615e-05   8.741567008503046e-06   -2.0340088553019476e-05
-5.2063783431303615e-05   8.741567008503046e-06   -2.0340088553019476e-05
-5.2063783431303615e-05   8.741567008503046e-06   -2.0340088553019476e-05
-6.625846277543133e-05   1.0045100136217924e-05   -3.5546573814642274e-05
-6.625846277543133e-05   1.0045100136217924e-05   -3.5546573814642274e-05
-6.625846277543133e-05   1.0045100136217924e-05   -3.5546573814642274e-05
-6.625846277543133e-05   1.0045100136217924e-05   -3.5546573814642274e-05
-4.3044103967565504e-05   9.03104393415734e-06   2.5355904772314297e-06
-4.3044103967565504e-05   9.03104393415734e-06   2.5355904772314297e-06
-4.3044103967565504e-05   9.03104393415734e-06   2.5355904772314297e-06
-4.3044103967565504e-05   9.03104393415734e-06   2.5355904772314297e-06
-4.326307576952751e-05   1.0762715138609927e-05   -3.2507833066393706e-05
-4.326307576952751e-05   1.0762715138609927e-05   -3.2507833066393706e-05
-4.326307576952751e-05   1.0762715138609927e-05   -3.2507833066393706e-05
-4.326307576952751e-05   1.0762715138609927e-05   -3.2507833066393706e-05
-6.672139760512553e-05   9.71190097184596e-06   7.219858492994507e-06
-6.672139760512553e-05   9.71190097184596e-06   7.219858492994507e-06
-6.672139760512553e-05   9.71190097184596e-06   7.219858492994507e-06
-6.672139760512553e-05   9.71190097184596e-06   7.219858492994507e-06
-5.359210507916267e-05   9.689902168407723e-06   -1.4649096434880441e-05
-5.359210507916267e-05   9.689902168407723e-06   -1.4649096434880441e-05
-5.359210507916267e-05   9.689902168407723e-06   -1.4649096434880441e-05
-5.359210507916267e-05   9.689902168407723e-06   -1.4649096434880441e-05
-6.672139760512543e-05   1.0762715138609927e-05   -3.187734456633534e-05
-6.672139760512543e-05   1.0762715138609927e-05   -3.187734456633534e-05
-6.672139760512543e-05   1.0762715138609927e-05   -3.187734456633534e-05
-6.672139760512543e-05   1.0762715138609927e-05   -3.187734456633534e-05
-4.326307576952758e-05   9.71190097184596e-06   6.589369992936111e-06
-4.326307576952758e-05   9.71190097184596e-06   6.589369992936111e-06
-4.326307576952758e-05   9.71190097184596e-06   6.589369992936111e-06
-4.326307576952758e-05   9.71190097184596e-06   6.589369992936111e-06
-4.3015133012324497e-05   1.2263762306800015e-05   -2.402684667751937e-05
-4.3015133012324497e-05   1.2263762306800015e-05   -2.402684667751937e-05
-4.3015133012324497e-05   1.2263762306800015e-05   -2.402684667751937e-05
-4.3015133012324497e-05   1.2263762306800015e-05   -2.402684667751937e-05
-6.486629999496276e-05   1.0254447128944262e-05   1.3597354066924365e-05
-6.486629999496276e-05   1.0254447128944262e-05   1.3597354066924365e-05
-6.486629999496276e-05   1.0254447128944262e-05   1.3597354066924365e-05
-6.486629999496276e-05   1.0254447128944262e-05   1.3597354066924365e-05
-5.219507019579697e-05   1.0629778316362514e-05   -7.746560977469545e-06
-5.219507019579697e-05   1.0629778316362514e-05   -7.746560977469545e-06
-5.219507019579697e-05   1.0629778316362514e-05   -7.746560977469545e-06
-5.219507019579697e-05   1.0629778316362514e-05   -7.746560977469545e-06
-4.1989494194993095e-05   3.0676345000517997e-06   -4.573373959805587e-05
-4.1989494194993095e-05   3.0676345000517997e-06   -4.573373959805587e-05
-4.1989494194993095e-05   3.0676345000517997e-06   -4.573373959805587e-05
-4.1989494194993095e-05   3.0676345000517997e-06   -4.573373959805587e-05
-1.9903235544184393e-05   3.500484184035805e-06   -8.663598702984262e-06
-1.9903235544184393e-05   3.500484184035805e-06   -8.663598702984262e-06
-1.9903235544184393e-05   3.500484184035805e-06   -8.663598702984262e-06
-1.9903235544184393e-05   3.500484184035805e-06   -8.663598702984262e-06
-2.0376776614826517e-05   4.369654615761593e-06   -4.5663528774414676e-05
-2.0376776614826517e-05   4.369654615761593e-06   -4.5663528774414676e-05
-2.0376776614826517e-05   4.369654615761593e-06   -4.5663528774414676e-05
-2.0376776614826517e-05   4.369654615761593e-06   -4.5663528774414676e-05
-4.3044103967565354e-05   4.887489211655936e-06   -8.19535061071975e-06
-4.3044103967565354e-05   4.887489211655936e-06   -8.19535061071975e-06
-4.3044103967565354e-05   4.887489211655936e-06   -8.19535061071975e-06
-4.3044103967565354e-05   4.887489211655936e-06   -8.19535061071975e-06
-3.124004936565389e-05   3.935247913007772e-06   -2.7297430168050235e-05
-3.124004936565389e-05   3.935247913007772e-06   -2.7297430168050235e-05
-3.124004936565389e-05   3.935247913007772e-06   -2.7297430168050235e-05
-3.124004936565389e-05   3.935247913007772e-06   -2.7297430168050235e-05
-4.304410396756533e-05   4.369654615761593e-06   -4.5974229531951196e-05
-4.304410396756533e-05   4.369654615761593e-06   -4.5974229531951196e-05
-4.304410396756533e-05   4.369654615761593e-06   -4.5974229531951196e-05
-4.304410396756533e-05   4.369654615761593e-06   -4.5974229531951196e-05
-2.0376776614826555e-05   4.887489211655963e-06   -7.884649853183185e-06
-2.0376776614826555e-05   4.887489211655963e-06   -7.884649853183185e-06
-2.0376776614826555e-05   4.887489211655963e-06   -7.884649853183185e-06
-2.0376776614826555e-05   4.887489211655963e-06   -7.884649853183185e-06
-2.0524306244772446e-05   5.355822427319083e-06   -4.48096005498077e-05
-2.0524306244772446e-05   5.355822427319083e-06   -4.48096005498077e-05
-2.0524306244772446e-05   5.355822427319083e-06   -4.48096005498077e-05
-2.0524306244772446e-05   5.355822427319083e-06   -4.48096005498077e-05
-4.326307576952751e-05   6.035812675100926e-06   -7.319645490551732e-06
-4.326307576952751e-05   6.035812675100926e-06   -7.319645490551732e-06
-4.326307576952751e-05   6.035812675100926e-06   -7.319645490551732e-06
-4.326307576952751e-05   6.035812675100926e-06   -7.319645490551732e-06
-3.1482702803655246e-05   4.995756277455308e-06   -2.6329566595084745e-05
-3.1482702803655246e-05   4.995756277455308e-06   -2.6329566595084745e-05
-3.1482702803655246e-05   4.995756277455308e-06   -2.6329566595084745e-05
-3.1482702803655246e-05   4.995756277455308e-06   -2.6329566595084745e-05
-4.326307576952751e-05   5.355822427319083e-06   -4.5217594698476795e-05
-4.326307576952751e-05   5.355822427319083e-06   -4.5217594698476795e-05
-4.326307576952751e-05   5.355822427319083e-06   -4.5217594698476795e-05
-4.326307576952751e-05   5.355822427319083e-06   -4.5217594698476795e-05
-2.0524306244772517e-05   6.035812675100926e-06   -6.91165134188266e-06
-2.0524306244772517e-05   6.035812675100926e-06   -6.91165134188266e-06
-2.0524306244772517e-05   6.035812675100926e-06   -6.91165134188266e-06
-2.0524306244772517e-05   6.035812675100926e-06   -6.91165134188266e-06
-2.047255050233826e-05   6.233010015632373e-06   -4.435249168583625e-05
-2.047255050233826e-05   6.233010015632373e-06   -4.435249168583625e-05
-2.047255050233826e-05   6.233010015632373e-06   -4.435249168583625e-05
-2.047255050233826e-05   6.233010015632373e-06   -4.435249168583625e-05
-4.3015133012324456e-05   7.271575849798366e-06   -7.404660336358888e-06
-4.3015133012324456e-05   7.271575849798366e-06   -7.404660336358888e-06
-4.3015133012324456e-05   7.271575849798366e-06   -7.404660336358888e-06
-4.3015133012324456e-05   7.271575849798366e-06   -7.404660336358888e-06
-3.1666324886024894e-05   5.955645815598271e-06   -2.552978252633825e-05
-3.1666324886024894e-05   5.955645815598271e-06   -2.552978252633825e-05
-3.1666324886024894e-05   5.955645815598271e-06   -2.552978252633825e-05
-3.1666324886024894e-05   5.955645815598271e-06   -2.552978252633825e-05
-1.9903235544184356e-05   -3.9402000814892926e-07   -4.7888308865839764e-05
-1.9903235544184356e-05   -3.9402000814892926e-07   -4.7888308865839764e-05
-1.9903235544184356e-05   -3.9402000814892926e-07   -4.7888308865839764e-05
-1.9903235544184356e-05   -3.9402000814892926e-07   -4.7888308865839764e-05
1.9040803651904811e-06   -1.0488253995448492e-07   -1.1369299869298357e-05
1.9040803651904811e-06   -1.0488253995448492e-07   -1.1369299869298357e-05
1.9040803651904811e-06   -1.0488253995448492e-07   -1.1369299869298357e-05
1.9040803651904811e-06   -1.0488253995448492e-07   -1.1369299869298357e-05
1.8159731047572647e-06   7.751212053532544e-07   -4.815329156524676e-05
1.8159731047572647e-06   7.751212053532544e-07   -4.815329156524676e-05
1.8159731047572647e-06   7.751212053532544e-07   -4.815329156524676e-05
1.8159731047572647e-06   7.751212053532544e-07   -4.815329156524676e-05
-2.0376776614826517e-05   1.1731604163882185e-06   -1.1404198892561249e-05
-2.0376776614826517e-05   1.1731604163882185e-06   -1.1404198892561249e-05
-2.0376776614826517e-05   1.1731604163882185e-06   -1.1404198892561249e-05
-2.0376776614826517e-05   1.1731604163882185e-06   -1.1404198892561249e-05
-9.194837352241194e-06   3.8974871722873136e-07   -2.9570717310707865e-05
-9.194837352241194e-06   3.8974871722873136e-07   -2.9570717310707865e-05
-9.194837352241194e-06   3.8974871722873136e-07   -2.9570717310707865e-05
-9.194837352241194e-06   3.8974871722873136e-07   -2.9570717310707865e-05
-2.0376776614826517e-05   7.751212053532544e-07   -4.839211509186766e-05
-2.0376776614826517e-05   7.751212053532544e-07   -4.839211509186766e-05
-2.0376776614826517e-05   7.751212053532544e-07   -4.839211509186766e-05
-2.0376776614826517e-05   7.751212053532544e-07   -4.839211509186766e-05
1.8159731047572647e-06   1.1731604163882185e-06   -1.1165375365940295e-05
1.8159731047572647e-06   1.1731604163882185e-06   -1.1165375365940295e-05
1.8159731047572647e-06   1.1731604163882185e-06   -1.1165375365940295e-05
1.8159731047572647e-06   1.1731604163882185e-06   -1.1165375365940295e-05
1.6956100947136175e-06   1.8047363948719318e-06   -4.825336287458821e-05
1.6956100947136175e-06   1.8047363948719318e-06   -4.825336287458821e-05
1.6956100947136175e-06   1.8047363948719318e-06   -4.825336287458821e-05
1.6956100947136175e-06   1.8047363948719318e-06   -4.825336287458821e-05
-2.0524306244772446e-05   2.421975001867609e-06   -1.1590512139642207e-05
-2.0524306244772446e-05   2.421975001867609e-06   -1.1590512139642207e-05
-2.0524306244772446e-05   2.421975001867609e-06   -1.1590512139642207e-05
-2.0524306244772446e-05   2.421975001867609e-06   -1.1590512139642207e-05
-9.364736709000228e-06   1.4726485615782782e-06   -2.9620198835088847e-05
-9.364736709000228e-06   1.4726485615782782e-06   -2.9620198835088847e-05
-9.364736709000228e-06   1.4726485615782782e-06   -2.9620198835088847e-05
-9.364736709000228e-06   1.4726485615782782e-06   -2.9620198835088847e-05
-2.0524306244772446e-05   1.8047363948719318e-06   -4.862370603878561e-05
-2.0524306244772446e-05   1.8047363948719318e-06   -4.862370603878561e-05
-2.0524306244772446e-05   1.8047363948719318e-06   -4.862370603878561e-05
-2.0524306244772446e-05   1.8047363948719318e-06   -4.862370603878561e-05
1.69561009471362e-06   2.4219750018676363e-06   -1.12201689754448e-05
1.69561009471362e-06   2.4219750018676363e-06   -1.12201689754448e-05
1.69561009471362e-06   2.4219750018676363e-06   -1.12201689754448e-05
1.69561009471362e-06   2.4219750018676363e-06   -1.12201689754448e-05
1.4512185198261482e-06   2.9970712224617783e-06   -4.8170634957599975e-05
1.4512185198261482e-06   2.9970712224617783e-06   -4.8170634957599975e-05
1.4512185198261482e-06   2.9970712224617783e-06   -4.8170634957599975e-05
1.4512185198261482e-06   2.9970712224617783e-06   -4.8170634957599975e-05
-2.0472550502338278e-05   3.7230333957191783e-06   -1.206659722461376e-05
-2.0472550502338278e-05   3.7230333957191783e-06   -1.206659722461376e-05
-2.0472550502338278e-05   3.7230333957191783e-06   -1.206659722461376e-05
-2.0472550502338278e-05   3.7230333957191783e-06   -1.206659722461376e-05
-9.466940138587169e-06   2.5851193655271635e-06   -2.972653274608369e-05
-9.466940138587169e-06   2.5851193655271635e-06   -2.972653274608369e-05
-9.466940138587169e-06   2.5851193655271635e-06   -2.972653274608369e-05
-9.466940138587169e-06   2.5851193655271635e-06   -2.972653274608369e-05
1.9040803651904811e-06   -3.48264295029113e-06   -4.418448470704128e-05
1.9040803651904811e-06   -3.48264295029113e-06   -4.418448470704128e-05
1.9040803651904811e-06   -3.48264295029113e-06   -4.418448470704128e-05
1.9040803651904811e-06   -3.48264295029113e-06   -4.418448470704128e-05
2.437675834212889e-05   -3.5803255267530037e-06   -6.788630958020996e-06
2.437675834212889e-05   -3.5803255267530037e-06   -6.788630958020996e-06
2.437675834212889e-05   -3.5803255267530037e-06   -6.788630958020996e-06
2.437675834212889e-05   -3.5803255267530037e-06   -6.788630958020996e-06
2.4578528533596494e-05   -2.624399601417935e-06   -4.479784481212991e-05
2.4578528533596494e-05   -2.624399601417935e-06   -4.479784481212991e-05
2.4578528533596494e-05   -2.624399601417935e-06   -4.479784481212991e-05
2.4578528533596494e-05   -2.624399601417935e-06   -4.479784481212991e-05
1.8159731047572647e-06   -2.4186467950210687e-06   -6.983704114569244e-06
1.8159731047572647e-06   -2.4186467950210687e-06   -6.983704114569244e-06
1.8159731047572647e-06   -2.4186467950210687e-06   -6.983704114569244e-06
1.8159731047572647e-06   -2.4186467950210687e-06   -6.983704114569244e-06
1.3000594334284874e-05   -2.8960154881267663e-06   -2.533831828125193e-05
1.3000594334284874e-05   -2.8960154881267663e-06   -2.533831828125193e-05
1.3000594334284874e-05   -2.8960154881267663e-06   -2.533831828125193e-05
1.3000594334284874e-05   -2.8960154881267663e-06   -2.533831828125193e-05
1.8159731047572613e-06   -2.624399601417935e-06   -4.492129649596813e-05
1.8159731047572613e-06   -2.624399601417935e-06   -4.492129649596813e-05
1.8159731047572613e-06   -2.624399601417935e-06   -4.492129649596813e-05
1.8159731047572613e-06   -2.624399601417935e-06   -4.492129649596813e-05
2.4578528533596535e-05   -2.4186467950210416e-06   -6.860252430731102e-06
2.4578528533596535e-05   -2.4186467950210416e-06   -6.860252430731102e-06
2.4578528533596535e-05   -2.4186467950210416e-06   -6.860252430731102e-06
2.4578528533596535e-05   -2.4186467950210416e-06   -6.860252430731102e-06
2.445908037404512e-05   -1.6495605135142893e-06   -4.563512085101085e-05
2.445908037404512e-05   -1.6495605135142893e-06   -4.563512085101085e-05
2.445908037404512e-05   -1.6495605135142893e-06   -4.563512085101085e-05
2.445908037404512e-05   -1.6495605135142893e-06   -4.563512085101085e-05
1.6956100947136175e-06   -1.2810066298686682e-06   -7.91713604897911e-06
1.6956100947136175e-06   -1.2810066298686682e-06   -7.91713604897911e-06
1.6956100947136175e-06   -1.2810066298686682e-06   -7.91713604897911e-06
1.6956100947136175e-06   -1.2810066298686682e-06   -7.91713604897911e-06
1.2862907677690835e-05   -1.969002959695119e-06   -2.611650088937853e-05
1.2862907677690835e-05   -1.969002959695119e-06   -2.611650088937853e-05
1.2862907677690835e-05   -1.969002959695119e-06   -2.611650088937853e-05
1.2862907677690835e-05   -1.969002959695119e-06   -2.611650088937853e-05
1.6956100947136154e-06   -1.6495605135142893e-06   -4.585625318119821e-05
1.6956100947136154e-06   -1.6495605135142893e-06   -4.585625318119821e-05
1.6956100947136154e-06   -1.6495605135142893e-06   -4.585625318119821e-05
1.6956100947136154e-06   -1.6495605135142893e-06   -4.585625318119821e-05
2.445908037404521e-05   -1.2810066298686682e-06   -7.696003718791729e-06
2.445908037404521e-05   -1.2810066298686682e-06   -7.696003718791729e-06
2.445908037404521e-05   -1.2810066298686682e-06   -7.696003718791729e-06
2.445908037404521e-05   -1.2810066298686682e-06   -7.696003718791729e-06
2.3745279737532536e-05   -3.3981689860182094e-07   -4.5716142208798794e-05
2.3745279737532536e-05   -3.3981689860182094e-07   -4.5716142208798794e-05
2.3745279737532536e-05   -3.3981689860182094e-07   -4.5716142208798794e-05
2.3745279737532536e-05   -3.3981689860182094e-07   -4.5716142208798794e-05
1.4512185198261482e-06   1.2576263844644303e-07   -8.838721234850503e-06
1.4512185198261482e-06   1.2576263844644303e-07   -8.838721234850503e-06
1.4512185198261482e-06   1.2576263844644303e-07   -8.838721234850503e-06
1.4512185198261482e-06   1.2576263844644303e-07   -8.838721234850503e-06
1.2723459239963752e-05   -8.863026841714737e-07   -2.7018549908175705e-05
1.2723459239963752e-05   -8.863026841714737e-07   -2.7018549908175705e-05
1.2723459239963752e-05   -8.863026841714737e-07   -2.7018549908175705e-05
1.2723459239963752e-05   -8.863026841714737e-07   -2.7018549908175705e-05
2.437675834212889e-05   -8.83133352278259e-06   -2.6734503640244945e-05
2.437675834212889e-05   -8.83133352278259e-06   -2.6734503640244945e-05
2.437675834212889e-05   -8.83133352278259e-06   -2.6734503640244945e-05
2.437675834212889e-05   -8.83133352278259e-06   -2.6734503640244945e-05
4.655221101574689e-05   -6.652621116498244e-06   1.1531811592888931e-05
4.655221101574689e-05   -6.652621116498244e-06   1.1531811592888931e-05
4.655221101574689e-05   -6.652621116498244e-06   1.1531811592888931e-05
4.655221101574689e-05   -6.652621116498244e-06   1.1531811592888931e-05
4.832683589124267e-05   -7.511822180464908e-06   -3.248511092819545e-05
4.832683589124267e-05   -7.511822180464908e-06   -3.248511092819545e-05
4.832683589124267e-05   -7.511822180464908e-06   -3.248511092819545e-05
4.832683589124267e-05   -7.511822180464908e-06   -3.248511092819545e-05
2.457852853359658e-05   -6.0332762072373e-06   6.208273750611567e-06
2.457852853359658e-05   -6.0332762072373e-06   6.208273750611567e-06
2.457852853359658e-05   -6.0332762072373e-06   6.208273750611567e-06
2.457852853359658e-05   -6.0332762072373e-06   6.208273750611567e-06
3.4286191707774536e-05   -7.225957789051222e-06   -9.255555923930078e-06
3.4286191707774536e-05   -7.225957789051222e-06   -9.255555923930078e-06
3.4286191707774536e-05   -7.225957789051222e-06   -9.255555923930078e-06
3.4286191707774536e-05   -7.225957789051222e-06   -9.255555923930078e-06
2.4578528533596515e-05   -7.511822180464894e-06   -3.337223851213187e-05
2.4578528533596515e-05   -7.511822180464894e-06   -3.337223851213187e-05
2.4578528533596515e-05   -7.511822180464894e-06   -3.337223851213187e-05
2.4578528533596515e-05   -7.511822180464894e-06   -3.337223851213187e-05
4.832683589124267e-05   -6.0332762072373e-06   7.095401334548127e-06
4.832683589124267e-05   -6.0332762072373e-06   7.095401334548127e-06
4.832683589124267e-05   -6.0332762072373e-06   7.095401334548127e-06
4.832683589124267e-05   -6.0332762072373e-06   7.095401334548127e-06
4.814787701439612e-05   -6.863320614545904e-06   -3.5325571354520965e-05
4.814787701439612e-05   -6.863320614545904e-06   -3.5325571354520965e-05
4.814787701439612e-05   -6.863320614545904e-06   -3.5325571354520965e-05
4.814787701439612e-05   -6.863320614545904e-06   -3.5325571354520965e-05
2.445908037404521e-05   -5.378647454886066e-06   3.264952483601283e-06
2.445908037404521e-05   -5.378647454886066e-06   3.264952483601283e-06
2.445908037404521e-05   -5.378647454886066e-06   3.264952483601283e-06
2.445908037404521e-05   -5.378647454886066e-06   3.264952483601283e-06
3.5486525502494756e-05   -6.380134123102927e-06   -1.4513230729551148e-05
3.5486525502494756e-05   -6.380134123102927e-06   -1.4513230729551148e-05
3.5486525502494756e-05   -6.380134123102927e-06   -1.4513230729551148e-05
3.5486525502494756e-05   -6.380134123102927e-06   -1.4513230729551148e-05
2.4459080374045165e-05   -6.86332061454589e-06   -3.6216375250316795e-05
2.4459080374045165e-05   -6.86332061454589e-06   -3.6216375250316795e-05
2.4459080374045165e-05   -6.86332061454589e-06   -3.6216375250316795e-05
2.4459080374045165e-05   -6.86332061454589e-06   -3.6216375250316795e-05
4.814787701439612e-05   -5.378647454886066e-06   4.155756379397175e-06
4.814787701439612e-05   -5.378647454886066e-06   4.155756379397175e-06
4.814787701439612e-05   -5.378647454886066e-06   4.155756379397175e-06
4.814787701439612e-05   -5.378647454886066e-06   4.155756379397175e-06
4.7858953639289784e-05   -5.3317084087795745e-06   -4.1114339820998075e-05
4.7858953639289784e-05   -5.3317084087795745e-06   -4.1114339820998075e-05
4.7858953639289784e-05   -5.3317084087795745e-06   -4.1114339820998075e-05
4.7858953639289784e-05   -5.3317084087795745e-06   -4.1114339820998075e-05
2.374527973753262e-05   -3.970090911157458e-06   -1.7418538166427629e-06
2.374527973753262e-05   -3.970090911157458e-06   -1.7418538166427629e-06
2.374527973753262e-05   -3.970090911157458e-06   -1.7418538166427629e-06
2.374527973753262e-05   -3.970090911157458e-06   -1.7418538166427629e-06
3.447185721706819e-05   -5.4925966827879306e-06   -1.8705979486223755e-05
3.447185721706819e-05   -5.4925966827879306e-06   -1.8705979486223755e-05
3.447185721706819e-05   -5.4925966827879306e-06   -1.8705979486223755e-05
3.447185721706819e-05   -5.4925966827879306e-06   -1.8705979486223755e-05
-5.218675469575475e-05   7.522661766480305e-06   -3.6045099163048986e-05
-5.218675469575475e-05   7.522661766480305e-06   -3.6045099163048986e-05
-5.218675469575475e-05   7.522661766480305e-06   -3.6045099163048986e-05
-5.218675469575475e-05   7.522661766480305e-06   -3.6045099163048986e-05
-3.422090207380917e-05   5.745292388467259e-06   -7.168433086614161e-06
-3.422090207380917e-05   5.745292388467259e-06   -7.168433086614161e-06
-3.422090207380917e-05   5.745292388467259e-06   -7.168433086614161e-06
-3.422090207380917e-05   5.745292388467259e-06   -7.168433086614161e-06
-3.438536784765623e-05   9.031043934157313e-06   -2.992977147609979e-05
-3.438536784765623e-05   9.031043934157313e-06   -2.992977147609979e-05
-3.438536784765623e-05   9.031043934157313e-06   -2.992977147609979e-05
-3.438536784765623e-05   9.031043934157313e-06   -2.992977147609979e-05
-5.1393145251855195e-05   6.951663086679743e-06   -3.3584729394823534e-07
-5.1393145251855195e-05   6.951663086679743e-06   -3.3584729394823534e-07
-5.1393145251855195e-05   6.951663086679743e-06   -3.3584729394823534e-07
-5.1393145251855195e-05   6.951663086679743e-06   -3.3584729394823534e-07
-4.122586621779688e-05   7.650195217474615e-06   -1.7700431629189228e-05
-4.122586621779688e-05   7.650195217474615e-06   -1.7700431629189228e-05
-4.122586621779688e-05   7.650195217474615e-06   -1.7700431629189228e-05
-4.122586621779688e-05   7.650195217474615e-06   -1.7700431629189228e-05
-5.1393145251855195e-05   9.031043934157313e-06   -2.8682142967613233e-05
-5.1393145251855195e-05   9.031043934157313e-06   -2.8682142967613233e-05
-5.1393145251855195e-05   9.031043934157313e-06   -2.8682142967613233e-05
-5.1393145251855195e-05   9.031043934157313e-06   -2.8682142967613233e-05
-3.438536784765623e-05   6.951663086679797e-06   -1.5834758024346578e-06
-3.438536784765623e-05   6.951663086679797e-06   -1.5834758024346578e-06
-3.438536784765623e-05   6.951663086679797e-06   -1.5834758024346578e-06
-3.438536784765623e-05   6.951663086679797e-06   -1.5834758024346578e-06
-3.434950064201914e-05   9.71190097184596e-06   -2.5606340815693713e-05
-3.434950064201914e-05   9.71190097184596e-06   -2.5606340815693713e-05
-3.434950064201914e-05   9.71190097184596e-06   -2.5606340815693713e-05
-3.434950064201914e-05   9.71190097184596e-06   -2.5606340815693713e-05
-5.062013970933064e-05   7.481957244972407e-06   2.8493571992827655e-06
-5.062013970933064e-05   7.481957244972407e-06   2.8493571992827655e-06
-5.062013970933064e-05   7.481957244972407e-06   2.8493571992827655e-06
-5.062013970933064e-05   7.481957244972407e-06   2.8493571992827655e-06
-4.158067723975435e-05   8.34951394853813e-06   -1.2736947605483293e-05
-4.158067723975435e-05   8.34951394853813e-06   -1.2736947605483293e-05
-4.158067723975435e-05   8.34951394853813e-06   -1.2736947605483293e-05
-4.158067723975435e-05   8.34951394853813e-06   -1.2736947605483293e-05
-5.062013970933064e-05   9.71190097184596e-06   -2.426837457956957e-05
-5.062013970933064e-05   9.71190097184596e-06   -2.426837457956957e-05
-5.062013970933064e-05   9.71190097184596e-06   -2.426837457956957e-05
-5.062013970933064e-05   9.71190097184596e-06   -2.426837457956957e-05
-3.4349500642019194e-05   7.481957244972462e-06   1.511390963158894e-06
-3.4349500642019194e-05   7.481957244972462e-06   1.511390963158894e-06
-3.4349500642019194e-05   7.481957244972462e-06   1.511390963158894e-06
-3.4349500642019194e-05   7.481957244972462e-06   1.511390963158894e-06
-3.438374624797425e-05   1.0254447128944262e-05   -1.955428159383112e-05
-3.438374624797425e-05   1.0254447128944262e-05   -1.955428159383112e-05
-3.438374624797425e-05   1.0254447128944262e-05   -1.955428159383112e-05
-3.438374624797425e-05   1.0254447128944262e-05   -1.955428159383112e-05
-4.9611533734121756e-05   8.004801392753305e-06   7.175151658129033e-06
-4.9611533734121756e-05   8.004801392753305e-06   7.175151658129033e-06
-4.9611533734121756e-05   8.004801392753305e-06   7.175151658129033e-06
-4.9611533734121756e-05   8.004801392753305e-06   7.175151658129033e-06
-4.063232529220424e-05   8.718202409487886e-06   -8.21823635510703e-06
-4.063232529220424e-05   8.718202409487886e-06   -8.21823635510703e-06
-4.063232529220424e-05   8.718202409487886e-06   -8.21823635510703e-06
-4.063232529220424e-05   8.718202409487886e-06   -8.21823635510703e-06
-3.422090207380917e-05   3.500484184035805e-06   -4.1753879665515755e-05
-3.422090207380917e-05   3.500484184035805e-06   -4.1753879665515755e-05
-3.422090207380917e-05   3.500484184035805e-06   -4.1753879665515755e-05
-3.422090207380917e-05   3.500484184035805e-06   -4.1753879665515755e-05
-1.742559811554972e-05   2.8658327219173614e-06   -1.4142497279021029e-05
-1.742559811554972e-05   2.8658327219173614e-06   -1.4142497279021029e-05
-1.742559811554972e-05   2.8658327219173614e-06   -1.4142497279021029e-05
-1.742559811554972e-05   2.8658327219173614e-06   -1.4142497279021029e-05
-1.763648685911395e-05   4.887489211655936e-06   -4.116169819896241e-05
-1.763648685911395e-05   4.887489211655936e-06   -4.116169819896241e-05
-1.763648685911395e-05   4.887489211655936e-06   -4.116169819896241e-05
-1.763648685911395e-05   4.887489211655936e-06   -4.116169819896241e-05
-3.4385367847656175e-05   4.052513153470123e-06   -1.274591091648047e-05
-3.4385367847656175e-05   4.052513153470123e-06   -1.274591091648047e-05
-3.4385367847656175e-05   4.052513153470123e-06   -1.274591091648047e-05
-3.4385367847656175e-05   4.052513153470123e-06   -1.274591091648047e-05
-2.569507407624054e-05   4.038525724915252e-06   -2.7221341411707054e-05
-2.569507407624054e-05   4.038525724915252e-06   -2.7221341411707054e-05
-2.569507407624054e-05   4.038525724915252e-06   -2.7221341411707054e-05
-2.569507407624054e-05   4.038525724915252e-06   -2.7221341411707054e-05
-3.43853678476562e-05   4.887489211655936e-06   -4.066071256405082e-05
-3.43853678476562e-05   4.887489211655936e-06   -4.066071256405082e-05
-3.43853678476562e-05   4.887489211655936e-06   -4.066071256405082e-05
-3.43853678476562e-05   4.887489211655936e-06   -4.066071256405082e-05
-1.7636486859113983e-05   4.052513153470069e-06   -1.3246896551391892e-05
-1.7636486859113983e-05   4.052513153470069e-06   -1.3246896551391892e-05
-1.7636486859113983e-05   4.052513153470069e-06   -1.3246896551391892e-05
-1.7636486859113983e-05   4.052513153470069e-06   -1.3246896551391892e-05
-1.7772982559211075e-05   6.035812675100926e-06   -4.00725728738826e-05
-1.7772982559211075e-05   6.035812675100926e-06   -4.00725728738826e-05
-1.7772982559211075e-05   6.035812675100926e-06   -4.00725728738826e-05
-1.7772982559211075e-05   6.035812675100926e-06   -4.00725728738826e-05
-3.434950064201914e-05   5.107118383932449e-06   -1.1887826161168289e-05
-3.434950064201914e-05   5.107118383932449e-06   -1.1887826161168289e-05
-3.434950064201914e-05   5.107118383932449e-06   -1.1887826161168289e-05
-3.434950064201914e-05   5.107118383932449e-06   -1.1887826161168289e-05
-2.5741951814911836e-05   5.015035717069417e-06   -2.6178491272895458e-05
-2.5741951814911836e-05   5.015035717069417e-06   -2.6178491272895458e-05
-2.5741951814911836e-05   5.015035717069417e-06   -2.6178491272895458e-05
-2.5741951814911836e-05   5.015035717069417e-06   -2.6178491272895458e-05
-3.434950064201914e-05   6.035812675100926e-06   -3.951535629918157e-05
-3.434950064201914e-05   6.035812675100926e-06   -3.951535629918157e-05
-3.434950064201914e-05   6.035812675100926e-06   -3.951535629918157e-05
-3.434950064201914e-05   6.035812675100926e-06   -3.951535629918157e-05
-1.7772982559211136e-05   5.107118383932449e-06   -1.2445042735869206e-05
-1.7772982559211136e-05   5.107118383932449e-06   -1.2445042735869206e-05
-1.7772982559211136e-05   5.107118383932449e-06   -1.2445042735869206e-05
-1.7772982559211136e-05   5.107118383932449e-06   -1.2445042735869206e-05
-1.7949887648581544e-05   7.271575849798393e-06   -3.997606426548849e-05
-1.7949887648581544e-05   7.271575849798393e-06   -3.997606426548849e-05
-1.7949887648581544e-05   7.271575849798393e-06   -3.997606426548849e-05
-1.7949887648581544e-05   7.271575849798393e-06   -3.997606426548849e-05
-3.438374624797422e-05   6.229313557985956e-06   -1.1960942558079859e-05
-3.438374624797422e-05   6.229313557985956e-06   -1.1960942558079859e-05
-3.438374624797422e-05   6.229313557985956e-06   -1.1960942558079859e-05
-3.438374624797422e-05   6.229313557985956e-06   -1.1960942558079859e-05
-2.604629940277669e-05   5.982563339072952e-06   -2.5708637168727616e-05
-2.604629940277669e-05   5.982563339072952e-06   -2.5708637168727616e-05
-2.604629940277669e-05   5.982563339072952e-06   -2.5708637168727616e-05
-2.604629940277669e-05   5.982563339072952e-06   -2.5708637168727616e-05
-1.7425598115549686e-05   -1.0488253995451203e-07   -4.50138541900176e-05
-1.7425598115549686e-05   -1.0488253995451203e-07   -4.50138541900176e-05
-1.7425598115549686e-05   -1.0488253995451203e-07   -4.50138541900176e-05
-1.7425598115549686e-05   -1.0488253995451203e-07   -4.50138541900176e-05
-8.173670624272588e-07   1.5278380578829381e-07   -1.7178869294034505e-05
-8.173670624272588e-07   1.5278380578829381e-07   -1.7178869294034505e-05
-8.173670624272588e-07   1.5278380578829381e-07   -1.7178869294034505e-05
-8.173670624272588e-07   1.5278380578829381e-07   -1.7178869294034505e-05
-9.86481402847536e-07   1.1731604163882185e-06   -4.459241757556409e-05
-9.86481402847536e-07   1.1731604163882185e-06   -4.459241757556409e-05
-9.86481402847536e-07   1.1731604163882185e-06   -4.459241757556409e-05
-9.86481402847536e-07   1.1731604163882185e-06   -4.459241757556409e-05
-1.763648685911395e-05   1.321209854348779e-06   -1.6931238144563142e-05
-1.763648685911395e-05   1.321209854348779e-06   -1.6931238144563142e-05
-1.763648685911395e-05   1.321209854348779e-06   -1.6931238144563142e-05
-1.763648685911395e-05   1.321209854348779e-06   -1.6931238144563142e-05
-9.164528986621787e-06   7.700284153257914e-07   -3.072045906863627e-05
-9.164528986621787e-06   7.700284153257914e-07   -3.072045906863627e-05
-9.164528986621787e-06   7.700284153257914e-07   -3.072045906863627e-05
-9.164528986621787e-06   7.700284153257914e-07   -3.072045906863627e-05
-1.763648685911395e-05   1.1731604163882185e-06   -4.468124723834048e-05
-1.763648685911395e-05   1.1731604163882185e-06   -4.468124723834048e-05
-1.763648685911395e-05   1.1731604163882185e-06   -4.468124723834048e-05
-1.763648685911395e-05   1.1731604163882185e-06   -4.468124723834048e-05
-9.864814028475377e-07   1.321209854348779e-06   -1.6842408481786738e-05
-9.864814028475377e-07   1.321209854348779e-06   -1.6842408481786738e-05
-9.864814028475377e-07   1.321209854348779e-06   -1.6842408481786738e-05
-9.864814028475377e-07   1.321209854348779e-06   -1.6842408481786738e-05
-1.1084171304365383e-06   2.421975001867609e-06   -4.471290724411764e-05
-1.1084171304365383e-06   2.421975001867609e-06   -4.471290724411764e-05
-1.1084171304365383e-06   2.421975001867609e-06   -4.471290724411764e-05
-1.1084171304365383e-06   2.421975001867609e-06   -4.471290724411764e-05
-1.7772982559211102e-05   2.4861857144084813e-06   -1.697715795701808e-05
-1.7772982559211102e-05   2.4861857144084813e-06   -1.697715795701808e-05
-1.7772982559211102e-05   2.4861857144084813e-06   -1.697715795701808e-05
-1.7772982559211102e-05   2.4861857144084813e-06   -1.697715795701808e-05
-9.38302213376788e-06   1.8005458681822424e-06   -3.054904142502076e-05
-9.38302213376788e-06   1.8005458681822424e-06   -3.054904142502076e-05
-9.38302213376788e-06   1.8005458681822424e-06   -3.054904142502076e-05
-9.38302213376788e-06   1.8005458681822424e-06   -3.054904142502076e-05
-1.7772982559211102e-05   2.4219750018676363e-06   -4.4751433671642236e-05
-1.7772982559211102e-05   2.4219750018676363e-06   -4.4751433671642236e-05
-1.7772982559211102e-05   2.4219750018676363e-06   -4.4751433671642236e-05
-1.7772982559211102e-05   2.4219750018676363e-06   -4.4751433671642236e-05
-1.10841713043654e-06   2.4861857144084813e-06   -1.6938631529493366e-05
-1.10841713043654e-06   2.4861857144084813e-06   -1.6938631529493366e-05
-1.10841713043654e-06   2.4861857144084813e-06   -1.6938631529493366e-05
-1.10841713043654e-06   2.4861857144084813e-06   -1.6938631529493366e-05
-1.3004347186405714e-06   3.7230333957191783e-06   -4.528803535673546e-05
-1.3004347186405714e-06   3.7230333957191783e-06   -4.528803535673546e-05
-1.3004347186405714e-06   3.7230333957191783e-06   -4.528803535673546e-05
-1.3004347186405714e-06   3.7230333957191783e-06   -4.528803535673546e-05
-1.794988764858153e-05   3.678208891564759e-06   -1.7512052437674704e-05
-1.794988764858153e-05   3.678208891564759e-06   -1.7512052437674704e-05
-1.794988764858153e-05   3.678208891564759e-06   -1.7512052437674704e-05
-1.794988764858153e-05   3.678208891564759e-06   -1.7512052437674704e-05
-9.61517857370068e-06   2.8433081689237423e-06   -3.090229379555796e-05
-9.61517857370068e-06   2.8433081689237423e-06   -3.090229379555796e-05
-9.61517857370068e-06   2.8433081689237423e-06   -3.090229379555796e-05
-9.61517857370068e-06   2.8433081689237423e-06   -3.090229379555796e-05
-8.173670624272605e-07   -3.5803255267529766e-06   -4.021997592541744e-05
-8.173670624272605e-07   -3.5803255267529766e-06   -4.021997592541744e-05
-8.173670624272605e-07   -3.5803255267529766e-06   -4.021997592541744e-05
-8.173670624272605e-07   -3.5803255267529766e-06   -4.021997592541744e-05
1.570520677302014e-05   -2.39887153728448e-06   -1.1973480472657404e-05
1.570520677302014e-05   -2.39887153728448e-06   -1.1973480472657404e-05
1.570520677302014e-05   -2.39887153728448e-06   -1.1973480472657404e-05
1.570520677302014e-05   -2.39887153728448e-06   -1.1973480472657404e-05
1.569390989580715e-05   -2.4186467950210687e-06   -3.9756004082535664e-05
1.569390989580715e-05   -2.4186467950210687e-06   -3.9756004082535664e-05
1.569390989580715e-05   -2.4186467950210687e-06   -3.9756004082535664e-05
1.569390989580715e-05   -2.4186467950210687e-06   -3.9756004082535664e-05
-9.864814028475377e-07   -1.3274097255918022e-06   -1.26100941597687e-05
-9.864814028475377e-07   -1.3274097255918022e-06   -1.26100941597687e-05
-9.864814028475377e-07   -1.3274097255918022e-06   -1.26100941597687e-05
-9.864814028475377e-07   -1.3274097255918022e-06   -1.26100941597687e-05
7.342500027531728e-06   -2.3468113219348406e-06   -2.588008891926159e-05
7.342500027531728e-06   -2.3468113219348406e-06   -2.588008891926159e-05
7.342500027531728e-06   -2.3468113219348406e-06   -2.588008891926159e-05
7.342500027531728e-06   -2.3468113219348406e-06   -2.588008891926159e-05
-9.864814028475377e-07   -2.4186467950210416e-06   -4.0410746324193094e-05
-9.864814028475377e-07   -2.4186467950210416e-06   -4.0410746324193094e-05
-9.864814028475377e-07   -2.4186467950210416e-06   -4.0410746324193094e-05
-9.864814028475377e-07   -2.4186467950210416e-06   -4.0410746324193094e-05
1.569390989580715e-05   -1.3274097255918022e-06   -1.1955351918111097e-05
1.569390989580715e-05   -1.3274097255918022e-06   -1.1955351918111097e-05
1.569390989580715e-05   -1.3274097255918022e-06   -1.1955351918111097e-05
1.569390989580715e-05   -1.3274097255918022e-06   -1.1955351918111097e-05
1.576929074540827e-05   -1.2810066298686682e-06   -4.080623928575587e-05
1.576929074540827e-05   -1.2810066298686682e-06   -4.080623928575587e-05
1.576929074540827e-05   -1.2810066298686682e-06   -4.080623928575587e-05
1.576929074540827e-05   -1.2810066298686682e-06   -4.080623928575587e-05
-1.1084171304365417e-06   -2.749482433749657e-07   -1.3280361191244185e-05
-1.1084171304365417e-06   -2.749482433749657e-07   -1.3280361191244185e-05
-1.1084171304365417e-06   -2.749482433749657e-07   -1.3280361191244185e-05
-1.1084171304365417e-06   -2.749482433749657e-07   -1.3280361191244185e-05
7.1172430348161114e-06   -1.4178440791240096e-06   -2.6304057298548973e-05
7.1172430348161114e-06   -1.4178440791240096e-06   -2.6304057298548973e-05
7.1172430348161114e-06   -1.4178440791240096e-06   -2.6304057298548973e-05
7.1172430348161114e-06   -1.4178440791240096e-06   -2.6304057298548973e-05
-1.1084171304365391e-06   -1.2810066298686682e-06   -4.14098743176519e-05
-1.1084171304365391e-06   -1.2810066298686682e-06   -4.14098743176519e-05
-1.1084171304365391e-06   -1.2810066298686682e-06   -4.14098743176519e-05
-1.1084171304365391e-06   -1.2810066298686682e-06   -4.14098743176519e-05
1.576929074540827e-05   -2.749482433749657e-07   -1.2676726159347753e-05
1.576929074540827e-05   -2.749482433749657e-07   -1.2676726159347753e-05
1.576929074540827e-05   -2.749482433749657e-07   -1.2676726159347753e-05
1.576929074540827e-05   -2.749482433749657e-07   -1.2676726159347753e-05
1.5649089185654188e-05   1.2576263844644303e-07   -4.199806687179411e-05
1.5649089185654188e-05   1.2576263844644303e-07   -4.199806687179411e-05
1.5649089185654188e-05   1.2576263844644303e-07   -4.199806687179411e-05
1.5649089185654188e-05   1.2576263844644303e-07   -4.199806687179411e-05
-1.300434718640574e-06   9.552123036675594e-07   -1.4246530163768962e-05
-1.300434718640574e-06   9.552123036675594e-07   -1.4246530163768962e-05
-1.300434718640574e-06   9.552123036675594e-07   -1.4246530163768962e-05
-1.300434718640574e-06   9.552123036675594e-07   -1.4246530163768962e-05
7.038645820636882e-06   -4.2419854924058767e-07   -2.731735121748627e-05
7.038645820636882e-06   -4.2419854924058767e-07   -2.731735121748627e-05
7.038645820636882e-06   -4.2419854924058767e-07   -2.731735121748627e-05
7.038645820636882e-06   -4.2419854924058767e-07   -2.731735121748627e-05
1.5705206773020113e-05   -6.652621116498244e-06   -2.2497888424597085e-05
1.5705206773020113e-05   -6.652621116498244e-06   -2.2497888424597085e-05
1.5705206773020113e-05   -6.652621116498244e-06   -2.2497888424597085e-05
1.5705206773020113e-05   -6.652621116498244e-06   -2.2497888424597085e-05
3.116877759954526e-05   -4.347846621528286e-06   4.657594316593531e-06
3.116877759954526e-05   -4.347846621528286e-06   4.657594316593531e-06
3.116877759954526e-05   -4.347846621528286e-06   4.657594316593531e-06
3.116877759954526e-05   -4.347846621528286e-06   4.657594316593531e-06
3.222322289036763e-05   -6.033276207237273e-06   -2.53053249387112e-05
3.222322289036763e-05   -6.033276207237273e-06   -2.53053249387112e-05
3.222322289036763e-05   -6.033276207237273e-06   -2.53053249387112e-05
3.222322289036763e-05   -6.033276207237273e-06   -2.53053249387112e-05
1.5693909895807117e-05   -3.7296879364344935e-06   8.613770897413403e-07
1.5693909895807117e-05   -3.7296879364344935e-06   8.613770897413403e-07
1.5693909895807117e-05   -3.7296879364344935e-06   8.613770897413403e-07
1.5693909895807117e-05   -3.7296879364344935e-06   8.613770897413403e-07
2.268503676479666e-05   -5.129206682248503e-06   -9.950789777752906e-06
2.268503676479666e-05   -5.129206682248503e-06   -9.950789777752906e-06
2.268503676479666e-05   -5.129206682248503e-06   -9.950789777752906e-06
2.268503676479666e-05   -5.129206682248503e-06   -9.950789777752906e-06
1.5693909895807097e-05   -6.033276207237273e-06   -2.6687477901192832e-05
1.5693909895807097e-05   -6.033276207237273e-06   -2.6687477901192832e-05
1.5693909895807097e-05   -6.033276207237273e-06   -2.6687477901192832e-05
1.5693909895807097e-05   -6.033276207237273e-06   -2.6687477901192832e-05
3.222322289036763e-05   -3.7296879364344935e-06   2.2435300522231135e-06
3.222322289036763e-05   -3.7296879364344935e-06   2.2435300522231135e-06
3.222322289036763e-05   -3.7296879364344935e-06   2.2435300522231135e-06
3.222322289036763e-05   -3.7296879364344935e-06   2.2435300522231135e-06
3.3034403255293425e-05   -5.378647454886066e-06   -2.8538313382993787e-05
3.3034403255293425e-05   -5.378647454886066e-06   -2.8538313382993787e-05
3.3034403255293425e-05   -5.378647454886066e-06   -2.8538313382993787e-05
3.3034403255293425e-05   -5.378647454886066e-06   -2.8538313382993787e-05
1.5769290745408215e-05   -3.2003646209377416e-06   -1.0700955668876163e-06
1.5769290745408215e-05   -3.2003646209377416e-06   -1.0700955668876163e-06
1.5769290745408215e-05   -3.2003646209377416e-06   -1.0700955668876163e-06
1.5769290745408215e-05   -3.2003646209377416e-06   -1.0700955668876163e-06
2.345772394540107e-05   -4.730456315481268e-06   -1.2966095883482765e-05
2.345772394540107e-05   -4.730456315481268e-06   -1.2966095883482765e-05
2.345772394540107e-05   -4.730456315481268e-06   -1.2966095883482765e-05
2.345772394540107e-05   -4.730456315481268e-06   -1.2966095883482765e-05
1.5769290745408242e-05   -5.378647454886066e-06   -2.984528308336279e-05
1.5769290745408242e-05   -5.378647454886066e-06   -2.984528308336279e-05
1.5769290745408242e-05   -5.378647454886066e-06   -2.984528308336279e-05
1.5769290745408242e-05   -5.378647454886066e-06   -2.984528308336279e-05
3.303440325529337e-05   -3.2003646209377416e-06   2.3687413348161138e-07
3.303440325529337e-05   -3.2003646209377416e-06   2.3687413348161138e-07
3.303440325529337e-05   -3.2003646209377416e-06   2.3687413348161138e-07
3.303440325529337e-05   -3.2003646209377416e-06   2.3687413348161138e-07
3.3899440230416786e-05   -3.970090911157458e-06   -3.4040689518225976e-05
3.3899440230416786e-05   -3.970090911157458e-06   -3.4040689518225976e-05
3.3899440230416786e-05   -3.970090911157458e-06   -3.4040689518225976e-05
3.3899440230416786e-05   -3.970090911157458e-06   -3.4040689518225976e-05
1.5649089185654127e-05   -2.0703281485086496e-06   -4.763295434544296e-06
1.5649089185654127e-05   -2.0703281485086496e-06   -4.763295434544296e-06
1.5649089185654127e-05   -2.0703281485086496e-06   -4.763295434544296e-06
1.5649089185654127e-05   -2.0703281485086496e-06   -4.763295434544296e-06
2.3359644329016334e-05   -4.074093548473725e-06   -1.6411961433502123e-05
2.3359644329016334e-05   -4.074093548473725e-06   -1.6411961433502123e-05
2.3359644329016334e-05   -4.074093548473725e-06   -1.6411961433502123e-05
2.3359644329016334e-05   -4.074093548473725e-06   -1.6411961433502123e-05
-3.7473840698078046e-05   5.745292388467259e-06   -2.8528358552540247e-05
-3.7473840698078046e-05   5.745292388467259e-06   -2.8528358552540247e-05
-3.7473840698078046e-05   5.745292388467259e-06   -2.8528358552540247e-05
-3.7473840698078046e-05   5.745292388467259e-06   -2.8528358552540247e-05
-2.552706224511538e-05   3.6520757033549735e-06   -9.872991142003207e-06
-2.552706224511538e-05   3.6520757033549735e-06   -9.872991142003207e-06
-2.552706224511538e-05   3.6520757033549735e-06   -9.872991142003207e-06
-2.552706224511538e-05   3.6520757033549735e-06   -9.872991142003207e-06
-2.54339212139827e-05   6.951663086679743e-06   -2.4236556516393803e-05
-2.54339212139827e-05   6.951663086679743e-06   -2.4236556516393803e-05
-2.54339212139827e-05   6.951663086679743e-06   -2.4236556516393803e-05
-2.54339212139827e-05   6.951663086679743e-06   -2.4236556516393803e-05
-3.635032337489556e-05   4.6500135827687306e-06   -4.661563212525705e-06
-3.635032337489556e-05   4.6500135827687306e-06   -4.661563212525705e-06
-3.635032337489556e-05   4.6500135827687306e-06   -4.661563212525705e-06
-3.635032337489556e-05   4.6500135827687306e-06   -4.661563212525705e-06
-2.9872723510995e-05   5.532875420375012e-06   -1.5987280088257188e-05
-2.9872723510995e-05   5.532875420375012e-06   -1.5987280088257188e-05
-2.9872723510995e-05   5.532875420375012e-06   -1.5987280088257188e-05
-2.9872723510995e-05   5.532875420375012e-06   -1.5987280088257188e-05
-3.635032337489556e-05   6.951663086679743e-06   -2.2855566814047152e-05
-3.635032337489556e-05   6.951663086679743e-06   -2.2855566814047152e-05
-3.635032337489556e-05   6.951663086679743e-06   -2.2855566814047152e-05
-3.635032337489556e-05   6.951663086679743e-06   -2.2855566814047152e-05
-2.5433921213982753e-05   4.6500135827687306e-06   -6.042552914872364e-06
-2.5433921213982753e-05   4.6500135827687306e-06   -6.042552914872364e-06
-2.5433921213982753e-05   4.6500135827687306e-06   -6.042552914872364e-06
-2.5433921213982753e-05   4.6500135827687306e-06   -6.042552914872364e-06
-2.5240886855749803e-05   7.481957244972462e-06   -2.1134383339620915e-05
-2.5240886855749803e-05   7.481957244972462e-06   -2.1134383339620915e-05
-2.5240886855749803e-05   7.481957244972462e-06   -2.1134383339620915e-05
-2.5240886855749803e-05   7.481957244972462e-06   -2.1134383339620915e-05
-3.5510943005997715e-05   5.115386373706881e-06   -2.597680566448319e-06
-3.5510943005997715e-05   5.115386373706881e-06   -2.597680566448319e-06
-3.5510943005997715e-05   5.115386373706881e-06   -2.597680566448319e-06
-3.5510943005997715e-05   5.115386373706881e-06   -2.597680566448319e-06
-2.9873528576583643e-05   6.089806009128285e-06   -1.2578023063391434e-05
-2.9873528576583643e-05   6.089806009128285e-06   -1.2578023063391434e-05
-2.9873528576583643e-05   6.089806009128285e-06   -1.2578023063391434e-05
-2.9873528576583643e-05   6.089806009128285e-06   -1.2578023063391434e-05
-3.5510943005997715e-05   7.481957244972462e-06   -1.9714440816861523e-05
-3.5510943005997715e-05   7.481957244972462e-06   -1.9714440816861523e-05
-3.5510943005997715e-05   7.481957244972462e-06   -1.9714440816861523e-05
-3.5510943005997715e-05   7.481957244972462e-06   -1.9714440816861523e-05
-2.524088685574983e-05   5.115386373706881e-06   -4.01762308920755e-06
-2.524088685574983e-05   5.115386373706881e-06   -4.01762308920755e-06
-2.524088685574983e-05   5.115386373706881e-06   -4.01762308920755e-06
-2.524088685574983e-05   5.115386373706881e-06   -4.01762308920755e-06
-2.5163927431260698e-05   8.004801392753251e-06   -1.684169184718639e-05
-2.5163927431260698e-05   8.004801392753251e-06   -1.684169184718639e-05
-2.5163927431260698e-05   8.004801392753251e-06   -1.684169184718639e-05
-2.5163927431260698e-05   8.004801392753251e-06   -1.684169184718639e-05
-3.4413240306001915e-05   5.701211357011637e-06   -4.401636783925517e-08
-3.4413240306001915e-05   5.701211357011637e-06   -4.401636783925517e-08
-3.4413240306001915e-05   5.701211357011637e-06   -4.401636783925517e-08
-3.4413240306001915e-05   5.701211357011637e-06   -4.401636783925517e-08
-2.8989243322763037e-05   6.39235930507498e-06   -9.498700108742121e-06
-2.8989243322763037e-05   6.39235930507498e-06   -9.498700108742121e-06
-2.8989243322763037e-05   6.39235930507498e-06   -9.498700108742121e-06
-2.8989243322763037e-05   6.39235930507498e-06   -9.498700108742121e-06
-2.5527062245115327e-05   2.8658327219173614e-06   -3.637756187874349e-05
-2.5527062245115327e-05   2.8658327219173614e-06   -3.637756187874349e-05
-2.5527062245115327e-05   2.8658327219173614e-06   -3.637756187874349e-05
-2.5527062245115327e-05   2.8658327219173614e-06   -3.637756187874349e-05
-1.4694912779073712e-05   1.8899969625817527e-06   -1.8909480890942144e-05
-1.4694912779073712e-05   1.8899969625817527e-06   -1.8909480890942144e-05
-1.4694912779073712e-05   1.8899969625817527e-06   -1.8909480890942144e-05
-1.4694912779073712e-05   1.8899969625817527e-06   -1.8909480890942144e-05
-1.4702159557883984e-05   4.052513153470123e-06   -3.606420251790017e-05
-1.4702159557883984e-05   4.052513153470123e-06   -3.606420251790017e-05
-1.4702159557883984e-05   4.052513153470123e-06   -3.606420251790017e-05
-1.4702159557883984e-05   4.052513153470123e-06   -3.606420251790017e-05
-2.54339212139827e-05   2.9438283410358887e-06   -1.751272220360824e-05
-2.54339212139827e-05   2.9438283410358887e-06   -1.751272220360824e-05
-2.54339212139827e-05   2.9438283410358887e-06   -1.751272220360824e-05
-2.54339212139827e-05   2.9438283410358887e-06   -1.751272220360824e-05
-1.9904201996137263e-05   3.1358365568343602e-06   -2.6844125829496497e-05
-1.9904201996137263e-05   3.1358365568343602e-06   -2.6844125829496497e-05
-1.9904201996137263e-05   3.1358365568343602e-06   -2.6844125829496497e-05
-1.9904201996137263e-05   3.1358365568343602e-06   -2.6844125829496497e-05
-2.5433921213982672e-05   4.052513153470123e-06   -3.5398991630439345e-05
-2.5433921213982672e-05   4.052513153470123e-06   -3.5398991630439345e-05
-2.5433921213982672e-05   4.052513153470123e-06   -3.5398991630439345e-05
-2.5433921213982672e-05   4.052513153470123e-06   -3.5398991630439345e-05
-1.4702159557883984e-05   2.9438283410358887e-06   -1.8177933091068847e-05
-1.4702159557883984e-05   2.9438283410358887e-06   -1.8177933091068847e-05
-1.4702159557883984e-05   2.9438283410358887e-06   -1.8177933091068847e-05
-1.4702159557883984e-05   2.9438283410358887e-06   -1.8177933091068847e-05
-1.4691435363489961e-05   5.107118383932449e-06   -3.525598046996172e-05
-1.4691435363489961e-05   5.107118383932449e-06   -3.525598046996172e-05
-1.4691435363489961e-05   5.107118383932449e-06   -3.525598046996172e-05
-1.4691435363489961e-05   5.107118383932449e-06   -3.525598046996172e-05
-2.5240886855749803e-05   3.903151707242559e-06   -1.6951181310181462e-05
-2.5240886855749803e-05   3.903151707242559e-06   -1.6951181310181462e-05
-2.5240886855749803e-05   3.903151707242559e-06   -1.6951181310181462e-05
-2.5240886855749803e-05   3.903151707242559e-06   -1.6951181310181462e-05
-1.9811636353081615e-05   4.001653025614165e-06   -2.6059032938984428e-05
-1.9811636353081615e-05   4.001653025614165e-06   -2.6059032938984428e-05
-1.9811636353081615e-05   4.001653025614165e-06   -2.6059032938984428e-05
-1.9811636353081615e-05   4.001653025614165e-06   -2.6059032938984428e-05
-2.5240886855749803e-05   5.107118383932449e-06   -3.453360046394777e-05
-2.5240886855749803e-05   5.107118383932449e-06   -3.453360046394777e-05
-2.5240886855749803e-05   5.107118383932449e-06   -3.453360046394777e-05
-2.5240886855749803e-05   5.107118383932449e-06   -3.453360046394777e-05
-1.4691435363489982e-05   3.903151707242668e-06   -1.7673561316195244e-05
-1.4691435363489982e-05   3.903151707242668e-06   -1.7673561316195244e-05
-1.4691435363489982e-05   3.903151707242668e-06   -1.7673561316195244e-05
-1.4691435363489982e-05   3.903151707242668e-06   -1.7673561316195244e-05
-1.4703404965153843e-05   6.229313557985956e-06   -3.539822772737614e-05
-1.4703404965153843e-05   6.229313557985956e-06   -3.539822772737614e-05
-1.4703404965153843e-05   6.229313557985956e-06   -3.539822772737614e-05
-1.4703404965153843e-05   6.229313557985956e-06   -3.539822772737614e-05
-2.5163927431260698e-05   4.94559838182685e-06   -1.719379451150247e-05
-2.5163927431260698e-05   4.94559838182685e-06   -1.719379451150247e-05
-2.5163927431260698e-05   4.94559838182685e-06   -1.719379451150247e-05
-2.5163927431260698e-05   4.94559838182685e-06   -1.719379451150247e-05
-1.994008090963583e-05   4.858623804724618e-06   -2.584802063461595e-05
-1.994008090963583e-05   4.858623804724618e-06   -2.584802063461595e-05
-1.994008090963583e-05   4.858623804724618e-06   -2.584802063461595e-05
-1.994008090963583e-05   4.858623804724618e-06   -2.584802063461595e-05
-1.4694912779073698e-05   1.5278380578829381e-07   -4.0154035156804045e-05
-1.4694912779073698e-05   1.5278380578829381e-07   -4.0154035156804045e-05
-1.4694912779073698e-05   1.5278380578829381e-07   -4.0154035156804045e-05
-1.4694912779073698e-05   1.5278380578829381e-07   -4.0154035156804045e-05
-4.011562768596875e-06   3.2655182585468803e-07   -2.224419099396954e-05
-4.011562768596875e-06   3.2655182585468803e-07   -2.224419099396954e-05
-4.011562768596875e-06   3.2655182585468803e-07   -2.224419099396954e-05
-4.011562768596875e-06   3.2655182585468803e-07   -2.224419099396954e-05
-4.019362172255832e-06   1.321209854348779e-06   -3.9709353587019116e-05
-4.019362172255832e-06   1.321209854348779e-06   -3.9709353587019116e-05
-4.019362172255832e-06   1.321209854348779e-06   -3.9709353587019116e-05
-4.019362172255832e-06   1.321209854348779e-06   -3.9709353587019116e-05
-1.470215955788395e-05   1.3865273944357707e-06   -2.1943881801691063e-05
-1.470215955788395e-05   1.3865273944357707e-06   -2.1943881801691063e-05
-1.470215955788395e-05   1.3865273944357707e-06   -2.1943881801691063e-05
-1.470215955788395e-05   1.3865273944357707e-06   -2.1943881801691063e-05
-9.294739501515947e-06   9.342370989204275e-07   -3.068487438499524e-05
-9.294739501515947e-06   9.342370989204275e-07   -3.068487438499524e-05
-9.294739501515947e-06   9.342370989204275e-07   -3.068487438499524e-05
-9.294739501515947e-06   9.342370989204275e-07   -3.068487438499524e-05
-1.470215955788395e-05   1.321209854348779e-06   -3.974854411107129e-05
-1.470215955788395e-05   1.321209854348779e-06   -3.974854411107129e-05
-1.470215955788395e-05   1.321209854348779e-06   -3.974854411107129e-05
-1.470215955788395e-05   1.321209854348779e-06   -3.974854411107129e-05
-4.019362172255832e-06   1.3865273944357707e-06   -2.1904691277638863e-05
-4.019362172255832e-06   1.3865273944357707e-06   -2.1904691277638863e-05
-4.019362172255832e-06   1.3865273944357707e-06   -2.1904691277638863e-05
-4.019362172255832e-06   1.3865273944357707e-06   -2.1904691277638863e-05
-4.0054038134544035e-06   2.486185714408427e-06   -3.980986816026327e-05
-4.0054038134544035e-06   2.486185714408427e-06   -3.980986816026327e-05
-4.0054038134544035e-06   2.486185714408427e-06   -3.980986816026327e-05
-4.0054038134544035e-06   2.486185714408427e-06   -3.980986816026327e-05
-1.4691435363489961e-05   2.449898265820304e-06   -2.1978043107717806e-05
-1.4691435363489961e-05   2.449898265820304e-06   -2.1978043107717806e-05
-1.4691435363489961e-05   2.449898265820304e-06   -2.1978043107717806e-05
-1.4691435363489961e-05   2.449898265820304e-06   -2.1978043107717806e-05
-9.35707183840774e-06   1.8617337232145923e-06   -3.0515750257291408e-05
-9.35707183840774e-06   1.8617337232145923e-06   -3.0515750257291408e-05
-9.35707183840774e-06   1.8617337232145923e-06   -3.0515750257291408e-05
-9.35707183840774e-06   1.8617337232145923e-06   -3.0515750257291408e-05
-1.4691435363489961e-05   2.4861857144084813e-06   -3.978809569111038e-05
-1.4691435363489961e-05   2.4861857144084813e-06   -3.978809569111038e-05
-1.4691435363489961e-05   2.4861857144084813e-06   -3.978809569111038e-05
-1.4691435363489961e-05   2.4861857144084813e-06   -3.978809569111038e-05
-4.00540381345441e-06   2.449898265820304e-06   -2.1999815576870664e-05
-4.00540381345441e-06   2.449898265820304e-06   -2.1999815576870664e-05
-4.00540381345441e-06   2.449898265820304e-06   -2.1999815576870664e-05
-4.00540381345441e-06   2.449898265820304e-06   -2.1999815576870664e-05
-4.011749798852579e-06   3.6782088915648134e-06   -4.041178904050027e-05
-4.011749798852579e-06   3.6782088915648134e-06   -4.041178904050027e-05
-4.011749798852579e-06   3.6782088915648134e-06   -4.041178904050027e-05
-4.011749798852579e-06   3.6782088915648134e-06   -4.041178904050027e-05
-1.4703404965153836e-05   3.5318608772037016e-06   -2.2504554954714656e-05
-1.4703404965153836e-05   3.5318608772037016e-06   -2.2504554954714656e-05
-1.4703404965153836e-05   3.5318608772037016e-06   -2.2504554954714656e-05
-1.4703404965153836e-05   3.5318608772037016e-06   -2.2504554954714656e-05
-9.437618765362912e-06   2.801414467916343e-06   -3.084259744212724e-05
-9.437618765362912e-06   2.801414467916343e-06   -3.084259744212724e-05
-9.437618765362912e-06   2.801414467916343e-06   -3.084259744212724e-05
-9.437618765362912e-06   2.801414467916343e-06   -3.084259744212724e-05
-4.011562768596868e-06   -2.39887153728448e-06   -3.55532579170682e-05
-4.011562768596868e-06   -2.39887153728448e-06   -3.55532579170682e-05
-4.011562768596868e-06   -2.39887153728448e-06   -3.55532579170682e-05
-4.011562768596868e-06   -2.39887153728448e-06   -3.55532579170682e-05
6.513619861618709e-06   -1.1029633944231601e-06   -1.723374198099218e-05
6.513619861618709e-06   -1.1029633944231601e-06   -1.723374198099218e-05
6.513619861618709e-06   -1.1029633944231601e-06   -1.723374198099218e-05
6.513619861618709e-06   -1.1029633944231601e-06   -1.723374198099218e-05
6.599460776302756e-06   -1.3274097255918022e-06   -3.474307941485425e-05
6.599460776302756e-06   -1.3274097255918022e-06   -3.474307941485425e-05
6.599460776302756e-06   -1.3274097255918022e-06   -3.474307941485425e-05
6.599460776302756e-06   -1.3274097255918022e-06   -3.474307941485425e-05
-4.019362172255832e-06   -1.0414330868079719e-07   -1.7779001017403284e-05
-4.019362172255832e-06   -1.0414330868079719e-07   -1.7779001017403284e-05
-4.019362172255832e-06   -1.0414330868079719e-07   -1.7779001017403284e-05
-4.019362172255832e-06   -1.0414330868079719e-07   -1.7779001017403284e-05
1.2770863462983913e-06   -1.1411511641639446e-06   -2.5984210501703742e-05
1.2770863462983913e-06   -1.1411511641639446e-06   -2.5984210501703742e-05
1.2770863462983913e-06   -1.1411511641639446e-06   -2.5984210501703742e-05
1.2770863462983913e-06   -1.1411511641639446e-06   -2.5984210501703742e-05
-4.019362172255832e-06   -1.3274097255918022e-06   -3.5477039265000986e-05
-4.019362172255832e-06   -1.3274097255918022e-06   -3.5477039265000986e-05
-4.019362172255832e-06   -1.3274097255918022e-06   -3.5477039265000986e-05
-4.019362172255832e-06   -1.3274097255918022e-06   -3.5477039265000986e-05
6.5994607763027695e-06   -1.0414330868068877e-07   -1.7045041167256653e-05
6.5994607763027695e-06   -1.0414330868068877e-07   -1.7045041167256653e-05
6.5994607763027695e-06   -1.0414330868068877e-07   -1.7045041167256653e-05
6.5994607763027695e-06   -1.0414330868068877e-07   -1.7045041167256653e-05
6.802456706307206e-06   -2.749482433749657e-07   -3.547281301230433e-05
6.802456706307206e-06   -2.749482433749657e-07   -3.547281301230433e-05
6.802456706307206e-06   -2.749482433749657e-07   -3.547281301230433e-05
6.802456706307206e-06   -2.749482433749657e-07   -3.547281301230433e-05
-4.00540381345441e-06   8.56359772807608e-07   -1.8138496955744573e-05
-4.00540381345441e-06   8.56359772807608e-07   -1.8138496955744573e-05
-4.00540381345441e-06   8.56359772807608e-07   -1.8138496955744573e-05
-4.00540381345441e-06   8.56359772807608e-07   -1.8138496955744573e-05
1.216043919156517e-06   -3.101478075996037e-07   -2.6141005295185086e-05
1.216043919156517e-06   -3.101478075996037e-07   -2.6141005295185086e-05
1.216043919156517e-06   -3.101478075996037e-07   -2.6141005295185086e-05
1.216043919156517e-06   -3.101478075996037e-07   -2.6141005295185086e-05
-4.005403813454407e-06   -2.749482433749657e-07   -3.6151597822013843e-05
-4.005403813454407e-06   -2.749482433749657e-07   -3.6151597822013843e-05
-4.005403813454407e-06   -2.749482433749657e-07   -3.6151597822013843e-05
-4.005403813454407e-06   -2.749482433749657e-07   -3.6151597822013843e-05
6.802456706307233e-06   8.563597728077164e-07   -1.7459712146034956e-05
6.802456706307233e-06   8.563597728077164e-07   -1.7459712146034956e-05
6.802456706307233e-06   8.563597728077164e-07   -1.7459712146034956e-05
6.802456706307233e-06   8.563597728077164e-07   -1.7459712146034956e-05
6.901980308449509e-06   9.552123036676136e-07   -3.651842741055484e-05
6.901980308449509e-06   9.552123036676136e-07   -3.651842741055484e-05
6.901980308449509e-06   9.552123036676136e-07   -3.651842741055484e-05
6.901980308449509e-06   9.552123036676136e-07   -3.651842741055484e-05
-4.011749798852571e-06   1.9567867262456793e-06   -1.8929821885264783e-05
-4.011749798852571e-06   1.9567867262456793e-06   -1.8929821885264783e-05
-4.011749798852571e-06   1.9567867262456793e-06   -1.8929821885264783e-05
-4.011749798852571e-06   1.9567867262456793e-06   -1.8929821885264783e-05
1.252506054750591e-06   5.782801306592226e-07   -2.687647768391817e-05
1.252506054750591e-06   5.782801306592226e-07   -2.687647768391817e-05
1.252506054750591e-06   5.782801306592226e-07   -2.687647768391817e-05
1.252506054750591e-06   5.782801306592226e-07   -2.687647768391817e-05
6.5136198616186955e-06   -4.347846621528286e-06   -1.952750293908234e-05
6.5136198616186955e-06   -4.347846621528286e-06   -1.952750293908234e-05
6.5136198616186955e-06   -4.347846621528286e-06   -1.952750293908234e-05
6.5136198616186955e-06   -4.347846621528286e-06   -1.952750293908234e-05
1.5851278065122653e-05   -2.02431541270517e-06   -2.570620541281904e-06
1.5851278065122653e-05   -2.02431541270517e-06   -2.570620541281904e-06
1.5851278065122653e-05   -2.02431541270517e-06   -2.570620541281904e-06
1.5851278065122653e-05   -2.02431541270517e-06   -2.570620541281904e-06
1.6963998382072673e-05   -3.7296879364344935e-06   -2.049688080496713e-05
1.6963998382072673e-05   -3.7296879364344935e-06   -2.049688080496713e-05
1.6963998382072673e-05   -3.7296879364344935e-06   -2.049688080496713e-05
1.6963998382072673e-05   -3.7296879364344935e-06   -2.049688080496713e-05
6.5994607763027695e-06   -1.347238599709935e-06   -4.6521210640520214e-06
6.5994607763027695e-06   -1.347238599709935e-06   -4.6521210640520214e-06
6.5994607763027695e-06   -1.347238599709935e-06   -4.6521210640520214e-06
6.5994607763027695e-06   -1.347238599709935e-06   -4.6521210640520214e-06
1.0992502138966156e-05   -2.7735072147755738e-06   -1.111809549945162e-05
1.0992502138966156e-05   -2.7735072147755738e-06   -1.111809549945162e-05
1.0992502138966156e-05   -2.7735072147755738e-06   -1.111809549945162e-05
1.0992502138966156e-05   -2.7735072147755738e-06   -1.111809549945162e-05
6.5994607763027695e-06   -3.7296879364344935e-06   -2.192635040700172e-05
6.5994607763027695e-06   -3.7296879364344935e-06   -2.192635040700172e-05
6.5994607763027695e-06   -3.7296879364344935e-06   -2.192635040700172e-05
6.5994607763027695e-06   -3.7296879364344935e-06   -2.192635040700172e-05
1.696399838207262e-05   -1.347238599709935e-06   -3.222651462017243e-06
1.696399838207262e-05   -1.347238599709935e-06   -3.222651462017243e-06
1.696399838207262e-05   -1.347238599709935e-06   -3.222651462017243e-06
1.696399838207262e-05   -1.347238599709935e-06   -3.222651462017243e-06
1.7820935991821635e-05   -3.2003646209377416e-06   -2.247414388452943e-05
1.7820935991821635e-05   -3.2003646209377416e-06   -2.247414388452943e-05
1.7820935991821635e-05   -3.2003646209377416e-06   -2.247414388452943e-05
1.7820935991821635e-05   -3.2003646209377416e-06   -2.247414388452943e-05
6.802456706307233e-06   -8.803003954132747e-07   -5.502050277320097e-06
6.802456706307233e-06   -8.803003954132747e-07   -5.502050277320097e-06
6.802456706307233e-06   -8.803003954132747e-07   -5.502050277320097e-06
6.802456706307233e-06   -8.803003954132747e-07   -5.502050277320097e-06
1.1671665511575303e-05   -2.4255961974956877e-06   -1.2690220804850738e-05
1.1671665511575303e-05   -2.4255961974956877e-06   -1.2690220804850738e-05
1.1671665511575303e-05   -2.4255961974956877e-06   -1.2690220804850738e-05
1.1671665511575303e-05   -2.4255961974956877e-06   -1.2690220804850738e-05
6.80245670630722e-06   -3.2003646209377416e-06   -2.386618241984414e-05
6.80245670630722e-06   -3.2003646209377416e-06   -2.386618241984414e-05
6.80245670630722e-06   -3.2003646209377416e-06   -2.386618241984414e-05
6.80245670630722e-06   -3.2003646209377416e-06   -2.386618241984414e-05
1.782093599182158e-05   -8.803003954132747e-07   -4.110011742005249e-06
1.782093599182158e-05   -8.803003954132747e-07   -4.110011742005249e-06
1.782093599182158e-05   -8.803003954132747e-07   -4.110011742005249e-06
1.782093599182158e-05   -8.803003954132747e-07   -4.110011742005249e-06
1.896041064819044e-05   -2.0703281485087038e-06   -2.6268649007132135e-05
1.896041064819044e-05   -2.0703281485087038e-06   -2.6268649007132135e-05
1.896041064819044e-05   -2.0703281485087038e-06   -2.6268649007132135e-05
1.896041064819044e-05   -2.0703281485087038e-06   -2.6268649007132135e-05
6.901980308449522e-06   3.669430704276479e-08   -7.43547858089464e-06
6.901980308449522e-06   3.669430704276479e-08   -7.43547858089464e-06
6.901980308449522e-06   3.669430704276479e-08   -7.43547858089464e-06
6.901980308449522e-06   3.669430704276479e-08   -7.43547858089464e-06
1.1899331785791382e-05   -1.9093410645258223e-06   -1.4596776486856686e-05
1.1899331785791382e-05   -1.9093410645258223e-06   -1.4596776486856686e-05
1.1899331785791382e-05   -1.9093410645258223e-06   -1.4596776486856686e-05
1.1899331785791382e-05   -1.9093410645258223e-06   -1.4596776486856686e-05
-2.2657656065812662e-05   3.6520757033547567e-06   -2.1251571457886833e-05
-2.2657656065812662e-05   3.6520757033547567e-06   -2.1251571457886833e-05
-2.2657656065812662e-05   3.6520757033547567e-06   -2.1251571457886833e-05
-2.2657656065812662e-05   3.6520757033547567e-06   -2.1251571457886833e-05
-1.6746425719041635e-05   1.4852214736201137e-06   -1.2699633417775962e-05
-1.6746425719041635e-05   1.4852214736201137e-06   -1.2699633417775962e-05
-1.6746425719041635e-05   1.4852214736201137e-06   -1.2699633417775962e-05
-1.6746425719041635e-05   1.4852214736201137e-06   -1.2699633417775962e-05
-1.650103523942868e-05   4.6500135827687306e-06   -1.8747833443683048e-05
-1.650103523942868e-05   4.6500135827687306e-06   -1.8747833443683048e-05
-1.650103523942868e-05   4.6500135827687306e-06   -1.8747833443683048e-05
-1.650103523942868e-05   4.6500135827687306e-06   -1.8747833443683048e-05
-2.1424470162127306e-05   2.3150191627637363e-06   -9.141111920515444e-06
-2.1424470162127306e-05   2.3150191627637363e-06   -9.141111920515444e-06
-2.1424470162127306e-05   2.3150191627637363e-06   -9.141111920515444e-06
-2.1424470162127306e-05   2.3150191627637363e-06   -9.141111920515444e-06
-1.8513376353610254e-05   3.2764671576463074e-06   -1.4569803731641004e-05
-1.8513376353610254e-05   3.2764671576463074e-06   -1.4569803731641004e-05
-1.8513376353610254e-05   3.2764671576463074e-06   -1.4569803731641004e-05
-1.8513376353610254e-05   3.2764671576463074e-06   -1.4569803731641004e-05
-2.1424470162127306e-05   4.6500135827687306e-06   -1.7346836791680008e-05
-2.1424470162127306e-05   4.6500135827687306e-06   -1.7346836791680008e-05
-2.1424470162127306e-05   4.6500135827687306e-06   -1.7346836791680008e-05
-2.1424470162127306e-05   4.6500135827687306e-06   -1.7346836791680008e-05
-1.650103523942871e-05   2.3150191627637363e-06   -1.0542108572518565e-05
-1.650103523942871e-05   2.3150191627637363e-06   -1.0542108572518565e-05
-1.650103523942871e-05   2.3150191627637363e-06   -1.0542108572518565e-05
-1.650103523942871e-05   2.3150191627637363e-06   -1.0542108572518565e-05
-1.6150524160995382e-05   5.115386373706881e-06   -1.674041269174244e-05
-1.6150524160995382e-05   5.115386373706881e-06   -1.674041269174244e-05
-1.6150524160995382e-05   5.115386373706881e-06   -1.674041269174244e-05
-1.6150524160995382e-05   5.115386373706881e-06   -1.674041269174244e-05
-2.0441624334316047e-05   2.734797588707324e-06   -8.160225798541597e-06
-2.0441624334316047e-05   2.734797588707324e-06   -8.160225798541597e-06
-2.0441624334316047e-05   2.734797588707324e-06   -8.160225798541597e-06
-2.0441624334316047e-05   2.734797588707324e-06   -8.160225798541597e-06
-1.8188593628154766e-05   3.7244324687230306e-06   -1.2509057903486488e-05
-1.8188593628154766e-05   3.7244324687230306e-06   -1.2509057903486488e-05
-1.8188593628154766e-05   3.7244324687230306e-06   -1.2509057903486488e-05
-1.8188593628154766e-05   3.7244324687230306e-06   -1.2509057903486488e-05
-2.044162433431602e-05   5.115386373706881e-06   -1.5312059420742705e-05
-2.044162433431602e-05   5.115386373706881e-06   -1.5312059420742705e-05
-2.044162433431602e-05   5.115386373706881e-06   -1.5312059420742705e-05
-2.044162433431602e-05   5.115386373706881e-06   -1.5312059420742705e-05
-1.615052416099541e-05   2.734797588707324e-06   -9.588579069541277e-06
-1.615052416099541e-05   2.734797588707324e-06   -9.588579069541277e-06
-1.615052416099541e-05   2.734797588707324e-06   -9.588579069541277e-06
-1.615052416099541e-05   2.734797588707324e-06   -9.588579069541277e-06
-1.5912464668025743e-05   5.701211357011528e-06   -1.4166291237429165e-05
-1.5912464668025743e-05   5.701211357011528e-06   -1.4166291237429165e-05
-1.5912464668025743e-05   5.701211357011528e-06   -1.4166291237429165e-05
-1.5912464668025743e-05   5.701211357011528e-06   -1.4166291237429165e-05
-1.919031191965594e-05   3.400002893831958e-06   -7.322487406804298e-06
-1.919031191965594e-05   3.400002893831958e-06   -7.322487406804298e-06
-1.919031191965594e-05   3.400002893831958e-06   -7.322487406804298e-06
-1.919031191965594e-05   3.400002893831958e-06   -7.322487406804298e-06
-1.7339224243058087e-05   4.035827190029036e-06   -1.0789128112186042e-05
-1.7339224243058087e-05   4.035827190029036e-06   -1.0789128112186042e-05
-1.7339224243058087e-05   4.035827190029036e-06   -1.0789128112186042e-05
-1.7339224243058087e-05   4.035827190029036e-06   -1.0789128112186042e-05
-1.6746425719041635e-05   1.8899969625817527e-06   -3.100267228906521e-05
-1.6746425719041635e-05   1.8899969625817527e-06   -3.100267228906521e-05
-1.6746425719041635e-05   1.8899969625817527e-06   -3.100267228906521e-05
-1.6746425719041635e-05   1.8899969625817527e-06   -3.100267228906521e-05
-1.19414315653542e-05   8.555123955320551e-07   -2.3615039439816047e-05
-1.19414315653542e-05   8.555123955320551e-07   -2.3615039439816047e-05
-1.19414315653542e-05   8.555123955320551e-07   -2.3615039439816047e-05
-1.19414315653542e-05   8.555123955320551e-07   -2.3615039439816047e-05
-1.1781393085529013e-05   2.9438283410357802e-06   -3.08999256148128e-05
-1.1781393085529013e-05   2.9438283410357802e-06   -3.08999256148128e-05
-1.1781393085529013e-05   2.9438283410357802e-06   -3.08999256148128e-05
-1.1781393085529013e-05   2.9438283410357802e-06   -3.08999256148128e-05
-1.650103523942871e-05   1.8072902037126687e-06   -2.2351932475919223e-05
-1.650103523942871e-05   1.8072902037126687e-06   -2.2351932475919223e-05
-1.650103523942871e-05   1.8072902037126687e-06   -2.2351932475919223e-05
-1.650103523942871e-05   1.8072902037126687e-06   -2.2351932475919223e-05
-1.410369440189436e-05   2.0574932125992044e-06   -2.649762234380911e-05
-1.410369440189436e-05   2.0574932125992044e-06   -2.649762234380911e-05
-1.410369440189436e-05   2.0574932125992044e-06   -2.649762234380911e-05
-1.410369440189436e-05   2.0574932125992044e-06   -2.649762234380911e-05
-1.6501035239428654e-05   2.9438283410357802e-06   -3.021800273241877e-05
-1.6501035239428654e-05   2.9438283410357802e-06   -3.021800273241877e-05
-1.6501035239428654e-05   2.9438283410357802e-06   -3.021800273241877e-05
-1.6501035239428654e-05   2.9438283410357802e-06   -3.021800273241877e-05
-1.1781393085529013e-05   1.8072902037127771e-06   -2.30338553583132e-05
-1.1781393085529013e-05   1.8072902037127771e-06   -2.30338553583132e-05
-1.1781393085529013e-05   1.8072902037127771e-06   -2.30338553583132e-05
-1.1781393085529013e-05   1.8072902037127771e-06   -2.30338553583132e-05
-1.1604558480267057e-05   3.903151707242559e-06   -3.0400222035629554e-05
-1.1604558480267057e-05   3.903151707242559e-06   -3.0400222035629554e-05
-1.1604558480267057e-05   3.903151707242559e-06   -3.0400222035629554e-05
-1.1604558480267057e-05   3.903151707242559e-06   -3.0400222035629554e-05
-1.6150524160995464e-05   2.692733169053999e-06   -2.209736144483549e-05
-1.6150524160995464e-05   2.692733169053999e-06   -2.209736144483549e-05
-1.6150524160995464e-05   2.692733169053999e-06   -2.209736144483549e-05
-1.6150524160995464e-05   2.692733169053999e-06   -2.209736144483549e-05
-1.3892910006112641e-05   2.82751045553272e-06   -2.594091807486053e-05
-1.3892910006112641e-05   2.82751045553272e-06   -2.594091807486053e-05
-1.3892910006112641e-05   2.82751045553272e-06   -2.594091807486053e-05
-1.3892910006112641e-05   2.82751045553272e-06   -2.594091807486053e-05
-1.6150524160995382e-05   3.903151707242559e-06   -2.967397091271619e-05
-1.6150524160995382e-05   3.903151707242559e-06   -2.967397091271619e-05
-1.6150524160995382e-05   3.903151707242559e-06   -2.967397091271619e-05
-1.6150524160995382e-05   3.903151707242559e-06   -2.967397091271619e-05
-1.160455848026703e-05   2.6927331690538908e-06   -2.2823612567748636e-05
-1.160455848026703e-05   2.6927331690538908e-06   -2.2823612567748636e-05
-1.160455848026703e-05   2.6927331690538908e-06   -2.2823612567748636e-05
-1.160455848026703e-05   2.6927331690538908e-06   -2.2823612567748636e-05
-1.1447543588387059e-05   4.945598381826959e-06   -3.069504899979236e-05
-1.1447543588387059e-05   4.945598381826959e-06   -3.069504899979236e-05
-1.1447543588387059e-05   4.945598381826959e-06   -3.069504899979236e-05
-1.1447543588387059e-05   4.945598381826959e-06   -3.069504899979236e-05
-1.5912464668025797e-05   3.6770423149188203e-06   -2.2492380226915966e-05
-1.5912464668025797e-05   3.6770423149188203e-06   -2.2492380226915966e-05
-1.5912464668025797e-05   3.6770423149188203e-06   -2.2492380226915966e-05
-1.5912464668025797e-05   3.6770423149188203e-06   -2.2492380226915966e-05
-1.3811433386951726e-05   3.607919728250246e-06   -2.59526254767053e-05
-1.3811433386951726e-05   3.607919728250246e-06   -2.59526254767053e-05
-1.3811433386951726e-05   3.607919728250246e-06   -2.59526254767053e-05
-1.3811433386951726e-05   3.607919728250246e-06   -2.59526254767053e-05
-1.1941431565354159e-05   3.2655182585479645e-07   -3.506233394436222e-05
-1.1941431565354159e-05   3.2655182585479645e-07   -3.506233394436222e-05
-1.1941431565354159e-05   3.2655182585479645e-07   -3.506233394436222e-05
-1.1941431565354159e-05   3.2655182585479645e-07   -3.506233394436222e-05
-7.257454461034103e-06   4.921825622719892e-07   -2.7156326995311873e-05
-7.257454461034103e-06   4.921825622719892e-07   -2.7156326995311873e-05
-7.257454461034103e-06   4.921825622719892e-07   -2.7156326995311873e-05
-7.257454461034103e-06   4.921825622719892e-07   -2.7156326995311873e-05
-7.101637603068669e-06   1.3865273944357707e-06   -3.462054367062812e-05
-7.101637603068669e-06   1.3865273944357707e-06   -3.462054367062812e-05
-7.101637603068669e-06   1.3865273944357707e-06   -3.462054367062812e-05
-7.101637603068669e-06   1.3865273944357707e-06   -3.462054367062812e-05
-1.1781393085529013e-05   1.4620784857807346e-06   -2.6866281854667518e-05
-1.1781393085529013e-05   1.4620784857807346e-06   -2.6866281854667518e-05
-1.1781393085529013e-05   1.4620784857807346e-06   -2.6866281854667518e-05
-1.1781393085529013e-05   1.4620784857807346e-06   -2.6866281854667518e-05
-9.459412922486967e-06   1.052138000132998e-06   -3.049028450168297e-05
-9.459412922486967e-06   1.052138000132998e-06   -3.049028450168297e-05
-9.459412922486967e-06   1.052138000132998e-06   -3.049028450168297e-05
-9.459412922486967e-06   1.052138000132998e-06   -3.049028450168297e-05
-1.1781393085528985e-05   1.3865273944357707e-06   -3.4665874325434936e-05
-1.1781393085528985e-05   1.3865273944357707e-06   -3.4665874325434936e-05
-1.1781393085528985e-05   1.3865273944357707e-06   -3.4665874325434936e-05
-1.1781393085528985e-05   1.3865273944357707e-06   -3.4665874325434936e-05
-7.101637603068669e-06   1.4620784857807346e-06   -2.682095119986073e-05
-7.101637603068669e-06   1.4620784857807346e-06   -2.682095119986073e-05
-7.101637603068669e-06   1.4620784857807346e-06   -2.682095119986073e-05
-7.101637603068669e-06   1.4620784857807346e-06   -2.682095119986073e-05
-6.926051195119005e-06   2.4498982658201955e-06   -3.471037363198567e-05
-6.926051195119005e-06   2.4498982658201955e-06   -3.471037363198567e-05
-6.926051195119005e-06   2.4498982658201955e-06   -3.471037363198567e-05
-6.926051195119005e-06   2.4498982658201955e-06   -3.471037363198567e-05
-1.160455848026703e-05   2.4404485910974657e-06   -2.690719168523838e-05
-1.160455848026703e-05   2.4404485910974657e-06   -2.690719168523838e-05
-1.160455848026703e-05   2.4404485910974657e-06   -2.690719168523838e-05
-1.160455848026703e-05   2.4404485910974657e-06   -2.690719168523838e-05
-9.355395210858854e-06   1.8857774928215075e-06   -3.0322994475286624e-05
-9.355395210858854e-06   1.8857774928215075e-06   -3.0322994475286624e-05
-9.355395210858854e-06   1.8857774928215075e-06   -3.0322994475286624e-05
-9.355395210858854e-06   1.8857774928215075e-06   -3.0322994475286624e-05
-1.1604558480267016e-05   2.4498982658201955e-06   -3.470470382715187e-05
-1.1604558480267016e-05   2.4498982658201955e-06   -3.470470382715187e-05
-1.1604558480267016e-05   2.4498982658201955e-06   -3.470470382715187e-05
-1.1604558480267016e-05   2.4498982658201955e-06   -3.470470382715187e-05
-6.926051195119017e-06   2.4404485910974657e-06   -2.691286149007218e-05
-6.926051195119017e-06   2.4404485910974657e-06   -2.691286149007218e-05
-6.926051195119017e-06   2.4404485910974657e-06   -2.691286149007218e-05
-6.926051195119017e-06   2.4404485910974657e-06   -2.691286149007218e-05
-6.768381117821381e-06   3.5318608772037016e-06   -3.5294530852273765e-05
-6.768381117821381e-06   3.5318608772037016e-06   -3.5294530852273765e-05
-6.768381117821381e-06   3.5318608772037016e-06   -3.5294530852273765e-05
-6.768381117821381e-06   3.5318608772037016e-06   -3.5294530852273765e-05
-1.1447543588387059e-05   3.433610018929202e-06   -2.7436976219699465e-05
-1.1447543588387059e-05   3.433610018929202e-06   -2.7436976219699465e-05
-1.1447543588387059e-05   3.433610018929202e-06   -2.7436976219699465e-05
-1.1447543588387059e-05   3.433610018929202e-06   -2.7436976219699465e-05
-9.269684175102988e-06   2.730508095184574e-06   -3.064488075425967e-05
-9.269684175102988e-06   2.730508095184574e-06   -3.064488075425967e-05
-9.269684175102988e-06   2.730508095184574e-06   -3.064488075425967e-05
-9.269684175102988e-06   2.730508095184574e-06   -3.064488075425967e-05
-7.257454461034078e-06   -1.1029633944232686e-06   -3.073005137525125e-05
-7.257454461034078e-06   -1.1029633944232686e-06   -3.073005137525125e-05
-7.257454461034078e-06   -1.1029633944232686e-06   -3.073005137525125e-05
-7.257454461034078e-06   -1.1029633944232686e-06   -3.073005137525125e-05
-2.718335102106081e-06   2.1375041834345142e-07   -2.237482415604476e-05
-2.718335102106081e-06   2.1375041834345142e-07   -2.237482415604476e-05
-2.718335102106081e-06   2.1375041834345142e-07   -2.237482415604476e-05
-2.718335102106081e-06   2.1375041834345142e-07   -2.237482415604476e-05
-2.4848486337144334e-06   -1.0414330868079719e-07   -2.974018690677998e-05
-2.4848486337144334e-06   -1.0414330868079719e-07   -2.974018690677998e-05
-2.4848486337144334e-06   -1.0414330868079719e-07   -2.974018690677998e-05
-2.4848486337144334e-06   -1.0414330868079719e-07   -2.974018690677998e-05
-7.101637603068657e-06   1.1536341973401995e-06   -2.2800205128135152e-05
-7.101637603068657e-06   1.1536341973401995e-06   -2.2800205128135152e-05
-7.101637603068657e-06   1.1536341973401995e-06   -2.2800205128135152e-05
-7.101637603068657e-06   1.1536341973401995e-06   -2.2800205128135152e-05
-4.8411940457573015e-06   1.3811842323769186e-07   -2.5958301592526395e-05
-4.8411940457573015e-06   1.3811842323769186e-07   -2.5958301592526395e-05
-4.8411940457573015e-06   1.3811842323769186e-07   -2.5958301592526395e-05
-4.8411940457573015e-06   1.3811842323769186e-07   -2.5958301592526395e-05
-7.1016376030686444e-06   -1.0414330868068877e-07   -3.0494853410392426e-05
-7.1016376030686444e-06   -1.0414330868068877e-07   -3.0494853410392426e-05
-7.1016376030686444e-06   -1.0414330868068877e-07   -3.0494853410392426e-05
-7.1016376030686444e-06   -1.0414330868068877e-07   -3.0494853410392426e-05
-2.48484863371442e-06   1.1536341973401995e-06   -2.2045538624522747e-05
-2.48484863371442e-06   1.1536341973401995e-06   -2.2045538624522747e-05
-2.48484863371442e-06   1.1536341973401995e-06   -2.2045538624522747e-05
-2.48484863371442e-06   1.1536341973401995e-06   -2.2045538624522747e-05
-2.1370920628682575e-06   8.563597728077164e-07   -3.0139496542907313e-05
-2.1370920628682575e-06   8.563597728077164e-07   -3.0139496542907313e-05
-2.1370920628682575e-06   8.563597728077164e-07   -3.0139496542907313e-05
-2.1370920628682575e-06   8.563597728077164e-07   -3.0139496542907313e-05
-6.926051195119005e-06   2.0389572193943483e-06   -2.286745645710807e-05
-6.926051195119005e-06   2.0389572193943483e-06   -2.286745645710807e-05
-6.926051195119005e-06   2.0389572193943483e-06   -2.286745645710807e-05
-6.926051195119005e-06   2.0389572193943483e-06   -2.286745645710807e-05
-4.700349395236127e-06   8.971960723778722e-07   -2.5891902768703027e-05
-4.700349395236127e-06   8.971960723778722e-07   -2.5891902768703027e-05
-4.700349395236127e-06   8.971960723778722e-07   -2.5891902768703027e-05
-4.700349395236127e-06   8.971960723778722e-07   -2.5891902768703027e-05
-6.9260511951189875e-06   8.563597728077164e-07   -3.0849055010859206e-05
-6.9260511951189875e-06   8.563597728077164e-07   -3.0849055010859206e-05
-6.9260511951189875e-06   8.563597728077164e-07   -3.0849055010859206e-05
-6.9260511951189875e-06   8.563597728077164e-07   -3.0849055010859206e-05
-2.137092062868271e-06   2.0389572193943483e-06   -2.2157897989155987e-05
-2.137092062868271e-06   2.0389572193943483e-06   -2.2157897989155987e-05
-2.137092062868271e-06   2.0389572193943483e-06   -2.2157897989155987e-05
-2.137092062868271e-06   2.0389572193943483e-06   -2.2157897989155987e-05
-1.8944749591617009e-06   1.9567867262456793e-06   -3.09823354144494e-05
-1.8944749591617009e-06   1.9567867262456793e-06   -3.09823354144494e-05
-1.8944749591617009e-06   1.9567867262456793e-06   -3.09823354144494e-05
-1.8944749591617009e-06   1.9567867262456793e-06   -3.09823354144494e-05
-6.768381117821381e-06   3.039542659175336e-06   -2.3508812043107594e-05
-6.768381117821381e-06   3.039542659175336e-06   -2.3508812043107594e-05
-6.768381117821381e-06   3.039542659175336e-06   -2.3508812043107594e-05
-6.768381117821381e-06   3.039542659175336e-06   -2.3508812043107594e-05
-4.553110476117086e-06   1.6923045770254625e-06   -2.6392586929991615e-05
-4.553110476117086e-06   1.6923045770254625e-06   -2.6392586929991615e-05
-4.553110476117086e-06   1.6923045770254625e-06   -2.6392586929991615e-05
-4.553110476117086e-06   1.6923045770254625e-06   -2.6392586929991615e-05
-2.7183351021060675e-06   -2.02431541270517e-06   -1.6671020373174993e-05
-2.7183351021060675e-06   -2.02431541270517e-06   -1.6671020373174993e-05
-2.7183351021060675e-06   -2.02431541270517e-06   -1.6671020373174993e-05
-2.7183351021060675e-06   -2.02431541270517e-06   -1.6671020373174993e-05
6.250994997060563e-07   3.0016988091050717e-07   -9.703938193985294e-06
6.250994997060563e-07   3.0016988091050717e-07   -9.703938193985294e-06
6.250994997060563e-07   3.0016988091050717e-07   -9.703938193985294e-06
6.250994997060563e-07   3.0016988091050717e-07   -9.703938193985294e-06
1.8641990861786894e-06   -1.347238599709935e-06   -1.591281398899034e-05
1.8641990861786894e-06   -1.347238599709935e-06   -1.591281398899034e-05
1.8641990861786894e-06   -1.347238599709935e-06   -1.591281398899034e-05
1.8641990861786894e-06   -1.347238599709935e-06   -1.591281398899034e-05
-2.4848486337144334e-06   1.0435160912650437e-06   -1.009885393708654e-05
-2.4848486337144334e-06   1.0435160912650437e-06   -1.009885393708654e-05
-2.4848486337144334e-06   1.0435160912650437e-06   -1.009885393708654e-05
-2.4848486337144334e-06   1.0435160912650437e-06   -1.009885393708654e-05
-6.599352897102581e-07   -4.0708479231380684e-07   -1.227001564694651e-05
-6.599352897102581e-07   -4.0708479231380684e-07   -1.227001564694651e-05
-6.599352897102581e-07   -4.0708479231380684e-07   -1.227001564694651e-05
-6.599352897102581e-07   -4.0708479231380684e-07   -1.227001564694651e-05
-2.48484863371442e-06   -1.347238599709935e-06   -1.7347266803575132e-05
-2.48484863371442e-06   -1.347238599709935e-06   -1.7347266803575132e-05
-2.48484863371442e-06   -1.347238599709935e-06   -1.7347266803575132e-05
-2.48484863371442e-06   -1.347238599709935e-06   -1.7347266803575132e-05
1.8641990861786623e-06   1.0435160912650437e-06   -8.664401122501666e-06
1.8641990861786623e-06   1.0435160912650437e-06   -8.664401122501666e-06
1.8641990861786623e-06   1.0435160912650437e-06   -8.664401122501666e-06
1.8641990861786623e-06   1.0435160912650437e-06   -8.664401122501666e-06
2.8427523403711517e-06   -8.803003954132747e-07   -1.6776855214352328e-05
2.8427523403711517e-06   -8.803003954132747e-07   -1.6776855214352328e-05
2.8427523403711517e-06   -8.803003954132747e-07   -1.6776855214352328e-05
2.8427523403711517e-06   -8.803003954132747e-07   -1.6776855214352328e-05
-2.137092062868271e-06   1.461332037653684e-06   -9.88209400212665e-06
-2.137092062868271e-06   1.461332037653684e-06   -9.88209400212665e-06
-2.137092062868271e-06   1.461332037653684e-06   -9.88209400212665e-06
-2.137092062868271e-06   1.461332037653684e-06   -9.88209400212665e-06
-3.261017928628452e-08   -5.075419372410281e-08   -1.2482312069269833e-05
-3.261017928628452e-08   -5.075419372410281e-08   -1.2482312069269833e-05
-3.261017928628452e-08   -5.075419372410281e-08   -1.2482312069269833e-05
-3.261017928628452e-08   -5.075419372410281e-08   -1.2482312069269833e-05
-2.1370920628682575e-06   -8.803003954132747e-07   -1.818183467419232e-05
-2.1370920628682575e-06   -8.803003954132747e-07   -1.818183467419232e-05
-2.1370920628682575e-06   -8.803003954132747e-07   -1.818183467419232e-05
-2.1370920628682575e-06   -8.803003954132747e-07   -1.818183467419232e-05
2.8427523403711246e-06   1.461332037653684e-06   -8.47711454228647e-06
2.8427523403711246e-06   1.461332037653684e-06   -8.47711454228647e-06
2.8427523403711246e-06   1.461332037653684e-06   -8.47711454228647e-06
2.8427523403711246e-06   1.461332037653684e-06   -8.47711454228647e-06
4.078490325893817e-06   3.669430704276479e-08   -1.87902616179611e-05
4.078490325893817e-06   3.669430704276479e-08   -1.87902616179611e-05
4.078490325893817e-06   3.669430704276479e-08   -1.87902616179611e-05
4.078490325893817e-06   3.669430704276479e-08   -1.87902616179611e-05
-1.8944749591617009e-06   2.2011528831513034e-06   -1.0133994621866753e-05
-1.8944749591617009e-06   2.2011528831513034e-06   -1.0133994621866753e-05
-1.8944749591617009e-06   2.2011528831513034e-06   -1.0133994621866753e-05
-1.8944749591617009e-06   2.2011528831513034e-06   -1.0133994621866753e-05
5.085727671685694e-07   3.548588480745173e-07   -1.303129774470475e-05
5.085727671685694e-07   3.548588480745173e-07   -1.303129774470475e-05
5.085727671685694e-07   3.548588480745173e-07   -1.303129774470475e-05
5.085727671685694e-07   3.548588480745173e-07   -1.303129774470475e-05
-7.864158554292421e-06   1.4852214736201137e-06   -1.4142928335638153e-05
-7.864158554292421e-06   1.4852214736201137e-06   -1.4142928335638153e-05
-7.864158554292421e-06   1.4852214736201137e-06   -1.4142928335638153e-05
-7.864158554292421e-06   1.4852214736201137e-06   -1.4142928335638153e-05
-7.99810374353644e-06   -6.950650458398006e-07   -1.5674342229387542e-05
-7.99810374353644e-06   -6.950650458398006e-07   -1.5674342229387542e-05
-7.99810374353644e-06   -6.950650458398006e-07   -1.5674342229387542e-05
-7.99810374353644e-06   -6.950650458398006e-07   -1.5674342229387542e-05
-7.599135840066388e-06   2.3150191627637363e-06   -1.3289005529330562e-05
-7.599135840066388e-06   2.3150191627637363e-06   -1.3289005529330562e-05
-7.599135840066388e-06   2.3150191627637363e-06   -1.3289005529330562e-05
-7.599135840066388e-06   2.3150191627637363e-06   -1.3289005529330562e-05
-6.48534544478663e-06   -2.4346520990448442e-08   -1.3741703444544479e-05
-6.48534544478663e-06   -2.4346520990448442e-08   -1.3741703444544479e-05
-6.48534544478663e-06   -2.4346520990448442e-08   -1.3741703444544479e-05
-6.48534544478663e-06   -2.4346520990448442e-08   -1.3741703444544479e-05
-7.159575610205161e-06   1.0226349151857932e-06   -1.3246175363886459e-05
-7.159575610205161e-06   1.0226349151857932e-06   -1.3246175363886459e-05
-7.159575610205161e-06   1.0226349151857932e-06   -1.3246175363886459e-05
-7.159575610205161e-06   1.0226349151857932e-06   -1.3246175363886459e-05
-6.48534544478663e-06   2.3150191627637363e-06   -1.1885386119078224e-05
-6.48534544478663e-06   2.3150191627637363e-06   -1.1885386119078224e-05
-6.48534544478663e-06   2.3150191627637363e-06   -1.1885386119078224e-05
-6.48534544478663e-06   2.3150191627637363e-06   -1.1885386119078224e-05
-7.599135840066388e-06   -2.4346520990448442e-08   -1.5145322854796979e-05
-7.599135840066388e-06   -2.4346520990448442e-08   -1.5145322854796979e-05
-7.599135840066388e-06   -2.4346520990448442e-08   -1.5145322854796979e-05
-7.599135840066388e-06   -2.4346520990448442e-08   -1.5145322854796979e-05
-7.09551941454291e-06   2.734797588707324e-06   -1.2332036173304901e-05
-7.09551941454291e-06   2.734797588707324e-06   -1.2332036173304901e-05
-7.09551941454291e-06   2.734797588707324e-06   -1.2332036173304901e-05
-7.09551941454291e-06   2.734797588707324e-06   -1.2332036173304901e-05
-5.346095735522794e-06   3.556725823685488e-07   -1.3820267301201626e-05
-5.346095735522794e-06   3.556725823685488e-07   -1.3820267301201626e-05
-5.346095735522794e-06   3.556725823685488e-07   -1.3820267301201626e-05
-5.346095735522794e-06   3.556725823685488e-07   -1.3820267301201626e-05
-6.507696270947159e-06   1.3673217785529698e-06   -1.2491255926538804e-05
-6.507696270947159e-06   1.3673217785529698e-06   -1.2491255926538804e-05
-6.507696270947159e-06   1.3673217785529698e-06   -1.2491255926538804e-05
-6.507696270947159e-06   1.3673217785529698e-06   -1.2491255926538804e-05
-5.3460957355227394e-06   2.734797588707324e-06   -1.090456116950144e-05
-5.3460957355227394e-06   2.734797588707324e-06   -1.090456116950144e-05
-5.3460957355227394e-06   2.734797588707324e-06   -1.090456116950144e-05
-5.3460957355227394e-06   2.734797588707324e-06   -1.090456116950144e-05
-7.09551941454291e-06   3.556725823685488e-07   -1.5247742305004978e-05
-7.09551941454291e-06   3.556725823685488e-07   -1.5247742305004978e-05
-7.09551941454291e-06   3.556725823685488e-07   -1.5247742305004978e-05
-7.09551941454291e-06   3.556725823685488e-07   -1.5247742305004978e-05
-6.703509935077095e-06   3.400002893831958e-06   -1.144337736773914e-05
-6.703509935077095e-06   3.400002893831958e-06   -1.144337736773914e-05
-6.703509935077095e-06   3.400002893831958e-06   -1.144337736773914e-05
-6.703509935077095e-06   3.400002893831958e-06   -1.144337736773914e-05
-3.939486952087598e-06   1.1133867770722443e-06   -1.4678112669332371e-05
-3.939486952087598e-06   1.1133867770722443e-06   -1.4678112669332371e-05
-3.939486952087598e-06   1.1133867770722443e-06   -1.4678112669332371e-05
-3.939486952087598e-06   1.1133867770722443e-06   -1.4678112669332371e-05
-5.693609038032356e-06   1.6984039725507875e-06   -1.2105586176711439e-05
-5.693609038032356e-06   1.6984039725507875e-06   -1.2105586176711439e-05
-5.693609038032356e-06   1.6984039725507875e-06   -1.2105586176711439e-05
-5.693609038032356e-06   1.6984039725507875e-06   -1.2105586176711439e-05
-7.99810374353644e-06   8.555123955320551e-07   -2.5745815529124353e-05
-7.99810374353644e-06   8.555123955320551e-07   -2.5745815529124353e-05
-7.99810374353644e-06   8.555123955320551e-07   -2.5745815529124353e-05
-7.99810374353644e-06   8.555123955320551e-07   -2.5745815529124353e-05
-9.237319285649494e-06   -1.4860071194063885e-07   -2.8413642630463086e-05
-9.237319285649494e-06   -1.4860071194063885e-07   -2.8413642630463086e-05
-9.237319285649494e-06   -1.4860071194063885e-07   -2.8413642630463086e-05
-9.237319285649494e-06   -1.4860071194063885e-07   -2.8413642630463086e-05
-8.915600680468817e-06   1.8072902037127771e-06   -2.576436266682816e-05
-8.915600680468817e-06   1.8072902037127771e-06   -2.576436266682816e-05
-8.915600680468817e-06   1.8072902037127771e-06   -2.576436266682816e-05
-8.915600680468817e-06   1.8072902037127771e-06   -2.576436266682816e-05
-7.599135840066388e-06   6.980681468849847e-07   -2.729293750006873e-05
-7.599135840066388e-06   6.980681468849847e-07   -2.729293750006873e-05
-7.599135840066388e-06   6.980681468849847e-07   -2.729293750006873e-05
-7.599135840066388e-06   6.980681468849847e-07   -2.729293750006873e-05
-8.339313211505549e-06   9.894481279326163e-07   -2.623413653629912e-05
-8.339313211505549e-06   9.894481279326163e-07   -2.623413653629912e-05
-8.339313211505549e-06   9.894481279326163e-07   -2.623413653629912e-05
-8.339313211505549e-06   9.894481279326163e-07   -2.623413653629912e-05
-7.599135840066361e-06   1.8072902037127771e-06   -2.5098829432731356e-05
-7.599135840066361e-06   1.8072902037127771e-06   -2.5098829432731356e-05
-7.599135840066361e-06   1.8072902037127771e-06   -2.5098829432731356e-05
-7.599135840066361e-06   1.8072902037127771e-06   -2.5098829432731356e-05
-8.915600680468804e-06   6.980681468849847e-07   -2.795847073416548e-05
-8.915600680468804e-06   6.980681468849847e-07   -2.795847073416548e-05
-8.915600680468804e-06   6.980681468849847e-07   -2.795847073416548e-05
-8.915600680468804e-06   6.980681468849847e-07   -2.795847073416548e-05
-8.580942343225929e-06   2.692733169053999e-06   -2.554828731583369e-05
-8.580942343225929e-06   2.692733169053999e-06   -2.554828731583369e-05
-8.580942343225929e-06   2.692733169053999e-06   -2.554828731583369e-05
-8.580942343225929e-06   2.692733169053999e-06   -2.554828731583369e-05
-7.0955194145429375e-06   1.5136185569960669e-06   -2.731652342973721e-05
-7.0955194145429375e-06   1.5136185569960669e-06   -2.731652342973721e-05
-7.0955194145429375e-06   1.5136185569960669e-06   -2.731652342973721e-05
-7.0955194145429375e-06   1.5136185569960669e-06   -2.731652342973721e-05
-8.016990474496548e-06   1.6725506250488999e-06   -2.5876097570646313e-05
-8.016990474496548e-06   1.6725506250488999e-06   -2.5876097570646313e-05
-8.016990474496548e-06   1.6725506250488999e-06   -2.5876097570646313e-05
-8.016990474496548e-06   1.6725506250488999e-06   -2.5876097570646313e-05
-7.09551941454291e-06   2.6927331690538908e-06   -2.484081854859895e-05
-7.09551941454291e-06   2.6927331690538908e-06   -2.484081854859895e-05
-7.09551941454291e-06   2.6927331690538908e-06   -2.484081854859895e-05
-7.09551941454291e-06   2.6927331690538908e-06   -2.484081854859895e-05
-8.580942343225901e-06   1.5136185569960669e-06   -2.8023992196971894e-05
-8.580942343225901e-06   1.5136185569960669e-06   -2.8023992196971894e-05
-8.580942343225901e-06   1.5136185569960669e-06   -2.8023992196971894e-05
-8.580942343225901e-06   1.5136185569960669e-06   -2.8023992196971894e-05
-8.265978181381763e-06   3.6770423149188203e-06   -2.597159202300881e-05
-8.265978181381763e-06   3.6770423149188203e-06   -2.597159202300881e-05
-8.265978181381763e-06   3.6770423149188203e-06   -2.597159202300881e-05
-8.265978181381763e-06   3.6770423149188203e-06   -2.597159202300881e-05
-6.703509935077122e-06   2.4452974598091794e-06   -2.7836658853784026e-05
-6.703509935077122e-06   2.4452974598091794e-06   -2.7836658853784026e-05
-6.703509935077122e-06   2.4452974598091794e-06   -2.7836658853784026e-05
-6.703509935077122e-06   2.4452974598091794e-06   -2.7836658853784026e-05
-7.73367061076767e-06   2.3895815488819607e-06   -2.6086294847743477e-05
-7.73367061076767e-06   2.3895815488819607e-06   -2.6086294847743477e-05
-7.73367061076767e-06   2.3895815488819607e-06   -2.6086294847743477e-05
-7.73367061076767e-06   2.3895815488819607e-06   -2.6086294847743477e-05
-9.237319285649467e-06   4.921825622719892e-07   -2.9988949390954197e-05
-9.237319285649467e-06   4.921825622719892e-07   -2.9988949390954197e-05
-9.237319285649467e-06   4.921825622719892e-07   -2.9988949390954197e-05
-9.237319285649467e-06   4.921825622719892e-07   -2.9988949390954197e-05
-1.0539238238452896e-05   7.048604609158696e-07   -3.203120757310689e-05
-1.0539238238452896e-05   7.048604609158696e-07   -3.203120757310689e-05
-1.0539238238452896e-05   7.048604609158696e-07   -3.203120757310689e-05
-1.0539238238452896e-05   7.048604609158696e-07   -3.203120757310689e-05
-1.0223216874911245e-05   1.4620784857806261e-06   -2.9525751031383974e-05
-1.0223216874911245e-05   1.4620784857806261e-06   -2.9525751031383974e-05
-1.0223216874911245e-05   1.4620784857806261e-06   -2.9525751031383974e-05
-1.0223216874911245e-05   1.4620784857806261e-06   -2.9525751031383974e-05
-8.915600680468804e-06   1.580475372111624e-06   -3.1776149487253266e-05
-8.915600680468804e-06   1.580475372111624e-06   -3.1776149487253266e-05
-8.915600680468804e-06   1.580475372111624e-06   -3.1776149487253266e-05
-8.915600680468804e-06   1.580475372111624e-06   -3.1776149487253266e-05
-9.670257229485764e-06   1.196432349238408e-06   -3.0287962758501275e-05
-9.670257229485764e-06   1.196432349238408e-06   -3.0287962758501275e-05
-9.670257229485764e-06   1.196432349238408e-06   -3.0287962758501275e-05
-9.670257229485764e-06   1.196432349238408e-06   -3.0287962758501275e-05
-8.91560068046879e-06   1.4620784857807346e-06   -2.9596789163182616e-05
-8.91560068046879e-06   1.4620784857807346e-06   -2.9596789163182616e-05
-8.91560068046879e-06   1.4620784857807346e-06   -2.9596789163182616e-05
-8.91560068046879e-06   1.4620784857807346e-06   -2.9596789163182616e-05
-1.0223216874911262e-05   1.580475372111624e-06   -3.170511135545484e-05
-1.0223216874911262e-05   1.580475372111624e-06   -3.170511135545484e-05
-1.0223216874911262e-05   1.580475372111624e-06   -3.170511135545484e-05
-1.0223216874911262e-05   1.580475372111624e-06   -3.170511135545484e-05
-9.890603817515863e-06   2.4404485910973573e-06   -2.961098091482431e-05
-9.890603817515863e-06   2.4404485910973573e-06   -2.961098091482431e-05
-9.890603817515863e-06   2.4404485910973573e-06   -2.961098091482431e-05
-9.890603817515863e-06   2.4404485910973573e-06   -2.961098091482431e-05
-8.580942343225929e-06   2.4752577885962888e-06   -3.1814635557139974e-05
-8.580942343225929e-06   2.4752577885962888e-06   -3.1814635557139974e-05
-8.580942343225929e-06   2.4752577885962888e-06   -3.1814635557139974e-05
-8.580942343225929e-06   2.4752577885962888e-06   -3.1814635557139974e-05
-9.40539941818335e-06   1.9458181042678654e-06   -3.0122876621614377e-05
-9.40539941818335e-06   1.9458181042678654e-06   -3.0122876621614377e-05
-9.40539941818335e-06   1.9458181042678654e-06   -3.0122876621614377e-05
-9.40539941818335e-06   1.9458181042678654e-06   -3.0122876621614377e-05
-8.580942343225901e-06   2.4404485910974657e-06   -2.963186643332343e-05
-8.580942343225901e-06   2.4404485910974657e-06   -2.963186643332343e-05
-8.580942343225901e-06   2.4404485910974657e-06   -2.963186643332343e-05
-8.580942343225901e-06   2.4404485910974657e-06   -2.963186643332343e-05
-9.890603817515863e-06   2.4752577885962888e-06   -3.179375003864069e-05
-9.890603817515863e-06   2.4752577885962888e-06   -3.179375003864069e-05
-9.890603817515863e-06   2.4752577885962888e-06   -3.179375003864069e-05
-9.890603817515863e-06   2.4752577885962888e-06   -3.179375003864069e-05
-9.576964608068647e-06   3.433610018929202e-06   -3.018574259169805e-05
-9.576964608068647e-06   3.433610018929202e-06   -3.018574259169805e-05
-9.576964608068647e-06   3.433610018929202e-06   -3.018574259169805e-05
-9.576964608068647e-06   3.433610018929202e-06   -3.018574259169805e-05
-8.265978181381777e-06   3.382462992178358e-06   -3.234003175345878e-05
-8.265978181381777e-06   3.382462992178358e-06   -3.234003175345878e-05
-8.265978181381777e-06   3.382462992178358e-06   -3.234003175345878e-05
-8.265978181381777e-06   3.382462992178358e-06   -3.234003175345878e-05
-9.161840258997256e-06   2.705706904562429e-06   -3.0440874638196734e-05
-9.161840258997256e-06   2.705706904562429e-06   -3.0440874638196734e-05
-9.161840258997256e-06   2.705706904562429e-06   -3.0440874638196734e-05
-9.161840258997256e-06   2.705706904562429e-06   -3.0440874638196734e-05
-1.0539238238452863e-05   2.13750418343343e-07   -2.5869868100160637e-05
-1.0539238238452863e-05   2.13750418343343e-07   -2.5869868100160637e-05
-1.0539238238452863e-05   2.13750418343343e-07   -2.5869868100160637e-05
-1.0539238238452863e-05   2.13750418343343e-07   -2.5869868100160637e-05
-1.1916106667703152e-05   1.5655425615482364e-06   -2.735357352965501e-05
-1.1916106667703152e-05   1.5655425615482364e-06   -2.735357352965501e-05
-1.1916106667703152e-05   1.5655425615482364e-06   -2.735357352965501e-05
-1.1916106667703152e-05   1.5655425615482364e-06   -2.735357352965501e-05
-1.15332755457903e-05   1.1536341973401995e-06   -2.4730554718789717e-05
-1.15332755457903e-05   1.1536341973401995e-06   -2.4730554718789717e-05
-1.15332755457903e-05   1.1536341973401995e-06   -2.4730554718789717e-05
-1.15332755457903e-05   1.1536341973401995e-06   -2.4730554718789717e-05
-1.0223216874911245e-05   2.444384598788681e-06   -2.768843607779021e-05
-1.0223216874911245e-05   2.444384598788681e-06   -2.768843607779021e-05
-1.0223216874911245e-05   2.444384598788681e-06   -2.768843607779021e-05
-1.0223216874911245e-05   2.444384598788681e-06   -2.768843607779021e-05
-1.0967464585291531e-05   1.4420303844559553e-06   -2.584661069855726e-05
-1.0967464585291531e-05   1.4420303844559553e-06   -2.584661069855726e-05
-1.0967464585291531e-05   1.4420303844559553e-06   -2.584661069855726e-05
-1.0967464585291531e-05   1.4420303844559553e-06   -2.584661069855726e-05
-1.0223216874911227e-05   1.153634197340091e-06   -2.5505004959658546e-05
-1.0223216874911227e-05   1.153634197340091e-06   -2.5505004959658546e-05
-1.0223216874911227e-05   1.153634197340091e-06   -2.5505004959658546e-05
-1.0223216874911227e-05   1.153634197340091e-06   -2.5505004959658546e-05
-1.15332755457903e-05   2.444384598788464e-06   -2.6913985836921365e-05
-1.15332755457903e-05   2.444384598788464e-06   -2.6913985836921365e-05
-1.15332755457903e-05   2.444384598788464e-06   -2.6913985836921365e-05
-1.15332755457903e-05   2.444384598788464e-06   -2.6913985836921365e-05
-1.1037500275796859e-05   2.0389572193943483e-06   -2.4836068518024998e-05
-1.1037500275796859e-05   2.0389572193943483e-06   -2.4836068518024998e-05
-1.1037500275796859e-05   2.0389572193943483e-06   -2.4836068518024998e-05
-1.1037500275796859e-05   2.0389572193943483e-06   -2.4836068518024998e-05
-9.890603817515844e-06   3.2548028257863796e-06   -2.747706997899506e-05
-9.890603817515844e-06   3.2548028257863796e-06   -2.747706997899506e-05
-9.890603817515844e-06   3.2548028257863796e-06   -2.747706997899506e-05
-9.890603817515844e-06   3.2548028257863796e-06   -2.747706997899506e-05
-1.062525805617346e-05   2.1395746342264474e-06   -2.5583509332963476e-05
-1.062525805617346e-05   2.1395746342264474e-06   -2.5583509332963476e-05
-1.062525805617346e-05   2.1395746342264474e-06   -2.5583509332963476e-05
-1.062525805617346e-05   2.1395746342264474e-06   -2.5583509332963476e-05
-9.890603817515817e-06   2.0389572193944567e-06   -2.5565575881860065e-05
-9.890603817515817e-06   2.0389572193944567e-06   -2.5565575881860065e-05
-9.890603817515817e-06   2.0389572193944567e-06   -2.5565575881860065e-05
-9.890603817515817e-06   2.0389572193944567e-06   -2.5565575881860065e-05
-1.1037500275796886e-05   3.2548028257863796e-06   -2.6747562615159898e-05
-1.1037500275796886e-05   3.2548028257863796e-06   -2.6747562615159898e-05
-1.1037500275796886e-05   3.2548028257863796e-06   -2.6747562615159898e-05
-1.1037500275796886e-05   3.2548028257863796e-06   -2.6747562615159898e-05
-1.064828612160274e-05   3.039542659175336e-06   -2.5524842641976345e-05
-1.064828612160274e-05   3.039542659175336e-06   -2.5524842641976345e-05
-1.064828612160274e-05   3.039542659175336e-06   -2.5524842641976345e-05
-1.064828612160274e-05   3.039542659175336e-06   -2.5524842641976345e-05
-9.576964608068647e-06   4.16251808945051e-06   -2.7984163756031496e-05
-9.576964608068647e-06   4.16251808945051e-06   -2.7984163756031496e-05
-9.576964608068647e-06   4.16251808945051e-06   -2.7984163756031496e-05
-9.576964608068647e-06   4.16251808945051e-06   -2.7984163756031496e-05
-1.0369818855331545e-05   2.852010655221733e-06   -2.5876435550056017e-05
-1.0369818855331545e-05   2.852010655221733e-06   -2.5876435550056017e-05
-1.0369818855331545e-05   2.852010655221733e-06   -2.5876435550056017e-05
-1.0369818855331545e-05   2.852010655221733e-06   -2.5876435550056017e-05
-1.1916106667703125e-05   3.0016988091050717e-07   -1.3782598028347923e-05
-1.1916106667703125e-05   3.0016988091050717e-07   -1.3782598028347923e-05
-1.1916106667703125e-05   3.0016988091050717e-07   -1.3782598028347923e-05
-1.1916106667703125e-05   3.0016988091050717e-07   -1.3782598028347923e-05
-1.4451044042443969e-05   2.6328081202482614e-06   -1.6607910709313272e-05
-1.4451044042443969e-05   2.6328081202482614e-06   -1.6607910709313272e-05
-1.4451044042443969e-05   2.6328081202482614e-06   -1.6607910709313272e-05
-1.4451044042443969e-05   2.6328081202482614e-06   -1.6607910709313272e-05
-1.3084642973457637e-05   1.0435160912650437e-06   -1.1351970551950379e-05
-1.3084642973457637e-05   1.0435160912650437e-06   -1.1351970551950379e-05
-1.3084642973457637e-05   1.0435160912650437e-06   -1.1351970551950379e-05
-1.3084642973457637e-05   1.0435160912650437e-06   -1.1351970551950379e-05
-1.1533275545790272e-05   3.4300152236036406e-06   -1.536948241079902e-05
-1.1533275545790272e-05   3.4300152236036406e-06   -1.536948241079902e-05
-1.1533275545790272e-05   3.4300152236036406e-06   -1.536948241079902e-05
-1.1533275545790272e-05   3.4300152236036406e-06   -1.536948241079902e-05
-1.2230435543286471e-05   1.9475345572686487e-06   -1.3318060681838037e-05
-1.2230435543286471e-05   1.9475345572686487e-06   -1.3318060681838037e-05
-1.2230435543286471e-05   1.9475345572686487e-06   -1.3318060681838037e-05
-1.2230435543286471e-05   1.9475345572686487e-06   -1.3318060681838037e-05
-1.1533275545790245e-05   1.043516091265152e-06   -1.2783870031353429e-05
-1.1533275545790245e-05   1.043516091265152e-06   -1.2783870031353429e-05
-1.1533275545790245e-05   1.043516091265152e-06   -1.2783870031353429e-05
-1.1533275545790245e-05   1.043516091265152e-06   -1.2783870031353429e-05
-1.3084642973457583e-05   3.4300152236038575e-06   -1.393758293139597e-05
-1.3084642973457583e-05   3.4300152236038575e-06   -1.393758293139597e-05
-1.3084642973457583e-05   3.4300152236038575e-06   -1.393758293139597e-05
-1.3084642973457583e-05   3.4300152236038575e-06   -1.393758293139597e-05
-1.1973267590147145e-05   1.4613320376535757e-06   -1.116006860396861e-05
-1.1973267590147145e-05   1.4613320376535757e-06   -1.116006860396861e-05
-1.1973267590147145e-05   1.4613320376535757e-06   -1.116006860396861e-05
-1.1973267590147145e-05   1.4613320376535757e-06   -1.116006860396861e-05
-1.1037500275796859e-05   3.794991916032057e-06   -1.4119876721579346e-05
-1.1037500275796859e-05   3.794991916032057e-06   -1.4119876721579346e-05
-1.1037500275796859e-05   3.794991916032057e-06   -1.4119876721579346e-05
-1.1037500275796859e-05   3.794991916032057e-06   -1.4119876721579346e-05
-1.1649435258910216e-05   2.3171577287835372e-06   -1.2213284570708157e-05
-1.1649435258910216e-05   2.3171577287835372e-06   -1.2213284570708157e-05
-1.1649435258910216e-05   2.3171577287835372e-06   -1.2213284570708157e-05
-1.1649435258910216e-05   2.3171577287835372e-06   -1.2213284570708157e-05
-1.1037500275796845e-05   1.4613320376535757e-06   -1.2560264530995526e-05
-1.1037500275796845e-05   1.4613320376535757e-06   -1.2560264530995526e-05
-1.1037500275796845e-05   1.4613320376535757e-06   -1.2560264530995526e-05
-1.1037500275796845e-05   1.4613320376535757e-06   -1.2560264530995526e-05
-1.1973267590147145e-05   3.794991916032057e-06   -1.2719680794552254e-05
-1.1973267590147145e-05   3.794991916032057e-06   -1.2719680794552254e-05
-1.1973267590147145e-05   3.794991916032057e-06   -1.2719680794552254e-05
-1.1973267590147145e-05   3.794991916032057e-06   -1.2719680794552254e-05
-1.0612865529885054e-05   2.2011528831513034e-06   -1.1504806500566326e-05
-1.0612865529885054e-05   2.2011528831513034e-06   -1.1504806500566326e-05
-1.0612865529885054e-05   2.2011528831513034e-06   -1.1504806500566326e-05
-1.0612865529885054e-05   2.2011528831513034e-06   -1.1504806500566326e-05
-1.0648286121602726e-05   4.359273349696397e-06   -1.2740644460963643e-05
-1.0648286121602726e-05   4.359273349696397e-06   -1.2740644460963643e-05
-1.0648286121602726e-05   4.359273349696397e-06   -1.2740644460963643e-05
-1.0648286121602726e-05   4.359273349696397e-06   -1.2740644460963643e-05
-1.0790748826277085e-05   2.6151406064163496e-06   -1.1456726973871692e-05
-1.0790748826277085e-05   2.6151406064163496e-06   -1.1456726973871692e-05
-1.0790748826277085e-05   2.6151406064163496e-06   -1.1456726973871692e-05
-1.0790748826277085e-05   2.6151406064163496e-06   -1.1456726973871692e-05
7.031903579119304e-06   -6.950650458400175e-07   -7.1345782602842776e-06
7.031903579119304e-06   -6.950650458400175e-07   -7.1345782602842776e-06
7.031903579119304e-06   -6.950650458400175e-07   -7.1345782602842776e-06
7.031903579119304e-06   -6.950650458400175e-07   -7.1345782602842776e-06
7.267089916634397e-07   -2.911600478836115e-06   -1.8973157165841684e-05
7.267089916634397e-07   -2.911600478836115e-06   -1.8973157165841684e-05
7.267089916634397e-07   -2.911600478836115e-06   -1.8973157165841684e-05
7.267089916634397e-07   -2.911600478836115e-06   -1.8973157165841684e-05
1.273291408548943e-06   -2.4346520990448442e-08   -7.888401538940068e-06
1.273291408548943e-06   -2.4346520990448442e-08   -7.888401538940068e-06
1.273291408548943e-06   -2.4346520990448442e-08   -7.888401538940068e-06
1.273291408548943e-06   -2.4346520990448442e-08   -7.888401538940068e-06
8.564211952148725e-06   -2.3934048972579225e-06   -1.8618500752512186e-05
8.564211952148725e-06   -2.3934048972579225e-06   -1.8618500752512186e-05
8.564211952148725e-06   -2.3934048972579225e-06   -1.8618500752512186e-05
8.564211952148725e-06   -2.3934048972579225e-06   -1.8618500752512186e-05
4.2347464777904836e-06   -1.2160834710625915e-06   -1.2109117817632443e-05
4.2347464777904836e-06   -1.2160834710625915e-06   -1.2109117817632443e-05
4.2347464777904836e-06   -1.2160834710625915e-06   -1.2109117817632443e-05
4.2347464777904836e-06   -1.2160834710625915e-06   -1.2109117817632443e-05
8.564211952148779e-06   -2.4346520990448442e-08   -6.46696651317928e-06
8.564211952148779e-06   -2.4346520990448442e-08   -6.46696651317928e-06
8.564211952148779e-06   -2.4346520990448442e-08   -6.46696651317928e-06
8.564211952148779e-06   -2.4346520990448442e-08   -6.46696651317928e-06
1.27329140854897e-06   -2.3934048972579225e-06   -2.003993577827292e-05
1.27329140854897e-06   -2.3934048972579225e-06   -2.003993577827292e-05
1.27329140854897e-06   -2.3934048972579225e-06   -2.003993577827292e-05
1.27329140854897e-06   -2.3934048972579225e-06   -2.003993577827292e-05
1.91792576752773e-06   3.556725823685488e-07   -7.950915118488206e-06
1.91792576752773e-06   3.556725823685488e-07   -7.950915118488206e-06
1.91792576752773e-06   3.556725823685488e-07   -7.950915118488206e-06
1.91792576752773e-06   3.556725823685488e-07   -7.950915118488206e-06
9.85839385589046e-06   -2.047239878543274e-06   -1.9743281122545724e-05
9.85839385589046e-06   -2.047239878543274e-06   -1.9743281122545724e-05
9.85839385589046e-06   -2.047239878543274e-06   -1.9743281122545724e-05
9.85839385589046e-06   -2.047239878543274e-06   -1.9743281122545724e-05
5.205988376685646e-06   -9.735150205340652e-07   -1.2633506905343939e-05
5.205988376685646e-06   -9.735150205340652e-07   -1.2633506905343939e-05
5.205988376685646e-06   -9.735150205340652e-07   -1.2633506905343939e-05
5.205988376685646e-06   -9.735150205340652e-07   -1.2633506905343939e-05
9.85839385589046e-06   3.556725823685488e-07   -6.5091676419414815e-06
9.85839385589046e-06   3.556725823685488e-07   -6.5091676419414815e-06
9.85839385589046e-06   3.556725823685488e-07   -6.5091676419414815e-06
9.85839385589046e-06   3.556725823685488e-07   -6.5091676419414815e-06
1.917925767527676e-06   -2.047239878543057e-06   -2.118502859909299e-05
1.917925767527676e-06   -2.047239878543057e-06   -2.118502859909299e-05
1.917925767527676e-06   -2.047239878543057e-06   -2.118502859909299e-05
1.917925767527676e-06   -2.047239878543057e-06   -2.118502859909299e-05
2.4478013431145443e-06   1.1133867770722443e-06   -8.717663456351806e-06
2.4478013431145443e-06   1.1133867770722443e-06   -8.717663456351806e-06
2.4478013431145443e-06   1.1133867770722443e-06   -8.717663456351806e-06
2.4478013431145443e-06   1.1133867770722443e-06   -8.717663456351806e-06
1.1413119542870605e-05   -1.175667050197374e-06   -2.2286428159583468e-05
1.1413119542870605e-05   -1.175667050197374e-06   -2.2286428159583468e-05
1.1413119542870605e-05   -1.175667050197374e-06   -2.2286428159583468e-05
1.1413119542870605e-05   -1.175667050197374e-06   -2.2286428159583468e-05
5.976991744785373e-06   -6.167005691859375e-07   -1.3561595051382288e-05
5.976991744785373e-06   -6.167005691859375e-07   -1.3561595051382288e-05
5.976991744785373e-06   -6.167005691859375e-07   -1.3561595051382288e-05
5.976991744785373e-06   -6.167005691859375e-07   -1.3561595051382288e-05
7.267089916634397e-07   -1.4860071194063885e-07   -2.06013320566738e-05
7.267089916634397e-07   -1.4860071194063885e-07   -2.06013320566738e-05
7.267089916634397e-07   -1.4860071194063885e-07   -2.06013320566738e-05
7.267089916634397e-07   -1.4860071194063885e-07   -2.06013320566738e-05
-6.618623261769394e-06   -1.1488324829882213e-06   -3.344369154169042e-05
-6.618623261769394e-06   -1.1488324829882213e-06   -3.344369154169042e-05
-6.618623261769394e-06   -1.1488324829882213e-06   -3.344369154169042e-05
-6.618623261769394e-06   -1.1488324829882213e-06   -3.344369154169042e-05
-6.139768045644109e-06   6.980681468849847e-07   -2.0717427354892534e-05
-6.139768045644109e-06   6.980681468849847e-07   -2.0717427354892534e-05
-6.139768045644109e-06   6.980681468849847e-07   -2.0717427354892534e-05
-6.139768045644109e-06   6.980681468849847e-07   -2.0717427354892534e-05
1.27329140854897e-06   -4.376171375830573e-07   -3.239111527453346e-05
1.27329140854897e-06   -4.376171375830573e-07   -3.239111527453346e-05
1.27329140854897e-06   -4.376171375830573e-07   -3.239111527453346e-05
1.27329140854897e-06   -4.376171375830573e-07   -3.239111527453346e-05
-2.6276151756379426e-06   -4.1218895911266165e-08   -2.612744324589179e-05
-2.6276151756379426e-06   -4.1218895911266165e-08   -2.612744324589179e-05
-2.6276151756379426e-06   -4.1218895911266165e-08   -2.612744324589179e-05
-2.6276151756379426e-06   -4.1218895911266165e-08   -2.612744324589179e-05
1.27329140854897e-06   6.980681468849847e-07   -2.00360161842116e-05
1.27329140854897e-06   6.980681468849847e-07   -2.00360161842116e-05
1.27329140854897e-06   6.980681468849847e-07   -2.00360161842116e-05
1.27329140854897e-06   6.980681468849847e-07   -2.00360161842116e-05
-6.139768045644109e-06   -4.376171375830573e-07   -3.3072526445214446e-05
-6.139768045644109e-06   -4.376171375830573e-07   -3.3072526445214446e-05
-6.139768045644109e-06   -4.376171375830573e-07   -3.3072526445214446e-05
-6.139768045644109e-06   -4.376171375830573e-07   -3.3072526445214446e-05
-5.658156739757206e-06   1.5136185569960669e-06   -2.0749044031398347e-05
-5.658156739757206e-06   1.5136185569960669e-06   -2.0749044031398347e-05
-5.658156739757206e-06   1.5136185569960669e-06   -2.0749044031398347e-05
-5.658156739757206e-06   1.5136185569960669e-06   -2.0749044031398347e-05
1.91792576752773e-06   2.9803891003332e-07   -3.264650042202879e-05
1.91792576752773e-06   2.9803891003332e-07   -3.264650042202879e-05
1.91792576752773e-06   2.9803891003332e-07   -3.264650042202879e-05
1.91792576752773e-06   2.9803891003332e-07   -3.264650042202879e-05
-2.2038630925948023e-06   5.43404665369774e-07   -2.59240717750266e-05
-2.2038630925948023e-06   5.43404665369774e-07   -2.59240717750266e-05
-2.2038630925948023e-06   5.43404665369774e-07   -2.59240717750266e-05
-2.2038630925948023e-06   5.43404665369774e-07   -2.59240717750266e-05
1.91792576752773e-06   1.5136185569960669e-06   -2.0019696243220547e-05
1.91792576752773e-06   1.5136185569960669e-06   -2.0019696243220547e-05
1.91792576752773e-06   1.5136185569960669e-06   -2.0019696243220547e-05
1.91792576752773e-06   1.5136185569960669e-06   -2.0019696243220547e-05
-5.658156739757206e-06   2.9803891003332e-07   -3.337584821020659e-05
-5.658156739757206e-06   2.9803891003332e-07   -3.337584821020659e-05
-5.658156739757206e-06   2.9803891003332e-07   -3.337584821020659e-05
-5.658156739757206e-06   2.9803891003332e-07   -3.337584821020659e-05
-5.198197971157696e-06   2.4452974598089625e-06   -2.126964809183213e-05
-5.198197971157696e-06   2.4452974598089625e-06   -2.126964809183213e-05
-5.198197971157696e-06   2.4452974598089625e-06   -2.126964809183213e-05
-5.198197971157696e-06   2.4452974598089625e-06   -2.126964809183213e-05
2.4478013431145443e-06   1.1696172580013056e-06   -3.3247572161201476e-05
2.4478013431145443e-06   1.1696172580013056e-06   -3.3247572161201476e-05
2.4478013431145443e-06   1.1696172580013056e-06   -3.3247572161201476e-05
2.4478013431145443e-06   1.1696172580013056e-06   -3.3247572161201476e-05
-1.7315805734311688e-06   1.1918438890480467e-06   -2.629527161225392e-05
-1.7315805734311688e-06   1.1918438890480467e-06   -2.629527161225392e-05
-1.7315805734311688e-06   1.1918438890480467e-06   -2.629527161225392e-05
-1.7315805734311688e-06   1.1918438890480467e-06   -2.629527161225392e-05
-6.6186232617694075e-06   7.048604609160864e-07   -2.49466428011325e-05
-6.6186232617694075e-06   7.048604609160864e-07   -2.49466428011325e-05
-6.6186232617694075e-06   7.048604609160864e-07   -2.49466428011325e-05
-6.6186232617694075e-06   7.048604609160864e-07   -2.49466428011325e-05
-1.3899078789404614e-05   8.883545884847636e-07   -3.6970638870649844e-05
-1.3899078789404614e-05   8.883545884847636e-07   -3.6970638870649844e-05
-1.3899078789404614e-05   8.883545884847636e-07   -3.6970638870649844e-05
-1.3899078789404614e-05   8.883545884847636e-07   -3.6970638870649844e-05
-1.3416955320622795e-05   1.580475372111624e-06   -2.449859762819115e-05
-1.3416955320622795e-05   1.580475372111624e-06   -2.449859762819115e-05
-1.3416955320622795e-05   1.580475372111624e-06   -2.449859762819115e-05
-1.3416955320622795e-05   1.580475372111624e-06   -2.449859762819115e-05
-6.139768045644123e-06   1.6413228384273577e-06   -3.666375156627835e-05
-6.139768045644123e-06   1.6413228384273577e-06   -3.666375156627835e-05
-6.139768045644123e-06   1.6413228384273577e-06   -3.666375156627835e-05
-6.139768045644123e-06   1.6413228384273577e-06   -3.666375156627835e-05
-9.960627061221036e-06   1.3572549218119657e-06   -3.0125212457014262e-05
-9.960627061221036e-06   1.3572549218119657e-06   -3.0125212457014262e-05
-9.960627061221036e-06   1.3572549218119657e-06   -3.0125212457014262e-05
-9.960627061221036e-06   1.3572549218119657e-06   -3.0125212457014262e-05
-6.139768045644123e-06   1.580475372111624e-06   -2.4535106107980483e-05
-6.139768045644123e-06   1.580475372111624e-06   -2.4535106107980483e-05
-6.139768045644123e-06   1.580475372111624e-06   -2.4535106107980483e-05
-6.139768045644123e-06   1.580475372111624e-06   -2.4535106107980483e-05
-1.3416955320622795e-05   1.6413228384273577e-06   -3.66272430864891e-05
-1.3416955320622795e-05   1.6413228384273577e-06   -3.66272430864891e-05
-1.3416955320622795e-05   1.6413228384273577e-06   -3.66272430864891e-05
-1.3416955320622795e-05   1.6413228384273577e-06   -3.66272430864891e-05
-1.2926894025466628e-05   2.4752577885962888e-06   -2.4561870336972723e-05
-1.2926894025466628e-05   2.4752577885962888e-06   -2.4561870336972723e-05
-1.2926894025466628e-05   2.4752577885962888e-06   -2.4561870336972723e-05
-1.2926894025466628e-05   2.4752577885962888e-06   -2.4561870336972723e-05
-5.65815673975722e-06   2.4382862129188228e-06   -3.665424953441541e-05
-5.65815673975722e-06   2.4382862129188228e-06   -3.665424953441541e-05
-5.65815673975722e-06   2.4382862129188228e-06   -3.665424953441541e-05
-5.65815673975722e-06   2.4382862129188228e-06   -3.665424953441541e-05
-9.53665084467013e-06   2.014784748178384e-06   -2.9935991814050082e-05
-9.53665084467013e-06   2.014784748178384e-06   -2.9935991814050082e-05
-9.53665084467013e-06   2.014784748178384e-06   -2.9935991814050082e-05
-9.53665084467013e-06   2.014784748178384e-06   -2.9935991814050082e-05
-5.65815673975722e-06   2.4752577885962888e-06   -2.453968739156648e-05
-5.65815673975722e-06   2.4752577885962888e-06   -2.453968739156648e-05
-5.65815673975722e-06   2.4752577885962888e-06   -2.453968739156648e-05
-5.65815673975722e-06   2.4752577885962888e-06   -2.453968739156648e-05
-1.2926894025466608e-05   2.4382862129188228e-06   -3.667643247982184e-05
-1.2926894025466608e-05   2.4382862129188228e-06   -3.667643247982184e-05
-1.2926894025466608e-05   2.4382862129188228e-06   -3.667643247982184e-05
-1.2926894025466608e-05   2.4382862129188228e-06   -3.667643247982184e-05
-1.2459627874652278e-05   3.382462992178358e-06   -2.5114022073315957e-05
-1.2459627874652278e-05   3.382462992178358e-06   -2.5114022073315957e-05
-1.2459627874652278e-05   3.382462992178358e-06   -2.5114022073315957e-05
-1.2459627874652278e-05   3.382462992178358e-06   -2.5114022073315957e-05
-5.1981979711577235e-06   3.249049667387264e-06   -3.713635725093224e-05
-5.1981979711577235e-06   3.249049667387264e-06   -3.713635725093224e-05
-5.1981979711577235e-06   3.249049667387264e-06   -3.713635725093224e-05
-5.1981979711577235e-06   3.249049667387264e-06   -3.713635725093224e-05
-9.142441566753185e-06   2.6823294321186818e-06   -3.0222585783779173e-05
-9.142441566753185e-06   2.6823294321186818e-06   -3.0222585783779173e-05
-9.142441566753185e-06   2.6823294321186818e-06   -3.0222585783779173e-05
-9.142441566753185e-06   2.6823294321186818e-06   -3.0222585783779173e-05
-1.3899078789404637e-05   1.5655425615480195e-06   -2.0969987567062112e-05
-1.3899078789404637e-05   1.5655425615480195e-06   -2.0969987567062112e-05
-1.3899078789404637e-05   1.5655425615480195e-06   -2.0969987567062112e-05
-1.3899078789404637e-05   1.5655425615480195e-06   -2.0969987567062112e-05
-2.1097164398703274e-05   2.8668663623343266e-06   -3.2186002635421415e-05
-2.1097164398703274e-05   2.8668663623343266e-06   -3.2186002635421415e-05
-2.1097164398703274e-05   2.8668663623343266e-06   -3.2186002635421415e-05
-2.1097164398703274e-05   2.8668663623343266e-06   -3.2186002635421415e-05
-2.054595318333049e-05   2.444384598788681e-06   -1.9746177616989432e-05
-2.054595318333049e-05   2.444384598788681e-06   -1.9746177616989432e-05
-2.054595318333049e-05   2.444384598788681e-06   -1.9746177616989432e-05
-2.054595318333049e-05   2.444384598788681e-06   -1.9746177616989432e-05
-1.3416955320622795e-05   3.6706258213505764e-06   -3.236358545503953e-05
-1.3416955320622795e-05   3.6706258213505764e-06   -3.236358545503953e-05
-1.3416955320622795e-05   3.6706258213505764e-06   -3.236358545503953e-05
-1.3416955320622795e-05   3.6706258213505764e-06   -3.236358545503953e-05
-1.7120318800351876e-05   2.74092413296307e-06   -2.5633491975791923e-05
-1.7120318800351876e-05   2.74092413296307e-06   -2.5633491975791923e-05
-1.7120318800351876e-05   2.74092413296307e-06   -2.5633491975791923e-05
-1.7120318800351876e-05   2.74092413296307e-06   -2.5633491975791923e-05
-1.3416955320622818e-05   2.444384598788464e-06   -2.048192235052672e-05
-1.3416955320622818e-05   2.444384598788464e-06   -2.048192235052672e-05
-1.3416955320622818e-05   2.444384598788464e-06   -2.048192235052672e-05
-1.3416955320622818e-05   2.444384598788464e-06   -2.048192235052672e-05
-2.0545953183330525e-05   3.670625821350793e-06   -3.162784072150251e-05
-2.0545953183330525e-05   3.670625821350793e-06   -3.162784072150251e-05
-2.0545953183330525e-05   3.670625821350793e-06   -3.162784072150251e-05
-2.0545953183330525e-05   3.670625821350793e-06   -3.162784072150251e-05
-1.9885038790760782e-05   3.2548028257863796e-06   -1.9561459692301014e-05
-1.9885038790760782e-05   3.2548028257863796e-06   -1.9561459692301014e-05
-1.9885038790760782e-05   3.2548028257863796e-06   -1.9561459692301014e-05
-1.9885038790760782e-05   3.2548028257863796e-06   -1.9561459692301014e-05
-1.2926894025466628e-05   4.394353800830008e-06   -3.184209821948413e-05
-1.2926894025466628e-05   4.394353800830008e-06   -3.184209821948413e-05
-1.2926894025466628e-05   4.394353800830008e-06   -3.184209821948413e-05
-1.2926894025466628e-05   4.394353800830008e-06   -3.184209821948413e-05
-1.6564315430212202e-05   3.3758636344759056e-06   -2.5168635111762823e-05
-1.6564315430212202e-05   3.3758636344759056e-06   -2.5168635111762823e-05
-1.6564315430212202e-05   3.3758636344759056e-06   -2.5168635111762823e-05
-1.6564315430212202e-05   3.3758636344759056e-06   -2.5168635111762823e-05
-1.2926894025466622e-05   3.2548028257863796e-06   -2.0245190277326996e-05
-1.2926894025466622e-05   3.2548028257863796e-06   -2.0245190277326996e-05
-1.2926894025466622e-05   3.2548028257863796e-06   -2.0245190277326996e-05
-1.2926894025466622e-05   3.2548028257863796e-06   -2.0245190277326996e-05
-1.9885038790760782e-05   4.394353800830008e-06   -3.115836763445802e-05
-1.9885038790760782e-05   4.394353800830008e-06   -3.115836763445802e-05
-1.9885038790760782e-05   4.394353800830008e-06   -3.115836763445802e-05
-1.9885038790760782e-05   4.394353800830008e-06   -3.115836763445802e-05
-1.9334656828722707e-05   4.16251808945051e-06   -2.010286395353971e-05
-1.9334656828722707e-05   4.16251808945051e-06   -2.010286395353971e-05
-1.9334656828722707e-05   4.16251808945051e-06   -2.010286395353971e-05
-1.9334656828722707e-05   4.16251808945051e-06   -2.010286395353971e-05
-1.2459627874652278e-05   5.2035212666143565e-06   -3.218584744995551e-05
-1.2459627874652278e-05   5.2035212666143565e-06   -3.218584744995551e-05
-1.2459627874652278e-05   5.2035212666143565e-06   -3.218584744995551e-05
-1.2459627874652278e-05   5.2035212666143565e-06   -3.218584744995551e-05
-1.619336184049346e-05   4.001116875770568e-06   -2.524151487238058e-05
-1.619336184049346e-05   4.001116875770568e-06   -2.524151487238058e-05
-1.619336184049346e-05   4.001116875770568e-06   -2.524151487238058e-05
-1.619336184049346e-05   4.001116875770568e-06   -2.524151487238058e-05
-2.1097164398703274e-05   2.6328081202480445e-06   -1.0843113409851569e-05
-2.1097164398703274e-05   2.6328081202480445e-06   -1.0843113409851569e-05
-2.1097164398703274e-05   2.6328081202480445e-06   -1.0843113409851569e-05
-2.1097164398703274e-05   2.6328081202480445e-06   -1.0843113409851569e-05
-2.9305469223665583e-05   4.929660216466654e-06   -2.3145510193724314e-05
-2.9305469223665583e-05   4.929660216466654e-06   -2.3145510193724314e-05
-2.9305469223665583e-05   4.929660216466654e-06   -2.3145510193724314e-05
-2.9305469223665583e-05   4.929660216466654e-06   -2.3145510193724314e-05
-2.778475069245674e-05   3.4300152236038575e-06   -6.800922311970344e-06
-2.778475069245674e-05   3.4300152236038575e-06   -6.800922311970344e-06
-2.778475069245674e-05   3.4300152236038575e-06   -6.800922311970344e-06
-2.778475069245674e-05   3.4300152236038575e-06   -6.800922311970344e-06
-2.054595318333049e-05   5.7646016884318335e-06   -2.0266336706077488e-05
-2.054595318333049e-05   5.7646016884318335e-06   -2.0266336706077488e-05
-2.054595318333049e-05   5.7646016884318335e-06   -2.0266336706077488e-05
-2.054595318333049e-05   5.7646016884318335e-06   -2.0266336706077488e-05
-2.367923329474933e-05   4.284003556741939e-06   -1.4155844308032142e-05
-2.367923329474933e-05   4.284003556741939e-06   -1.4155844308032142e-05
-2.367923329474933e-05   4.284003556741939e-06   -1.4155844308032142e-05
-2.367923329474933e-05   4.284003556741939e-06   -1.4155844308032142e-05
-2.054595318333051e-05   3.4300152236038575e-06   -8.201674190867086e-06
-2.054595318333051e-05   3.4300152236038575e-06   -8.201674190867086e-06
-2.054595318333051e-05   3.4300152236038575e-06   -8.201674190867086e-06
-2.054595318333051e-05   3.4300152236038575e-06   -8.201674190867086e-06
-2.7784750692456646e-05   5.7646016884318335e-06   -1.8865584827180678e-05
-2.7784750692456646e-05   5.7646016884318335e-06   -1.8865584827180678e-05
-2.7784750692456646e-05   5.7646016884318335e-06   -1.8865584827180678e-05
-2.7784750692456646e-05   5.7646016884318335e-06   -1.8865584827180678e-05
-2.652790280577335e-05   3.794991916032057e-06   -5.572414133771784e-06
-2.652790280577335e-05   3.794991916032057e-06   -5.572414133771784e-06
-2.652790280577335e-05   3.794991916032057e-06   -5.572414133771784e-06
-2.652790280577335e-05   3.794991916032057e-06   -5.572414133771784e-06
-1.9885038790760748e-05   6.063924690946371e-06   -1.8005213823741415e-05
-1.9885038790760748e-05   6.063924690946371e-06   -1.8005213823741415e-05
-1.9885038790760748e-05   6.063924690946371e-06   -1.8005213823741415e-05
-1.9885038790760748e-05   6.063924690946371e-06   -1.8005213823741415e-05
-2.3125291628834874e-05   4.660119268182434e-06   -1.1762509173292952e-05
-2.3125291628834874e-05   4.660119268182434e-06   -1.1762509173292952e-05
-2.3125291628834874e-05   4.660119268182434e-06   -1.1762509173292952e-05
-2.3125291628834874e-05   4.660119268182434e-06   -1.1762509173292952e-05
-1.9885038790760782e-05   3.79499191603184e-06   -6.933773798720394e-06
-1.9885038790760782e-05   3.79499191603184e-06   -6.933773798720394e-06
-1.9885038790760782e-05   3.79499191603184e-06   -6.933773798720394e-06
-1.9885038790760782e-05   3.79499191603184e-06   -6.933773798720394e-06
-2.652790280577332e-05   6.063924690946371e-06   -1.6643854158792846e-05
-2.652790280577332e-05   6.063924690946371e-06   -1.6643854158792846e-05
-2.652790280577332e-05   6.063924690946371e-06   -1.6643854158792846e-05
-2.652790280577332e-05   6.063924690946371e-06   -1.6643854158792846e-05
-2.5040327371198825e-05   4.359273349696397e-06   -4.283395534151004e-06
-2.5040327371198825e-05   4.359273349696397e-06   -4.283395534151004e-06
-2.5040327371198825e-05   4.359273349696397e-06   -4.283395534151004e-06
-2.5040327371198825e-05   4.359273349696397e-06   -4.283395534151004e-06
-1.9334656828722707e-05   6.4421639871731825e-06   -1.504258082076385e-05
-1.9334656828722707e-05   6.4421639871731825e-06   -1.504258082076385e-05
-1.9334656828722707e-05   6.4421639871731825e-06   -1.504258082076385e-05
-1.9334656828722707e-05   6.4421639871731825e-06   -1.504258082076385e-05
-2.194265505138191e-05   4.841258882232928e-06   -9.735374053368006e-06
-2.194265505138191e-05   4.841258882232928e-06   -9.735374053368006e-06
-2.194265505138191e-05   4.841258882232928e-06   -9.735374053368006e-06
-2.194265505138191e-05   4.841258882232928e-06   -9.735374053368006e-06
2.221038322702812e-05   -2.9116004788358983e-06   -1.2359324102855212e-07
2.221038322702812e-05   -2.9116004788358983e-06   -1.2359324102855212e-07
2.221038322702812e-05   -2.9116004788358983e-06   -1.2359324102855212e-07
2.221038322702812e-05   -2.9116004788358983e-06   -1.2359324102855212e-07
9.457988046564339e-06   -5.246298500350506e-06   -2.2778404021376784e-05
9.457988046564339e-06   -5.246298500350506e-06   -2.2778404021376784e-05
9.457988046564339e-06   -5.246298500350506e-06   -2.2778404021376784e-05
9.457988046564339e-06   -5.246298500350506e-06   -2.2778404021376784e-05
1.0124362999762248e-05   -2.3934048972579225e-06   -2.4610145749437255e-06
1.0124362999762248e-05   -2.3934048972579225e-06   -2.4610145749437255e-06
1.0124362999762248e-05   -2.3934048972579225e-06   -2.4610145749437255e-06
1.0124362999762248e-05   -2.3934048972579225e-06   -2.4610145749437255e-06
2.3883943802910514e-05   -4.879751046054292e-06   -2.3901841557579645e-05
2.3883943802910514e-05   -4.879751046054292e-06   -2.3901841557579645e-05
2.3883943802910514e-05   -4.879751046054292e-06   -2.3901841557579645e-05
2.3883943802910514e-05   -4.879751046054292e-06   -2.3901841557579645e-05
1.5756659119279558e-05   -3.4594815937660957e-06   -1.1208528756234128e-05
1.5756659119279558e-05   -3.4594815937660957e-06   -1.1208528756234128e-05
1.5756659119279558e-05   -3.4594815937660957e-06   -1.1208528756234128e-05
1.5756659119279558e-05   -3.4594815937660957e-06   -1.1208528756234128e-05
2.388394380291054e-05   -2.3934048972579225e-06   -9.692068856657953e-07
2.388394380291054e-05   -2.3934048972579225e-06   -9.692068856657953e-07
2.388394380291054e-05   -2.3934048972579225e-06   -9.692068856657953e-07
2.388394380291054e-05   -2.3934048972579225e-06   -9.692068856657953e-07
1.012436299976222e-05   -4.879751046054292e-06   -2.5393649246857413e-05
1.012436299976222e-05   -4.879751046054292e-06   -2.5393649246857413e-05
1.012436299976222e-05   -4.879751046054292e-06   -2.5393649246857413e-05
1.012436299976222e-05   -4.879751046054292e-06   -2.5393649246857413e-05
1.0862767623109383e-05   -2.047239878543274e-06   -3.4869491983325913e-06
1.0862767623109383e-05   -2.047239878543274e-06   -3.4869491983325913e-06
1.0862767623109383e-05   -2.047239878543274e-06   -3.4869491983325913e-06
1.0862767623109383e-05   -2.047239878543274e-06   -3.4869491983325913e-06
2.5289003242596006e-05   -4.563921379168454e-06   -2.602066633043508e-05
2.5289003242596006e-05   -4.563921379168454e-06   -2.602066633043508e-05
2.5289003242596006e-05   -4.563921379168454e-06   -2.602066633043508e-05
2.5289003242596006e-05   -4.563921379168454e-06   -2.602066633043508e-05
1.7013501457475866e-05   -3.3188458275282273e-06   -1.2975208686218998e-05
1.7013501457475866e-05   -3.3188458275282273e-06   -1.2975208686218998e-05
1.7013501457475866e-05   -3.3188458275282273e-06   -1.2975208686218998e-05
1.7013501457475866e-05   -3.3188458275282273e-06   -1.2975208686218998e-05
2.5289003242596033e-05   -2.047239878543274e-06   -1.9769402979573315e-06
2.5289003242596033e-05   -2.047239878543274e-06   -1.9769402979573315e-06
2.5289003242596033e-05   -2.047239878543274e-06   -1.9769402979573315e-06
2.5289003242596033e-05   -2.047239878543274e-06   -1.9769402979573315e-06
1.0862767623109356e-05   -4.563921379168237e-06   -2.7530675230810287e-05
1.0862767623109356e-05   -4.563921379168237e-06   -2.7530675230810287e-05
1.0862767623109356e-05   -4.563921379168237e-06   -2.7530675230810287e-05
1.0862767623109356e-05   -4.563921379168237e-06   -2.7530675230810287e-05
1.1472487073285433e-05   -1.175667050197374e-06   -5.852113677247504e-06
1.1472487073285433e-05   -1.175667050197374e-06   -5.852113677247504e-06
1.1472487073285433e-05   -1.175667050197374e-06   -5.852113677247504e-06
1.1472487073285433e-05   -1.175667050197374e-06   -5.852113677247504e-06
2.6920551716572838e-05   -3.566054190033089e-06   -3.016465579882508e-05
2.6920551716572838e-05   -3.566054190033089e-06   -3.016465579882508e-05
2.6920551716572838e-05   -3.566054190033089e-06   -3.016465579882508e-05
2.6920551716572838e-05   -3.566054190033089e-06   -3.016465579882508e-05
1.7692214247526966e-05   -2.928178751518927e-06   -1.5166818613524403e-05
1.7692214247526966e-05   -2.928178751518927e-06   -1.5166818613524403e-05
1.7692214247526966e-05   -2.928178751518927e-06   -1.5166818613524403e-05
1.7692214247526966e-05   -2.928178751518927e-06   -1.5166818613524403e-05
9.457988046564366e-06   -1.1488324829882213e-06   -1.539480736715746e-05
9.457988046564366e-06   -1.1488324829882213e-06   -1.539480736715746e-05
9.457988046564366e-06   -1.1488324829882213e-06   -1.539480736715746e-05
9.457988046564366e-06   -1.1488324829882213e-06   -1.539480736715746e-05
-4.032865231109054e-06   -2.4526484664819104e-06   -3.86618524200427e-05
-4.032865231109054e-06   -2.4526484664819104e-06   -3.86618524200427e-05
-4.032865231109054e-06   -2.4526484664819104e-06   -3.86618524200427e-05
-4.032865231109054e-06   -2.4526484664819104e-06   -3.86618524200427e-05
-3.413318608166274e-06   -4.376171375830573e-07   -1.5714947759092567e-05
-3.413318608166274e-06   -4.376171375830573e-07   -1.5714947759092567e-05
-3.413318608166274e-06   -4.376171375830573e-07   -1.5714947759092567e-05
-3.413318608166274e-06   -4.376171375830573e-07   -1.5714947759092567e-05
1.012436299976222e-05   -1.942206617396589e-06   -3.737499675108511e-05
1.012436299976222e-05   -1.942206617396589e-06   -3.737499675108511e-05
1.012436299976222e-05   -1.942206617396589e-06   -3.737499675108511e-05
1.012436299976222e-05   -1.942206617396589e-06   -3.737499675108511e-05
3.067385470171302e-06   -1.1851494451542866e-06   -2.606760183844557e-05
3.067385470171302e-06   -1.1851494451542866e-06   -2.606760183844557e-05
3.067385470171302e-06   -1.1851494451542866e-06   -2.606760183844557e-05
3.067385470171302e-06   -1.1851494451542866e-06   -2.606760183844557e-05
1.0124362999762248e-05   -4.376171375830573e-07   -1.4812194071204209e-05
1.0124362999762248e-05   -4.376171375830573e-07   -1.4812194071204209e-05
1.0124362999762248e-05   -4.376171375830573e-07   -1.4812194071204209e-05
1.0124362999762248e-05   -4.376171375830573e-07   -1.4812194071204209e-05
-3.413318608166274e-06   -1.942206617396589e-06   -3.8277750438973196e-05
-3.413318608166274e-06   -1.942206617396589e-06   -3.8277750438973196e-05
-3.413318608166274e-06   -1.942206617396589e-06   -3.8277750438973196e-05
-3.413318608166274e-06   -1.942206617396589e-06   -3.8277750438973196e-05
-2.8217962520353003e-06   2.9803891003332e-07   -1.5918275217253032e-05
-2.8217962520353003e-06   2.9803891003332e-07   -1.5918275217253032e-05
-2.8217962520353003e-06   2.9803891003332e-07   -1.5918275217253032e-05
-2.8217962520353003e-06   2.9803891003332e-07   -1.5918275217253032e-05
1.0862767623109356e-05   -1.3183847499410439e-06   -3.775602747984279e-05
1.0862767623109356e-05   -1.3183847499410439e-06   -3.775602747984279e-05
1.0862767623109356e-05   -1.3183847499410439e-06   -3.775602747984279e-05
1.0862767623109356e-05   -1.3183847499410439e-06   -3.775602747984279e-05
3.5583414203268677e-06   -7.333513089916033e-07   -2.5933003873107954e-05
3.5583414203268677e-06   -7.333513089916033e-07   -2.5933003873107954e-05
3.5583414203268677e-06   -7.333513089916033e-07   -2.5933003873107954e-05
3.5583414203268677e-06   -7.333513089916033e-07   -2.5933003873107954e-05
1.0862767623109383e-05   2.9803891003332e-07   -1.49484210212685e-05
1.0862767623109383e-05   2.9803891003332e-07   -1.49484210212685e-05
1.0862767623109383e-05   2.9803891003332e-07   -1.49484210212685e-05
1.0862767623109383e-05   2.9803891003332e-07   -1.49484210212685e-05
-2.8217962520353003e-06   -1.3183847499412607e-06   -3.8725881675827486e-05
-2.8217962520353003e-06   -1.3183847499412607e-06   -3.8725881675827486e-05
-2.8217962520353003e-06   -1.3183847499412607e-06   -3.8725881675827486e-05
-2.8217962520353003e-06   -1.3183847499412607e-06   -3.8725881675827486e-05
-2.266345912392339e-06   1.1696172580013056e-06   -1.646150920904207e-05
-2.266345912392339e-06   1.1696172580013056e-06   -1.646150920904207e-05
-2.266345912392339e-06   1.1696172580013056e-06   -1.646150920904207e-05
-2.266345912392339e-06   1.1696172580013056e-06   -1.646150920904207e-05
1.1472487073285433e-05   -5.331891195629358e-07   -3.8337880358633157e-05
1.1472487073285433e-05   -5.331891195629358e-07   -3.8337880358633157e-05
1.1472487073285433e-05   -5.331891195629358e-07   -3.8337880358633157e-05
1.1472487073285433e-05   -5.331891195629358e-07   -3.8337880358633157e-05
4.17180798024867e-06   -1.7595964160103776e-07   -2.6384419557016364e-05
4.17180798024867e-06   -1.7595964160103776e-07   -2.6384419557016364e-05
4.17180798024867e-06   -1.7595964160103776e-07   -2.6384419557016364e-05
4.17180798024867e-06   -1.7595964160103776e-07   -2.6384419557016364e-05
-4.032865231109054e-06   8.883545884847636e-07   -1.981414076275437e-05
-4.032865231109054e-06   8.883545884847636e-07   -1.981414076275437e-05
-4.032865231109054e-06   8.883545884847636e-07   -1.981414076275437e-05
-4.032865231109054e-06   8.883545884847636e-07   -1.981414076275437e-05
-1.7286060662086977e-05   4.547736871943816e-07   -4.216294835515861e-05
-1.7286060662086977e-05   4.547736871943816e-07   -4.216294835515861e-05
-1.7286060662086977e-05   4.547736871943816e-07   -4.216294835515861e-05
-1.7286060662086977e-05   4.547736871943816e-07   -4.216294835515861e-05
-1.6619272397823114e-05   1.6413228384273577e-06   -1.967392200372879e-05
-1.6619272397823114e-05   1.6413228384273577e-06   -1.967392200372879e-05
-1.6619272397823114e-05   1.6413228384273577e-06   -1.967392200372879e-05
-1.6619272397823114e-05   1.6413228384273577e-06   -1.967392200372879e-05
-3.413318608166274e-06   1.0284076324726214e-06   -4.131609586291782e-05
-3.413318608166274e-06   1.0284076324726214e-06   -4.131609586291782e-05
-3.413318608166274e-06   1.0284076324726214e-06   -4.131609586291782e-05
-3.413318608166274e-06   1.0284076324726214e-06   -4.131609586291782e-05
-1.026727245816274e-05   1.2183644673567813e-06   -3.0006813547187473e-05
-1.026727245816274e-05   1.2183644673567813e-06   -3.0006813547187473e-05
-1.026727245816274e-05   1.2183644673567813e-06   -3.0006813547187473e-05
-1.026727245816274e-05   1.2183644673567813e-06   -3.0006813547187473e-05
-3.413318608166274e-06   1.6413228384273577e-06   -1.930617288015634e-05
-3.413318608166274e-06   1.6413228384273577e-06   -1.930617288015634e-05
-3.413318608166274e-06   1.6413228384273577e-06   -1.930617288015634e-05
-3.413318608166274e-06   1.6413228384273577e-06   -1.930617288015634e-05
-1.6619272397823114e-05   1.0284076324726214e-06   -4.168384498649043e-05
-1.6619272397823114e-05   1.0284076324726214e-06   -4.168384498649043e-05
-1.6619272397823114e-05   1.0284076324726214e-06   -4.168384498649043e-05
-1.6619272397823114e-05   1.0284076324726214e-06   -4.168384498649043e-05
-1.597603045115865e-05   2.4382862129188228e-06   -1.964432572757759e-05
-1.597603045115865e-05   2.4382862129188228e-06   -1.964432572757759e-05
-1.597603045115865e-05   2.4382862129188228e-06   -1.964432572757759e-05
-1.597603045115865e-05   2.4382862129188228e-06   -1.964432572757759e-05
-2.8217962520353003e-06   1.6922042360592408e-06   -4.112040020666738e-05
-2.8217962520353003e-06   1.6922042360592408e-06   -4.112040020666738e-05
-2.8217962520353003e-06   1.6922042360592408e-06   -4.112040020666738e-05
-2.8217962520353003e-06   1.6922042360592408e-06   -4.112040020666738e-05
-9.693769344142575e-06   1.7554960819333304e-06   -2.970508682734646e-05
-9.693769344142575e-06   1.7554960819333304e-06   -2.970508682734646e-05
-9.693769344142575e-06   1.7554960819333304e-06   -2.970508682734646e-05
-9.693769344142575e-06   1.7554960819333304e-06   -2.970508682734646e-05
-2.8217962520353003e-06   2.4382862129188228e-06   -1.919667654146182e-05
-2.8217962520353003e-06   2.4382862129188228e-06   -1.919667654146182e-05
-2.8217962520353003e-06   2.4382862129188228e-06   -1.919667654146182e-05
-2.8217962520353003e-06   2.4382862129188228e-06   -1.919667654146182e-05
-1.597603045115865e-05   1.6922042360592408e-06   -4.156804939278323e-05
-1.597603045115865e-05   1.6922042360592408e-06   -4.156804939278323e-05
-1.597603045115865e-05   1.6922042360592408e-06   -4.156804939278323e-05
-1.597603045115865e-05   1.6922042360592408e-06   -4.156804939278323e-05
-1.538165957690329e-05   3.249049667387264e-06   -2.0107441238502227e-05
-1.538165957690329e-05   3.249049667387264e-06   -2.0107441238502227e-05
-1.538165957690329e-05   3.249049667387264e-06   -2.0107441238502227e-05
-1.538165957690329e-05   3.249049667387264e-06   -2.0107441238502227e-05
-2.266345912392339e-06   2.3781245660303794e-06   -4.144374228520661e-05
-2.266345912392339e-06   2.3781245660303794e-06   -4.144374228520661e-05
-2.266345912392339e-06   2.3781245660303794e-06   -4.144374228520661e-05
-2.266345912392339e-06   2.3781245660303794e-06   -4.144374228520661e-05
-9.181623482910307e-06   2.3066294938434324e-06   -2.9875382624364925e-05
-9.181623482910307e-06   2.3066294938434324e-06   -2.9875382624364925e-05
-9.181623482910307e-06   2.3066294938434324e-06   -2.9875382624364925e-05
-9.181623482910307e-06   2.3066294938434324e-06   -2.9875382624364925e-05
-1.7286060662087004e-05   2.8668663623343266e-06   -1.607044734877204e-05
-1.7286060662087004e-05   2.8668663623343266e-06   -1.607044734877204e-05
-1.7286060662087004e-05   2.8668663623343266e-06   -1.607044734877204e-05
-1.7286060662087004e-05   2.8668663623343266e-06   -1.607044734877204e-05
-3.02986269471758e-05   3.466395697477101e-06   -3.73983402228344e-05
-3.02986269471758e-05   3.466395697477101e-06   -3.73983402228344e-05
-3.02986269471758e-05   3.466395697477101e-06   -3.73983402228344e-05
-3.02986269471758e-05   3.466395697477101e-06   -3.73983402228344e-05
-2.949462979674774e-05   3.6706258213505764e-06   -1.5096094761943009e-05
-2.949462979674774e-05   3.6706258213505764e-06   -1.5096094761943009e-05
-2.949462979674774e-05   3.6706258213505764e-06   -1.5096094761943009e-05
-2.949462979674774e-05   3.6706258213505764e-06   -1.5096094761943009e-05
-1.661927239782314e-05   4.194241838578142e-06   -3.686919337048742e-05
-1.661927239782314e-05   4.194241838578142e-06   -3.686919337048742e-05
-1.661927239782314e-05   4.194241838578142e-06   -3.686919337048742e-05
-1.661927239782314e-05   4.194241838578142e-06   -3.686919337048742e-05
-2.3253604170106254e-05   3.7008703050022546e-06   -2.5515950829869906e-05
-2.3253604170106254e-05   3.7008703050022546e-06   -2.5515950829869906e-05
-2.3253604170106254e-05   3.7008703050022546e-06   -2.5515950829869906e-05
-2.3253604170106254e-05   3.7008703050022546e-06   -2.5515950829869906e-05
-1.661927239782314e-05   3.6706258213505764e-06   -1.541026437227959e-05
-1.661927239782314e-05   3.6706258213505764e-06   -1.541026437227959e-05
-1.661927239782314e-05   3.6706258213505764e-06   -1.541026437227959e-05
-1.661927239782314e-05   3.6706258213505764e-06   -1.541026437227959e-05
-2.949462979674779e-05   4.194241838578142e-06   -3.655502376015082e-05
-2.949462979674779e-05   4.194241838578142e-06   -3.655502376015082e-05
-2.949462979674779e-05   4.194241838578142e-06   -3.655502376015082e-05
-2.949462979674779e-05   4.194241838578142e-06   -3.655502376015082e-05
-2.8604288507801826e-05   4.394353800830008e-06   -1.4554021575637066e-05
-2.8604288507801826e-05   4.394353800830008e-06   -1.4554021575637066e-05
-2.8604288507801826e-05   4.394353800830008e-06   -1.4554021575637066e-05
-2.8604288507801826e-05   4.394353800830008e-06   -1.4554021575637066e-05
-1.5976030451158682e-05   4.820970286834817e-06   -3.585708822831176e-05
-1.5976030451158682e-05   4.820970286834817e-06   -3.585708822831176e-05
-1.5976030451158682e-05   4.820970286834817e-06   -3.585708822831176e-05
-1.5976030451158682e-05   4.820970286834817e-06   -3.585708822831176e-05
-2.2439672278626106e-05   4.2679472133304135e-06   -2.4752538005096646e-05
-2.2439672278626106e-05   4.2679472133304135e-06   -2.4752538005096646e-05
-2.2439672278626106e-05   4.2679472133304135e-06   -2.4752538005096646e-05
-2.2439672278626106e-05   4.2679472133304135e-06   -2.4752538005096646e-05
-1.5976030451158665e-05   4.394353800830008e-06   -1.4809991467239756e-05
-1.5976030451158665e-05   4.394353800830008e-06   -1.4809991467239756e-05
-1.5976030451158665e-05   4.394353800830008e-06   -1.4809991467239756e-05
-1.5976030451158665e-05   4.394353800830008e-06   -1.4809991467239756e-05
-2.8604288507801826e-05   4.820970286834817e-06   -3.5601118336709044e-05
-2.8604288507801826e-05   4.820970286834817e-06   -3.5601118336709044e-05
-2.8604288507801826e-05   4.820970286834817e-06   -3.5601118336709044e-05
-2.8604288507801826e-05   4.820970286834817e-06   -3.5601118336709044e-05
-2.7852130734930362e-05   5.2035212666143565e-06   -1.4890698466226305e-05
-2.7852130734930362e-05   5.2035212666143565e-06   -1.4890698466226305e-05
-2.7852130734930362e-05   5.2035212666143565e-06   -1.4890698466226305e-05
-2.7852130734930362e-05   5.2035212666143565e-06   -1.4890698466226305e-05
-1.538165957690332e-05   5.5138295606555875e-06   -3.5861002039362603e-05
-1.538165957690332e-05   5.5138295606555875e-06   -3.5861002039362603e-05
-1.538165957690332e-05   5.5138295606555875e-06   -3.5861002039362603e-05
-1.538165957690332e-05   5.5138295606555875e-06   -3.5861002039362603e-05
-2.193510910083144e-05   4.790094222863195e-06   -2.45043449634737e-05
-2.193510910083144e-05   4.790094222863195e-06   -2.45043449634737e-05
-2.193510910083144e-05   4.790094222863195e-06   -2.45043449634737e-05
-2.193510910083144e-05   4.790094222863195e-06   -2.45043449634737e-05
-3.02986269471758e-05   4.929660216466871e-06   -8.048348563720396e-06
-3.02986269471758e-05   4.929660216466871e-06   -8.048348563720396e-06
-3.02986269471758e-05   4.929660216466871e-06   -8.048348563720396e-06
-3.02986269471758e-05   4.929660216466871e-06   -8.048348563720396e-06
-4.4011662700535746e-05   6.8060081991211125e-06   -2.977759936306128e-05
-4.4011662700535746e-05   6.8060081991211125e-06   -2.977759936306128e-05
-4.4011662700535746e-05   6.8060081991211125e-06   -2.977759936306128e-05
-4.4011662700535746e-05   6.8060081991211125e-06   -2.977759936306128e-05
-4.216021024733551e-05   5.7646016884318335e-06   -2.529448705820684e-06
-4.216021024733551e-05   5.7646016884318335e-06   -2.529448705820684e-06
-4.216021024733551e-05   5.7646016884318335e-06   -2.529448705820684e-06
-4.216021024733551e-05   5.7646016884318335e-06   -2.529448705820684e-06
-2.949462979674774e-05   7.773171756261105e-06   -2.4843891497497815e-05
-2.949462979674774e-05   7.773171756261105e-06   -2.4843891497497815e-05
-2.949462979674774e-05   7.773171756261105e-06   -2.4843891497497815e-05
-2.949462979674774e-05   7.773171756261105e-06   -2.4843891497497815e-05
-3.498294068850685e-05   6.483775531952729e-06   -1.4923068943314185e-05
-3.498294068850685e-05   6.483775531952729e-06   -1.4923068943314185e-05
-3.498294068850685e-05   6.483775531952729e-06   -1.4923068943314185e-05
-3.498294068850685e-05   6.483775531952729e-06   -1.4923068943314185e-05
-2.949462979674776e-05   5.7646016884318335e-06   -3.7345907465181384e-06
-2.949462979674776e-05   5.7646016884318335e-06   -3.7345907465181384e-06
-2.949462979674776e-05   5.7646016884318335e-06   -3.7345907465181384e-06
-2.949462979674776e-05   5.7646016884318335e-06   -3.7345907465181384e-06
-4.216021024733543e-05   7.773171756261105e-06   -2.363874945680031e-05
-4.216021024733543e-05   7.773171756261105e-06   -2.363874945680031e-05
-4.216021024733543e-05   7.773171756261105e-06   -2.363874945680031e-05
-4.216021024733543e-05   7.773171756261105e-06   -2.363874945680031e-05
-4.063676192783972e-05   6.063924690946371e-06   -2.2251713590161828e-07
-4.063676192783972e-05   6.063924690946371e-06   -2.2251713590161828e-07
-4.063676192783972e-05   6.063924690946371e-06   -2.2251713590161828e-07
-4.063676192783972e-05   6.063924690946371e-06   -2.2251713590161828e-07
-2.8604288507801826e-05   8.027842405977951e-06   -2.1454990131650404e-05
-2.8604288507801826e-05   8.027842405977951e-06   -2.1454990131650404e-05
-2.8604288507801826e-05   8.027842405977951e-06   -2.1454990131650404e-05
-2.8604288507801826e-05   8.027842405977951e-06   -2.1454990131650404e-05
-3.435609274951989e-05   6.8698714408312305e-06   -1.117386714969852e-05
-3.435609274951989e-05   6.8698714408312305e-06   -1.117386714969852e-05
-3.435609274951989e-05   6.8698714408312305e-06   -1.117386714969852e-05
-3.435609274951989e-05   6.8698714408312305e-06   -1.117386714969852e-05
-2.8604288507801826e-05   6.063924690946371e-06   -1.4008677649206096e-06
-2.8604288507801826e-05   6.063924690946371e-06   -1.4008677649206096e-06
-2.8604288507801826e-05   6.063924690946371e-06   -1.4008677649206096e-06
-2.8604288507801826e-05   6.063924690946371e-06   -1.4008677649206096e-06
-4.063676192783958e-05   8.027842405977734e-06   -2.0276639502631467e-05
-4.063676192783958e-05   8.027842405977734e-06   -2.0276639502631467e-05
-4.063676192783958e-05   8.027842405977734e-06   -2.0276639502631467e-05
-4.063676192783958e-05   8.027842405977734e-06   -2.0276639502631467e-05
-3.8992003711777924e-05   6.4421639871731825e-06   2.7101103134260975e-06
-3.8992003711777924e-05   6.4421639871731825e-06   2.7101103134260975e-06
-3.8992003711777924e-05   6.4421639871731825e-06   2.7101103134260975e-06
-3.8992003711777924e-05   6.4421639871731825e-06   2.7101103134260975e-06
-2.7852130734930362e-05   8.245737415105148e-06   -1.6938488704745674e-05
-2.7852130734930362e-05   8.245737415105148e-06   -1.6938488704745674e-05
-2.7852130734930362e-05   8.245737415105148e-06   -1.6938488704745674e-05
-2.7852130734930362e-05   8.245737415105148e-06   -1.6938488704745674e-05
-3.280952134392377e-05   6.932679499164259e-06   -7.8883362735259e-06
-3.280952134392377e-05   6.932679499164259e-06   -7.8883362735259e-06
-3.280952134392377e-05   6.932679499164259e-06   -7.8883362735259e-06
-3.280952134392377e-05   6.932679499164259e-06   -7.8883362735259e-06
3.764134248917896e-05   -5.246298500350506e-06   7.5051122220243065e-06
3.764134248917896e-05   -5.246298500350506e-06   7.5051122220243065e-06
3.764134248917896e-05   -5.246298500350506e-06   7.5051122220243065e-06
3.764134248917896e-05   -5.246298500350506e-06   7.5051122220243065e-06
1.8130422154630823e-05   -7.761813294624147e-06   -2.6522397212120144e-05
1.8130422154630823e-05   -7.761813294624147e-06   -2.6522397212120144e-05
1.8130422154630823e-05   -7.761813294624147e-06   -2.6522397212120144e-05
1.8130422154630823e-05   -7.761813294624147e-06   -2.6522397212120144e-05
1.886867343005549e-05   -4.879751046054292e-06   3.6416270711714382e-06
1.886867343005549e-05   -4.879751046054292e-06   3.6416270711714382e-06
1.886867343005549e-05   -4.879751046054292e-06   3.6416270711714382e-06
1.886867343005549e-05   -4.879751046054292e-06   3.6416270711714382e-06
3.935898540920451e-05   -7.58130264180072e-06   -2.8887961936629157e-05
3.935898540920451e-05   -7.58130264180072e-06   -2.8887961936629157e-05
3.935898540920451e-05   -7.58130264180072e-06   -2.8887961936629157e-05
3.935898540920451e-05   -7.58130264180072e-06   -2.8887961936629157e-05
2.7340701154159315e-05   -5.742854605974516e-06   -9.9605569997162e-06
2.7340701154159315e-05   -5.742854605974516e-06   -9.9605569997162e-06
2.7340701154159315e-05   -5.742854605974516e-06   -9.9605569997162e-06
2.7340701154159315e-05   -5.742854605974516e-06   -9.9605569997162e-06
3.935898540920459e-05   -4.879751046054292e-06   5.262558028619425e-06
3.935898540920459e-05   -4.879751046054292e-06   5.262558028619425e-06
3.935898540920459e-05   -4.879751046054292e-06   5.262558028619425e-06
3.935898540920459e-05   -4.879751046054292e-06   5.262558028619425e-06
1.886867343005549e-05   -7.58130264180072e-06   -3.050889289407709e-05
1.886867343005549e-05   -7.58130264180072e-06   -3.050889289407709e-05
1.886867343005549e-05   -7.58130264180072e-06   -3.050889289407709e-05
1.886867343005549e-05   -7.58130264180072e-06   -3.050889289407709e-05
1.9603175252397076e-05   -4.563921379168454e-06   1.749687711034495e-06
1.9603175252397076e-05   -4.563921379168454e-06   1.749687711034495e-06
1.9603175252397076e-05   -4.563921379168454e-06   1.749687711034495e-06
1.9603175252397076e-05   -4.563921379168454e-06   1.749687711034495e-06
4.067683509532472e-05   -7.317847076652702e-06   -3.172072327535454e-05
4.067683509532472e-05   -7.317847076652702e-06   -3.172072327535454e-05
4.067683509532472e-05   -7.317847076652702e-06   -3.172072327535454e-05
4.067683509532472e-05   -7.317847076652702e-06   -3.172072327535454e-05
2.8787898667097586e-05   -5.723723522533999e-06   -1.286230336078033e-05
2.8787898667097586e-05   -5.723723522533999e-06   -1.286230336078033e-05
2.8787898667097586e-05   -5.723723522533999e-06   -1.286230336078033e-05
2.8787898667097586e-05   -5.723723522533999e-06   -1.286230336078033e-05
4.067683509532472e-05   -4.563921379168454e-06   3.402043129524914e-06
4.067683509532472e-05   -4.563921379168454e-06   3.402043129524914e-06
4.067683509532472e-05   -4.563921379168454e-06   3.402043129524914e-06
4.067683509532472e-05   -4.563921379168454e-06   3.402043129524914e-06
1.9603175252397076e-05   -7.317847076652702e-06   -3.337307869384512e-05
1.9603175252397076e-05   -7.317847076652702e-06   -3.337307869384512e-05
1.9603175252397076e-05   -7.317847076652702e-06   -3.337307869384512e-05
1.9603175252397076e-05   -7.317847076652702e-06   -3.337307869384512e-05
2.0101408383024273e-05   -3.566054190033089e-06   -2.058104386700116e-06
2.0101408383024273e-05   -3.566054190033089e-06   -2.058104386700116e-06
2.0101408383024273e-05   -3.566054190033089e-06   -2.058104386700116e-06
2.0101408383024273e-05   -3.566054190033089e-06   -2.058104386700116e-06
4.2070586806949395e-05   -6.291168725714022e-06   -3.7038333038500295e-05
4.2070586806949395e-05   -6.291168725714022e-06   -3.7038333038500295e-05
4.2070586806949395e-05   -6.291168725714022e-06   -3.7038333038500295e-05
4.2070586806949395e-05   -6.291168725714022e-06   -3.7038333038500295e-05
2.9189676316860406e-05   -5.283317875027756e-06   -1.6174859398764268e-05
2.9189676316860406e-05   -5.283317875027756e-06   -1.6174859398764268e-05
2.9189676316860406e-05   -5.283317875027756e-06   -1.6174859398764268e-05
2.9189676316860406e-05   -5.283317875027756e-06   -1.6174859398764268e-05
1.813042215463085e-05   -2.4526484664819104e-06   -9.105355463109605e-06
1.813042215463085e-05   -2.4526484664819104e-06   -9.105355463109605e-06
1.813042215463085e-05   -2.4526484664819104e-06   -9.105355463109605e-06
1.813042215463085e-05   -2.4526484664819104e-06   -9.105355463109605e-06
-1.1139770755477226e-06   -5.020091881563016e-06   -4.271982022912267e-05
-1.1139770755477226e-06   -5.020091881563016e-06   -4.271982022912267e-05
-1.1139770755477226e-06   -5.020091881563016e-06   -4.271982022912267e-05
-1.1139770755477226e-06   -5.020091881563016e-06   -4.271982022912267e-05
-3.5652989588516766e-07   -1.9422066173968057e-06   -1.0041426936745635e-05
-3.5652989588516766e-07   -1.9422066173968057e-06   -1.0041426936745635e-05
-3.5652989588516766e-07   -1.9422066173968057e-06   -1.0041426936745635e-05
-3.5652989588516766e-07   -1.9422066173968057e-06   -1.0041426936745635e-05
1.886867343005549e-05   -4.7783841235456755e-06   -4.038172597629062e-05
1.886867343005549e-05   -4.7783841235456755e-06   -4.038172597629062e-05
1.886867343005549e-05   -4.7783841235456755e-06   -4.038172597629062e-05
1.886867343005549e-05   -4.7783841235456755e-06   -4.038172597629062e-05
8.90858271521756e-06   -3.037588730648872e-06   -2.4826052020632142e-05
8.90858271521756e-06   -3.037588730648872e-06   -2.4826052020632142e-05
8.90858271521756e-06   -3.037588730648872e-06   -2.4826052020632142e-05
8.90858271521756e-06   -3.037588730648872e-06   -2.4826052020632142e-05
1.886867343005549e-05   -1.9422066173968057e-06   -8.339720433056096e-06
1.886867343005549e-05   -1.9422066173968057e-06   -8.339720433056096e-06
1.886867343005549e-05   -1.9422066173968057e-06   -8.339720433056096e-06
1.886867343005549e-05   -1.9422066173968057e-06   -8.339720433056096e-06
-3.5652989588516766e-07   -4.7783841235456755e-06   -4.208343247998005e-05
-3.5652989588516766e-07   -4.7783841235456755e-06   -4.208343247998005e-05
-3.5652989588516766e-07   -4.7783841235456755e-06   -4.208343247998005e-05
-3.5652989588516766e-07   -4.7783841235456755e-06   -4.208343247998005e-05
3.1074377355179677e-07   -1.3183847499412607e-06   -1.0282265561305497e-05
3.1074377355179677e-07   -1.3183847499412607e-06   -1.0282265561305497e-05
3.1074377355179677e-07   -1.3183847499412607e-06   -1.0282265561305497e-05
3.1074377355179677e-07   -1.3183847499412607e-06   -1.0282265561305497e-05
1.9603175252397076e-05   -4.329386455453324e-06   -4.062971700274039e-05
1.9603175252397076e-05   -4.329386455453324e-06   -4.062971700274039e-05
1.9603175252397076e-05   -4.329386455453324e-06   -4.062971700274039e-05
1.9603175252397076e-05   -4.329386455453324e-06   -4.062971700274039e-05
9.423325514658957e-06   -2.7869080484748017e-06   -2.4588787817363513e-05
9.423325514658957e-06   -2.7869080484748017e-06   -2.4588787817363513e-05
9.423325514658957e-06   -2.7869080484748017e-06   -2.4588787817363513e-05
9.423325514658957e-06   -2.7869080484748017e-06   -2.4588787817363513e-05
1.9603175252397076e-05   -1.3183847499410439e-06   -8.47566453799839e-06
1.9603175252397076e-05   -1.3183847499410439e-06   -8.47566453799839e-06
1.9603175252397076e-05   -1.3183847499410439e-06   -8.47566453799839e-06
1.9603175252397076e-05   -1.3183847499410439e-06   -8.47566453799839e-06
3.1074377355179677e-07   -4.329386455453324e-06   -4.243631802604785e-05
3.1074377355179677e-07   -4.329386455453324e-06   -4.243631802604785e-05
3.1074377355179677e-07   -4.329386455453324e-06   -4.243631802604785e-05
3.1074377355179677e-07   -4.329386455453324e-06   -4.243631802604785e-05
7.855280158964412e-07   -5.331891195629358e-07   -1.0691474772233419e-05
7.855280158964412e-07   -5.331891195629358e-07   -1.0691474772233419e-05
7.855280158964412e-07   -5.331891195629358e-07   -1.0691474772233419e-05
7.855280158964412e-07   -5.331891195629358e-07   -1.0691474772233419e-05
2.0101408383024354e-05   -3.6904859689399893e-06   -4.099023060782041e-05
2.0101408383024354e-05   -3.6904859689399893e-06   -4.099023060782041e-05
2.0101408383024354e-05   -3.6904859689399893e-06   -4.099023060782041e-05
2.0101408383024354e-05   -3.6904859689399893e-06   -4.099023060782041e-05
1.0040814203770356e-05   -2.3458026011252686e-06   -2.502938366308636e-05
1.0040814203770356e-05   -2.3458026011252686e-06   -2.502938366308636e-05
1.0040814203770356e-05   -2.3458026011252686e-06   -2.502938366308636e-05
1.0040814203770356e-05   -2.3458026011252686e-06   -2.502938366308636e-05
-1.1139770755477226e-06   4.5477368719416475e-07   -1.3886768906499949e-05
-1.1139770755477226e-06   4.5477368719416475e-07   -1.3886768906499949e-05
-1.1139770755477226e-06   4.5477368719416475e-07   -1.3886768906499949e-05
-1.1139770755477226e-06   4.5477368719416475e-07   -1.3886768906499949e-05
-2.0074140151717893e-05   -2.620771001278499e-06   -4.7332367513200726e-05
-2.0074140151717893e-05   -2.620771001278499e-06   -4.7332367513200726e-05
-2.0074140151717893e-05   -2.620771001278499e-06   -4.7332367513200726e-05
-2.0074140151717893e-05   -2.620771001278499e-06   -4.7332367513200726e-05
-1.9165211709150784e-05   1.0284076324728383e-06   -1.5098146060084014e-05
-1.9165211709150784e-05   1.0284076324728383e-06   -1.5098146060084014e-05
-1.9165211709150784e-05   1.0284076324728383e-06   -1.5098146060084014e-05
-1.9165211709150784e-05   1.0284076324728383e-06   -1.5098146060084014e-05
-3.5652989588516766e-07   -2.3355485331837296e-06   -4.442757538279931e-05
-3.5652989588516766e-07   -2.3355485331837296e-06   -4.442757538279931e-05
-3.5652989588516766e-07   -2.3355485331837296e-06   -4.442757538279931e-05
-3.5652989588516766e-07   -2.3355485331837296e-06   -4.442757538279931e-05
-1.0057177215385353e-05   -4.968269041636351e-07   -2.9363062827711048e-05
-1.0057177215385353e-05   -4.968269041636351e-07   -2.9363062827711048e-05
-1.0057177215385353e-05   -4.968269041636351e-07   -2.9363062827711048e-05
-1.0057177215385353e-05   -4.968269041636351e-07   -2.9363062827711048e-05
-3.5652989588516766e-07   1.0284076324728383e-06   -1.3079772360689986e-05
-3.5652989588516766e-07   1.0284076324728383e-06   -1.3079772360689986e-05
-3.5652989588516766e-07   1.0284076324728383e-06   -1.3079772360689986e-05
-3.5652989588516766e-07   1.0284076324728383e-06   -1.3079772360689986e-05
-1.9165211709150784e-05   -2.3355485331837296e-06   -4.644594908219347e-05
-1.9165211709150784e-05   -2.3355485331837296e-06   -4.644594908219347e-05
-1.9165211709150784e-05   -2.3355485331837296e-06   -4.644594908219347e-05
-1.9165211709150784e-05   -2.3355485331837296e-06   -4.644594908219347e-05
-1.8331332554916904e-05   1.6922042360592408e-06   -1.4827893131367283e-05
-1.8331332554916904e-05   1.6922042360592408e-06   -1.4827893131367283e-05
-1.8331332554916904e-05   1.6922042360592408e-06   -1.4827893131367283e-05
-1.8331332554916904e-05   1.6922042360592408e-06   -1.4827893131367283e-05
3.1074377355179677e-07   -1.8929774959770395e-06   -4.3746911306260134e-05
3.1074377355179677e-07   -1.8929774959770395e-06   -4.3746911306260134e-05
3.1074377355179677e-07   -1.8929774959770395e-06   -4.3746911306260134e-05
3.1074377355179677e-07   -1.8929774959770395e-06   -4.3746911306260134e-05
-9.317166244614404e-06   -1.7080854348354262e-07   -2.873369598081261e-05
-9.317166244614404e-06   -1.7080854348354262e-07   -2.873369598081261e-05
-9.317166244614404e-06   -1.7080854348354262e-07   -2.873369598081261e-05
-9.317166244614404e-06   -1.7080854348354262e-07   -2.873369598081261e-05
3.1074377355179677e-07   1.6922042360592408e-06   -1.2676784092145689e-05
3.1074377355179677e-07   1.6922042360592408e-06   -1.2676784092145689e-05
3.1074377355179677e-07   1.6922042360592408e-06   -1.2676784092145689e-05
3.1074377355179677e-07   1.6922042360592408e-06   -1.2676784092145689e-05
-1.833133255491693e-05   -1.8929774959770395e-06   -4.589802034548197e-05
-1.833133255491693e-05   -1.8929774959770395e-06   -4.589802034548197e-05
-1.833133255491693e-05   -1.8929774959770395e-06   -4.589802034548197e-05
-1.833133255491693e-05   -1.8929774959770395e-06   -4.589802034548197e-05
-1.776920846890693e-05   2.3781245660301625e-06   -1.5086379407301675e-05
-1.776920846890693e-05   2.3781245660301625e-06   -1.5086379407301675e-05
-1.776920846890693e-05   2.3781245660301625e-06   -1.5086379407301675e-05
-1.776920846890693e-05   2.3781245660301625e-06   -1.5086379407301675e-05
7.855280158964412e-07   -1.4730863256923535e-06   -4.37002136802737e-05
7.855280158964412e-07   -1.4730863256923535e-06   -4.37002136802737e-05
7.855280158964412e-07   -1.4730863256923535e-06   -4.37002136802737e-05
7.855280158964412e-07   -1.4730863256923535e-06   -4.37002136802737e-05
-8.789667648812379e-06   1.9504414156619639e-07   -2.874243251944805e-05
-8.789667648812379e-06   1.9504414156619639e-07   -2.874243251944805e-05
-8.789667648812379e-06   1.9504414156619639e-07   -2.874243251944805e-05
-8.789667648812379e-06   1.9504414156619639e-07   -2.874243251944805e-05
-2.0074140151717852e-05   3.466395697477101e-06   -1.132720518834526e-05
-2.0074140151717852e-05   3.466395697477101e-06   -1.132720518834526e-05
-2.0074140151717852e-05   3.466395697477101e-06   -1.132720518834526e-05
-2.0074140151717852e-05   3.466395697477101e-06   -1.132720518834526e-05
-3.930068546358629e-05   6.979402256265463e-07   -4.503252065790272e-05
-3.930068546358629e-05   6.979402256265463e-07   -4.503252065790272e-05
-3.930068546358629e-05   6.979402256265463e-07   -4.503252065790272e-05
-3.930068546358629e-05   6.979402256265463e-07   -4.503252065790272e-05
-3.800656119817807e-05   4.194241838578359e-06   -1.2066043891875407e-05
-3.800656119817807e-05   4.194241838578359e-06   -1.2066043891875407e-05
-3.800656119817807e-05   4.194241838578359e-06   -1.2066043891875407e-05
-3.800656119817807e-05   4.194241838578359e-06   -1.2066043891875407e-05
-1.9165211709150757e-05   1.2233260922541768e-06   -4.1685743592459774e-05
-1.9165211709150757e-05   1.2233260922541768e-06   -4.1685743592459774e-05
-1.9165211709150757e-05   1.2233260922541768e-06   -4.1685743592459774e-05
-1.9165211709150757e-05   1.2233260922541768e-06   -4.1685743592459774e-05
-2.8835005172554748e-05   2.644215675104509e-06   -2.6421954903163482e-05
-2.8835005172554748e-05   2.644215675104509e-06   -2.6421954903163482e-05
-2.8835005172554748e-05   2.644215675104509e-06   -2.6421954903163482e-05
-2.8835005172554748e-05   2.644215675104509e-06   -2.6421954903163482e-05
-1.9165211709150757e-05   4.194241838578359e-06   -1.0283494444080768e-05
-1.9165211709150757e-05   4.194241838578359e-06   -1.0283494444080768e-05
-1.9165211709150757e-05   4.194241838578359e-06   -1.0283494444080768e-05
-1.9165211709150757e-05   4.194241838578359e-06   -1.0283494444080768e-05
-3.800656119817814e-05   1.22332609225396e-06   -4.3468293040254454e-05
-3.800656119817814e-05   1.22332609225396e-06   -4.3468293040254454e-05
-3.800656119817814e-05   1.22332609225396e-06   -4.3468293040254454e-05
-3.800656119817814e-05   1.22332609225396e-06   -4.3468293040254454e-05
-3.675485516104386e-05   4.8209702868346e-06   -1.098545402997619e-05
-3.675485516104386e-05   4.8209702868346e-06   -1.098545402997619e-05
-3.675485516104386e-05   4.8209702868346e-06   -1.098545402997619e-05
-3.675485516104386e-05   4.8209702868346e-06   -1.098545402997619e-05
-1.833133255491693e-05   1.7067668483677651e-06   -3.982280297710779e-05
-1.833133255491693e-05   1.7067668483677651e-06   -3.982280297710779e-05
-1.833133255491693e-05   1.7067668483677651e-06   -3.982280297710779e-05
-1.833133255491693e-05   1.7067668483677651e-06   -3.982280297710779e-05
-2.7664375589770183e-05   3.101367948551547e-06   -2.5104491912462663e-05
-2.7664375589770183e-05   3.101367948551547e-06   -2.5104491912462663e-05
-2.7664375589770183e-05   3.101367948551547e-06   -2.5104491912462663e-05
-2.7664375589770183e-05   3.101367948551547e-06   -2.5104491912462663e-05
-1.833133255491687e-05   4.8209702868346e-06   -9.116931966896002e-06
-1.833133255491687e-05   4.8209702868346e-06   -9.116931966896002e-06
-1.833133255491687e-05   4.8209702868346e-06   -9.116931966896002e-06
-1.833133255491687e-05   4.8209702868346e-06   -9.116931966896002e-06
-3.675485516104393e-05   1.7067668483675483e-06   -4.1691325040188075e-05
-3.675485516104393e-05   1.7067668483675483e-06   -4.1691325040188075e-05
-3.675485516104393e-05   1.7067668483675483e-06   -4.1691325040188075e-05
-3.675485516104393e-05   1.7067668483675483e-06   -4.1691325040188075e-05
-3.580634237885383e-05   5.513829560655804e-06   -1.1020227859601887e-05
-3.580634237885383e-05   5.513829560655804e-06   -1.1020227859601887e-05
-3.580634237885383e-05   5.513829560655804e-06   -1.1020227859601887e-05
-3.580634237885383e-05   5.513829560655804e-06   -1.1020227859601887e-05
-1.7769208468906965e-05   2.1152566290587316e-06   -3.904297395055554e-05
-1.7769208468906965e-05   2.1152566290587316e-06   -3.904297395055554e-05
-1.7769208468906965e-05   2.1152566290587316e-06   -3.904297395055554e-05
-1.7769208468906965e-05   2.1152566290587316e-06   -3.904297395055554e-05
-2.7010972525364213e-05   3.420584064486301e-06   -2.4423230317716376e-05
-2.7010972525364213e-05   3.420584064486301e-06   -2.4423230317716376e-05
-2.7010972525364213e-05   3.420584064486301e-06   -2.4423230317716376e-05
-2.7010972525364213e-05   3.420584064486301e-06   -2.4423230317716376e-05
-3.930068546358629e-05   6.8060081991211125e-06   -6.493346401275062e-06
-3.930068546358629e-05   6.8060081991211125e-06   -6.493346401275062e-06
-3.930068546358629e-05   6.8060081991211125e-06   -6.493346401275062e-06
-3.930068546358629e-05   6.8060081991211125e-06   -6.493346401275062e-06
-5.939423806385336e-05   6.4317668541909265e-06   -4.020714554201182e-05
-5.939423806385336e-05   6.4317668541909265e-06   -4.020714554201182e-05
-5.939423806385336e-05   6.4317668541909265e-06   -4.020714554201182e-05
-5.939423806385336e-05   6.4317668541909265e-06   -4.020714554201182e-05
-5.6835778455133044e-05   7.773171756261105e-06   -1.3877976276434507e-07
-5.6835778455133044e-05   7.773171756261105e-06   -1.3877976276434507e-07
-5.6835778455133044e-05   7.773171756261105e-06   -1.3877976276434507e-07
-5.6835778455133044e-05   7.773171756261105e-06   -1.3877976276434507e-07
-3.8006561198178005e-05   8.133391533691548e-06   -3.173694039081432e-05
-3.8006561198178005e-05   8.133391533691548e-06   -3.173694039081432e-05
-3.8006561198178005e-05   8.133391533691548e-06   -3.173694039081432e-05
-3.8006561198178005e-05   8.133391533691548e-06   -3.173694039081432e-05
-4.629802639922475e-05   7.667824509408495e-06   -1.7638491507833507e-05
-4.629802639922475e-05   7.667824509408495e-06   -1.7638491507833507e-05
-4.629802639922475e-05   7.667824509408495e-06   -1.7638491507833507e-05
-4.629802639922475e-05   7.667824509408495e-06   -1.7638491507833507e-05
-3.80065611981781e-05   7.773171756261105e-06   -3.5491162922235073e-07
-3.80065611981781e-05   7.773171756261105e-06   -3.5491162922235073e-07
-3.80065611981781e-05   7.773171756261105e-06   -3.5491162922235073e-07
-3.80065611981781e-05   7.773171756261105e-06   -3.5491162922235073e-07
-5.6835778455133044e-05   8.133391533691548e-06   -3.152080852435613e-05
-5.6835778455133044e-05   8.133391533691548e-06   -3.152080852435613e-05
-5.6835778455133044e-05   8.133391533691548e-06   -3.152080852435613e-05
-5.6835778455133044e-05   8.133391533691548e-06   -3.152080852435613e-05
-5.471463691261543e-05   8.027842405977951e-06   3.4536957023848566e-06
-5.471463691261543e-05   8.027842405977951e-06   3.4536957023848566e-06
-5.471463691261543e-05   8.027842405977951e-06   3.4536957023848566e-06
-5.471463691261543e-05   8.027842405977951e-06   3.4536957023848566e-06
-3.675485516104386e-05   8.516211618148865e-06   -2.6772295410870408e-05
-3.675485516104386e-05   8.516211618148865e-06   -2.6772295410870408e-05
-3.675485516104386e-05   8.516211618148865e-06   -2.6772295410870408e-05
-3.675485516104386e-05   8.516211618148865e-06   -2.6772295410870408e-05
-4.533444242734792e-05   8.223911446212468e-06   -1.2297603197201153e-05
-4.533444242734792e-05   8.223911446212468e-06   -1.2297603197201153e-05
-4.533444242734792e-05   8.223911446212468e-06   -1.2297603197201153e-05
-4.533444242734792e-05   8.223911446212468e-06   -1.2297603197201153e-05
-3.675485516104393e-05   8.027842405977951e-06   3.1606741750821784e-06
-3.675485516104393e-05   8.027842405977951e-06   3.1606741750821784e-06
-3.675485516104393e-05   8.027842405977951e-06   3.1606741750821784e-06
-3.675485516104393e-05   8.027842405977951e-06   3.1606741750821784e-06
-5.471463691261533e-05   8.516211618148865e-06   -2.6479273883567777e-05
-5.471463691261533e-05   8.516211618148865e-06   -2.6479273883567777e-05
-5.471463691261533e-05   8.516211618148865e-06   -2.6479273883567777e-05
-5.471463691261533e-05   8.516211618148865e-06   -2.6479273883567777e-05
-5.249534785482999e-05   8.245737415105148e-06   8.271289897307348e-06
-5.249534785482999e-05   8.245737415105148e-06   8.271289897307348e-06
-5.249534785482999e-05   8.245737415105148e-06   8.271289897307348e-06
-5.249534785482999e-05   8.245737415105148e-06   8.271289897307348e-06
-3.580634237885383e-05   9.171053079633663e-06   -2.009890862803678e-05
-3.580634237885383e-05   9.171053079633663e-06   -2.009890862803678e-05
-3.580634237885383e-05   9.171053079633663e-06   -2.009890862803678e-05
-3.580634237885383e-05   9.171053079633663e-06   -2.009890862803678e-05
-4.319017652047571e-05   8.40973360278054e-06   -7.33572670588874e-06
-4.319017652047571e-05   8.40973360278054e-06   -7.33572670588874e-06
-4.319017652047571e-05   8.40973360278054e-06   -7.33572670588874e-06
-4.319017652047571e-05   8.40973360278054e-06   -7.33572670588874e-06
5.1708644299297806e-05   -7.76181329462393e-06   1.767385428418154e-05
5.1708644299297806e-05   -7.76181329462393e-06   1.767385428418154e-05
5.1708644299297806e-05   -7.76181329462393e-06   1.767385428418154e-05
5.1708644299297806e-05   -7.76181329462393e-06   1.767385428418154e-05
2.5981781169870523e-05   -9.811066535091e-06   -2.64338028758104e-05
2.5981781169870523e-05   -9.811066535091e-06   -2.64338028758104e-05
2.5981781169870523e-05   -9.811066535091e-06   -2.64338028758104e-05
2.5981781169870523e-05   -9.811066535091e-06   -2.64338028758104e-05
2.6613244612000073e-05   -7.58130264180072e-06   1.2685722454783407e-05
2.6613244612000073e-05   -7.58130264180072e-06   1.2685722454783407e-05
2.6613244612000073e-05   -7.58130264180072e-06   1.2685722454783407e-05
2.6613244612000073e-05   -7.58130264180072e-06   1.2685722454783407e-05
5.299282105017503e-05   -1.005653513907502e-05   -2.979509877714374e-05
5.299282105017503e-05   -1.005653513907502e-05   -2.979509877714374e-05
5.299282105017503e-05   -1.005653513907502e-05   -2.979509877714374e-05
5.299282105017503e-05   -1.005653513907502e-05   -2.979509877714374e-05
3.7756941827890575e-05   -7.928327193382342e-06   -5.678891507418624e-06
3.7756941827890575e-05   -7.928327193382342e-06   -5.678891507418624e-06
3.7756941827890575e-05   -7.928327193382342e-06   -5.678891507418624e-06
3.7756941827890575e-05   -7.928327193382342e-06   -5.678891507418624e-06
5.299282105017503e-05   -7.58130264180072e-06   1.4170861953147727e-05
5.299282105017503e-05   -7.58130264180072e-06   1.4170861953147727e-05
5.299282105017503e-05   -7.58130264180072e-06   1.4170861953147727e-05
5.299282105017503e-05   -7.58130264180072e-06   1.4170861953147727e-05
2.6613244612000073e-05   -1.005653513907502e-05   -3.128023827550822e-05
2.6613244612000073e-05   -1.005653513907502e-05   -3.128023827550822e-05
2.6613244612000073e-05   -1.005653513907502e-05   -3.128023827550822e-05
2.6613244612000073e-05   -1.005653513907502e-05   -3.128023827550822e-05
2.714690835265843e-05   -7.317847076652702e-06   1.0013964234649713e-05
2.714690835265843e-05   -7.317847076652702e-06   1.0013964234649713e-05
2.714690835265843e-05   -7.317847076652702e-06   1.0013964234649713e-05
2.714690835265843e-05   -7.317847076652702e-06   1.0013964234649713e-05
5.379279214124831e-05   -9.964775440526137e-06   -3.280768506134252e-05
5.379279214124831e-05   -9.964775440526137e-06   -3.280768506134252e-05
5.379279214124831e-05   -9.964775440526137e-06   -3.280768506134252e-05
5.379279214124831e-05   -9.964775440526137e-06   -3.280768506134252e-05
3.908500910582421e-05   -8.177946303551415e-06   -9.366810817820564e-06
3.908500910582421e-05   -8.177946303551415e-06   -9.366810817820564e-06
3.908500910582421e-05   -8.177946303551415e-06   -9.366810817820564e-06
3.908500910582421e-05   -8.177946303551415e-06   -9.366810817820564e-06
5.379279214124831e-05   -7.317847076652702e-06   1.1602121252973904e-05
5.379279214124831e-05   -7.317847076652702e-06   1.1602121252973904e-05
5.379279214124831e-05   -7.317847076652702e-06   1.1602121252973904e-05
5.379279214124831e-05   -7.317847076652702e-06   1.1602121252973904e-05
2.714690835265843e-05   -9.964775440526137e-06   -3.4395842079666845e-05
2.714690835265843e-05   -9.964775440526137e-06   -3.4395842079666845e-05
2.714690835265843e-05   -9.964775440526137e-06   -3.4395842079666845e-05
2.714690835265843e-05   -9.964775440526137e-06   -3.4395842079666845e-05
2.7703972042806817e-05   -6.2911687257142385e-06   4.833641888781154e-06
2.7703972042806817e-05   -6.2911687257142385e-06   4.833641888781154e-06
2.7703972042806817e-05   -6.2911687257142385e-06   4.833641888781154e-06
2.7703972042806817e-05   -6.2911687257142385e-06   4.833641888781154e-06
5.45805284791926e-05   -9.408527396762359e-06   -3.8090203635899494e-05
5.45805284791926e-05   -9.408527396762359e-06   -3.8090203635899494e-05
5.45805284791926e-05   -9.408527396762359e-06   -3.8090203635899494e-05
5.45805284791926e-05   -9.408527396762359e-06   -3.8090203635899494e-05
3.9101177379214694e-05   -7.869338724641843e-06   -1.3214798339208759e-05
3.9101177379214694e-05   -7.869338724641843e-06   -1.3214798339208759e-05
3.9101177379214694e-05   -7.869338724641843e-06   -1.3214798339208759e-05
3.9101177379214694e-05   -7.869338724641843e-06   -1.3214798339208759e-05
2.5981781169870523e-05   -5.020091881563233e-06   1.7873453719478936e-06
2.5981781169870523e-05   -5.020091881563233e-06   1.7873453719478936e-06
2.5981781169870523e-05   -5.020091881563233e-06   1.7873453719478936e-06
2.5981781169870523e-05   -5.020091881563233e-06   1.7873453719478936e-06
3.05594016404429e-06   -9.819472605962064e-06   -3.930201807240182e-05
3.05594016404429e-06   -9.819472605962064e-06   -3.930201807240182e-05
3.05594016404429e-06   -9.819472605962064e-06   -3.930201807240182e-05
3.05594016404429e-06   -9.819472605962064e-06   -3.930201807240182e-05
3.791590101758749e-06   -4.7783841235456755e-06   -1.8070517041383037e-07
3.791590101758749e-06   -4.7783841235456755e-06   -1.8070517041383037e-07
3.791590101758749e-06   -4.7783841235456755e-06   -1.8070517041383037e-07
3.791590101758749e-06   -4.7783841235456755e-06   -1.8070517041383037e-07
2.6613244612000114e-05   -9.767708361851316e-06   -3.5223201477832625e-05
2.6613244612000114e-05   -9.767708361851316e-06   -3.5223201477832625e-05
2.6613244612000114e-05   -9.767708361851316e-06   -3.5223201477832625e-05
2.6613244612000114e-05   -9.767708361851316e-06   -3.5223201477832625e-05
1.4917920173778306e-05   -6.626042726643865e-06   -1.761599346192076e-05
1.4917920173778306e-05   -6.626042726643865e-06   -1.761599346192076e-05
1.4917920173778306e-05   -6.626042726643865e-06   -1.761599346192076e-05
1.4917920173778306e-05   -6.626042726643865e-06   -1.761599346192076e-05
2.6613244612000032e-05   -4.7783841235456755e-06   2.812889372569771e-06
2.6613244612000032e-05   -4.7783841235456755e-06   2.812889372569771e-06
2.6613244612000032e-05   -4.7783841235456755e-06   2.812889372569771e-06
2.6613244612000032e-05   -4.7783841235456755e-06   2.812889372569771e-06
3.7915901017587355e-06   -9.767708361851316e-06   -3.8216796020815766e-05
3.7915901017587355e-06   -9.767708361851316e-06   -3.8216796020815766e-05
3.7915901017587355e-06   -9.767708361851316e-06   -3.8216796020815766e-05
3.7915901017587355e-06   -9.767708361851316e-06   -3.8216796020815766e-05
4.455595437284355e-06   -4.329386455453324e-06   -4.258755989454237e-07
4.455595437284355e-06   -4.329386455453324e-06   -4.258755989454237e-07
4.455595437284355e-06   -4.329386455453324e-06   -4.258755989454237e-07
4.455595437284355e-06   -4.329386455453324e-06   -4.258755989454237e-07
2.714690835265843e-05   -9.634722329953348e-06   -3.506152893320246e-05
2.714690835265843e-05   -9.634722329953348e-06   -3.506152893320246e-05
2.714690835265843e-05   -9.634722329953348e-06   -3.506152893320246e-05
2.714690835265843e-05   -9.634722329953348e-06   -3.506152893320246e-05
1.5334422861045244e-05   -6.697308422437065e-06   -1.7136501458356237e-05
1.5334422861045244e-05   -6.697308422437065e-06   -1.7136501458356237e-05
1.5334422861045244e-05   -6.697308422437065e-06   -1.7136501458356237e-05
1.5334422861045244e-05   -6.697308422437065e-06   -1.7136501458356237e-05
2.714690835265843e-05   -4.329386455453324e-06   2.7573259257544173e-06
2.714690835265843e-05   -4.329386455453324e-06   2.7573259257544173e-06
2.714690835265843e-05   -4.329386455453324e-06   2.7573259257544173e-06
2.714690835265843e-05   -4.329386455453324e-06   2.7573259257544173e-06
4.455595437284328e-06   -9.634722329953348e-06   -3.8244730457902385e-05
4.455595437284328e-06   -9.634722329953348e-06   -3.8244730457902385e-05
4.455595437284328e-06   -9.634722329953348e-06   -3.8244730457902385e-05
4.455595437284328e-06   -9.634722329953348e-06   -3.8244730457902385e-05
5.4468754193913845e-06   -3.6904859689399893e-06   -8.91046083565392e-07
5.4468754193913845e-06   -3.6904859689399893e-06   -8.91046083565392e-07
5.4468754193913845e-06   -3.6904859689399893e-06   -8.91046083565392e-07
5.4468754193913845e-06   -3.6904859689399893e-06   -8.91046083565392e-07
2.7703972042806803e-05   -9.370251176331768e-06   -3.457834799815593e-05
2.7703972042806803e-05   -9.370251176331768e-06   -3.457834799815593e-05
2.7703972042806803e-05   -9.370251176331768e-06   -3.457834799815593e-05
2.7703972042806803e-05   -9.370251176331768e-06   -3.457834799815593e-05
1.6131630011507216e-05   -6.591185457413768e-06   -1.6958550710674135e-05
1.6131630011507216e-05   -6.591185457413768e-06   -1.6958550710674135e-05
1.6131630011507216e-05   -6.591185457413768e-06   -1.6958550710674135e-05
1.6131630011507216e-05   -6.591185457413768e-06   -1.6958550710674135e-05
3.05594016404429e-06   -2.620771001278499e-06   -3.8595035336858215e-06
3.05594016404429e-06   -2.620771001278499e-06   -3.8595035336858215e-06
3.05594016404429e-06   -2.620771001278499e-06   -3.8595035336858215e-06
3.05594016404429e-06   -2.620771001278499e-06   -3.8595035336858215e-06
-1.963173281770764e-05   -1.1821193220544132e-05   -4.7192545168165106e-05
-1.963173281770764e-05   -1.1821193220544132e-05   -4.7192545168165106e-05
-1.963173281770764e-05   -1.1821193220544132e-05   -4.7192545168165106e-05
-1.963173281770764e-05   -1.1821193220544132e-05   -4.7192545168165106e-05
-1.848552482032474e-05   -2.3355485331837296e-06   -8.371847109812708e-06
-1.848552482032474e-05   -2.3355485331837296e-06   -8.371847109812708e-06
-1.848552482032474e-05   -2.3355485331837296e-06   -8.371847109812708e-06
-1.848552482032474e-05   -2.3355485331837296e-06   -8.371847109812708e-06
3.7915901017587355e-06   -1.208054692748272e-05   -3.9653372943372156e-05
3.7915901017587355e-06   -1.208054692748272e-05   -3.9653372943372156e-05
3.7915901017587355e-06   -1.208054692748272e-05   -3.9653372943372156e-05
3.7915901017587355e-06   -1.208054692748272e-05   -3.9653372943372156e-05
-7.556634519724069e-06   -6.6777733262704964e-06   -2.398132940162822e-05
-7.556634519724069e-06   -6.6777733262704964e-06   -2.398132940162822e-05
-7.556634519724069e-06   -6.6777733262704964e-06   -2.398132940162822e-05
-7.556634519724069e-06   -6.6777733262704964e-06   -2.398132940162822e-05
3.7915901017587355e-06   -2.3355485331837296e-06   -2.5248480732330096e-06
3.7915901017587355e-06   -2.3355485331837296e-06   -2.5248480732330096e-06
3.7915901017587355e-06   -2.3355485331837296e-06   -2.5248480732330096e-06
3.7915901017587355e-06   -2.3355485331837296e-06   -2.5248480732330096e-06
-1.8485524820324782e-05   -1.2080546927483154e-05   -4.55003719799518e-05
-1.8485524820324782e-05   -1.2080546927483154e-05   -4.55003719799518e-05
-1.8485524820324782e-05   -1.2080546927483154e-05   -4.55003719799518e-05
-1.8485524820324782e-05   -1.2080546927483154e-05   -4.55003719799518e-05
-1.749747621433626e-05   -1.8929774959770395e-06   -7.813599130956396e-06
-1.749747621433626e-05   -1.8929774959770395e-06   -7.813599130956396e-06
-1.749747621433626e-05   -1.8929774959770395e-06   -7.813599130956396e-06
-1.749747621433626e-05   -1.8929774959770395e-06   -7.813599130956396e-06
4.455595437284328e-06   -1.2021527915641404e-05   -3.832492163185878e-05
4.455595437284328e-06   -1.2021527915641404e-05   -3.832492163185878e-05
4.455595437284328e-06   -1.2021527915641404e-05   -3.832492163185878e-05
4.455595437284328e-06   -1.2021527915641404e-05   -3.832492163185878e-05
-6.742875333103687e-06   -6.82729923819742e-06   -2.277734088767852e-05
-6.742875333103687e-06   -6.82729923819742e-06   -2.277734088767852e-05
-6.742875333103687e-06   -6.82729923819742e-06   -2.277734088767852e-05
-6.742875333103687e-06   -6.82729923819742e-06   -2.277734088767852e-05
4.455595437284328e-06   -1.8929774959770395e-06   -1.7364688791577342e-06
4.455595437284328e-06   -1.8929774959770395e-06   -1.7364688791577342e-06
4.455595437284328e-06   -1.8929774959770395e-06   -1.7364688791577342e-06
4.455595437284328e-06   -1.8929774959770395e-06   -1.7364688791577342e-06
-1.7497476214336315e-05   -1.2021527915641837e-05   -4.4402051883657336e-05
-1.7497476214336315e-05   -1.2021527915641837e-05   -4.4402051883657336e-05
-1.7497476214336315e-05   -1.2021527915641837e-05   -4.4402051883657336e-05
-1.7497476214336315e-05   -1.2021527915641837e-05   -4.4402051883657336e-05
-1.5792519696169048e-05   -1.4730863256925703e-06   -7.78103320366692e-06
-1.5792519696169048e-05   -1.4730863256925703e-06   -7.78103320366692e-06
-1.5792519696169048e-05   -1.4730863256925703e-06   -7.78103320366692e-06
-1.5792519696169048e-05   -1.4730863256925703e-06   -7.78103320366692e-06
5.4468754193913845e-06   -1.1597056587816373e-05   -3.710564290566e-05
5.4468754193913845e-06   -1.1597056587816373e-05   -3.710564290566e-05
5.4468754193913845e-06   -1.1597056587816373e-05   -3.710564290566e-05
5.4468754193913845e-06   -1.1597056587816373e-05   -3.710564290566e-05
-5.68522750874452e-06   -6.6735983498640225e-06   -2.1506212968204724e-05
-5.68522750874452e-06   -6.6735983498640225e-06   -2.1506212968204724e-05
-5.68522750874452e-06   -6.6735983498640225e-06   -2.1506212968204724e-05
-5.68522750874452e-06   -6.6735983498640225e-06   -2.1506212968204724e-05
-1.9631732817707614e-05   6.979402256265463e-07   -5.418836726836995e-06
-1.9631732817707614e-05   6.979402256265463e-07   -5.418836726836995e-06
-1.9631732817707614e-05   6.979402256265463e-07   -5.418836726836995e-06
-1.9631732817707614e-05   6.979402256265463e-07   -5.418836726836995e-06
-4.4933931420950335e-05   -1.4715286426203716e-05   -5.6837103723339716e-05
-4.4933931420950335e-05   -1.4715286426203716e-05   -5.6837103723339716e-05
-4.4933931420950335e-05   -1.4715286426203716e-05   -5.6837103723339716e-05
-4.4933931420950335e-05   -1.4715286426203716e-05   -5.6837103723339716e-05
-4.3563166758235716e-05   1.2233260922541768e-06   -1.4210159786358801e-05
-4.3563166758235716e-05   1.2233260922541768e-06   -1.4210159786358801e-05
-4.3563166758235716e-05   1.2233260922541768e-06   -1.4210159786358801e-05
-4.3563166758235716e-05   1.2233260922541768e-06   -1.4210159786358801e-05
-1.848552482032474e-05   -1.6440870851545768e-05   -4.5407711516597316e-05
-1.848552482032474e-05   -1.6440870851545768e-05   -4.5407711516597316e-05
-1.848552482032474e-05   -1.6440870851545768e-05   -4.5407711516597316e-05
-1.848552482032474e-05   -1.6440870851545768e-05   -4.5407711516597316e-05
-3.1199506374157887e-05   -7.470867762366176e-06   -2.9599744113716336e-05
-3.1199506374157887e-05   -7.470867762366176e-06   -2.9599744113716336e-05
-3.1199506374157887e-05   -7.470867762366176e-06   -2.9599744113716336e-05
-3.1199506374157887e-05   -7.470867762366176e-06   -2.9599744113716336e-05
-1.848552482032474e-05   1.2233260922541768e-06   -3.611641620079051e-06
-1.848552482032474e-05   1.2233260922541768e-06   -3.611641620079051e-06
-1.848552482032474e-05   1.2233260922541768e-06   -3.611641620079051e-06
-1.848552482032474e-05   1.2233260922541768e-06   -3.611641620079051e-06
-4.3563166758235716e-05   -1.6440870851545334e-05   -5.600622968287704e-05
-4.3563166758235716e-05   -1.6440870851545334e-05   -5.600622968287704e-05
-4.3563166758235716e-05   -1.6440870851545334e-05   -5.600622968287704e-05
-4.3563166758235716e-05   -1.6440870851545334e-05   -5.600622968287704e-05
-4.224937580678847e-05   1.7067668483675483e-06   -1.2680483459745484e-05
-4.224937580678847e-05   1.7067668483675483e-06   -1.2680483459745484e-05
-4.224937580678847e-05   1.7067668483675483e-06   -1.2680483459745484e-05
-4.224937580678847e-05   1.7067668483675483e-06   -1.2680483459745484e-05
-1.7497476214336274e-05   -1.653006931357122e-05   -4.299154775000262e-05
-1.7497476214336274e-05   -1.653006931357122e-05   -4.299154775000262e-05
-1.7497476214336274e-05   -1.653006931357122e-05   -4.299154775000262e-05
-1.7497476214336274e-05   -1.653006931357122e-05   -4.299154775000262e-05
-2.9862879026779303e-05   -7.493908637125953e-06   -2.780423946846457e-05
-2.9862879026779303e-05   -7.493908637125953e-06   -2.780423946846457e-05
-2.9862879026779303e-05   -7.493908637125953e-06   -2.780423946846457e-05
-2.9862879026779303e-05   -7.493908637125953e-06   -2.780423946846457e-05
-1.7497476214336274e-05   1.7067668483675483e-06   -1.7383817625820936e-06
-1.7497476214336274e-05   1.7067668483675483e-06   -1.7383817625820936e-06
-1.7497476214336274e-05   1.7067668483675483e-06   -1.7383817625820936e-06
-1.7497476214336274e-05   1.7067668483675483e-06   -1.7383817625820936e-06
-4.224937580678854e-05   -1.6530069313570785e-05   -5.393364944716568e-05
-4.224937580678854e-05   -1.6530069313570785e-05   -5.393364944716568e-05
-4.224937580678854e-05   -1.6530069313570785e-05   -5.393364944716568e-05
-4.224937580678854e-05   -1.6530069313570785e-05   -5.393364944716568e-05
-4.0094469531304475e-05   2.1152566290587316e-06   -1.1124478397579957e-05
-4.0094469531304475e-05   2.1152566290587316e-06   -1.1124478397579957e-05
-4.0094469531304475e-05   2.1152566290587316e-06   -1.1124478397579957e-05
-4.0094469531304475e-05   2.1152566290587316e-06   -1.1124478397579957e-05
-1.5792519696169102e-05   -1.5070429135382885e-05   -4.131631666414061e-05
-1.5792519696169102e-05   -1.5070429135382885e-05   -4.131631666414061e-05
-1.5792519696169102e-05   -1.5070429135382885e-05   -4.131631666414061e-05
-1.5792519696169102e-05   -1.5070429135382885e-05   -4.131631666414061e-05
-2.8544913583209175e-05   -6.608122372705029e-06   -2.5139710910013452e-05
-2.8544913583209175e-05   -6.608122372705029e-06   -2.5139710910013452e-05
-2.8544913583209175e-05   -6.608122372705029e-06   -2.5139710910013452e-05
-2.8544913583209175e-05   -6.608122372705029e-06   -2.5139710910013452e-05
-4.4933931420950335e-05   6.43176685419071e-06   -9.616852795086119e-06
-4.4933931420950335e-05   6.43176685419071e-06   -9.616852795086119e-06
-4.4933931420950335e-05   6.43176685419071e-06   -9.616852795086119e-06
-4.4933931420950335e-05   6.43176685419071e-06   -9.616852795086119e-06
-7.730869073421876e-05   0.0   -6.743384509638175e-05
-7.730869073421876e-05   0.0   -6.743384509638175e-05
-7.730869073421876e-05   0.0   -6.743384509638175e-05
-7.730869073421876e-05   0.0   -6.743384509638175e-05
-7.530481074161751e-05   8.133391533691548e-06   -7.358842057133717e-06
-7.530481074161751e-05   8.133391533691548e-06   -7.358842057133717e-06
-7.530481074161751e-05   8.133391533691548e-06   -7.358842057133717e-06
-7.530481074161751e-05   8.133391533691548e-06   -7.358842057133717e-06
-4.356316675823564e-05   0.0   -5.538154710922201e-05
-4.356316675823564e-05   0.0   -5.538154710922201e-05
-4.356316675823564e-05   0.0   -5.538154710922201e-05
-4.356316675823564e-05   0.0   -5.538154710922201e-05
-5.7716997849492875e-05   2.490995831704165e-06   -3.3286426122815845e-05
-5.7716997849492875e-05   2.490995831704165e-06   -3.3286426122815845e-05
-5.7716997849492875e-05   2.490995831704165e-06   -3.3286426122815845e-05
-5.7716997849492875e-05   2.490995831704165e-06   -3.3286426122815845e-05
-4.356316675823568e-05   8.133391533691548e-06   -2.4788071369189184e-06
-4.356316675823568e-05   8.133391533691548e-06   -2.4788071369189184e-06
-4.356316675823568e-05   8.133391533691548e-06   -2.4788071369189184e-06
-4.356316675823568e-05   8.133391533691548e-06   -2.4788071369189184e-06
-7.530481074161739e-05   0.0   -6.026158202943684e-05
-7.530481074161739e-05   0.0   -6.026158202943684e-05
-7.530481074161739e-05   0.0   -6.026158202943684e-05
-7.530481074161739e-05   0.0   -6.026158202943684e-05
-7.360845969290168e-05   8.516211618148865e-06   -2.8711808013170536e-06
-7.360845969290168e-05   8.516211618148865e-06   -2.8711808013170536e-06
-7.360845969290168e-05   8.516211618148865e-06   -2.8711808013170536e-06
-7.360845969290168e-05   8.516211618148865e-06   -2.8711808013170536e-06
-4.224937580678854e-05   0.0   -5.002659364061664e-05
-4.224937580678854e-05   0.0   -5.002659364061664e-05
-4.224937580678854e-05   0.0   -5.002659364061664e-05
-4.224937580678854e-05   0.0   -5.002659364061664e-05
-5.712493884482804e-05   3.939839131309039e-06   -2.7597892056002065e-05
-5.712493884482804e-05   3.939839131309039e-06   -2.7597892056002065e-05
-5.712493884482804e-05   3.939839131309039e-06   -2.7597892056002065e-05
-5.712493884482804e-05   3.939839131309039e-06   -2.7597892056002065e-05
-4.224937580678854e-05   8.516211618148648e-06   2.238546169572135e-06
-4.224937580678854e-05   8.516211618148648e-06   2.238546169572135e-06
-4.224937580678854e-05   8.516211618148648e-06   2.238546169572135e-06
-4.224937580678854e-05   8.516211618148648e-06   2.238546169572135e-06
-7.360845969290156e-05   0.0   -5.513632061150578e-05
-7.360845969290156e-05   0.0   -5.513632061150578e-05
-7.360845969290156e-05   0.0   -5.513632061150578e-05
-7.360845969290156e-05   0.0   -5.513632061150578e-05
-7.022270124002746e-05   9.171053079633663e-06   4.356098836116656e-06
-7.022270124002746e-05   9.171053079633663e-06   4.356098836116656e-06
-7.022270124002746e-05   9.171053079633663e-06   4.356098836116656e-06
-7.022270124002746e-05   9.171053079633663e-06   4.356098836116656e-06
-4.009446953130454e-05   0.0   -4.035498883064154e-05
-4.009446953130454e-05   0.0   -4.035498883064154e-05
-4.009446953130454e-05   0.0   -4.035498883064154e-05
-4.009446953130454e-05   0.0   -4.035498883064154e-05
-5.4165725398149054e-05   4.857389778625647e-06   -1.981732958640926e-05
-5.4165725398149054e-05   4.857389778625647e-06   -1.981732958640926e-05
-5.4165725398149054e-05   4.857389778625647e-06   -1.981732958640926e-05
-5.4165725398149054e-05   4.857389778625647e-06   -1.981732958640926e-05
5.7206443291082845e-05   -9.811066535091e-06   3.412556143291283e-05
5.7206443291082845e-05   -9.811066535091e-06   3.412556143291283e-05
5.7206443291082845e-05   -9.811066535091e-06   3.412556143291283e-05
5.7206443291082845e-05   -9.811066535091e-06   3.412556143291283e-05
2.9666633006919448e-05   -7.571087052826372e-06   -1.0430134684667356e-05
2.9666633006919448e-05   -7.571087052826372e-06   -1.0430134684667356e-05
2.9666633006919448e-05   -7.571087052826372e-06   -1.0430134684667356e-05
2.9666633006919448e-05   -7.571087052826372e-06   -1.0430134684667356e-05
2.8923153441951183e-05   -1.005653513907502e-05   3.01265029538666e-05
2.8923153441951183e-05   -1.005653513907502e-05   3.01265029538666e-05
2.8923153441951183e-05   -1.005653513907502e-05   3.01265029538666e-05
2.8923153441951183e-05   -1.005653513907502e-05   3.01265029538666e-05
5.6598565322302875e-05   -8.322096774499715e-06   -1.7039846532131446e-05
5.6598565322302875e-05   -8.322096774499715e-06   -1.7039846532131446e-05
5.6598565322302875e-05   -8.322096774499715e-06   -1.7039846532131446e-05
5.6598565322302875e-05   -8.322096774499715e-06   -1.7039846532131446e-05
4.133443908438481e-05   -8.459796008143238e-06   8.482983404584847e-06
4.133443908438481e-05   -8.459796008143238e-06   8.482983404584847e-06
4.133443908438481e-05   -8.459796008143238e-06   8.482983404584847e-06
4.133443908438481e-05   -8.459796008143238e-06   8.482983404584847e-06
5.6598565322302875e-05   -1.005653513907502e-05   2.908583993512133e-05
5.6598565322302875e-05   -1.005653513907502e-05   2.908583993512133e-05
5.6598565322302875e-05   -1.005653513907502e-05   2.908583993512133e-05
5.6598565322302875e-05   -1.005653513907502e-05   2.908583993512133e-05
2.8923153441951183e-05   -8.322096774499715e-06   -1.5999183513386176e-05
2.8923153441951183e-05   -8.322096774499715e-06   -1.5999183513386176e-05
2.8923153441951183e-05   -8.322096774499715e-06   -1.5999183513386176e-05
2.8923153441951183e-05   -8.322096774499715e-06   -1.5999183513386176e-05
2.82503142922192e-05   -9.964775440526137e-06   2.7042096528192465e-05
2.82503142922192e-05   -9.964775440526137e-06   2.7042096528192465e-05
2.82503142922192e-05   -9.964775440526137e-06   2.7042096528192465e-05
2.82503142922192e-05   -9.964775440526137e-06   2.7042096528192465e-05
5.589450073743923e-05   -8.390362755285059e-06   -1.997619515831895e-05
5.589450073743923e-05   -8.390362755285059e-06   -1.997619515831895e-05
5.589450073743923e-05   -8.390362755285059e-06   -1.997619515831895e-05
5.589450073743923e-05   -8.390362755285059e-06   -1.997619515831895e-05
4.1306430536461057e-05   -8.608193487797192e-06   4.4679536161517795e-06
4.1306430536461057e-05   -8.608193487797192e-06   4.4679536161517795e-06
4.1306430536461057e-05   -8.608193487797192e-06   4.4679536161517795e-06
4.1306430536461057e-05   -8.608193487797192e-06   4.4679536161517795e-06
5.589450073743932e-05   -9.964775440526354e-06   2.609744891704773e-05
5.589450073743932e-05   -9.964775440526354e-06   2.609744891704773e-05
5.589450073743932e-05   -9.964775440526354e-06   2.609744891704773e-05
5.589450073743932e-05   -9.964775440526354e-06   2.609744891704773e-05
2.82503142922192e-05   -8.390362755285059e-06   -1.9031547547174133e-05
2.82503142922192e-05   -8.390362755285059e-06   -1.9031547547174133e-05
2.82503142922192e-05   -8.390362755285059e-06   -1.9031547547174133e-05
2.82503142922192e-05   -8.390362755285059e-06   -1.9031547547174133e-05
2.7429286787869207e-05   -9.408527396762359e-06   2.2024009130623386e-05
2.7429286787869207e-05   -9.408527396762359e-06   2.2024009130623386e-05
2.7429286787869207e-05   -9.408527396762359e-06   2.2024009130623386e-05
2.7429286787869207e-05   -9.408527396762359e-06   2.2024009130623386e-05
5.4791260648917256e-05   -8.212435730808702e-06   -2.429693563736244e-05
5.4791260648917256e-05   -8.212435730808702e-06   -2.429693563736244e-05
5.4791260648917256e-05   -8.212435730808702e-06   -2.429693563736244e-05
5.4791260648917256e-05   -8.212435730808702e-06   -2.429693563736244e-05
3.9899352725943416e-05   -8.185237249801365e-06   5.065918123229956e-07
3.9899352725943416e-05   -8.185237249801365e-06   5.065918123229956e-07
3.9899352725943416e-05   -8.185237249801365e-06   5.065918123229956e-07
3.9899352725943416e-05   -8.185237249801365e-06   5.065918123229956e-07
2.9666633006919448e-05   -9.819472605962064e-06   2.5480962360319723e-05
2.9666633006919448e-05   -9.819472605962064e-06   2.5480962360319723e-05
2.9666633006919448e-05   -9.819472605962064e-06   2.5480962360319723e-05
2.9666633006919448e-05   -9.819472605962064e-06   2.5480962360319723e-05
6.279401776489938e-06   -4.6688808832320156e-06   -1.0407401323424834e-05
6.279401776489938e-06   -4.6688808832320156e-06   -1.0407401323424834e-05
6.279401776489938e-06   -4.6688808832320156e-06   -1.0407401323424834e-05
6.279401776489938e-06   -4.6688808832320156e-06   -1.0407401323424834e-05
5.102808146095758e-06   -9.767708361851316e-06   2.907348589303079e-05
5.102808146095758e-06   -9.767708361851316e-06   2.907348589303079e-05
5.102808146095758e-06   -9.767708361851316e-06   2.907348589303079e-05
5.102808146095758e-06   -9.767708361851316e-06   2.907348589303079e-05
2.8923153441951183e-05   -4.9511314593703e-06   -1.3517035741549964e-05
2.8923153441951183e-05   -4.9511314593703e-06   -1.3517035741549964e-05
2.8923153441951183e-05   -4.9511314593703e-06   -1.3517035741549964e-05
2.8923153441951183e-05   -4.9511314593703e-06   -1.3517035741549964e-05
1.7468048362263727e-05   -7.031286944858724e-06   6.822899349222017e-06
1.7468048362263727e-05   -7.031286944858724e-06   6.822899349222017e-06
1.7468048362263727e-05   -7.031286944858724e-06   6.822899349222017e-06
1.7468048362263727e-05   -7.031286944858724e-06   6.822899349222017e-06
2.892315344195121e-05   -9.767708361851316e-06   2.6183539751542225e-05
2.892315344195121e-05   -9.767708361851316e-06   2.6183539751542225e-05
2.892315344195121e-05   -9.767708361851316e-06   2.6183539751542225e-05
2.892315344195121e-05   -9.767708361851316e-06   2.6183539751542225e-05
5.102808146095758e-06   -4.9511314593703e-06   -1.0627089600061777e-05
5.102808146095758e-06   -4.9511314593703e-06   -1.0627089600061777e-05
5.102808146095758e-06   -4.9511314593703e-06   -1.0627089600061777e-05
5.102808146095758e-06   -4.9511314593703e-06   -1.0627089600061777e-05
4.263326901295187e-06   -9.634722329953348e-06   2.911193922048639e-05
4.263326901295187e-06   -9.634722329953348e-06   2.911193922048639e-05
4.263326901295187e-06   -9.634722329953348e-06   2.911193922048639e-05
4.263326901295187e-06   -9.634722329953348e-06   2.911193922048639e-05
2.82503142922192e-05   -5.075506420237127e-06   -1.3601902643549688e-05
2.82503142922192e-05   -5.075506420237127e-06   -1.3601902643549688e-05
2.82503142922192e-05   -5.075506420237127e-06   -1.3601902643549688e-05
2.82503142922192e-05   -5.075506420237127e-06   -1.3601902643549688e-05
1.645841380545981e-05   -6.886364771328379e-06   7.1377798450376635e-06
1.645841380545981e-05   -6.886364771328379e-06   7.1377798450376635e-06
1.645841380545981e-05   -6.886364771328379e-06   7.1377798450376635e-06
1.645841380545981e-05   -6.886364771328379e-06   7.1377798450376635e-06
2.8250314292219253e-05   -9.634722329952914e-06   2.6376409674656875e-05
2.8250314292219253e-05   -9.634722329952914e-06   2.6376409674656875e-05
2.8250314292219253e-05   -9.634722329952914e-06   2.6376409674656875e-05
2.8250314292219253e-05   -9.634722329952914e-06   2.6376409674656875e-05
4.263326901295187e-06   -5.075506420237127e-06   -1.0866373097720254e-05
4.263326901295187e-06   -5.075506420237127e-06   -1.0866373097720254e-05
4.263326901295187e-06   -5.075506420237127e-06   -1.0866373097720254e-05
4.263326901295187e-06   -5.075506420237127e-06   -1.0866373097720254e-05
3.3296659691419697e-06   -9.370251176331768e-06   3.00530039876192e-05
3.3296659691419697e-06   -9.370251176331768e-06   3.00530039876192e-05
3.3296659691419697e-06   -9.370251176331768e-06   3.00530039876192e-05
3.3296659691419697e-06   -9.370251176331768e-06   3.00530039876192e-05
2.7429286787869194e-05   -4.959044481959475e-06   -1.2759754726883032e-05
2.7429286787869194e-05   -4.959044481959475e-06   -1.2759754726883032e-05
2.7429286787869194e-05   -4.959044481959475e-06   -1.2759754726883032e-05
2.7429286787869194e-05   -4.959044481959475e-06   -1.2759754726883032e-05
1.5841836402142227e-05   -6.5826755797342845e-06   7.526841241326811e-06
1.5841836402142227e-05   -6.5826755797342845e-06   7.526841241326811e-06
1.5841836402142227e-05   -6.5826755797342845e-06   7.526841241326811e-06
1.5841836402142227e-05   -6.5826755797342845e-06   7.526841241326811e-06
6.279401776489938e-06   -1.1821193220544132e-05   2.620104362975411e-05
6.279401776489938e-06   -1.1821193220544132e-05   2.620104362975411e-05
6.279401776489938e-06   -1.1821193220544132e-05   2.620104362975411e-05
6.279401776489938e-06   -1.1821193220544132e-05   2.620104362975411e-05
-1.6189830545882696e-05   -1.943988409313941e-06   -5.321354020795506e-06
-1.6189830545882696e-05   -1.943988409313941e-06   -5.321354020795506e-06
-1.6189830545882696e-05   -1.943988409313941e-06   -5.321354020795506e-06
-1.6189830545882696e-05   -1.943988409313941e-06   -5.321354020795506e-06
-1.801982904817483e-05   -1.2080546927483154e-05   3.365395736497595e-05
-1.801982904817483e-05   -1.2080546927483154e-05   3.365395736497595e-05
-1.801982904817483e-05   -1.2080546927483154e-05   3.365395736497595e-05
-1.801982904817483e-05   -1.2080546927483154e-05   3.365395736497595e-05
5.102808146095772e-06   -2.0521329366471504e-06   -1.0900819686643316e-05
5.102808146095772e-06   -2.0521329366471504e-06   -1.0900819686643316e-05
5.102808146095772e-06   -2.0521329366471504e-06   -1.0900819686643316e-05
5.102808146095772e-06   -2.0521329366471504e-06   -1.0900819686643316e-05
-5.506776797592062e-06   -6.749655400913133e-06   9.600335364729384e-06
-5.506776797592062e-06   -6.749655400913133e-06   9.600335364729384e-06
-5.506776797592062e-06   -6.749655400913133e-06   9.600335364729384e-06
-5.506776797592062e-06   -6.749655400913133e-06   9.600335364729384e-06
5.102808146095758e-06   -1.208054692748272e-05   2.7636908970474347e-05
5.102808146095758e-06   -1.208054692748272e-05   2.7636908970474347e-05
5.102808146095758e-06   -1.208054692748272e-05   2.7636908970474347e-05
5.102808146095758e-06   -1.208054692748272e-05   2.7636908970474347e-05
-1.80198290481748e-05   -2.052132936647584e-06   -4.883771292141714e-06
-1.80198290481748e-05   -2.052132936647584e-06   -4.883771292141714e-06
-1.80198290481748e-05   -2.052132936647584e-06   -4.883771292141714e-06
-1.80198290481748e-05   -2.052132936647584e-06   -4.883771292141714e-06
-1.9139068301913083e-05   -1.2021527915641837e-05   3.493372741067099e-05
-1.9139068301913083e-05   -1.2021527915641837e-05   3.493372741067099e-05
-1.9139068301913083e-05   -1.2021527915641837e-05   3.493372741067099e-05
-1.9139068301913083e-05   -1.2021527915641837e-05   3.493372741067099e-05
4.263326901295187e-06   -2.18489564207322e-06   -9.972243958817115e-06
4.263326901295187e-06   -2.18489564207322e-06   -9.972243958817115e-06
4.263326901295187e-06   -2.18489564207322e-06   -9.972243958817115e-06
4.263326901295187e-06   -2.18489564207322e-06   -9.972243958817115e-06
-6.746040719492136e-06   -6.7261591614438745e-06   1.1101460187451203e-05
-6.746040719492136e-06   -6.7261591614438745e-06   1.1101460187451203e-05
-6.746040719492136e-06   -6.7261591614438745e-06   1.1101460187451203e-05
-6.746040719492136e-06   -6.7261591614438745e-06   1.1101460187451203e-05
4.263326901295174e-06   -1.2021527915641404e-05   2.9031748046529993e-05
4.263326901295174e-06   -1.2021527915641404e-05   2.9031748046529993e-05
4.263326901295174e-06   -1.2021527915641404e-05   2.9031748046529993e-05
4.263326901295174e-06   -1.2021527915641404e-05   2.9031748046529993e-05
-1.9139068301913056e-05   -2.18489564207322e-06   -4.070264594675929e-06
-1.9139068301913056e-05   -2.18489564207322e-06   -4.070264594675929e-06
-1.9139068301913056e-05   -2.18489564207322e-06   -4.070264594675929e-06
-1.9139068301913056e-05   -2.18489564207322e-06   -4.070264594675929e-06
-2.0454579542346897e-05   -1.1597056587816373e-05   3.6589568606360196e-05
-2.0454579542346897e-05   -1.1597056587816373e-05   3.6589568606360196e-05
-2.0454579542346897e-05   -1.1597056587816373e-05   3.6589568606360196e-05
-2.0454579542346897e-05   -1.1597056587816373e-05   3.6589568606360196e-05
3.3296659691419697e-06   -2.170389251466686e-06   -8.706840981264426e-06
3.3296659691419697e-06   -2.170389251466686e-06   -8.706840981264426e-06
3.3296659691419697e-06   -2.170389251466686e-06   -8.706840981264426e-06
3.3296659691419697e-06   -2.170389251466686e-06   -8.706840981264426e-06
-7.755553431797903e-06   -6.455755365003448e-06   1.2339744355090794e-05
-7.755553431797903e-06   -6.455755365003448e-06   1.2339744355090794e-05
-7.755553431797903e-06   -6.455755365003448e-06   1.2339744355090794e-05
-7.755553431797903e-06   -6.455755365003448e-06   1.2339744355090794e-05
-1.6189830545882737e-05   -1.4715286426203716e-05   3.1730743952415943e-05
-1.6189830545882737e-05   -1.4715286426203716e-05   3.1730743952415943e-05
-1.6189830545882737e-05   -1.4715286426203716e-05   3.1730743952415943e-05
-1.6189830545882737e-05   -1.4715286426203716e-05   3.1730743952415943e-05
-4.175456269902337e-05   2.145623334089044e-06   -7.605971133091416e-07
-4.175456269902337e-05   2.145623334089044e-06   -7.605971133091416e-07
-4.175456269902337e-05   2.145623334089044e-06   -7.605971133091416e-07
-4.175456269902337e-05   2.145623334089044e-06   -7.605971133091416e-07
-4.395638075883658e-05   -1.6440870851545334e-05   4.482465554596772e-05
-4.395638075883658e-05   -1.6440870851545334e-05   4.482465554596772e-05
-4.395638075883658e-05   -1.6440870851545334e-05   4.482465554596772e-05
-4.395638075883658e-05   -1.6440870851545334e-05   4.482465554596772e-05
-1.80198290481748e-05   2.0225253445169816e-06   -9.480968356105748e-06
-1.80198290481748e-05   2.0225253445169816e-06   -9.480968356105748e-06
-1.80198290481748e-05   2.0225253445169816e-06   -9.480968356105748e-06
-1.80198290481748e-05   2.0225253445169816e-06   -9.480968356105748e-06
-2.956288390588004e-05   -6.0837682733577356e-06   1.4621232577461123e-05
-2.956288390588004e-05   -6.0837682733577356e-06   1.4621232577461123e-05
-2.956288390588004e-05   -6.0837682733577356e-06   1.4621232577461123e-05
-2.956288390588004e-05   -6.0837682733577356e-06   1.4621232577461123e-05
-1.801982904817483e-05   -1.6440870851545334e-05   3.374661782833024e-05
-1.801982904817483e-05   -1.6440870851545334e-05   3.374661782833024e-05
-1.801982904817483e-05   -1.6440870851545334e-05   3.374661782833024e-05
-1.801982904817483e-05   -1.6440870851545334e-05   3.374661782833024e-05
-4.395638075883658e-05   2.0225253445169816e-06   1.5970693615315924e-06
-4.395638075883658e-05   2.0225253445169816e-06   1.5970693615315924e-06
-4.395638075883658e-05   2.0225253445169816e-06   1.5970693615315924e-06
-4.395638075883658e-05   2.0225253445169816e-06   1.5970693615315924e-06
-4.529786843320241e-05   -1.6530069313570785e-05   4.733755655432904e-05
-4.529786843320241e-05   -1.6530069313570785e-05   4.733755655432904e-05
-4.529786843320241e-05   -1.6530069313570785e-05   4.733755655432904e-05
-4.529786843320241e-05   -1.6530069313570785e-05   4.733755655432904e-05
-1.9139068301913056e-05   1.792139036433868e-06   -7.253768674489355e-06
-1.9139068301913056e-05   1.792139036433868e-06   -7.253768674489355e-06
-1.9139068301913056e-05   1.792139036433868e-06   -7.253768674489355e-06
-1.9139068301913056e-05   1.792139036433868e-06   -7.253768674489355e-06
-3.099140628118191e-05   -7.013694642855981e-06   1.778362816519906e-05
-3.099140628118191e-05   -7.013694642855981e-06   1.778362816519906e-05
-3.099140628118191e-05   -7.013694642855981e-06   1.778362816519906e-05
-3.099140628118191e-05   -7.013694642855981e-06   1.778362816519906e-05
-1.9139068301913043e-05   -1.653006931357122e-05   3.634423154432603e-05
-1.9139068301913043e-05   -1.653006931357122e-05   3.634423154432603e-05
-1.9139068301913043e-05   -1.653006931357122e-05   3.634423154432603e-05
-1.9139068301913043e-05   -1.653006931357122e-05   3.634423154432603e-05
-4.529786843320233e-05   1.792139036433868e-06   3.739556335513464e-06
-4.529786843320233e-05   1.792139036433868e-06   3.739556335513464e-06
-4.529786843320233e-05   1.792139036433868e-06   3.739556335513464e-06
-4.529786843320233e-05   1.792139036433868e-06   3.739556335513464e-06
-4.6743889328195846e-05   -1.5070429135382885e-05   4.841403821770926e-05
-4.6743889328195846e-05   -1.5070429135382885e-05   4.841403821770926e-05
-4.6743889328195846e-05   -1.5070429135382885e-05   4.841403821770926e-05
-4.6743889328195846e-05   -1.5070429135382885e-05   4.841403821770926e-05
-2.045457954234683e-05   1.5308395522094578e-06   -5.362239304594472e-06
-2.045457954234683e-05   1.5308395522094578e-06   -5.362239304594472e-06
-2.045457954234683e-05   1.5308395522094578e-06   -5.362239304594472e-06
-2.045457954234683e-05   1.5308395522094578e-06   -5.362239304594472e-06
-3.246544464678479e-05   -7.064394130739966e-06   1.981300941257232e-05
-3.246544464678479e-05   -7.064394130739966e-06   1.981300941257232e-05
-3.246544464678479e-05   -7.064394130739966e-06   1.981300941257232e-05
-3.246544464678479e-05   -7.064394130739966e-06   1.981300941257232e-05
-4.175456269902322e-05   0.0   3.510960854806412e-05
-4.175456269902322e-05   0.0   3.510960854806412e-05
-4.175456269902322e-05   0.0   3.510960854806412e-05
-4.175456269902322e-05   0.0   3.510960854806412e-05
-7.347431700144532e-05   9.641379246784921e-06   -1.197182107456863e-05
-7.347431700144532e-05   9.641379246784921e-06   -1.197182107456863e-05
-7.347431700144532e-05   9.641379246784921e-06   -1.197182107456863e-05
-7.347431700144532e-05   9.641379246784921e-06   -1.197182107456863e-05
-7.650569851962153e-05   0.0   5.103634034173826e-05
-7.650569851962153e-05   0.0   5.103634034173826e-05
-7.650569851962153e-05   0.0   5.103634034173826e-05
-7.650569851962153e-05   0.0   5.103634034173826e-05
-4.395638075883651e-05   9.311670370192645e-06   -8.79952481501944e-06
-4.395638075883651e-05   9.311670370192645e-06   -8.79952481501944e-06
-4.395638075883651e-05   9.311670370192645e-06   -8.79952481501944e-06
-4.395638075883651e-05   9.311670370192645e-06   -8.79952481501944e-06
-5.6411199712588093e-05   5.7196906704660815e-06   1.4113694594402454e-05
-5.6411199712588093e-05   5.7196906704660815e-06   1.4113694594402454e-05
-5.6411199712588093e-05   5.7196906704660815e-06   1.4113694594402454e-05
-5.6411199712588093e-05   5.7196906704660815e-06   1.4113694594402454e-05
-4.395638075883647e-05   0.0   4.544933811962272e-05
-4.395638075883647e-05   0.0   4.544933811962272e-05
-4.395638075883647e-05   0.0   4.544933811962272e-05
-4.395638075883647e-05   0.0   4.544933811962272e-05
-7.650569851962169e-05   9.311670370192645e-06   -3.21252259290368e-06
-7.650569851962169e-05   9.311670370192645e-06   -3.21252259290368e-06
-7.650569851962169e-05   9.311670370192645e-06   -3.21252259290368e-06
-7.650569851962169e-05   9.311670370192645e-06   -3.21252259290368e-06
-7.803176543079206e-05   0.0   5.6689717110890376e-05
-7.803176543079206e-05   0.0   5.6689717110890376e-05
-7.803176543079206e-05   0.0   5.6689717110890376e-05
-7.803176543079206e-05   0.0   5.6689717110890376e-05
-4.529786843320233e-05   9.075174583354165e-06   -3.3118826351052314e-06
-4.529786843320233e-05   9.075174583354165e-06   -3.3118826351052314e-06
-4.529786843320233e-05   9.075174583354165e-06   -3.3118826351052314e-06
-4.529786843320233e-05   9.075174583354165e-06   -3.3118826351052314e-06
-5.934191866543938e-05   4.777664633348437e-06   2.267337372196057e-05
-5.934191866543938e-05   4.777664633348437e-06   2.267337372196057e-05
-5.934191866543938e-05   4.777664633348437e-06   2.267337372196057e-05
-5.934191866543938e-05   4.777664633348437e-06   2.267337372196057e-05
-4.529786843320233e-05   0.0   5.124461236087792e-05
-4.529786843320233e-05   0.0   5.124461236087792e-05
-4.529786843320233e-05   0.0   5.124461236087792e-05
-4.529786843320233e-05   0.0   5.124461236087792e-05
-7.803176543079234e-05   9.075174583354165e-06   2.1332221149074956e-06
-7.803176543079234e-05   9.075174583354165e-06   2.1332221149074956e-06
-7.803176543079234e-05   9.075174583354165e-06   2.1332221149074956e-06
-7.803176543079234e-05   9.075174583354165e-06   2.1332221149074956e-06
-7.972870854269555e-05   0.0   6.422712682096392e-05
-7.972870854269555e-05   0.0   6.422712682096392e-05
-7.972870854269555e-05   0.0   6.422712682096392e-05
-7.972870854269555e-05   0.0   6.422712682096392e-05
-4.6743889328195846e-05   7.567248851818049e-06   4.712078819039977e-06
-4.6743889328195846e-05   7.567248851818049e-06   4.712078819039977e-06
-4.6743889328195846e-05   7.567248851818049e-06   4.712078819039977e-06
-4.6743889328195846e-05   7.567248851818049e-06   4.712078819039977e-06
-5.9827549273994975e-05   3.358375344644001e-06   2.9043502833009903e-05
-5.9827549273994975e-05   3.358375344644001e-06   2.9043502833009903e-05
-5.9827549273994975e-05   3.358375344644001e-06   2.9043502833009903e-05
-5.9827549273994975e-05   3.358375344644001e-06   2.9043502833009903e-05
5.0363561421785626e-05   -7.571087052826372e-06   3.571438414082186e-05
5.0363561421785626e-05   -7.571087052826372e-06   3.571438414082186e-05
5.0363561421785626e-05   -7.571087052826372e-06   3.571438414082186e-05
5.0363561421785626e-05   -7.571087052826372e-06   3.571438414082186e-05
2.546192812526064e-05   -5.719070461777855e-06   -4.677128065423957e-06
2.546192812526064e-05   -5.719070461777855e-06   -4.677128065423957e-06
2.546192812526064e-05   -5.719070461777855e-06   -4.677128065423957e-06
2.546192812526064e-05   -5.719070461777855e-06   -4.677128065423957e-06
2.4792761163946545e-05   -8.322096774499715e-06   3.116489090131537e-05
2.4792761163946545e-05   -8.322096774499715e-06   3.116489090131537e-05
2.4792761163946545e-05   -8.322096774499715e-06   3.116489090131537e-05
2.4792761163946545e-05   -8.322096774499715e-06   3.116489090131537e-05
4.917006910126065e-05   -6.479513255083173e-06   -1.056950577252459e-05
4.917006910126065e-05   -6.479513255083173e-06   -1.056950577252459e-05
4.917006910126065e-05   -6.479513255083173e-06   -1.056950577252459e-05
4.917006910126065e-05   -6.479513255083173e-06   -1.056950577252459e-05
3.5780001212639757e-05   -6.742947168178427e-06   1.1905334389700813e-05
3.5780001212639757e-05   -6.742947168178427e-06   1.1905334389700813e-05
3.5780001212639757e-05   -6.742947168178427e-06   1.1905334389700813e-05
3.5780001212639757e-05   -6.742947168178427e-06   1.1905334389700813e-05
4.917006910126057e-05   -8.322096774499715e-06   3.00593407896654e-05
4.917006910126057e-05   -8.322096774499715e-06   3.00593407896654e-05
4.917006910126057e-05   -8.322096774499715e-06   3.00593407896654e-05
4.917006910126057e-05   -8.322096774499715e-06   3.00593407896654e-05
2.4792761163946585e-05   -6.479513255083173e-06   -9.463955660874573e-06
2.4792761163946585e-05   -6.479513255083173e-06   -9.463955660874573e-06
2.4792761163946585e-05   -6.479513255083173e-06   -9.463955660874573e-06
2.4792761163946585e-05   -6.479513255083173e-06   -9.463955660874573e-06
2.3930552973071287e-05   -8.390362755285059e-06   2.796797145736469e-05
2.3930552973071287e-05   -8.390362755285059e-06   2.796797145736469e-05
2.3930552973071287e-05   -8.390362755285059e-06   2.796797145736469e-05
2.3930552973071287e-05   -8.390362755285059e-06   2.796797145736469e-05
4.796244379533828e-05   -6.59197590409822e-06   -1.3164212023792306e-05
4.796244379533828e-05   -6.59197590409822e-06   -1.3164212023792306e-05
4.796244379533828e-05   -6.59197590409822e-06   -1.3164212023792306e-05
4.796244379533828e-05   -6.59197590409822e-06   -1.3164212023792306e-05
3.544791448393175e-05   -7.036824893937206e-06   7.960246222454967e-06
3.544791448393175e-05   -7.036824893937206e-06   7.960246222454967e-06
3.544791448393175e-05   -7.036824893937206e-06   7.960246222454967e-06
3.544791448393175e-05   -7.036824893937206e-06   7.960246222454967e-06
4.796244379533828e-05   -8.390362755285059e-06   2.688893934665263e-05
4.796244379533828e-05   -8.390362755285059e-06   2.688893934665263e-05
4.796244379533828e-05   -8.390362755285059e-06   2.688893934665263e-05
4.796244379533828e-05   -8.390362755285059e-06   2.688893934665263e-05
2.3930552973071287e-05   -6.59197590409822e-06   -1.2085179913080314e-05
2.3930552973071287e-05   -6.59197590409822e-06   -1.2085179913080314e-05
2.3930552973071287e-05   -6.59197590409822e-06   -1.2085179913080314e-05
2.3930552973071287e-05   -6.59197590409822e-06   -1.2085179913080314e-05
2.3025733781059498e-05   -8.212435730808702e-06   2.3223709326112554e-05
2.3025733781059498e-05   -8.212435730808702e-06   2.3223709326112554e-05
2.3025733781059498e-05   -8.212435730808702e-06   2.3223709326112554e-05
2.3025733781059498e-05   -8.212435730808702e-06   2.3223709326112554e-05
4.645058101400593e-05   -6.547749009586752e-06   -1.6816514761531472e-05
4.645058101400593e-05   -6.547749009586752e-06   -1.6816514761531472e-05
4.645058101400593e-05   -6.547749009586752e-06   -1.6816514761531472e-05
4.645058101400593e-05   -6.547749009586752e-06   -1.6816514761531472e-05
3.3872654043574146e-05   -6.851772191760613e-06   4.329110765159921e-06
3.3872654043574146e-05   -6.851772191760613e-06   4.329110765159921e-06
3.3872654043574146e-05   -6.851772191760613e-06   4.329110765159921e-06
3.3872654043574146e-05   -6.851772191760613e-06   4.329110765159921e-06
2.5461928125260666e-05   -4.668880883232449e-06   3.375797242305542e-05
2.5461928125260666e-05   -4.668880883232449e-06   3.375797242305542e-05
2.5461928125260666e-05   -4.668880883232449e-06   3.375797242305542e-05
2.5461928125260666e-05   -4.668880883232449e-06   3.375797242305542e-05
2.7675857210130957e-06   -2.014812657916056e-06   -2.4734906488342936e-06
2.7675857210130957e-06   -2.014812657916056e-06   -2.4734906488342936e-06
2.7675857210130957e-06   -2.014812657916056e-06   -2.4734906488342936e-06
2.7675857210130957e-06   -2.014812657916056e-06   -2.4734906488342936e-06
2.102563803258923e-06   -4.951131459370733e-06   3.516398360002473e-05
2.102563803258923e-06   -4.951131459370733e-06   3.516398360002473e-05
2.102563803258923e-06   -4.951131459370733e-06   3.516398360002473e-05
2.102563803258923e-06   -4.951131459370733e-06   3.516398360002473e-05
2.4792761163946585e-05   -2.422889914582317e-06   -4.169956927994479e-06
2.4792761163946585e-05   -2.422889914582317e-06   -4.169956927994479e-06
2.4792761163946585e-05   -2.422889914582317e-06   -4.169956927994479e-06
2.4792761163946585e-05   -2.422889914582317e-06   -4.169956927994479e-06
1.3649016717302927e-05   -3.268248948946808e-06   1.4910165903696954e-05
1.3649016717302927e-05   -3.268248948946808e-06   1.4910165903696954e-05
1.3649016717302927e-05   -3.268248948946808e-06   1.4910165903696954e-05
1.3649016717302927e-05   -3.268248948946808e-06   1.4910165903696954e-05
2.479276116394656e-05   -4.951131459370733e-06   3.364703867315185e-05
2.479276116394656e-05   -4.951131459370733e-06   3.364703867315185e-05
2.479276116394656e-05   -4.951131459370733e-06   3.364703867315185e-05
2.479276116394656e-05   -4.951131459370733e-06   3.364703867315185e-05
2.102563803258923e-06   -2.422889914582317e-06   -2.653012001121481e-06
2.102563803258923e-06   -2.422889914582317e-06   -2.653012001121481e-06
2.102563803258923e-06   -2.422889914582317e-06   -2.653012001121481e-06
2.102563803258923e-06   -2.422889914582317e-06   -2.653012001121481e-06
1.2539449878337216e-06   -5.075506420236693e-06   3.482909729701582e-05
1.2539449878337216e-06   -5.075506420236693e-06   3.482909729701582e-05
1.2539449878337216e-06   -5.075506420236693e-06   3.482909729701582e-05
1.2539449878337216e-06   -5.075506420236693e-06   3.482909729701582e-05
2.3930552973071287e-05   -2.6897048601922952e-06   -4.396730281073694e-06
2.3930552973071287e-05   -2.6897048601922952e-06   -4.396730281073694e-06
2.3930552973071287e-05   -2.6897048601922952e-06   -4.396730281073694e-06
2.3930552973071287e-05   -2.6897048601922952e-06   -4.396730281073694e-06
1.2805205662192487e-05   -3.4223050485344964e-06   1.4585075350063764e-05
1.2805205662192487e-05   -3.4223050485344964e-06   1.4585075350063764e-05
1.2805205662192487e-05   -3.4223050485344964e-06   1.4585075350063764e-05
1.2805205662192487e-05   -3.4223050485344964e-06   1.4585075350063764e-05
2.3930552973071233e-05   -5.075506420236693e-06   3.3397616360989054e-05
2.3930552973071233e-05   -5.075506420236693e-06   3.3397616360989054e-05
2.3930552973071233e-05   -5.075506420236693e-06   3.3397616360989054e-05
2.3930552973071233e-05   -5.075506420236693e-06   3.3397616360989054e-05
1.2539449878337216e-06   -2.6897048601922952e-06   -2.9652493450467356e-06
1.2539449878337216e-06   -2.6897048601922952e-06   -2.9652493450467356e-06
1.2539449878337216e-06   -2.6897048601922952e-06   -2.9652493450467356e-06
1.2539449878337216e-06   -2.6897048601922952e-06   -2.9652493450467356e-06
3.1652127731524645e-07   -4.959044481959475e-06   3.533693511017849e-05
3.1652127731524645e-07   -4.959044481959475e-06   3.533693511017849e-05
3.1652127731524645e-07   -4.959044481959475e-06   3.533693511017849e-05
3.1652127731524645e-07   -4.959044481959475e-06   3.533693511017849e-05
2.3025733781059478e-05   -2.8028780266937687e-06   -3.8054522692209975e-06
2.3025733781059478e-05   -2.8028780266937687e-06   -3.8054522692209975e-06
2.3025733781059478e-05   -2.8028780266937687e-06   -3.8054522692209975e-06
2.3025733781059478e-05   -2.8028780266937687e-06   -3.8054522692209975e-06
1.2119066682753283e-05   -3.3887585977722748e-06   1.4723854570603857e-05
1.2119066682753283e-05   -3.3887585977722748e-06   1.4723854570603857e-05
1.2119066682753283e-05   -3.3887585977722748e-06   1.4723854570603857e-05
1.2119066682753283e-05   -3.3887585977722748e-06   1.4723854570603857e-05
2.7675857210131093e-06   -1.943988409313941e-06   3.451013777413625e-05
2.7675857210131093e-06   -1.943988409313941e-06   3.451013777413625e-05
2.7675857210131093e-06   -1.943988409313941e-06   3.451013777413625e-05
2.7675857210131093e-06   -1.943988409313941e-06   3.451013777413625e-05
-1.9220581700093634e-05   1.7974664796259737e-06   1.0806500565555509e-07
-1.9220581700093634e-05   1.7974664796259737e-06   1.0806500565555509e-07
-1.9220581700093634e-05   1.7974664796259737e-06   1.0806500565555509e-07
-1.9220581700093634e-05   1.7974664796259737e-06   1.0806500565555509e-07
-1.9969988601852004e-05   -2.052132936647584e-06   3.701325053623913e-05
-1.9969988601852004e-05   -2.052132936647584e-06   3.701325053623913e-05
-1.9969988601852004e-05   -2.052132936647584e-06   3.701325053623913e-05
-1.9969988601852004e-05   -2.052132936647584e-06   3.701325053623913e-05
2.102563803258923e-06   1.4861954346792692e-06   -1.8973338284084646e-06
2.102563803258923e-06   1.4861954346792692e-06   -1.8973338284084646e-06
2.102563803258923e-06   1.4861954346792692e-06   -1.8973338284084646e-06
2.102563803258923e-06   1.4861954346792692e-06   -1.8973338284084646e-06
-8.56446703811804e-06   -1.4173377620857464e-08   1.6781272194599977e-05
-8.56446703811804e-06   -1.4173377620857464e-08   1.6781272194599977e-05
-8.56446703811804e-06   -1.4173377620857464e-08   1.6781272194599977e-05
-8.56446703811804e-06   -1.4173377620857464e-08   1.6781272194599977e-05
2.102563803258923e-06   -2.052132936647584e-06   3.489025351344319e-05
2.102563803258923e-06   -2.052132936647584e-06   3.489025351344319e-05
2.102563803258923e-06   -2.052132936647584e-06   3.489025351344319e-05
2.102563803258923e-06   -2.052132936647584e-06   3.489025351344319e-05
-1.9969988601852004e-05   1.4861954346790524e-06   2.2566319438760939e-07
-1.9969988601852004e-05   1.4861954346790524e-06   2.2566319438760939e-07
-1.9969988601852004e-05   1.4861954346790524e-06   2.2566319438760939e-07
-1.9969988601852004e-05   1.4861954346790524e-06   2.2566319438760939e-07
-2.097398702691592e-05   -2.18489564207322e-06   3.7752031658106096e-05
-2.097398702691592e-05   -2.18489564207322e-06   3.7752031658106096e-05
-2.097398702691592e-05   -2.18489564207322e-06   3.7752031658106096e-05
-2.097398702691592e-05   -2.18489564207322e-06   3.7752031658106096e-05
1.2539449878337216e-06   1.1964463949051644e-06   -1.3233269219971105e-06
1.2539449878337216e-06   1.1964463949051644e-06   -1.3233269219971105e-06
1.2539449878337216e-06   1.1964463949051644e-06   -1.3233269219971105e-06
1.2539449878337216e-06   1.1964463949051644e-06   -1.3233269219971105e-06
-9.303501257880813e-06   -1.009501519959842e-07   1.7050854749001186e-05
-9.303501257880813e-06   -1.009501519959842e-07   1.7050854749001186e-05
-9.303501257880813e-06   -1.009501519959842e-07   1.7050854749001186e-05
-9.303501257880813e-06   -1.009501519959842e-07   1.7050854749001186e-05
1.2539449878337216e-06   -2.18489564207322e-06   3.5723226435918935e-05
1.2539449878337216e-06   -2.18489564207322e-06   3.5723226435918935e-05
1.2539449878337216e-06   -2.18489564207322e-06   3.5723226435918935e-05
1.2539449878337216e-06   -2.18489564207322e-06   3.5723226435918935e-05
-2.0973987026915892e-05   1.1964463949051644e-06   7.054783001901859e-07
-2.0973987026915892e-05   1.1964463949051644e-06   7.054783001901859e-07
-2.0973987026915892e-05   1.1964463949051644e-06   7.054783001901859e-07
-2.0973987026915892e-05   1.1964463949051644e-06   7.054783001901859e-07
-2.2043657312902234e-05   -2.170389251466686e-06   3.8638162160654606e-05
-2.2043657312902234e-05   -2.170389251466686e-06   3.8638162160654606e-05
-2.2043657312902234e-05   -2.170389251466686e-06   3.8638162160654606e-05
-2.2043657312902234e-05   -2.170389251466686e-06   3.8638162160654606e-05
3.1652127731524645e-07   9.880062843343248e-07   -5.238394778552804e-07
3.1652127731524645e-07   9.880062843343248e-07   -5.238394778552804e-07
3.1652127731524645e-07   9.880062843343248e-07   -5.238394778552804e-07
3.1652127731524645e-07   9.880062843343248e-07   -5.238394778552804e-07
-1.0245708427946596e-05   -1.6282860556627102e-07   1.777037763152215e-05
-1.0245708427946596e-05   -1.6282860556627102e-07   1.777037763152215e-05
-1.0245708427946596e-05   -1.6282860556627102e-07   1.777037763152215e-05
-1.0245708427946596e-05   -1.6282860556627102e-07   1.777037763152215e-05
-1.9220581700093566e-05   2.1456233340894776e-06   3.119922175881052e-05
-1.9220581700093566e-05   2.1456233340894776e-06   3.119922175881052e-05
-1.9220581700093566e-05   2.1456233340894776e-06   3.119922175881052e-05
-1.9220581700093566e-05   2.1456233340894776e-06   3.119922175881052e-05
-4.0769791623569446e-05   5.8466697138456845e-06   -2.4955002857953573e-06
-4.0769791623569446e-05   5.8466697138456845e-06   -2.4955002857953573e-06
-4.0769791623569446e-05   5.8466697138456845e-06   -2.4955002857953573e-06
-4.0769791623569446e-05   5.8466697138456845e-06   -2.4955002857953573e-06
-4.1859765474898576e-05   2.0225253445169816e-06   3.452366290009339e-05
-4.1859765474898576e-05   2.0225253445169816e-06   3.452366290009339e-05
-4.1859765474898576e-05   2.0225253445169816e-06   3.452366290009339e-05
-4.1859765474898576e-05   2.0225253445169816e-06   3.452366290009339e-05
-1.996998860185195e-05   5.535207724214003e-06   -4.066907982802631e-06
-1.996998860185195e-05   5.535207724214003e-06   -4.066907982802631e-06
-1.996998860185195e-05   5.535207724214003e-06   -4.066907982802631e-06
-1.996998860185195e-05   5.535207724214003e-06   -4.066907982802631e-06
-3.0215861619776992e-05   3.953575380041038e-06   1.395852645357605e-05
-3.0215861619776992e-05   3.953575380041038e-06   1.395852645357605e-05
-3.0215861619776992e-05   3.953575380041038e-06   1.395852645357605e-05
-3.0215861619776992e-05   3.953575380041038e-06   1.395852645357605e-05
-1.996998860185199e-05   2.022525344516548e-06   3.241605347227496e-05
-1.996998860185199e-05   2.022525344516548e-06   3.241605347227496e-05
-1.996998860185199e-05   2.022525344516548e-06   3.241605347227496e-05
-1.996998860185199e-05   2.022525344516548e-06   3.241605347227496e-05
-4.1859765474898495e-05   5.535207724214003e-06   -1.9592985549842824e-06
-4.1859765474898495e-05   5.535207724214003e-06   -1.9592985549842824e-06
-4.1859765474898495e-05   5.535207724214003e-06   -1.9592985549842824e-06
-4.1859765474898495e-05   5.535207724214003e-06   -1.9592985549842824e-06
-4.3196043977874156e-05   1.792139036433868e-06   3.6641209598766745e-05
-4.3196043977874156e-05   1.792139036433868e-06   3.6641209598766745e-05
-4.3196043977874156e-05   1.792139036433868e-06   3.6641209598766745e-05
-4.3196043977874156e-05   1.792139036433868e-06   3.6641209598766745e-05
-2.0973987026915892e-05   5.24660907055721e-06   -2.468234006637734e-06
-2.0973987026915892e-05   5.24660907055721e-06   -2.468234006637734e-06
-2.0973987026915892e-05   5.24660907055721e-06   -2.468234006637734e-06
-2.0973987026915892e-05   5.24660907055721e-06   -2.468234006637734e-06
-3.1026698040670206e-05   3.882967159238304e-06   1.510446949641082e-05
-3.1026698040670206e-05   3.882967159238304e-06   1.510446949641082e-05
-3.1026698040670206e-05   3.882967159238304e-06   1.510446949641082e-05
-3.1026698040670206e-05   3.882967159238304e-06   1.510446949641082e-05
-2.0973987026915865e-05   1.792139036433868e-06   3.45685275782927e-05
-2.0973987026915865e-05   1.792139036433868e-06   3.45685275782927e-05
-2.0973987026915865e-05   1.792139036433868e-06   3.45685275782927e-05
-2.0973987026915865e-05   1.792139036433868e-06   3.45685275782927e-05
-4.3196043977874156e-05   5.24660907055721e-06   -3.9555198616373927e-07
-4.3196043977874156e-05   5.24660907055721e-06   -3.9555198616373927e-07
-4.3196043977874156e-05   5.24660907055721e-06   -3.9555198616373927e-07
-4.3196043977874156e-05   5.24660907055721e-06   -3.9555198616373927e-07
-4.460936421160535e-05   1.5308395522094578e-06   3.83230737463036e-05
-4.460936421160535e-05   1.5308395522094578e-06   3.83230737463036e-05
-4.460936421160535e-05   1.5308395522094578e-06   3.83230737463036e-05
-4.460936421160535e-05   1.5308395522094578e-06   3.83230737463036e-05
-2.2043657312902166e-05   4.858023403523856e-06   -1.2827480623237204e-06
-2.2043657312902166e-05   4.858023403523856e-06   -1.2827480623237204e-06
-2.2043657312902166e-05   4.858023403523856e-06   -1.2827480623237204e-06
-2.2043657312902166e-05   4.858023403523856e-06   -1.2827480623237204e-06
-3.238089627827081e-05   3.649224042693352e-06   1.6671263163123566e-05
-3.238089627827081e-05   3.649224042693352e-06   1.6671263163123566e-05
-3.238089627827081e-05   3.649224042693352e-06   1.6671263163123566e-05
-3.238089627827081e-05   3.649224042693352e-06   1.6671263163123566e-05
-4.0769791623569446e-05   9.641379246784487e-06   1.6423798077334255e-05
-4.0769791623569446e-05   9.641379246784487e-06   1.6423798077334255e-05
-4.0769791623569446e-05   9.641379246784487e-06   1.6423798077334255e-05
-4.0769791623569446e-05   9.641379246784487e-06   1.6423798077334255e-05
-6.14175817318224e-05   9.508605715262321e-06   -1.8068849555334383e-05
-6.14175817318224e-05   9.508605715262321e-06   -1.8068849555334383e-05
-6.14175817318224e-05   9.508605715262321e-06   -1.8068849555334383e-05
-6.14175817318224e-05   9.508605715262321e-06   -1.8068849555334383e-05
-6.337506344275215e-05   9.311670370192645e-06   2.4356320861703426e-05
-6.337506344275215e-05   9.311670370192645e-06   2.4356320861703426e-05
-6.337506344275215e-05   9.311670370192645e-06   2.4356320861703426e-05
-6.337506344275215e-05   9.311670370192645e-06   2.4356320861703426e-05
-4.1859765474898495e-05   9.693757267127765e-06   -1.1731761222880533e-05
-4.1859765474898495e-05   9.693757267127765e-06   -1.1731761222880533e-05
-4.1859765474898495e-05   9.693757267127765e-06   -1.1731761222880533e-05
-4.1859765474898495e-05   9.693757267127765e-06   -1.1731761222880533e-05
-4.976827836560798e-05   9.686546107816373e-06   1.4534202905555605e-06
-4.976827836560798e-05   9.686546107816373e-06   1.4534202905555605e-06
-4.976827836560798e-05   9.686546107816373e-06   1.4534202905555605e-06
-4.976827836560798e-05   9.686546107816373e-06   1.4534202905555605e-06
-4.1859765474898454e-05   9.311670370193079e-06   2.4127068723542354e-05
-4.1859765474898454e-05   9.311670370193079e-06   2.4127068723542354e-05
-4.1859765474898454e-05   9.311670370193079e-06   2.4127068723542354e-05
-4.1859765474898454e-05   9.311670370193079e-06   2.4127068723542354e-05
-6.337506344275215e-05   9.693757267127982e-06   -1.1502509084719407e-05
-6.337506344275215e-05   9.693757267127982e-06   -1.1502509084719407e-05
-6.337506344275215e-05   9.693757267127982e-06   -1.1502509084719407e-05
-6.337506344275215e-05   9.693757267127982e-06   -1.1502509084719407e-05
-6.529460731868303e-05   9.075174583354165e-06   2.9919559101345946e-05
-6.529460731868303e-05   9.075174583354165e-06   2.9919559101345946e-05
-6.529460731868303e-05   9.075174583354165e-06   2.9919559101345946e-05
-6.529460731868303e-05   9.075174583354165e-06   2.9919559101345946e-05
-4.3196043977874075e-05   9.624822038683829e-06   -7.241168273200232e-06
-4.3196043977874075e-05   9.624822038683829e-06   -7.241168273200232e-06
-4.3196043977874075e-05   9.624822038683829e-06   -7.241168273200232e-06
-4.3196043977874075e-05   9.624822038683829e-06   -7.241168273200232e-06
-5.201732158581816e-05   9.687539983352714e-06   7.423330306572621e-06
-5.201732158581816e-05   9.687539983352714e-06   7.423330306572621e-06
-5.201732158581816e-05   9.687539983352714e-06   7.423330306572621e-06
-5.201732158581816e-05   9.687539983352714e-06   7.423330306572621e-06
-4.3196043977874075e-05   9.075174583354165e-06   2.958977062814832e-05
-4.3196043977874075e-05   9.075174583354165e-06   2.958977062814832e-05
-4.3196043977874075e-05   9.075174583354165e-06   2.958977062814832e-05
-4.3196043977874075e-05   9.075174583354165e-06   2.958977062814832e-05
-6.529460731868303e-05   9.624822038683829e-06   -6.91137980000239e-06
-6.529460731868303e-05   9.624822038683829e-06   -6.91137980000239e-06
-6.529460731868303e-05   9.624822038683829e-06   -6.91137980000239e-06
-6.529460731868303e-05   9.624822038683829e-06   -6.91137980000239e-06
-6.755888831746723e-05   7.567248851818049e-06   3.921411014183498e-05
-6.755888831746723e-05   7.567248851818049e-06   3.921411014183498e-05
-6.755888831746723e-05   7.567248851818049e-06   3.921411014183498e-05
-6.755888831746723e-05   7.567248851818049e-06   3.921411014183498e-05
-4.4609364211605203e-05   8.863047992572386e-06   1.874238142790985e-07
-4.4609364211605203e-05   8.863047992572386e-06   1.874238142790985e-07
-4.4609364211605203e-05   8.863047992572386e-06   1.874238142790985e-07
-4.4609364211605203e-05   8.863047992572386e-06   1.874238142790985e-07
-5.28171880421717e-05   9.229611019273293e-06   1.3647192382536483e-05
-5.28171880421717e-05   9.229611019273293e-06   1.3647192382536483e-05
-5.28171880421717e-05   9.229611019273293e-06   1.3647192382536483e-05
-5.28171880421717e-05   9.229611019273293e-06   1.3647192382536483e-05
4.0898045411032153e-05   -5.719070461777855e-06   3.1516399146434533e-05
4.0898045411032153e-05   -5.719070461777855e-06   3.1516399146434533e-05
4.0898045411032153e-05   -5.719070461777855e-06   3.1516399146434533e-05
4.0898045411032153e-05   -5.719070461777855e-06   3.1516399146434533e-05
2.0240332140057078e-05   -4.199955914573278e-06   -2.001654243534738e-06
2.0240332140057078e-05   -4.199955914573278e-06   -2.001654243534738e-06
2.0240332140057078e-05   -4.199955914573278e-06   -2.001654243534738e-06
2.0240332140057078e-05   -4.199955914573278e-06   -2.001654243534738e-06
1.946935801491669e-05   -6.479513255083173e-06   2.740018253450478e-05
1.946935801491669e-05   -6.479513255083173e-06   2.740018253450478e-05
1.946935801491669e-05   -6.479513255083173e-06   2.740018253450478e-05
1.946935801491669e-05   -6.479513255083173e-06   2.740018253450478e-05
3.948051965835413e-05   -4.8709866885825355e-06   -6.916869477791072e-06
3.948051965835413e-05   -4.8709866885825355e-06   -6.916869477791072e-06
3.948051965835413e-05   -4.8709866885825355e-06   -6.916869477791072e-06
3.948051965835413e-05   -4.8709866885825355e-06   -6.916869477791072e-06
2.8647704312353514e-05   -5.262812922202445e-06   1.1372918505715224e-05
2.8647704312353514e-05   -5.262812922202445e-06   1.1372918505715224e-05
2.8647704312353514e-05   -5.262812922202445e-06   1.1372918505715224e-05
2.8647704312353514e-05   -5.262812922202445e-06   1.1372918505715224e-05
3.948051965835406e-05   -6.479513255082956e-06   2.6435066594604397e-05
3.948051965835406e-05   -6.479513255082956e-06   2.6435066594604397e-05
3.948051965835406e-05   -6.479513255082956e-06   2.6435066594604397e-05
3.948051965835406e-05   -6.479513255082956e-06   2.6435066594604397e-05
1.9469358014916757e-05   -4.8709866885825355e-06   -5.951753537890856e-06
1.9469358014916757e-05   -4.8709866885825355e-06   -5.951753537890856e-06
1.9469358014916757e-05   -4.8709866885825355e-06   -5.951753537890856e-06
1.9469358014916757e-05   -4.8709866885825355e-06   -5.951753537890856e-06
1.861242954894929e-05   -6.59197590409822e-06   2.45513491410102e-05
1.861242954894929e-05   -6.59197590409822e-06   2.45513491410102e-05
1.861242954894929e-05   -6.59197590409822e-06   2.45513491410102e-05
1.861242954894929e-05   -6.59197590409822e-06   2.45513491410102e-05
3.819642727024216e-05   -5.0054135576809225e-06   -9.040584468994871e-06
3.819642727024216e-05   -5.0054135576809225e-06   -9.040584468994871e-06
3.819642727024216e-05   -5.0054135576809225e-06   -9.040584468994871e-06
3.819642727024216e-05   -5.0054135576809225e-06   -9.040584468994871e-06
2.8116786607941062e-05   -5.523042469500472e-06   8.069393981932236e-06
2.8116786607941062e-05   -5.523042469500472e-06   8.069393981932236e-06
2.8116786607941062e-05   -5.523042469500472e-06   8.069393981932236e-06
2.8116786607941062e-05   -5.523042469500472e-06   8.069393981932236e-06
3.819642727024203e-05   -6.59197590409822e-06   2.3599411733159735e-05
3.819642727024203e-05   -6.59197590409822e-06   2.3599411733159735e-05
3.819642727024203e-05   -6.59197590409822e-06   2.3599411733159735e-05
3.819642727024203e-05   -6.59197590409822e-06   2.3599411733159735e-05
1.8612429548949325e-05   -5.0054135576809225e-06   -8.088647061144311e-06
1.8612429548949325e-05   -5.0054135576809225e-06   -8.088647061144311e-06
1.8612429548949325e-05   -5.0054135576809225e-06   -8.088647061144311e-06
1.8612429548949325e-05   -5.0054135576809225e-06   -8.088647061144311e-06
1.77880217219251e-05   -6.547749009586752e-06   2.0575506350248513e-05
1.77880217219251e-05   -6.547749009586752e-06   2.0575506350248513e-05
1.77880217219251e-05   -6.547749009586752e-06   2.0575506350248513e-05
1.77880217219251e-05   -6.547749009586752e-06   2.0575506350248513e-05
3.6741635002755916e-05   -5.057813240688918e-06   -1.1907810579141497e-05
3.6741635002755916e-05   -5.057813240688918e-06   -1.1907810579141497e-05
3.6741635002755916e-05   -5.057813240688918e-06   -1.1907810579141497e-05
3.6741635002755916e-05   -5.057813240688918e-06   -1.1907810579141497e-05
2.6674311546119116e-05   -5.42891430381086e-06   5.0937224864600495e-06
2.6674311546119116e-05   -5.42891430381086e-06   5.0937224864600495e-06
2.6674311546119116e-05   -5.42891430381086e-06   5.0937224864600495e-06
2.6674311546119116e-05   -5.42891430381086e-06   5.0937224864600495e-06
2.0240332140057078e-05   -2.014812657916056e-06   3.303906435615724e-05
2.0240332140057078e-05   -2.014812657916056e-06   3.303906435615724e-05
2.0240332140057078e-05   -2.014812657916056e-06   3.303906435615724e-05
2.0240332140057078e-05   -2.014812657916056e-06   3.303906435615724e-05
8.495482542346459e-07   -8.040862292731533e-07   1.4475270703057097e-06
8.495482542346459e-07   -8.040862292731533e-07   1.4475270703057097e-06
8.495482542346459e-07   -8.040862292731533e-07   1.4475270703057097e-06
8.495482542346459e-07   -8.040862292731533e-07   1.4475270703057097e-06
1.0919346410122018e-07   -2.422889914582534e-06   3.338026315563049e-05
1.0919346410122018e-07   -2.422889914582534e-06   3.338026315563049e-05
1.0919346410122018e-07   -2.422889914582534e-06   3.338026315563049e-05
1.0919346410122018e-07   -2.422889914582534e-06   3.338026315563049e-05
1.9469358014916757e-05   -1.2794201008398294e-06   4.272403493591365e-07
1.9469358014916757e-05   -1.2794201008398294e-06   4.272403493591365e-07
1.9469358014916757e-05   -1.2794201008398294e-06   4.272403493591365e-07
1.9469358014916757e-05   -1.2794201008398294e-06   4.272403493591365e-07
1.0043606076902233e-05   -1.5701947167524877e-06   1.631129168226409e-05
1.0043606076902233e-05   -1.5701947167524877e-06   1.631129168226409e-05
1.0043606076902233e-05   -1.5701947167524877e-06   1.631129168226409e-05
1.0043606076902233e-05   -1.5701947167524877e-06   1.631129168226409e-05
1.9469358014916744e-05   -2.422889914582317e-06   3.269418126738478e-05
1.9469358014916744e-05   -2.422889914582317e-06   3.269418126738478e-05
1.9469358014916744e-05   -2.422889914582317e-06   3.269418126738478e-05
1.9469358014916744e-05   -2.422889914582317e-06   3.269418126738478e-05
1.0919346410122018e-07   -1.2794201008398294e-06   1.113322237604724e-06
1.0919346410122018e-07   -1.2794201008398294e-06   1.113322237604724e-06
1.0919346410122018e-07   -1.2794201008398294e-06   1.113322237604724e-06
1.0919346410122018e-07   -1.2794201008398294e-06   1.113322237604724e-06
-6.603761659416816e-07   -2.6897048601920784e-06   3.287447884192684e-05
-6.603761659416816e-07   -2.6897048601920784e-06   3.287447884192684e-05
-6.603761659416816e-07   -2.6897048601920784e-06   3.287447884192684e-05
-6.603761659416816e-07   -2.6897048601920784e-06   3.287447884192684e-05
1.8612429548949325e-05   -1.6319047453426487e-06   1.1845591486535063e-07
1.8612429548949325e-05   -1.6319047453426487e-06   1.1845591486535063e-07
1.8612429548949325e-05   -1.6319047453426487e-06   1.1845591486535063e-07
1.8612429548949325e-05   -1.6319047453426487e-06   1.1845591486535063e-07
9.193138198514903e-06   -1.818958503123011e-06   1.5929507086924618e-05
9.193138198514903e-06   -1.818958503123011e-06   1.5929507086924618e-05
9.193138198514903e-06   -1.818958503123011e-06   1.5929507086924618e-05
9.193138198514903e-06   -1.818958503123011e-06   1.5929507086924618e-05
1.861242954894929e-05   -2.6897048601920784e-06   3.223979877301701e-05
1.861242954894929e-05   -2.6897048601920784e-06   3.223979877301701e-05
1.861242954894929e-05   -2.6897048601920784e-06   3.223979877301701e-05
1.861242954894929e-05   -2.6897048601920784e-06   3.223979877301701e-05
-6.603761659416816e-07   -1.6319047453426487e-06   7.531359837750599e-07
-6.603761659416816e-07   -1.6319047453426487e-06   7.531359837750599e-07
-6.603761659416816e-07   -1.6319047453426487e-06   7.531359837750599e-07
-6.603761659416816e-07   -1.6319047453426487e-06   7.531359837750599e-07
-1.4615588642787937e-06   -2.8028780266939855e-06   3.3123950435594946e-05
-1.4615588642787937e-06   -2.8028780266939855e-06   3.3123950435594946e-05
-1.4615588642787937e-06   -2.8028780266939855e-06   3.3123950435594946e-05
-1.4615588642787937e-06   -2.8028780266939855e-06   3.3123950435594946e-05
1.7788021721925148e-05   -1.9092219837454297e-06   5.051224994858657e-07
1.7788021721925148e-05   -1.9092219837454297e-06   5.051224994858657e-07
1.7788021721925148e-05   -1.9092219837454297e-06   5.051224994858657e-07
1.7788021721925148e-05   -1.9092219837454297e-06   5.051224994858657e-07
8.554662640641901e-06   -1.951796442145777e-06   1.5919598976665286e-05
8.554662640641901e-06   -1.951796442145777e-06   1.5919598976665286e-05
8.554662640641901e-06   -1.951796442145777e-06   1.5919598976665286e-05
8.554662640641901e-06   -1.951796442145777e-06   1.5919598976665286e-05
8.495482542346324e-07   1.7974664796259737e-06   3.410218293446862e-05
8.495482542346324e-07   1.7974664796259737e-06   3.410218293446862e-05
8.495482542346324e-07   1.7974664796259737e-06   3.410218293446862e-05
8.495482542346324e-07   1.7974664796259737e-06   3.410218293446862e-05
-1.7976545758408415e-05   2.6040949973162378e-06   3.2093366906778362e-06
-1.7976545758408415e-05   2.6040949973162378e-06   3.2093366906778362e-06
-1.7976545758408415e-05   2.6040949973162378e-06   3.2093366906778362e-06
-1.7976545758408415e-05   2.6040949973162378e-06   3.2093366906778362e-06
-1.8750243922882403e-05   1.4861954346792692e-06   3.4569786215146074e-05
-1.8750243922882403e-05   1.4861954346792692e-06   3.4569786215146074e-05
-1.8750243922882403e-05   1.4861954346792692e-06   3.4569786215146074e-05
-1.8750243922882403e-05   1.4861954346792692e-06   3.4569786215146074e-05
1.0919346410122018e-07   2.2092702460167323e-06   2.7035456833708626e-06
1.0919346410122018e-07   2.2092702460167323e-06   2.7035456833708626e-06
1.0919346410122018e-07   2.2092702460167323e-06   2.7035456833708626e-06
1.0919346410122018e-07   2.2092702460167323e-06   2.7035456833708626e-06
-8.955805924024576e-06   2.046661717996709e-06   1.7909443113725922e-05
-8.955805924024576e-06   2.046661717996709e-06   1.7909443113725922e-05
-8.955805924024576e-06   2.046661717996709e-06   1.7909443113725922e-05
-8.955805924024576e-06   2.046661717996709e-06   1.7909443113725922e-05
1.0919346410122018e-07   1.4861954346792692e-06   3.413594132834364e-05
1.0919346410122018e-07   1.4861954346792692e-06   3.413594132834364e-05
1.0919346410122018e-07   1.4861954346792692e-06   3.413594132834364e-05
1.0919346410122018e-07   1.4861954346792692e-06   3.413594132834364e-05
-1.8750243922882403e-05   2.2092702460167323e-06   3.137390570173487e-06
-1.8750243922882403e-05   2.2092702460167323e-06   3.137390570173487e-06
-1.8750243922882403e-05   2.2092702460167323e-06   3.137390570173487e-06
-1.8750243922882403e-05   2.2092702460167323e-06   3.137390570173487e-06
-1.9567058737807042e-05   1.1964463949051644e-06   3.489409020372399e-05
-1.9567058737807042e-05   1.1964463949051644e-06   3.489409020372399e-05
-1.9567058737807042e-05   1.1964463949051644e-06   3.489409020372399e-05
-1.9567058737807042e-05   1.1964463949051644e-06   3.489409020372399e-05
-6.603761659416816e-07   1.825927959484431e-06   3.0052636452007663e-06
-6.603761659416816e-07   1.825927959484431e-06   3.0052636452007663e-06
-6.603761659416816e-07   1.825927959484431e-06   3.0052636452007663e-06
-6.603761659416816e-07   1.825927959484431e-06   3.0052636452007663e-06
-9.67441208772459e-06   1.8216656744749014e-06   1.8031214219178045e-05
-9.67441208772459e-06   1.8216656744749014e-06   1.8031214219178045e-05
-9.67441208772459e-06   1.8216656744749014e-06   1.8031214219178045e-05
-9.67441208772459e-06   1.8216656744749014e-06   1.8031214219178045e-05
-6.603761659416816e-07   1.1964463949051644e-06   3.45164012649766e-05
-6.603761659416816e-07   1.1964463949051644e-06   3.45164012649766e-05
-6.603761659416816e-07   1.1964463949051644e-06   3.45164012649766e-05
-6.603761659416816e-07   1.1964463949051644e-06   3.45164012649766e-05
-1.9567058737807083e-05   1.825927959484431e-06   3.382952583948261e-06
-1.9567058737807083e-05   1.825927959484431e-06   3.382952583948261e-06
-1.9567058737807083e-05   1.825927959484431e-06   3.382952583948261e-06
-1.9567058737807083e-05   1.825927959484431e-06   3.382952583948261e-06
-2.0409834467212913e-05   9.880062843343248e-07   3.540991097903128e-05
-2.0409834467212913e-05   9.880062843343248e-07   3.540991097903128e-05
-2.0409834467212913e-05   9.880062843343248e-07   3.540991097903128e-05
-2.0409834467212913e-05   9.880062843343248e-07   3.540991097903128e-05
-1.4615588642787937e-06   1.4847523263840801e-06   3.5314040155776973e-06
-1.4615588642787937e-06   1.4847523263840801e-06   3.5314040155776973e-06
-1.4615588642787937e-06   1.4847523263840801e-06   3.5314040155776973e-06
-1.4615588642787937e-06   1.4847523263840801e-06   3.5314040155776973e-06
-1.0452080869723598e-05   1.6061943045172708e-06   1.8442742171106714e-05
-1.0452080869723598e-05   1.6061943045172708e-06   1.8442742171106714e-05
-1.0452080869723598e-05   1.6061943045172708e-06   1.8442742171106714e-05
-1.0452080869723598e-05   1.6061943045172708e-06   1.8442742171106714e-05
-1.797654575840847e-05   5.846669713845468e-06   2.9761966925778054e-05
-1.797654575840847e-05   5.846669713845468e-06   2.9761966925778054e-05
-1.797654575840847e-05   5.846669713845468e-06   2.9761966925778054e-05
-1.797654575840847e-05   5.846669713845468e-06   2.9761966925778054e-05
-3.6216969583465646e-05   5.920839870662354e-06   -5.942373552271897e-07
-3.6216969583465646e-05   5.920839870662354e-06   -5.942373552271897e-07
-3.6216969583465646e-05   5.920839870662354e-06   -5.942373552271897e-07
-3.6216969583465646e-05   5.920839870662354e-06   -5.942373552271897e-07
-3.7115088101265676e-05   5.53520772421422e-06   3.028275469168151e-05
-3.7115088101265676e-05   5.53520772421422e-06   3.028275469168151e-05
-3.7115088101265676e-05   5.53520772421422e-06   3.028275469168151e-05
-3.7115088101265676e-05   5.53520772421422e-06   3.028275469168151e-05
-1.8750243922882457e-05   5.544440480423091e-06   -3.30858592682403e-07
-1.8750243922882457e-05   5.544440480423091e-06   -3.30858592682403e-07
-1.8750243922882457e-05   5.544440480423091e-06   -3.30858592682403e-07
-1.8750243922882457e-05   5.544440480423091e-06   -3.30858592682403e-07
-2.7391788436903272e-05   5.69707159913356e-06   1.3980136926126116e-05
-2.7391788436903272e-05   5.69707159913356e-06   1.3980136926126116e-05
-2.7391788436903272e-05   5.69707159913356e-06   1.3980136926126116e-05
-2.7391788436903272e-05   5.69707159913356e-06   1.3980136926126116e-05
-1.8750243922882457e-05   5.53520772421422e-06   3.0277215037956186e-05
-1.8750243922882457e-05   5.53520772421422e-06   3.0277215037956186e-05
-1.8750243922882457e-05   5.53520772421422e-06   3.0277215037956186e-05
-1.8750243922882457e-05   5.53520772421422e-06   3.0277215037956186e-05
-3.711508810126562e-05   5.544440480423091e-06   -3.253189389570803e-07
-3.711508810126562e-05   5.544440480423091e-06   -3.253189389570803e-07
-3.711508810126562e-05   5.544440480423091e-06   -3.253189389570803e-07
-3.711508810126562e-05   5.544440480423091e-06   -3.253189389570803e-07
-3.8110134343966344e-05   5.24660907055721e-06   3.169055368587191e-05
-3.8110134343966344e-05   5.24660907055721e-06   3.169055368587191e-05
-3.8110134343966344e-05   5.24660907055721e-06   3.169055368587191e-05
-3.8110134343966344e-05   5.24660907055721e-06   3.169055368587191e-05
-1.9567058737807083e-05   5.196902052183013e-06   8.152518866307869e-07
-1.9567058737807083e-05   5.196902052183013e-06   8.152518866307869e-07
-1.9567058737807083e-05   5.196902052183013e-06   8.152518866307869e-07
-1.9567058737807083e-05   5.196902052183013e-06   8.152518866307869e-07
-2.804001092318736e-05   5.484862242212353e-06   1.4764062748246984e-05
-2.804001092318736e-05   5.484862242212353e-06   1.4764062748246984e-05
-2.804001092318736e-05   5.484862242212353e-06   1.4764062748246984e-05
-2.804001092318736e-05   5.484862242212353e-06   1.4764062748246984e-05
-1.9567058737807083e-05   5.24660907055721e-06   3.172037789689612e-05
-1.9567058737807083e-05   5.24660907055721e-06   3.172037789689612e-05
-1.9567058737807083e-05   5.24660907055721e-06   3.172037789689612e-05
-1.9567058737807083e-05   5.24660907055721e-06   3.172037789689612e-05
-3.811013434396629e-05   5.196902052183013e-06   7.854276756063009e-07
-3.811013434396629e-05   5.196902052183013e-06   7.854276756063009e-07
-3.811013434396629e-05   5.196902052183013e-06   7.854276756063009e-07
-3.811013434396629e-05   5.196902052183013e-06   7.854276756063009e-07
-3.905824588752938e-05   4.858023403524073e-06   3.2704342834874575e-05
-3.905824588752938e-05   4.858023403524073e-06   3.2704342834874575e-05
-3.905824588752938e-05   4.858023403524073e-06   3.2704342834874575e-05
-3.905824588752938e-05   4.858023403524073e-06   3.2704342834874575e-05
-2.0409834467212994e-05   4.771986339844421e-06   1.6752793725549836e-06
-2.0409834467212994e-05   4.771986339844421e-06   1.6752793725549836e-06
-2.0409834467212994e-05   4.771986339844421e-06   1.6752793725549836e-06
-2.0409834467212994e-05   4.771986339844421e-06   1.6752793725549836e-06
-2.9073697945550832e-05   5.2085248878086e-06   1.5853128707673993e-05
-2.9073697945550832e-05   5.2085248878086e-06   1.5853128707673993e-05
-2.9073697945550832e-05   5.2085248878086e-06   1.5853128707673993e-05
-2.9073697945550832e-05   5.2085248878086e-06   1.5853128707673993e-05
-3.6216969583465565e-05   9.508605715262321e-06   1.4312783869242568e-05
-3.6216969583465565e-05   9.508605715262321e-06   1.4312783869242568e-05
-3.6216969583465565e-05   9.508605715262321e-06   1.4312783869242568e-05
-3.6216969583465565e-05   9.508605715262321e-06   1.4312783869242568e-05
-5.356187219915609e-05   8.530662824028168e-06   -1.5182152891648755e-05
-5.356187219915609e-05   8.530662824028168e-06   -1.5182152891648755e-05
-5.356187219915609e-05   8.530662824028168e-06   -1.5182152891648755e-05
-5.356187219915609e-05   8.530662824028168e-06   -1.5182152891648755e-05
-5.497635626914245e-05   9.693757267127982e-06   1.9867890022307825e-05
-5.497635626914245e-05   9.693757267127982e-06   1.9867890022307825e-05
-5.497635626914245e-05   9.693757267127982e-06   1.9867890022307825e-05
-5.497635626914245e-05   9.693757267127982e-06   1.9867890022307825e-05
-3.7115088101265676e-05   8.62308726466525e-06   -9.258488256009732e-06
-3.7115088101265676e-05   8.62308726466525e-06   -9.258488256009732e-06
-3.7115088101265676e-05   8.62308726466525e-06   -9.258488256009732e-06
-3.7115088101265676e-05   8.62308726466525e-06   -9.258488256009732e-06
-4.3726267688551536e-05   9.03489429165895e-06   1.5130601732706874e-06
-4.3726267688551536e-05   9.03489429165895e-06   1.5130601732706874e-06
-4.3726267688551536e-05   9.03489429165895e-06   1.5130601732706874e-06
-4.3726267688551536e-05   9.03489429165895e-06   1.5130601732706874e-06
-3.711508810126557e-05   9.693757267127982e-06   2.051029202378542e-05
-3.711508810126557e-05   9.693757267127982e-06   2.051029202378542e-05
-3.711508810126557e-05   9.693757267127982e-06   2.051029202378542e-05
-3.711508810126557e-05   9.693757267127982e-06   2.051029202378542e-05
-5.497635626914264e-05   8.62308726466525e-06   -9.900890257487274e-06
-5.497635626914264e-05   8.62308726466525e-06   -9.900890257487274e-06
-5.497635626914264e-05   8.62308726466525e-06   -9.900890257487274e-06
-5.497635626914264e-05   8.62308726466525e-06   -9.900890257487274e-06
-5.635700157980035e-05   9.624822038683829e-06   2.4187278888337287e-05
-5.635700157980035e-05   9.624822038683829e-06   2.4187278888337287e-05
-5.635700157980035e-05   9.624822038683829e-06   2.4187278888337287e-05
-5.635700157980035e-05   9.624822038683829e-06   2.4187278888337287e-05
-3.8110134343966344e-05   8.52872452118767e-06   -5.566507994221972e-06
-3.8110134343966344e-05   8.52872452118767e-06   -5.566507994221972e-06
-3.8110134343966344e-05   8.52872452118767e-06   -5.566507994221972e-06
-3.8110134343966344e-05   8.52872452118767e-06   -5.566507994221972e-06
-4.5467812716038026e-05   9.200578360880245e-06   6.2931769887496e-06
-4.5467812716038026e-05   9.200578360880245e-06   6.2931769887496e-06
-4.5467812716038026e-05   9.200578360880245e-06   6.2931769887496e-06
-4.5467812716038026e-05   9.200578360880245e-06   6.2931769887496e-06
-3.8110134343966344e-05   9.624822038683829e-06   2.48449373988352e-05
-3.8110134343966344e-05   9.624822038683829e-06   2.48449373988352e-05
-3.8110134343966344e-05   9.624822038683829e-06   2.48449373988352e-05
-3.8110134343966344e-05   9.624822038683829e-06   2.48449373988352e-05
-5.6357001579800516e-05   8.52872452118767e-06   -6.224166504719504e-06
-5.6357001579800516e-05   8.52872452118767e-06   -6.224166504719504e-06
-5.6357001579800516e-05   8.52872452118767e-06   -6.224166504719504e-06
-5.6357001579800516e-05   8.52872452118767e-06   -6.224166504719504e-06
-5.796890014220379e-05   8.863047992572386e-06   3.158386122574324e-05
-5.796890014220379e-05   8.863047992572386e-06   3.158386122574324e-05
-5.796890014220379e-05   8.863047992572386e-06   3.158386122574324e-05
-5.796890014220379e-05   8.863047992572386e-06   3.158386122574324e-05
-3.905824588752938e-05   7.872476034330358e-06   6.604473095642638e-07
-3.905824588752938e-05   7.872476034330358e-06   6.604473095642638e-07
-3.905824588752938e-05   7.872476034330358e-06   6.604473095642638e-07
-3.905824588752938e-05   7.872476034330358e-06   6.604473095642638e-07
-4.590471952011249e-05   8.929711196462367e-06   1.1436895599924548e-05
-4.590471952011249e-05   8.929711196462367e-06   1.1436895599924548e-05
-4.590471952011249e-05   8.929711196462367e-06   1.1436895599924548e-05
-4.590471952011249e-05   8.929711196462367e-06   1.1436895599924548e-05
3.1095009996319195e-05   -4.199955914573278e-06   2.6347913762885585e-05
3.1095009996319195e-05   -4.199955914573278e-06   2.6347913762885585e-05
3.1095009996319195e-05   -4.199955914573278e-06   2.6347913762885585e-05
3.1095009996319195e-05   -4.199955914573278e-06   2.6347913762885585e-05
1.463452069889395e-05   -2.7815118261390742e-06   -2.3516861309604703e-07
1.463452069889395e-05   -2.7815118261390742e-06   -2.3516861309604703e-07
1.463452069889395e-05   -2.7815118261390742e-06   -2.3516861309604703e-07
1.463452069889395e-05   -2.7815118261390742e-06   -2.3516861309604703e-07
1.3945540040867242e-05   -4.8709866885825355e-06   2.314586283797557e-05
1.3945540040867242e-05   -4.8709866885825355e-06   2.314586283797557e-05
1.3945540040867242e-05   -4.8709866885825355e-06   2.314586283797557e-05
1.3945540040867242e-05   -4.8709866885825355e-06   2.314586283797557e-05
2.976165729794528e-05   -3.3738886925556173e-06   -4.1125913881037614e-06
2.976165729794528e-05   -3.3738886925556173e-06   -4.1125913881037614e-06
2.976165729794528e-05   -3.3738886925556173e-06   -4.1125913881037614e-06
2.976165729794528e-05   -3.3738886925556173e-06   -4.1125913881037614e-06
2.1307553431741195e-05   -3.835175997747185e-06   1.025435410535123e-05
2.1307553431741195e-05   -3.835175997747185e-06   1.025435410535123e-05
2.1307553431741195e-05   -3.835175997747185e-06   1.025435410535123e-05
2.1307553431741195e-05   -3.835175997747185e-06   1.025435410535123e-05
2.976165729794528e-05   -4.8709866885825355e-06   2.2247604040359593e-05
2.976165729794528e-05   -4.8709866885825355e-06   2.2247604040359593e-05
2.976165729794528e-05   -4.8709866885825355e-06   2.2247604040359593e-05
2.976165729794528e-05   -4.8709866885825355e-06   2.2247604040359593e-05
1.3945540040867263e-05   -3.3738886925556173e-06   -3.214332590487567e-06
1.3945540040867263e-05   -3.3738886925556173e-06   -3.214332590487567e-06
1.3945540040867263e-05   -3.3738886925556173e-06   -3.214332590487567e-06
1.3945540040867263e-05   -3.3738886925556173e-06   -3.214332590487567e-06
1.3184771240331606e-05   -5.005413557680706e-06   2.0895592865739082e-05
1.3184771240331606e-05   -5.005413557680706e-06   2.0895592865739082e-05
1.3184771240331606e-05   -5.005413557680706e-06   2.0895592865739082e-05
1.3184771240331606e-05   -5.005413557680706e-06   2.0895592865739082e-05
2.8592731132837178e-05   -3.531828091352194e-06   -5.668491568233778e-06
2.8592731132837178e-05   -3.531828091352194e-06   -5.668491568233778e-06
2.8592731132837178e-05   -3.531828091352194e-06   -5.668491568233778e-06
2.8592731132837178e-05   -3.531828091352194e-06   -5.668491568233778e-06
2.075710823450007e-05   -4.07569267243035e-06   7.71719867764196e-06
2.075710823450007e-05   -4.07569267243035e-06   7.71719867764196e-06
2.075710823450007e-05   -4.07569267243035e-06   7.71719867764196e-06
2.075710823450007e-05   -4.07569267243035e-06   7.71719867764196e-06
2.859273113283713e-05   -5.005413557680706e-06   2.0011441585942192e-05
2.859273113283713e-05   -5.005413557680706e-06   2.0011441585942192e-05
2.859273113283713e-05   -5.005413557680706e-06   2.0011441585942192e-05
2.859273113283713e-05   -5.005413557680706e-06   2.0011441585942192e-05
1.318477124033163e-05   -3.531828091352194e-06   -4.784340288436833e-06
1.318477124033163e-05   -3.531828091352194e-06   -4.784340288436833e-06
1.318477124033163e-05   -3.531828091352194e-06   -4.784340288436833e-06
1.318477124033163e-05   -3.531828091352194e-06   -4.784340288436833e-06
1.2482133298947604e-05   -5.057813240688918e-06   1.784501593235532e-05
1.2482133298947604e-05   -5.057813240688918e-06   1.784501593235532e-05
1.2482133298947604e-05   -5.057813240688918e-06   1.784501593235532e-05
1.2482133298947604e-05   -5.057813240688918e-06   1.784501593235532e-05
2.7286135151589446e-05   -3.6779773658927525e-06   -7.656222013591819e-06
2.7286135151589446e-05   -3.6779773658927525e-06   -7.656222013591819e-06
2.7286135151589446e-05   -3.6779773658927525e-06   -7.656222013591819e-06
2.7286135151589446e-05   -3.6779773658927525e-06   -7.656222013591819e-06
1.953471148615891e-05   -4.051632750135415e-06   5.4870106593384125e-06
1.953471148615891e-05   -4.051632750135415e-06   5.4870106593384125e-06
1.953471148615891e-05   -4.051632750135415e-06   5.4870106593384125e-06
1.953471148615891e-05   -4.051632750135415e-06   5.4870106593384125e-06
1.46345206988939e-05   -8.040862292731533e-07   2.992172567260038e-05
1.46345206988939e-05   -8.040862292731533e-07   2.992172567260038e-05
1.46345206988939e-05   -8.040862292731533e-07   2.992172567260038e-05
1.46345206988939e-05   -8.040862292731533e-07   2.992172567260038e-05
-9.43234968445167e-07   -1.7323393065090537e-08   4.4308572620935975e-06
-9.43234968445167e-07   -1.7323393065090537e-08   4.4308572620935975e-06
-9.43234968445167e-07   -1.7323393065090537e-08   4.4308572620935975e-06
-9.43234968445167e-07   -1.7323393065090537e-08   4.4308572620935975e-06
-1.5911417198487932e-06   -1.2794201008398294e-06   2.9973283522542662e-05
-1.5911417198487932e-06   -1.2794201008398294e-06   2.9973283522542662e-05
-1.5911417198487932e-06   -1.2794201008398294e-06   2.9973283522542662e-05
-1.5911417198487932e-06   -1.2794201008398294e-06   2.9973283522542662e-05
1.3945540040867263e-05   -5.320421053113446e-07   3.630387124032345e-06
1.3945540040867263e-05   -5.320421053113446e-07   3.630387124032345e-06
1.3945540040867263e-05   -5.320421053113446e-07   3.630387124032345e-06
1.3945540040867263e-05   -5.320421053113446e-07   3.630387124032345e-06
6.405842431849115e-06   -6.769909076781953e-07   1.628351908714937e-05
6.405842431849115e-06   -6.769909076781953e-07   1.628351908714937e-05
6.405842431849115e-06   -6.769909076781953e-07   1.628351908714937e-05
6.405842431849115e-06   -6.769909076781953e-07   1.628351908714937e-05
1.3945540040867229e-05   -1.2794201008400462e-06   2.952485672522544e-05
1.3945540040867229e-05   -1.2794201008400462e-06   2.952485672522544e-05
1.3945540040867229e-05   -1.2794201008400462e-06   2.952485672522544e-05
1.3945540040867229e-05   -1.2794201008400462e-06   2.952485672522544e-05
-1.5911417198487932e-06   -5.320421053113446e-07   4.078813921349397e-06
-1.5911417198487932e-06   -5.320421053113446e-07   4.078813921349397e-06
-1.5911417198487932e-06   -5.320421053113446e-07   4.078813921349397e-06
-1.5911417198487932e-06   -5.320421053113446e-07   4.078813921349397e-06
-2.2529024129927115e-06   -1.6319047453426487e-06   2.9519484391505625e-05
-2.2529024129927115e-06   -1.6319047453426487e-06   2.9519484391505625e-05
-2.2529024129927115e-06   -1.6319047453426487e-06   2.9519484391505625e-05
-2.2529024129927115e-06   -1.6319047453426487e-06   2.9519484391505625e-05
1.318477124033163e-05   -9.372571624149603e-07   3.3732397528749185e-06
1.318477124033163e-05   -9.372571624149603e-07   3.3732397528749185e-06
1.318477124033163e-05   -9.372571624149603e-07   3.3732397528749185e-06
1.318477124033163e-05   -9.372571624149603e-07   3.3732397528749185e-06
5.678645505926913e-06   -9.943801789395832e-07   1.591772312013181e-05
5.678645505926913e-06   -9.943801789395832e-07   1.591772312013181e-05
5.678645505926913e-06   -9.943801789395832e-07   1.591772312013181e-05
5.678645505926913e-06   -9.943801789395832e-07   1.591772312013181e-05
1.3184771240331606e-05   -1.6319047453426487e-06   2.910269584174884e-05
1.3184771240331606e-05   -1.6319047453426487e-06   2.910269584174884e-05
1.3184771240331606e-05   -1.6319047453426487e-06   2.910269584174884e-05
1.3184771240331606e-05   -1.6319047453426487e-06   2.910269584174884e-05
-2.2529024129927115e-06   -9.372571624147435e-07   3.790028302631549e-06
-2.2529024129927115e-06   -9.372571624147435e-07   3.790028302631549e-06
-2.2529024129927115e-06   -9.372571624147435e-07   3.790028302631549e-06
-2.2529024129927115e-06   -9.372571624147435e-07   3.790028302631549e-06
-2.918295500492973e-06   -1.9092219837454297e-06   2.972237393363648e-05
-2.918295500492973e-06   -1.9092219837454297e-06   2.972237393363648e-05
-2.918295500492973e-06   -1.9092219837454297e-06   2.972237393363648e-05
-2.918295500492973e-06   -1.9092219837454297e-06   2.972237393363648e-05
1.2482133298947611e-05   -1.3119113437577712e-06   3.696606217243071e-06
1.2482133298947611e-05   -1.3119113437577712e-06   3.696606217243071e-06
1.2482133298947611e-05   -1.3119113437577712e-06   3.696606217243071e-06
1.2482133298947611e-05   -1.3119113437577712e-06   3.696606217243071e-06
5.1240777325694966e-06   -1.228720128665069e-06   1.59101174321513e-05
5.1240777325694966e-06   -1.228720128665069e-06   1.59101174321513e-05
5.1240777325694966e-06   -1.228720128665069e-06   1.59101174321513e-05
5.1240777325694966e-06   -1.228720128665069e-06   1.59101174321513e-05
-9.432349684451805e-07   2.6040949973164546e-06   3.167161588408336e-05
-9.432349684451805e-07   2.6040949973164546e-06   3.167161588408336e-05
-9.432349684451805e-07   2.6040949973164546e-06   3.167161588408336e-05
-9.432349684451805e-07   2.6040949973164546e-06   3.167161588408336e-05
-1.6194095049589674e-05   2.6815410051259352e-06   6.299983353528246e-06
-1.6194095049589674e-05   2.6815410051259352e-06   6.299983353528246e-06
-1.6194095049589674e-05   2.6815410051259352e-06   6.299983353528246e-06
-1.6194095049589674e-05   2.6815410051259352e-06   6.299983353528246e-06
-1.6845660719537952e-05   2.2092702460167323e-06   3.157584737766028e-05
-1.6845660719537952e-05   2.2092702460167323e-06   3.157584737766028e-05
-1.6845660719537952e-05   2.2092702460167323e-06   3.157584737766028e-05
-1.6845660719537952e-05   2.2092702460167323e-06   3.157584737766028e-05
-1.5911417198487932e-06   2.2298375949357605e-06   6.139308635493983e-06
-1.5911417198487932e-06   2.2298375949357605e-06   6.139308635493983e-06
-1.5911417198487932e-06   2.2298375949357605e-06   6.139308635493983e-06
-1.5911417198487932e-06   2.2298375949357605e-06   6.139308635493983e-06
-8.916577620862525e-06   2.3883471354001554e-06   1.8253262746238045e-05
-8.916577620862525e-06   2.3883471354001554e-06   1.8253262746238045e-05
-8.916577620862525e-06   2.3883471354001554e-06   1.8253262746238045e-05
-8.916577620862525e-06   2.3883471354001554e-06   1.8253262746238045e-05
-1.5911417198487932e-06   2.2092702460167323e-06   3.156350696830921e-05
-1.5911417198487932e-06   2.2092702460167323e-06   3.156350696830921e-05
-1.5911417198487932e-06   2.2092702460167323e-06   3.156350696830921e-05
-1.5911417198487932e-06   2.2092702460167323e-06   3.156350696830921e-05
-1.6845660719537952e-05   2.2298375949357605e-06   6.151649044845134e-06
-1.6845660719537952e-05   2.2298375949357605e-06   6.151649044845134e-06
-1.6845660719537952e-05   2.2298375949357605e-06   6.151649044845134e-06
-1.6845660719537952e-05   2.2298375949357605e-06   6.151649044845134e-06
-1.7513404176972388e-05   1.825927959484214e-06   3.1747253245243724e-05
-1.7513404176972388e-05   1.825927959484214e-06   3.1747253245243724e-05
-1.7513404176972388e-05   1.825927959484214e-06   3.1747253245243724e-05
-1.7513404176972388e-05   1.825927959484214e-06   3.1747253245243724e-05
-2.2529024129927115e-06   1.7853299466717883e-06   6.337442446298461e-06
-2.2529024129927115e-06   1.7853299466717883e-06   6.337442446298461e-06
-2.2529024129927115e-06   1.7853299466717883e-06   6.337442446298461e-06
-2.2529024129927115e-06   1.7853299466717883e-06   6.337442446298461e-06
-9.521374991723138e-06   2.0848933427316738e-06   1.8271825373213774e-05
-9.521374991723138e-06   2.0848933427316738e-06   1.8271825373213774e-05
-9.521374991723138e-06   2.0848933427316738e-06   1.8271825373213774e-05
-9.521374991723138e-06   2.0848933427316738e-06   1.8271825373213774e-05
-2.2529024129927115e-06   1.825927959484214e-06   3.177161205293122e-05
-2.2529024129927115e-06   1.825927959484214e-06   3.177161205293122e-05
-2.2529024129927115e-06   1.825927959484214e-06   3.177161205293122e-05
-2.2529024129927115e-06   1.825927959484214e-06   3.177161205293122e-05
-1.7513404176972388e-05   1.7853299466717883e-06   6.313083638610881e-06
-1.7513404176972388e-05   1.7853299466717883e-06   6.313083638610881e-06
-1.7513404176972388e-05   1.7853299466717883e-06   6.313083638610881e-06
-1.7513404176972388e-05   1.7853299466717883e-06   6.313083638610881e-06
-1.8180796810679794e-05   1.484752326384297e-06   3.2139754477048584e-05
-1.8180796810679794e-05   1.484752326384297e-06   3.2139754477048584e-05
-1.8180796810679794e-05   1.484752326384297e-06   3.2139754477048584e-05
-1.8180796810679794e-05   1.484752326384297e-06   3.2139754477048584e-05
-2.918295500492973e-06   1.363573414866039e-06   6.774959640314722e-06
-2.918295500492973e-06   1.363573414866039e-06   6.774959640314722e-06
-2.918295500492973e-06   1.363573414866039e-06   6.774959640314722e-06
-2.918295500492973e-06   1.363573414866039e-06   6.774959640314722e-06
-1.0154621680516946e-05   1.789270131590361e-06   1.8580085243654124e-05
-1.0154621680516946e-05   1.789270131590361e-06   1.8580085243654124e-05
-1.0154621680516946e-05   1.789270131590361e-06   1.8580085243654124e-05
-1.0154621680516946e-05   1.789270131590361e-06   1.8580085243654124e-05
-1.6194095049589647e-05   5.920839870662354e-06   2.7870007348774085e-05
-1.6194095049589647e-05   5.920839870662354e-06   2.7870007348774085e-05
-1.6194095049589647e-05   5.920839870662354e-06   2.7870007348774085e-05
-1.6194095049589647e-05   5.920839870662354e-06   2.7870007348774085e-05
-3.1112941914466016e-05   5.27955301478345e-06   2.6204904604527944e-06
-3.1112941914466016e-05   5.27955301478345e-06   2.6204904604527944e-06
-3.1112941914466016e-05   5.27955301478345e-06   2.6204904604527944e-06
-3.1112941914466016e-05   5.27955301478345e-06   2.6204904604527944e-06
-3.181418473226547e-05   5.544440480423091e-06   2.7689401722972608e-05
-3.181418473226547e-05   5.544440480423091e-06   2.7689401722972608e-05
-3.181418473226547e-05   5.544440480423091e-06   2.7689401722972608e-05
-3.181418473226547e-05   5.544440480423091e-06   2.7689401722972608e-05
-1.684566071953798e-05   4.847446327369909e-06   3.160058193592025e-06
-1.684566071953798e-05   4.847446327369909e-06   3.160058193592025e-06
-1.684566071953798e-05   4.847446327369909e-06   3.160058193592025e-06
-1.684566071953798e-05   4.847446327369909e-06   3.160058193592025e-06
-2.391232157465682e-05   5.327084608844953e-06   1.4650043316571579e-05
-2.391232157465682e-05   5.327084608844953e-06   1.4650043316571579e-05
-2.391232157465682e-05   5.327084608844953e-06   1.4650043316571579e-05
-2.391232157465682e-05   5.327084608844953e-06   1.4650043316571579e-05
-1.6845660719537952e-05   5.544440480423091e-06   2.8107598214804387e-05
-1.6845660719537952e-05   5.544440480423091e-06   2.8107598214804387e-05
-1.6845660719537952e-05   5.544440480423091e-06   2.8107598214804387e-05
-1.6845660719537952e-05   5.544440480423091e-06   2.8107598214804387e-05
-3.181418473226547e-05   4.847446327369909e-06   2.7418617017599747e-06
-3.181418473226547e-05   4.847446327369909e-06   2.7418617017599747e-06
-3.181418473226547e-05   4.847446327369909e-06   2.7418617017599747e-06
-3.181418473226547e-05   4.847446327369909e-06   2.7418617017599747e-06
-3.258591642363296e-05   5.196902052183013e-06   2.8728037387623162e-05
-3.258591642363296e-05   5.196902052183013e-06   2.8728037387623162e-05
-3.258591642363296e-05   5.196902052183013e-06   2.8728037387623162e-05
-3.258591642363296e-05   5.196902052183013e-06   2.8728037387623162e-05
-1.7513404176972415e-05   4.44437678501111e-06   4.058698803492103e-06
-1.7513404176972415e-05   4.44437678501111e-06   4.058698803492103e-06
-1.7513404176972415e-05   4.44437678501111e-06   4.058698803492103e-06
-1.7513404176972415e-05   4.44437678501111e-06   4.058698803492103e-06
-2.4414726075236407e-05   5.0514191982388955e-06   1.5196676519329362e-05
-2.4414726075236407e-05   5.0514191982388955e-06   1.5196676519329362e-05
-2.4414726075236407e-05   5.0514191982388955e-06   1.5196676519329362e-05
-2.4414726075236407e-05   5.0514191982388955e-06   1.5196676519329362e-05
-1.7513404176972388e-05   5.196902052183013e-06   2.9179552547926304e-05
-1.7513404176972388e-05   5.196902052183013e-06   2.9179552547926304e-05
-1.7513404176972388e-05   5.196902052183013e-06   2.9179552547926304e-05
-1.7513404176972388e-05   5.196902052183013e-06   2.9179552547926304e-05
-3.258591642363296e-05   4.44437678501111e-06   3.6071836431887444e-06
-3.258591642363296e-05   4.44437678501111e-06   3.6071836431887444e-06
-3.258591642363296e-05   4.44437678501111e-06   3.6071836431887444e-06
-3.258591642363296e-05   4.44437678501111e-06   3.6071836431887444e-06
-3.329128445883994e-05   4.771986339844421e-06   2.950714010581542e-05
-3.329128445883994e-05   4.771986339844421e-06   2.950714010581542e-05
-3.329128445883994e-05   4.771986339844421e-06   2.950714010581542e-05
-3.329128445883994e-05   4.771986339844421e-06   2.950714010581542e-05
-1.818079681067982e-05   3.97458283487662e-06   4.801436128529094e-06
-1.818079681067982e-05   3.97458283487662e-06   4.801436128529094e-06
-1.818079681067982e-05   3.97458283487662e-06   4.801436128529094e-06
-1.818079681067982e-05   3.97458283487662e-06   4.801436128529094e-06
-2.521605785786727e-05   4.739971438592026e-06   1.6067638044946664e-05
-2.521605785786727e-05   4.739971438592026e-06   1.6067638044946664e-05
-2.521605785786727e-05   4.739971438592026e-06   1.6067638044946664e-05
-2.521605785786727e-05   4.739971438592026e-06   1.6067638044946664e-05
-3.1112941914466016e-05   8.530662824028168e-06   1.3484085433565409e-05
-3.1112941914466016e-05   8.530662824028168e-06   1.3484085433565409e-05
-3.1112941914466016e-05   8.530662824028168e-06   1.3484085433565409e-05
-3.1112941914466016e-05   8.530662824028168e-06   1.3484085433565409e-05
-4.529093967756739e-05   7.281964020733724e-06   -1.0895130120246632e-05
-4.529093967756739e-05   7.281964020733724e-06   -1.0895130120246632e-05
-4.529093967756739e-05   7.281964020733724e-06   -1.0895130120246632e-05
-4.529093967756739e-05   7.281964020733724e-06   -1.0895130120246632e-05
-4.655173450006839e-05   8.62308726466525e-06   1.7930746242701516e-05
-4.655173450006839e-05   8.62308726466525e-06   1.7930746242701516e-05
-4.655173450006839e-05   8.62308726466525e-06   1.7930746242701516e-05
-4.655173450006839e-05   8.62308726466525e-06   1.7930746242701516e-05
-3.181418473226547e-05   7.247276992634498e-06   -5.80635054041838e-06
-3.181418473226547e-05   7.247276992634498e-06   -5.80635054041838e-06
-3.181418473226547e-05   7.247276992634498e-06   -5.80635054041838e-06
-3.181418473226547e-05   7.247276992634498e-06   -5.80635054041838e-06
-3.722012574560791e-05   7.80405776957269e-06   2.869482682322567e-06
-3.722012574560791e-05   7.80405776957269e-06   2.869482682322567e-06
-3.722012574560791e-05   7.80405776957269e-06   2.869482682322567e-06
-3.722012574560791e-05   7.80405776957269e-06   2.869482682322567e-06
-3.1814184732265445e-05   8.62308726466525e-06   1.875623240592001e-05
-3.1814184732265445e-05   8.62308726466525e-06   1.875623240592001e-05
-3.1814184732265445e-05   8.62308726466525e-06   1.875623240592001e-05
-3.1814184732265445e-05   8.62308726466525e-06   1.875623240592001e-05
-4.655173450006844e-05   7.247276992634281e-06   -6.63183670363682e-06
-4.655173450006844e-05   7.247276992634281e-06   -6.63183670363682e-06
-4.655173450006844e-05   7.247276992634281e-06   -6.63183670363682e-06
-4.655173450006844e-05   7.247276992634281e-06   -6.63183670363682e-06
-4.7680094330760845e-05   8.52872452118767e-06   2.151896562816477e-05
-4.7680094330760845e-05   8.52872452118767e-06   2.151896562816477e-05
-4.7680094330760845e-05   8.52872452118767e-06   2.151896562816477e-05
-4.7680094330760845e-05   8.52872452118767e-06   2.151896562816477e-05
-3.258591642363296e-05   7.1001643718042635e-06   -2.7808614607518784e-06
-3.258591642363296e-05   7.1001643718042635e-06   -2.7808614607518784e-06
-3.258591642363296e-05   7.1001643718042635e-06   -2.7808614607518784e-06
-3.258591642363296e-05   7.1001643718042635e-06   -2.7808614607518784e-06
-3.867170694099676e-05   7.890870826696974e-06   6.887698861920229e-06
-3.867170694099676e-05   7.890870826696974e-06   6.887698861920229e-06
-3.867170694099676e-05   7.890870826696974e-06   6.887698861920229e-06
-3.867170694099676e-05   7.890870826696974e-06   6.887698861920229e-06
-3.258591642363296e-05   8.528724521187888e-06   2.2376101717794944e-05
-3.258591642363296e-05   8.528724521187888e-06   2.2376101717794944e-05
-3.258591642363296e-05   8.528724521187888e-06   2.2376101717794944e-05
-3.258591642363296e-05   8.528724521187888e-06   2.2376101717794944e-05
-4.768009433076095e-05   7.1001643718042635e-06   -3.6379975503819445e-06
-4.768009433076095e-05   7.1001643718042635e-06   -3.6379975503819445e-06
-4.768009433076095e-05   7.1001643718042635e-06   -3.6379975503819445e-06
-4.768009433076095e-05   7.1001643718042635e-06   -3.6379975503819445e-06
-4.8976161271372857e-05   7.872476034330358e-06   2.7690353178648356e-05
-4.8976161271372857e-05   7.872476034330358e-06   2.7690353178648356e-05
-4.8976161271372857e-05   7.872476034330358e-06   2.7690353178648356e-05
-4.8976161271372857e-05   7.872476034330358e-06   2.7690353178648356e-05
-3.329128445883994e-05   6.449847530357478e-06   2.402468926810395e-06
-3.329128445883994e-05   6.449847530357478e-06   2.402468926810395e-06
-3.329128445883994e-05   6.449847530357478e-06   2.402468926810395e-06
-3.329128445883994e-05   6.449847530357478e-06   2.402468926810395e-06
-3.897813463395067e-05   7.621075901936836e-06   1.1177815529047957e-05
-3.897813463395067e-05   7.621075901936836e-06   1.1177815529047957e-05
-3.897813463395067e-05   7.621075901936836e-06   1.1177815529047957e-05
-3.897813463395067e-05   7.621075901936836e-06   1.1177815529047957e-05
2.1468407435700546e-05   -2.781511826139291e-06   2.1479776692717766e-05
2.1468407435700546e-05   -2.781511826139291e-06   2.1479776692717766e-05
2.1468407435700546e-05   -2.781511826139291e-06   2.1479776692717766e-05
2.1468407435700546e-05   -2.781511826139291e-06   2.1479776692717766e-05
8.910895148021412e-06   -1.3737383883073544e-06   1.3952536092851119e-06
8.910895148021412e-06   -1.3737383883073544e-06   1.3952536092851119e-06
8.910895148021412e-06   -1.3737383883073544e-06   1.3952536092851119e-06
8.910895148021412e-06   -1.3737383883073544e-06   1.3952536092851119e-06
8.356197225536313e-06   -3.3738886925556173e-06   1.930704114931007e-05
8.356197225536313e-06   -3.3738886925556173e-06   1.930704114931007e-05
8.356197225536313e-06   -3.3738886925556173e-06   1.930704114931007e-05
8.356197225536313e-06   -3.3738886925556173e-06   1.930704114931007e-05
2.0286955378353613e-05   -1.904265352285989e-06   -1.4593297762138785e-06
2.0286955378353613e-05   -1.904265352285989e-06   -1.4593297762138785e-06
2.0286955378353613e-05   -1.904265352285989e-06   -1.4593297762138785e-06
2.0286955378353613e-05   -1.904265352285989e-06   -1.4593297762138785e-06
1.4021766763940024e-05   -2.4146033047465e-06   9.288854019285449e-06
1.4021766763940024e-05   -2.4146033047465e-06   9.288854019285449e-06
1.4021766763940024e-05   -2.4146033047465e-06   9.288854019285449e-06
1.4021766763940024e-05   -2.4146033047465e-06   9.288854019285449e-06
2.0286955378353647e-05   -3.3738886925556173e-06   1.8425267145148316e-05
2.0286955378353647e-05   -3.3738886925556173e-06   1.8425267145148316e-05
2.0286955378353647e-05   -3.3738886925556173e-06   1.8425267145148316e-05
2.0286955378353647e-05   -3.3738886925556173e-06   1.8425267145148316e-05
8.356197225536283e-06   -1.904265352285989e-06   -5.77555772052164e-07
8.356197225536283e-06   -1.904265352285989e-06   -5.77555772052164e-07
8.356197225536283e-06   -1.904265352285989e-06   -5.77555772052164e-07
8.356197225536283e-06   -1.904265352285989e-06   -5.77555772052164e-07
7.732849233113139e-06   -3.5318280913524108e-06   1.769423059369275e-05
7.732849233113139e-06   -3.5318280913524108e-06   1.769423059369275e-05
7.732849233113139e-06   -3.5318280913524108e-06   1.769423059369275e-05
7.732849233113139e-06   -3.5318280913524108e-06   1.769423059369275e-05
1.9272409428645726e-05   -2.0865506054144455e-06   -2.4055362237575506e-06
1.9272409428645726e-05   -2.0865506054144455e-06   -2.4055362237575506e-06
1.9272409428645726e-05   -2.0865506054144455e-06   -2.4055362237575506e-06
1.9272409428645726e-05   -2.0865506054144455e-06   -2.4055362237575506e-06
1.3497874953381275e-05   -2.6397573171883706e-06   7.550611928747793e-06
1.3497874953381275e-05   -2.6397573171883706e-06   7.550611928747793e-06
1.3497874953381275e-05   -2.6397573171883706e-06   7.550611928747793e-06
1.3497874953381275e-05   -2.6397573171883706e-06   7.550611928747793e-06
1.927240942864576e-05   -3.5318280913524108e-06   1.682706410212993e-05
1.927240942864576e-05   -3.5318280913524108e-06   1.682706410212993e-05
1.927240942864576e-05   -3.5318280913524108e-06   1.682706410212993e-05
1.927240942864576e-05   -3.5318280913524108e-06   1.682706410212993e-05
7.732849233113126e-06   -2.0865506054144455e-06   -1.5383697321947687e-06
7.732849233113126e-06   -2.0865506054144455e-06   -1.5383697321947687e-06
7.732849233113126e-06   -2.0865506054144455e-06   -1.5383697321947687e-06
7.732849233113126e-06   -2.0865506054144455e-06   -1.5383697321947687e-06
7.173937906574461e-06   -3.6779773658927525e-06   1.5597404585033343e-05
7.173937906574461e-06   -3.6779773658927525e-06   1.5597404585033343e-05
7.173937906574461e-06   -3.6779773658927525e-06   1.5597404585033343e-05
7.173937906574461e-06   -3.6779773658927525e-06   1.5597404585033343e-05
1.812110496717241e-05   -2.326398744360641e-06   -3.4588210222159723e-06
1.812110496717241e-05   -2.326398744360641e-06   -3.4588210222159723e-06
1.812110496717241e-05   -2.326398744360641e-06   -3.4588210222159723e-06
1.812110496717241e-05   -2.326398744360641e-06   -3.4588210222159723e-06
1.2522431957808513e-05   -2.683114243420999e-06   6.086329959493467e-06
1.2522431957808513e-05   -2.683114243420999e-06   6.086329959493467e-06
1.2522431957808513e-05   -2.683114243420999e-06   6.086329959493467e-06
1.2522431957808513e-05   -2.683114243420999e-06   6.086329959493467e-06
8.910895148021443e-06   -1.7323393065090537e-08   2.6518408928881756e-05
8.910895148021443e-06   -1.7323393065090537e-08   2.6518408928881756e-05
8.910895148021443e-06   -1.7323393065090537e-08   2.6518408928881756e-05
8.910895148021443e-06   -1.7323393065090537e-08   2.6518408928881756e-05
-2.869755065787119e-06   6.983294592477918e-07   7.313383617255369e-06
-2.869755065787119e-06   6.983294592477918e-07   7.313383617255369e-06
-2.869755065787119e-06   6.983294592477918e-07   7.313383617255369e-06
-2.869755065787119e-06   6.983294592477918e-07   7.313383617255369e-06
-3.3795942696328616e-06   -5.320421053113446e-07   2.6568102912691858e-05
-3.3795942696328616e-06   -5.320421053113446e-07   2.6568102912691858e-05
-3.3795942696328616e-06   -5.320421053113446e-07   2.6568102912691858e-05
-3.3795942696328616e-06   -5.320421053113446e-07   2.6568102912691858e-05
8.356197225536283e-06   1.6186130945890914e-07   6.592108371881382e-06
8.356197225536283e-06   1.6186130945890914e-07   6.592108371881382e-06
8.356197225536283e-06   1.6186130945890914e-07   6.592108371881382e-06
8.356197225536283e-06   1.6186130945890914e-07   6.592108371881382e-06
2.670340334832361e-06   3.147919388222023e-08   1.6146765792401203e-05
2.670340334832361e-06   3.147919388222023e-08   1.6146765792401203e-05
2.670340334832361e-06   3.147919388222023e-08   1.6146765792401203e-05
2.670340334832361e-06   3.147919388222023e-08   1.6146765792401203e-05
8.356197225536303e-06   -5.320421053111278e-07   2.6151760863829922e-05
8.356197225536303e-06   -5.320421053111278e-07   2.6151760863829922e-05
8.356197225536303e-06   -5.320421053111278e-07   2.6151760863829922e-05
8.356197225536303e-06   -5.320421053111278e-07   2.6151760863829922e-05
-3.379594269632875e-06   1.618613094586923e-07   7.008450420743426e-06
-3.379594269632875e-06   1.618613094586923e-07   7.008450420743426e-06
-3.379594269632875e-06   1.618613094586923e-07   7.008450420743426e-06
-3.379594269632875e-06   1.618613094586923e-07   7.008450420743426e-06
-3.900943802172876e-06   -9.372571624147435e-07   2.6248179009725646e-05
-3.900943802172876e-06   -9.372571624147435e-07   2.6248179009725646e-05
-3.900943802172876e-06   -9.372571624147435e-07   2.6248179009725646e-05
-3.900943802172876e-06   -9.372571624147435e-07   2.6248179009725646e-05
7.732849233113126e-06   -2.766432045467077e-07   6.462155576194634e-06
7.732849233113126e-06   -2.766432045467077e-07   6.462155576194634e-06
7.732849233113126e-06   -2.766432045467077e-07   6.462155576194634e-06
7.732849233113126e-06   -2.766432045467077e-07   6.462155576194634e-06
2.1094574573672168e-06   -3.2605325029798e-07   1.5864121229889445e-05
2.1094574573672168e-06   -3.2605325029798e-07   1.5864121229889445e-05
2.1094574573672168e-06   -3.2605325029798e-07   1.5864121229889445e-05
2.1094574573672168e-06   -3.2605325029798e-07   1.5864121229889445e-05
7.732849233113153e-06   -9.372571624149603e-07   2.5851810635004564e-05
7.732849233113153e-06   -9.372571624149603e-07   2.5851810635004564e-05
7.732849233113153e-06   -9.372571624149603e-07   2.5851810635004564e-05
7.732849233113153e-06   -9.372571624149603e-07   2.5851810635004564e-05
-3.900943802172876e-06   -2.766432045464909e-07   6.8585239509156345e-06
-3.900943802172876e-06   -2.766432045464909e-07   6.8585239509156345e-06
-3.900943802172876e-06   -2.766432045464909e-07   6.8585239509156345e-06
-3.900943802172876e-06   -2.766432045464909e-07   6.8585239509156345e-06
-4.417970951979823e-06   -1.3119113437577712e-06   2.6484574061366164e-05
-4.417970951979823e-06   -1.3119113437577712e-06   2.6484574061366164e-05
-4.417970951979823e-06   -1.3119113437577712e-06   2.6484574061366164e-05
-4.417970951979823e-06   -1.3119113437577712e-06   2.6484574061366164e-05
7.173937906574427e-06   -7.081733931315389e-07   6.802483193400107e-06
7.173937906574427e-06   -7.081733931315389e-07   6.802483193400107e-06
7.173937906574427e-06   -7.081733931315389e-07   6.802483193400107e-06
7.173937906574427e-06   -7.081733931315389e-07   6.802483193400107e-06
1.6669014301586996e-06   -6.235655355406496e-07   1.5930112606205005e-05
1.6669014301586996e-06   -6.235655355406496e-07   1.5930112606205005e-05
1.6669014301586996e-06   -6.235655355406496e-07   1.5930112606205005e-05
1.6669014301586996e-06   -6.235655355406496e-07   1.5930112606205005e-05
-2.869755065787119e-06   2.6815410051259352e-06   2.8770459127018533e-05
-2.869755065787119e-06   2.6815410051259352e-06   2.8770459127018533e-05
-2.869755065787119e-06   2.6815410051259352e-06   2.8770459127018533e-05
-2.869755065787119e-06   2.6815410051259352e-06   2.8770459127018533e-05
-1.445515354217753e-05   2.6404685774365517e-06   9.436818209754326e-06
-1.445515354217753e-05   2.6404685774365517e-06   9.436818209754326e-06
-1.445515354217753e-05   2.6404685774365517e-06   9.436818209754326e-06
-1.445515354217753e-05   2.6404685774365517e-06   9.436818209754326e-06
-1.4958316781099699e-05   2.2298375949357605e-06   2.858279845489929e-05
-1.4958316781099699e-05   2.2298375949357605e-06   2.858279845489929e-05
-1.4958316781099699e-05   2.2298375949357605e-06   2.858279845489929e-05
-1.4958316781099699e-05   2.2298375949357605e-06   2.858279845489929e-05
-3.3795942696328616e-06   2.153505641707288e-06   9.330726774391693e-06
-3.3795942696328616e-06   2.153505641707288e-06   9.330726774391693e-06
-3.3795942696328616e-06   2.153505641707288e-06   9.330726774391693e-06
-3.3795942696328616e-06   2.153505641707288e-06   9.330726774391693e-06
-8.9379951595867e-06   2.365858840330283e-06   1.8467316338474876e-05
-8.9379951595867e-06   2.365858840330283e-06   1.8467316338474876e-05
-8.9379951595867e-06   2.365858840330283e-06   1.8467316338474876e-05
-8.9379951595867e-06   2.365858840330283e-06   1.8467316338474876e-05
-3.3795942696328616e-06   2.2298375949355437e-06   2.8628597626836417e-05
-3.3795942696328616e-06   2.2298375949355437e-06   2.8628597626836417e-05
-3.3795942696328616e-06   2.2298375949355437e-06   2.8628597626836417e-05
-3.3795942696328616e-06   2.2298375949355437e-06   2.8628597626836417e-05
-1.4958316781099699e-05   2.153505641707505e-06   9.284927602454729e-06
-1.4958316781099699e-05   2.153505641707505e-06   9.284927602454729e-06
-1.4958316781099699e-05   2.153505641707505e-06   9.284927602454729e-06
-1.4958316781099699e-05   2.153505641707505e-06   9.284927602454729e-06
-1.547351603657551e-05   1.7853299466717883e-06   2.8727682290094958e-05
-1.547351603657551e-05   1.7853299466717883e-06   2.8727682290094958e-05
-1.547351603657551e-05   1.7853299466717883e-06   2.8727682290094958e-05
-1.547351603657551e-05   1.7853299466717883e-06   2.8727682290094958e-05
-3.900943802172862e-06   1.6721451745096549e-06   9.507972762721274e-06
-3.900943802172862e-06   1.6721451745096549e-06   9.507972762721274e-06
-3.900943802172862e-06   1.6721451745096549e-06   9.507972762721274e-06
-3.900943802172862e-06   1.6721451745096549e-06   9.507972762721274e-06
-9.398648578561978e-06   2.0126360609027533e-06   1.8466519524867756e-05
-9.398648578561978e-06   2.0126360609027533e-06   1.8466519524867756e-05
-9.398648578561978e-06   2.0126360609027533e-06   1.8466519524867756e-05
-9.398648578561978e-06   2.0126360609027533e-06   1.8466519524867756e-05
-3.900943802172876e-06   1.7853299466717883e-06   2.8795593153392368e-05
-3.900943802172876e-06   1.7853299466717883e-06   2.8795593153392368e-05
-3.900943802172876e-06   1.7853299466717883e-06   2.8795593153392368e-05
-3.900943802172876e-06   1.7853299466717883e-06   2.8795593153392368e-05
-1.547351603657551e-05   1.672145174509438e-06   9.440061899424054e-06
-1.547351603657551e-05   1.672145174509438e-06   9.440061899424054e-06
-1.547351603657551e-05   1.672145174509438e-06   9.440061899424054e-06
-1.547351603657551e-05   1.672145174509438e-06   9.440061899424054e-06
-1.5982652325074027e-05   1.363573414866039e-06   2.9111676709373067e-05
-1.5982652325074027e-05   1.363573414866039e-06   2.9111676709373067e-05
-1.5982652325074027e-05   1.363573414866039e-06   2.9111676709373067e-05
-1.5982652325074027e-05   1.363573414866039e-06   2.9111676709373067e-05
-4.417970951979823e-06   1.208799429745647e-06   9.930072145288585e-06
-4.417970951979823e-06   1.208799429745647e-06   9.930072145288585e-06
-4.417970951979823e-06   1.208799429745647e-06   9.930072145288585e-06
-4.417970951979823e-06   1.208799429745647e-06   9.930072145288585e-06
-9.88056990540769e-06   1.6677764268203076e-06   1.875901753609012e-05
-9.88056990540769e-06   1.6677764268203076e-06   1.875901753609012e-05
-9.88056990540769e-06   1.6677764268203076e-06   1.875901753609012e-05
-9.88056990540769e-06   1.6677764268203076e-06   1.875901753609012e-05
-1.445515354217753e-05   5.279553014783233e-06   2.5451094890856793e-05
-1.445515354217753e-05   5.279553014783233e-06   2.5451094890856793e-05
-1.445515354217753e-05   5.279553014783233e-06   2.5451094890856793e-05
-1.445515354217753e-05   5.279553014783233e-06   2.5451094890856793e-05
-2.5849229003643484e-05   4.5302532066424876e-06   6.011389236862353e-06
-2.5849229003643484e-05   4.5302532066424876e-06   6.011389236862353e-06
-2.5849229003643484e-05   4.5302532066424876e-06   6.011389236862353e-06
-2.5849229003643484e-05   4.5302532066424876e-06   6.011389236862353e-06
-2.6389152501850457e-05   4.847446327369909e-06   2.5115679319113364e-05
-2.6389152501850457e-05   4.847446327369909e-06   2.5115679319113364e-05
-2.6389152501850457e-05   4.847446327369909e-06   2.5115679319113364e-05
-2.6389152501850457e-05   4.847446327369909e-06   2.5115679319113364e-05
-1.4958316781099644e-05   4.0548991864820805e-06   6.5398147357282775e-06
-1.4958316781099644e-05   4.0548991864820805e-06   6.5398147357282775e-06
-1.4958316781099644e-05   4.0548991864820805e-06   6.5398147357282775e-06
-1.4958316781099644e-05   4.0548991864820805e-06   6.5398147357282775e-06
-2.0355173279668802e-05   4.597931854776784e-06   1.5208755965700474e-05
-2.0355173279668802e-05   4.597931854776784e-06   1.5208755965700474e-05
-2.0355173279668802e-05   4.597931854776784e-06   1.5208755965700474e-05
-2.0355173279668802e-05   4.597931854776784e-06   1.5208755965700474e-05
-1.4958316781099699e-05   4.847446327369909e-06   2.5591207603646235e-05
-1.4958316781099699e-05   4.847446327369909e-06   2.5591207603646235e-05
-1.4958316781099699e-05   4.847446327369909e-06   2.5591207603646235e-05
-1.4958316781099699e-05   4.847446327369909e-06   2.5591207603646235e-05
-2.6389152501850403e-05   4.0548991864820805e-06   6.064286451195515e-06
-2.6389152501850403e-05   4.0548991864820805e-06   6.064286451195515e-06
-2.6389152501850403e-05   4.0548991864820805e-06   6.064286451195515e-06
-2.6389152501850403e-05   4.0548991864820805e-06   6.064286451195515e-06
-2.6996622509534396e-05   4.44437678501111e-06   2.597548090563814e-05
-2.6996622509534396e-05   4.44437678501111e-06   2.597548090563814e-05
-2.6996622509534396e-05   4.44437678501111e-06   2.597548090563814e-05
-2.6996622509534396e-05   4.44437678501111e-06   2.597548090563814e-05
-1.5473516036575456e-05   3.6146825361145236e-06   7.268120000044676e-06
-1.5473516036575456e-05   3.6146825361145236e-06   7.268120000044676e-06
-1.5473516036575456e-05   3.6146825361145236e-06   7.268120000044676e-06
-1.5473516036575456e-05   3.6146825361145236e-06   7.268120000044676e-06
-2.072840126593451e-05   4.274282698455431e-06   1.5630501951572468e-05
-2.072840126593451e-05   4.274282698455431e-06   1.5630501951572468e-05
-2.072840126593451e-05   4.274282698455431e-06   1.5630501951572468e-05
-2.072840126593451e-05   4.274282698455431e-06   1.5630501951572468e-05
-1.547351603657551e-05   4.44437678501111e-06   2.6473297454975963e-05
-1.547351603657551e-05   4.44437678501111e-06   2.6473297454975963e-05
-1.547351603657551e-05   4.44437678501111e-06   2.6473297454975963e-05
-1.547351603657551e-05   4.44437678501111e-06   2.6473297454975963e-05
-2.699662250953434e-05   3.6146825361147404e-06   6.770303450706855e-06
-2.699662250953434e-05   3.6146825361147404e-06   6.770303450706855e-06
-2.699662250953434e-05   3.6146825361147404e-06   6.770303450706855e-06
-2.699662250953434e-05   3.6146825361147404e-06   6.770303450706855e-06
-2.7536439672454628e-05   3.97458283487662e-06   2.6699436563831563e-05
-2.7536439672454628e-05   3.97458283487662e-06   2.6699436563831563e-05
-2.7536439672454628e-05   3.97458283487662e-06   2.6699436563831563e-05
-2.7536439672454628e-05   3.97458283487662e-06   2.6699436563831563e-05
-1.5982652325073973e-05   3.1222095337648387e-06   7.954548298863952e-06
-1.5982652325073973e-05   3.1222095337648387e-06   7.954548298863952e-06
-1.5982652325073973e-05   3.1222095337648387e-06   7.954548298863952e-06
-1.5982652325073973e-05   3.1222095337648387e-06   7.954548298863952e-06
-2.133767909522595e-05   3.933210291520543e-06   1.639299246113102e-05
-2.133767909522595e-05   3.933210291520543e-06   1.639299246113102e-05
-2.133767909522595e-05   3.933210291520543e-06   1.639299246113102e-05
-2.133767909522595e-05   3.933210291520543e-06   1.639299246113102e-05
-2.5849229003643484e-05   7.281964020733941e-06   1.2235113707249651e-05
-2.5849229003643484e-05   7.281964020733941e-06   1.2235113707249651e-05
-2.5849229003643484e-05   7.281964020733941e-06   1.2235113707249651e-05
-2.5849229003643484e-05   7.281964020733941e-06   1.2235113707249651e-05
-3.654268290788815e-05   5.9477473230696e-06   -6.387839485090172e-06
-3.654268290788815e-05   5.9477473230696e-06   -6.387839485090172e-06
-3.654268290788815e-05   5.9477473230696e-06   -6.387839485090172e-06
-3.654268290788815e-05   5.9477473230696e-06   -6.387839485090172e-06
-3.767229009181975e-05   7.247276992634498e-06   1.56968112923336e-05
-3.767229009181975e-05   7.247276992634498e-06   1.56968112923336e-05
-3.767229009181975e-05   7.247276992634498e-06   1.56968112923336e-05
-3.767229009181975e-05   7.247276992634498e-06   1.56968112923336e-05
-2.6389152501850375e-05   5.796184018299049e-06   -2.237762239680702e-06
-2.6389152501850375e-05   5.796184018299049e-06   -2.237762239680702e-06
-2.6389152501850375e-05   5.796184018299049e-06   -2.237762239680702e-06
-2.6389152501850375e-05   5.796184018299049e-06   -2.237762239680702e-06
-3.042832308842315e-05   6.44815610728708e-06   4.103005484548509e-06
-3.042832308842315e-05   6.44815610728708e-06   4.103005484548509e-06
-3.042832308842315e-05   6.44815610728708e-06   4.103005484548509e-06
-3.042832308842315e-05   6.44815610728708e-06   4.103005484548509e-06
-2.638915250185043e-05   7.247276992634498e-06   1.6567467076934956e-05
-2.638915250185043e-05   7.247276992634498e-06   1.6567467076934956e-05
-2.638915250185043e-05   7.247276992634498e-06   1.6567467076934956e-05
-2.638915250185043e-05   7.247276992634498e-06   1.6567467076934956e-05
-3.76722900918198e-05   5.796184018299049e-06   -3.1084180242817866e-06
-3.76722900918198e-05   5.796184018299049e-06   -3.1084180242817866e-06
-3.76722900918198e-05   5.796184018299049e-06   -3.1084180242817866e-06
-3.76722900918198e-05   5.796184018299049e-06   -3.1084180242817866e-06
-3.865738564480872e-05   7.1001643718042635e-06   1.8693024660452898e-05
-3.865738564480872e-05   7.1001643718042635e-06   1.8693024660452898e-05
-3.865738564480872e-05   7.1001643718042635e-06   1.8693024660452898e-05
-3.865738564480872e-05   7.1001643718042635e-06   1.8693024660452898e-05
-2.6996622509534287e-05   5.609479136396743e-06   1.5283057624027995e-07
-2.6996622509534287e-05   5.609479136396743e-06   1.5283057624027995e-07
-2.6996622509534287e-05   5.609479136396743e-06   1.5283057624027995e-07
-2.6996622509534287e-05   5.609479136396743e-06   1.5283057624027995e-07
-3.162615055247565e-05   6.453022777224565e-06   7.362584463313591e-06
-3.162615055247565e-05   6.453022777224565e-06   7.362584463313591e-06
-3.162615055247565e-05   6.453022777224565e-06   7.362584463313591e-06
-3.162615055247565e-05   6.453022777224565e-06   7.362584463313591e-06
-2.6996622509534396e-05   7.1001643718042635e-06   1.9587435801697627e-05
-2.6996622509534396e-05   7.1001643718042635e-06   1.9587435801697627e-05
-2.6996622509534396e-05   7.1001643718042635e-06   1.9587435801697627e-05
-2.6996622509534396e-05   7.1001643718042635e-06   1.9587435801697627e-05
-3.865738564480872e-05   5.609479136396743e-06   -7.415805650043948e-07
-3.865738564480872e-05   5.609479136396743e-06   -7.415805650043948e-07
-3.865738564480872e-05   5.609479136396743e-06   -7.415805650043948e-07
-3.865738564480872e-05   5.609479136396743e-06   -7.415805650043948e-07
-3.979968719051931e-05   6.449847530357478e-06   2.389809327563489e-05
-3.979968719051931e-05   6.449847530357478e-06   2.389809327563489e-05
-3.979968719051931e-05   6.449847530357478e-06   2.389809327563489e-05
-3.979968719051931e-05   6.449847530357478e-06   2.389809327563489e-05
-2.7536439672454547e-05   4.981817214593778e-06   4.340165601652212e-06
-2.7536439672454547e-05   4.981817214593778e-06   4.340165601652212e-06
-2.7536439672454547e-05   4.981817214593778e-06   4.340165601652212e-06
-2.7536439672454547e-05   4.981817214593778e-06   4.340165601652212e-06
-3.189060008917709e-05   6.179568399223992e-06   1.0878448918744653e-05
-3.189060008917709e-05   6.179568399223992e-06   1.0878448918744653e-05
-3.189060008917709e-05   6.179568399223992e-06   1.0878448918744653e-05
-3.189060008917709e-05   6.179568399223992e-06   1.0878448918744653e-05
1.1968813978129194e-05   -1.3737383883073544e-06   1.692704622172981e-05
1.1968813978129194e-05   -1.3737383883073544e-06   1.692704622172981e-05
1.1968813978129194e-05   -1.3737383883073544e-06   1.692704622172981e-05
1.1968813978129194e-05   -1.3737383883073544e-06   1.692704622172981e-05
3.147646574242608e-06   2.1556696871765854e-08   3.062277599692872e-06
3.147646574242608e-06   2.1556696871765854e-08   3.062277599692872e-06
3.147646574242608e-06   2.1556696871765854e-08   3.062277599692872e-06
3.147646574242608e-06   2.1556696871765854e-08   3.062277599692872e-06
2.7320012255757833e-06   -1.9042653522862059e-06   1.5775952264175273e-05
2.7320012255757833e-06   -1.9042653522862059e-06   1.5775952264175273e-05
2.7320012255757833e-06   -1.9042653522862059e-06   1.5775952264175273e-05
2.7320012255757833e-06   -1.9042653522862059e-06   1.5775952264175273e-05
1.0940889341739704e-05   -4.542805541901153e-07   1.224481191711328e-06
1.0940889341739704e-05   -4.542805541901153e-07   1.224481191711328e-06
1.0940889341739704e-05   -4.542805541901153e-07   1.224481191711328e-06
1.0940889341739704e-05   -4.542805541901153e-07   1.224481191711328e-06
6.773249102604984e-06   -9.950287814587157e-07   8.494997193297775e-06
6.773249102604984e-06   -9.950287814587157e-07   8.494997193297775e-06
6.773249102604984e-06   -9.950287814587157e-07   8.494997193297775e-06
6.773249102604984e-06   -9.950287814587157e-07   8.494997193297775e-06
1.0940889341739724e-05   -1.904265352285989e-06   1.490596138531777e-05
1.0940889341739724e-05   -1.904265352285989e-06   1.490596138531777e-05
1.0940889341739724e-05   -1.904265352285989e-06   1.490596138531777e-05
1.0940889341739724e-05   -1.904265352285989e-06   1.490596138531777e-05
2.73200122557578e-06   -4.542805541901153e-07   2.0944720705689526e-06
2.73200122557578e-06   -4.542805541901153e-07   2.0944720705689526e-06
2.73200122557578e-06   -4.542805541901153e-07   2.0944720705689526e-06
2.73200122557578e-06   -4.542805541901153e-07   2.0944720705689526e-06
2.2473046250564766e-06   -2.0865506054144455e-06   1.4802351866457912e-05
2.2473046250564766e-06   -2.0865506054144455e-06   1.4802351866457912e-05
2.2473046250564766e-06   -2.0865506054144455e-06   1.4802351866457912e-05
2.2473046250564766e-06   -2.0865506054144455e-06   1.4802351866457912e-05
1.0070218386123242e-05   -6.589559445725843e-07   9.076054681748474e-07
1.0070218386123242e-05   -6.589559445725843e-07   9.076054681748474e-07
1.0070218386123242e-05   -6.589559445725843e-07   9.076054681748474e-07
1.0070218386123242e-05   -6.589559445725843e-07   9.076054681748474e-07
6.2776686096883456e-06   -1.2027815398175153e-06   7.554817119379974e-06
6.2776686096883456e-06   -1.2027815398175153e-06   7.554817119379974e-06
6.2776686096883456e-06   -1.2027815398175153e-06   7.554817119379974e-06
6.2776686096883456e-06   -1.2027815398175153e-06   7.554817119379974e-06
1.0070218386123255e-05   -2.0865506054144455e-06   1.39457950699526e-05
1.0070218386123255e-05   -2.0865506054144455e-06   1.39457950699526e-05
1.0070218386123255e-05   -2.0865506054144455e-06   1.39457950699526e-05
1.0070218386123255e-05   -2.0865506054144455e-06   1.39457950699526e-05
2.2473046250564664e-06   -6.589559445725843e-07   1.7641622646801186e-06
2.2473046250564664e-06   -6.589559445725843e-07   1.7641622646801186e-06
2.2473046250564664e-06   -6.589559445725843e-07   1.7641622646801186e-06
2.2473046250564664e-06   -6.589559445725843e-07   1.7641622646801186e-06
1.827202671299466e-06   -2.3263987443604243e-06   1.3674198999961019e-05
1.827202671299466e-06   -2.3263987443604243e-06   1.3674198999961019e-05
1.827202671299466e-06   -2.3263987443604243e-06   1.3674198999961019e-05
1.827202671299466e-06   -2.3263987443604243e-06   1.3674198999961019e-05
9.050177460198191e-06   -9.989675598847444e-07   8.394489744445466e-07
9.050177460198191e-06   -9.989675598847444e-07   8.394489744445466e-07
9.050177460198191e-06   -9.989675598847444e-07   8.394489744445466e-07
9.050177460198191e-06   -9.989675598847444e-07   8.394489744445466e-07
5.544165386377085e-06   -1.3090682267292899e-06   6.868862830919928e-06
5.544165386377085e-06   -1.3090682267292899e-06   6.868862830919928e-06
5.544165386377085e-06   -1.3090682267292899e-06   6.868862830919928e-06
5.544165386377085e-06   -1.3090682267292899e-06   6.868862830919928e-06
3.1476465742426113e-06   6.983294592477918e-07   2.3252961569419765e-05
3.1476465742426113e-06   6.983294592477918e-07   2.3252961569419765e-05
3.1476465742426113e-06   6.983294592477918e-07   2.3252961569419765e-05
3.1476465742426113e-06   6.983294592477918e-07   2.3252961569419765e-05
-4.885790312930772e-06   1.3311151150297365e-06   1.0243571484266651e-05
-4.885790312930772e-06   1.3311151150297365e-06   1.0243571484266651e-05
-4.885790312930772e-06   1.3311151150297365e-06   1.0243571484266651e-05
-4.885790312930772e-06   1.3311151150297365e-06   1.0243571484266651e-05
-5.2510834001664195e-06   1.6186130945890914e-07   2.3324937865394418e-05
-5.2510834001664195e-06   1.6186130945890914e-07   2.3324937865394418e-05
-5.2510834001664195e-06   1.6186130945890914e-07   2.3324937865394418e-05
-5.2510834001664195e-06   1.6186130945890914e-07   2.3324937865394418e-05
2.73200122557578e-06   7.940637382680606e-07   9.640475365205243e-06
2.73200122557578e-06   7.940637382680606e-07   9.640475365205243e-06
2.73200122557578e-06   7.940637382680606e-07   9.640475365205243e-06
2.73200122557578e-06   7.940637382680606e-07   9.640475365205243e-06
-1.1245991580041317e-06   6.925221450061053e-07   1.6129067627129626e-05
-1.1245991580041317e-06   6.925221450061053e-07   1.6129067627129626e-05
-1.1245991580041317e-06   6.925221450061053e-07   1.6129067627129626e-05
-1.1245991580041317e-06   6.925221450061053e-07   1.6129067627129626e-05
2.7320012255757833e-06   1.618613094586923e-07   2.294561640810871e-05
2.7320012255757833e-06   1.618613094586923e-07   2.294561640810871e-05
2.7320012255757833e-06   1.618613094586923e-07   2.294561640810871e-05
2.7320012255757833e-06   1.618613094586923e-07   2.294561640810871e-05
-5.2510834001664195e-06   7.940637382682775e-07   1.0019796822491019e-05
-5.2510834001664195e-06   7.940637382682775e-07   1.0019796822491019e-05
-5.2510834001664195e-06   7.940637382682775e-07   1.0019796822491019e-05
-5.2510834001664195e-06   7.940637382682775e-07   1.0019796822491019e-05
-5.627110122202202e-06   -2.766432045464909e-07   2.3172500618656245e-05
-5.627110122202202e-06   -2.766432045464909e-07   2.3172500618656245e-05
-5.627110122202202e-06   -2.766432045464909e-07   2.3172500618656245e-05
-5.627110122202202e-06   -2.766432045464909e-07   2.3172500618656245e-05
2.2473046250564664e-06   3.393958684682393e-07   9.678852596083094e-06
2.2473046250564664e-06   3.393958684682393e-07   9.678852596083094e-06
2.2473046250564664e-06   3.393958684682393e-07   9.678852596083094e-06
2.2473046250564664e-06   3.393958684682393e-07   9.678852596083094e-06
-1.5147244726861246e-06   3.1826262894855614e-07   1.5961581036032972e-05
-1.5147244726861246e-06   3.1826262894855614e-07   1.5961581036032972e-05
-1.5147244726861246e-06   3.1826262894855614e-07   1.5961581036032972e-05
-1.5147244726861246e-06   3.1826262894855614e-07   1.5961581036032972e-05
2.2473046250564766e-06   -2.766432045464909e-07   2.280287717484745e-05
2.2473046250564766e-06   -2.766432045464909e-07   2.280287717484745e-05
2.2473046250564766e-06   -2.766432045464909e-07   2.280287717484745e-05
2.2473046250564766e-06   -2.766432045464909e-07   2.280287717484745e-05
-5.6271101222022155e-06   3.393958684682393e-07   1.0048476039891882e-05
-5.6271101222022155e-06   3.393958684682393e-07   1.0048476039891882e-05
-5.6271101222022155e-06   3.393958684682393e-07   1.0048476039891882e-05
-5.6271101222022155e-06   3.393958684682393e-07   1.0048476039891882e-05
-5.997602938380433e-06   -7.081733931315389e-07   2.347467051776696e-05
-5.997602938380433e-06   -7.081733931315389e-07   2.347467051776696e-05
-5.997602938380433e-06   -7.081733931315389e-07   2.347467051776696e-05
-5.997602938380433e-06   -7.081733931315389e-07   2.347467051776696e-05
1.8272026712994627e-06   -1.2464926794951772e-07   1.0083213359858181e-05
1.8272026712994627e-06   -1.2464926794951772e-07   1.0083213359858181e-05
1.8272026712994627e-06   -1.2464926794951772e-07   1.0083213359858181e-05
1.8272026712994627e-06   -1.2464926794951772e-07   1.0083213359858181e-05
-1.844744778704068e-06   -1.703711851068143e-08   1.613855848686766e-05
-1.844744778704068e-06   -1.703711851068143e-08   1.613855848686766e-05
-1.844744778704068e-06   -1.703711851068143e-08   1.613855848686766e-05
-1.844744778704068e-06   -1.703711851068143e-08   1.613855848686766e-05
-4.885790312930772e-06   2.6404685774365517e-06   2.578071101200165e-05
-4.885790312930772e-06   2.6404685774365517e-06   2.578071101200165e-05
-4.885790312930772e-06   2.6404685774365517e-06   2.578071101200165e-05
-4.885790312930772e-06   2.6404685774365517e-06   2.578071101200165e-05
-1.2781221968529046e-05   2.4906316717337573e-06   1.2531756109249246e-05
-1.2781221968529046e-05   2.4906316717337573e-06   1.2531756109249246e-05
-1.2781221968529046e-05   2.4906316717337573e-06   1.2531756109249246e-05
-1.2781221968529046e-05   2.4906316717337573e-06   1.2531756109249246e-05
-1.313185742521711e-05   2.153505641707288e-06   2.5552711140899072e-05
-1.313185742521711e-05   2.153505641707288e-06   2.5552711140899072e-05
-1.313185742521711e-05   2.153505641707288e-06   2.5552711140899072e-05
-1.313185742521711e-05   2.153505641707288e-06   2.5552711140899072e-05
-5.251083400166392e-06   1.9960005114680237e-06   1.25125908439584e-05
-5.251083400166392e-06   1.9960005114680237e-06   1.25125908439584e-05
-5.251083400166392e-06   1.9960005114680237e-06   1.25125908439584e-05
-5.251083400166392e-06   1.9960005114680237e-06   1.25125908439584e-05
-9.029445122755432e-06   2.26426847721407e-06   1.8648899602159816e-05
-9.029445122755432e-06   2.26426847721407e-06   1.8648899602159816e-05
-9.029445122755432e-06   2.26426847721407e-06   1.8648899602159816e-05
-9.029445122755432e-06   2.26426847721407e-06   1.8648899602159816e-05
-5.2510834001664195e-06   2.153505641707288e-06   2.564721421904274e-05
-5.2510834001664195e-06   2.153505641707288e-06   2.564721421904274e-05
-5.2510834001664195e-06   2.153505641707288e-06   2.564721421904274e-05
-5.2510834001664195e-06   2.153505641707288e-06   2.564721421904274e-05
-1.3131857425217083e-05   1.996000511467807e-06   1.2418087765814787e-05
-1.3131857425217083e-05   1.996000511467807e-06   1.2418087765814787e-05
-1.3131857425217083e-05   1.996000511467807e-06   1.2418087765814787e-05
-1.3131857425217083e-05   1.996000511467807e-06   1.2418087765814787e-05
-1.3493935038316117e-05   1.672145174509438e-06   2.5721012240164428e-05
-1.3493935038316117e-05   1.672145174509438e-06   2.5721012240164428e-05
-1.3493935038316117e-05   1.672145174509438e-06   2.5721012240164428e-05
-1.3493935038316117e-05   1.672145174509438e-06   2.5721012240164428e-05
-5.627110122202188e-06   1.5039165240132886e-06   1.2710574570272306e-05
-5.627110122202188e-06   1.5039165240132886e-06   1.2710574570272306e-05
-5.627110122202188e-06   1.5039165240132886e-06   1.2710574570272306e-05
-5.627110122202188e-06   1.5039165240132886e-06   1.2710574570272306e-05
-9.34152750616696e-06   1.8882634449479511e-06   1.8670662057652823e-05
-9.34152750616696e-06   1.8882634449479511e-06   1.8670662057652823e-05
-9.34152750616696e-06   1.8882634449479511e-06   1.8670662057652823e-05
-9.34152750616696e-06   1.8882634449479511e-06   1.8670662057652823e-05
-5.6271101222022155e-06   1.672145174509438e-06   2.5821949430462074e-05
-5.6271101222022155e-06   1.672145174509438e-06   2.5821949430462074e-05
-5.6271101222022155e-06   1.672145174509438e-06   2.5821949430462074e-05
-5.6271101222022155e-06   1.672145174509438e-06   2.5821949430462074e-05
-1.349393503831609e-05   1.5039165240132886e-06   1.260963737997466e-05
-1.349393503831609e-05   1.5039165240132886e-06   1.260963737997466e-05
-1.349393503831609e-05   1.5039165240132886e-06   1.260963737997466e-05
-1.349393503831609e-05   1.5039165240132886e-06   1.260963737997466e-05
-1.3850320675840819e-05   1.208799429745647e-06   2.6134452590667666e-05
-1.3850320675840819e-05   1.208799429745647e-06   2.6134452590667666e-05
-1.3850320675840819e-05   1.208799429745647e-06   2.6134452590667666e-05
-1.3850320675840819e-05   1.208799429745647e-06   2.6134452590667666e-05
-5.99760293838042e-06   1.0328592487255425e-06   1.315215380351265e-05
-5.99760293838042e-06   1.0328592487255425e-06   1.315215380351265e-05
-5.99760293838042e-06   1.0328592487255425e-06   1.315215380351265e-05
-5.99760293838042e-06   1.0328592487255425e-06   1.315215380351265e-05
-9.67354181015154e-06   1.5198538554383502e-06   1.8986521825770336e-05
-9.67354181015154e-06   1.5198538554383502e-06   1.8986521825770336e-05
-9.67354181015154e-06   1.5198538554383502e-06   1.8986521825770336e-05
-9.67354181015154e-06   1.5198538554383502e-06   1.8986521825770336e-05
-1.2781221968529046e-05   4.5302532066424876e-06   2.271495978057225e-05
-1.2781221968529046e-05   4.5302532066424876e-06   2.271495978057225e-05
-1.2781221968529046e-05   4.5302532066424876e-06   2.271495978057225e-05
-1.2781221968529046e-05   4.5302532066424876e-06   2.271495978057225e-05
-2.0535637437888842e-05   3.7029893127614455e-06   9.294575661977257e-06
-2.0535637437888842e-05   3.7029893127614455e-06   9.294575661977257e-06
-2.0535637437888842e-05   3.7029893127614455e-06   9.294575661977257e-06
-2.0535637437888842e-05   3.7029893127614455e-06   9.294575661977257e-06
-2.0917974613958402e-05   4.0548991864820805e-06   2.229728639363245e-05
-2.0917974613958402e-05   4.0548991864820805e-06   2.229728639363245e-05
-2.0917974613958402e-05   4.0548991864820805e-06   2.229728639363245e-05
-2.0917974613958402e-05   4.0548991864820805e-06   2.229728639363245e-05
-1.3131857425217056e-05   3.2043793855819017e-06   9.830736292937379e-06
-1.3131857425217056e-05   3.2043793855819017e-06   9.830736292937379e-06
-1.3131857425217056e-05   3.2043793855819017e-06   9.830736292937379e-06
-1.3131857425217056e-05   3.2043793855819017e-06   9.830736292937379e-06
-1.680099867854092e-05   3.8095161166056338e-06   1.5582889676530297e-05
-1.680099867854092e-05   3.8095161166056338e-06   1.5582889676530297e-05
-1.680099867854092e-05   3.8095161166056338e-06   1.5582889676530297e-05
-1.680099867854092e-05   3.8095161166056338e-06   1.5582889676530297e-05
-1.313185742521711e-05   4.0548991864820805e-06   2.280759827417262e-05
-1.313185742521711e-05   4.0548991864820805e-06   2.280759827417262e-05
-1.313185742521711e-05   4.0548991864820805e-06   2.280759827417262e-05
-1.313185742521711e-05   4.0548991864820805e-06   2.280759827417262e-05
-2.0917974613958348e-05   3.2043793855819017e-06   9.320424412397207e-06
-2.0917974613958348e-05   3.2043793855819017e-06   9.320424412397207e-06
-2.0917974613958348e-05   3.2043793855819017e-06   9.320424412397207e-06
-2.0917974613958348e-05   3.2043793855819017e-06   9.320424412397207e-06
-2.1370588384095996e-05   3.6146825361145236e-06   2.3030718450695476e-05
-2.1370588384095996e-05   3.6146825361145236e-06   2.3030718450695476e-05
-2.1370588384095996e-05   3.6146825361145236e-06   2.3030718450695476e-05
-2.1370588384095996e-05   3.6146825361145236e-06   2.3030718450695476e-05
-1.3493935038316063e-05   2.750762719298675e-06   1.0421314764485351e-05
-1.3493935038316063e-05   2.750762719298675e-06   1.0421314764485351e-05
-1.3493935038316063e-05   2.750762719298675e-06   1.0421314764485351e-05
-1.3493935038316063e-05   2.750762719298675e-06   1.0421314764485351e-05
-1.704828990137808e-05   3.457021554849598e-06   1.5921484234924794e-05
-1.704828990137808e-05   3.457021554849598e-06   1.5921484234924794e-05
-1.704828990137808e-05   3.457021554849598e-06   1.5921484234924794e-05
-1.704828990137808e-05   3.457021554849598e-06   1.5921484234924794e-05
-1.349393503831609e-05   3.6146825361145236e-06   2.3549070340784942e-05
-1.349393503831609e-05   3.6146825361145236e-06   2.3549070340784942e-05
-1.349393503831609e-05   3.6146825361145236e-06   2.3549070340784942e-05
-1.349393503831609e-05   3.6146825361145236e-06   2.3549070340784942e-05
-2.1370588384095888e-05   2.750762719298675e-06   9.902962874395831e-06
-2.1370588384095888e-05   2.750762719298675e-06   9.902962874395831e-06
-2.1370588384095888e-05   2.750762719298675e-06   9.902962874395831e-06
-2.1370588384095888e-05   2.750762719298675e-06   9.902962874395831e-06
-2.1758758557529267e-05   3.1222095337648387e-06   2.3737879363073264e-05
-2.1758758557529267e-05   3.1222095337648387e-06   2.3737879363073264e-05
-2.1758758557529267e-05   3.1222095337648387e-06   2.3737879363073264e-05
-2.1758758557529267e-05   3.1222095337648387e-06   2.3737879363073264e-05
-1.3850320675840765e-05   2.265686580027633e-06   1.1071063332501708e-05
-1.3850320675840765e-05   2.265686580027633e-06   1.1071063332501708e-05
-1.3850320675840765e-05   2.265686580027633e-06   1.1071063332501708e-05
-1.3850320675840765e-05   2.265686580027633e-06   1.1071063332501708e-05
-1.747438847584443e-05   3.1036804366301775e-06   1.6608380018547108e-05
-1.747438847584443e-05   3.1036804366301775e-06   1.6608380018547108e-05
-1.747438847584443e-05   3.1036804366301775e-06   1.6608380018547108e-05
-1.747438847584443e-05   3.1036804366301775e-06   1.6608380018547108e-05
-2.0535637437888896e-05   5.9477473230693835e-06   1.0619902740889543e-05
-2.0535637437888896e-05   5.9477473230693835e-06   1.0619902740889543e-05
-2.0535637437888896e-05   5.9477473230693835e-06   1.0619902740889543e-05
-2.0535637437888896e-05   5.9477473230693835e-06   1.0619902740889543e-05
-2.7538364291925476e-05   4.560667662316517e-06   -1.8835564789564975e-06
-2.7538364291925476e-05   4.560667662316517e-06   -1.8835564789564975e-06
-2.7538364291925476e-05   4.560667662316517e-06   -1.8835564789564975e-06
-2.7538364291925476e-05   4.560667662316517e-06   -1.8835564789564975e-06
-2.851892619735915e-05   5.796184018299049e-06   1.310085699262947e-05
-2.851892619735915e-05   5.796184018299049e-06   1.310085699262947e-05
-2.851892619735915e-05   5.796184018299049e-06   1.310085699262947e-05
-2.851892619735915e-05   5.796184018299049e-06   1.310085699262947e-05
-2.0917974613958348e-05   4.305549501420949e-06   1.3269850637549654e-06
-2.0917974613958348e-05   4.305549501420949e-06   1.3269850637549654e-06
-2.0917974613958348e-05   4.305549501420949e-06   1.3269850637549654e-06
-2.0917974613958348e-05   4.305549501420949e-06   1.3269850637549654e-06
-2.34896872011779e-05   5.0572202792294706e-06   5.162170242436863e-06
-2.34896872011779e-05   5.0572202792294706e-06   5.162170242436863e-06
-2.34896872011779e-05   5.0572202792294706e-06   5.162170242436863e-06
-2.34896872011779e-05   5.0572202792294706e-06   5.162170242436863e-06
-2.0917974613958348e-05   5.796184018299049e-06   1.3995237702756286e-05
-2.0917974613958348e-05   5.796184018299049e-06   1.3995237702756286e-05
-2.0917974613958348e-05   5.796184018299049e-06   1.3995237702756286e-05
-2.0917974613958348e-05   5.796184018299049e-06   1.3995237702756286e-05
-2.851892619735926e-05   4.3055495014211655e-06   4.3260435362828405e-07
-2.851892619735926e-05   4.3055495014211655e-06   4.3260435362828405e-07
-2.851892619735926e-05   4.3055495014211655e-06   4.3260435362828405e-07
-2.851892619735926e-05   4.3055495014211655e-06   4.3260435362828405e-07
-2.9362754295676817e-05   5.609479136396743e-06   1.5502634661469132e-05
-2.9362754295676817e-05   5.609479136396743e-06   1.5502634661469132e-05
-2.9362754295676817e-05   5.609479136396743e-06   1.5502634661469132e-05
-2.9362754295676817e-05   5.609479136396743e-06   1.5502634661469132e-05
-2.1370588384095888e-05   4.0917942784638676e-06   3.092969056927371e-06
-2.1370588384095888e-05   4.0917942784638676e-06   3.092969056927371e-06
-2.1370588384095888e-05   4.0917942784638676e-06   3.092969056927371e-06
-2.1370588384095888e-05   4.0917942784638676e-06   3.092969056927371e-06
-2.4432058706616187e-05   4.991479742382518e-06   7.655608316110341e-06
-2.4432058706616187e-05   4.991479742382518e-06   7.655608316110341e-06
-2.4432058706616187e-05   4.991479742382518e-06   7.655608316110341e-06
-2.4432058706616187e-05   4.991479742382518e-06   7.655608316110341e-06
-2.1370588384095942e-05   5.609479136396743e-06   1.64132455762289e-05
-2.1370588384095942e-05   5.609479136396743e-06   1.64132455762289e-05
-2.1370588384095942e-05   5.609479136396743e-06   1.64132455762289e-05
-2.1370588384095942e-05   5.609479136396743e-06   1.64132455762289e-05
-2.9362754295676925e-05   4.0917942784638676e-06   2.1823581421676834e-06
-2.9362754295676925e-05   4.0917942784638676e-06   2.1823581421676834e-06
-2.9362754295676925e-05   4.0917942784638676e-06   2.1823581421676834e-06
-2.9362754295676925e-05   4.0917942784638676e-06   2.1823581421676834e-06
-3.0372212870886635e-05   4.981817214593778e-06   1.9751486995655968e-05
-3.0372212870886635e-05   4.981817214593778e-06   1.9751486995655968e-05
-3.0372212870886635e-05   4.981817214593778e-06   1.9751486995655968e-05
-3.0372212870886635e-05   4.981817214593778e-06   1.9751486995655968e-05
-2.175875855752916e-05   3.50942779647344e-06   6.279163457599112e-06
-2.175875855752916e-05   3.50942779647344e-06   6.279163457599112e-06
-2.175875855752916e-05   3.50942779647344e-06   6.279163457599112e-06
-2.175875855752916e-05   3.50942779647344e-06   6.279163457599112e-06
-2.4665088058036742e-05   4.726647776533404e-06   1.0392713970409505e-05
-2.4665088058036742e-05   4.726647776533404e-06   1.0392713970409505e-05
-2.4665088058036742e-05   4.726647776533404e-06   1.0392713970409505e-05
-2.4665088058036742e-05   4.726647776533404e-06   1.0392713970409505e-05
2.4596811807894663e-06   2.1556696871765854e-08   1.2654143919021087e-05
2.4596811807894663e-06   2.1556696871765854e-08   1.2654143919021087e-05
2.4596811807894663e-06   2.1556696871765854e-08   1.2654143919021087e-05
2.4596811807894663e-06   2.1556696871765854e-08   1.2654143919021087e-05
-2.606298763932202e-06   1.3627005758534922e-06   5.015530338540802e-06
-2.606298763932202e-06   1.3627005758534922e-06   5.015530338540802e-06
-2.606298763932202e-06   1.3627005758534922e-06   5.015530338540802e-06
-2.606298763932202e-06   1.3627005758534922e-06   5.015530338540802e-06
-2.901605292945318e-06   -4.542805541901153e-07   1.2473520624305427e-05
-2.901605292945318e-06   -4.542805541901153e-07   1.2473520624305427e-05
-2.901605292945318e-06   -4.542805541901153e-07   1.2473520624305427e-05
-2.901605292945318e-06   -4.542805541901153e-07   1.2473520624305427e-05
1.5617131933703623e-06   9.187410097489298e-07   4.210843542082541e-06
1.5617131933703623e-06   9.187410097489298e-07   4.210843542082541e-06
1.5617131933703623e-06   9.187410097489298e-07   4.210843542082541e-06
1.5617131933703623e-06   9.187410097489298e-07   4.210843542082541e-06
-4.919809114641093e-07   3.859488129282808e-07   7.953342368232394e-06
-4.919809114641093e-07   3.859488129282808e-07   7.953342368232394e-06
-4.919809114641093e-07   3.859488129282808e-07   7.953342368232394e-06
-4.919809114641093e-07   3.859488129282808e-07   7.953342368232394e-06
1.5617131933703623e-06   -4.542805541901153e-07   1.1649707685941935e-05
1.5617131933703623e-06   -4.542805541901153e-07   1.1649707685941935e-05
1.5617131933703623e-06   -4.542805541901153e-07   1.1649707685941935e-05
1.5617131933703623e-06   -4.542805541901153e-07   1.1649707685941935e-05
-2.901605292945318e-06   9.187410097489298e-07   5.034656480445965e-06
-2.901605292945318e-06   9.187410097489298e-07   5.034656480445965e-06
-2.901605292945318e-06   9.187410097489298e-07   5.034656480445965e-06
-2.901605292945318e-06   9.187410097489298e-07   5.034656480445965e-06
-3.2665598783006685e-06   -6.589559445725843e-07   1.2142372882309807e-05
-3.2665598783006685e-06   -6.589559445725843e-07   1.2142372882309807e-05
-3.2665598783006685e-06   -6.589559445725843e-07   1.2142372882309807e-05
-3.2665598783006685e-06   -6.589559445725843e-07   1.2142372882309807e-05
7.820968784843e-07   6.750409174181111e-07   4.5942135038070584e-06
7.820968784843e-07   6.750409174181111e-07   4.5942135038070584e-06
7.820968784843e-07   6.750409174181111e-07   4.5942135038070584e-06
7.820968784843e-07   6.750409174181111e-07   4.5942135038070584e-06
-9.758645386263234e-07   1.9682829248402183e-07   7.81107677395198e-06
-9.758645386263234e-07   1.9682829248402183e-07   7.81107677395198e-06
-9.758645386263234e-07   1.9682829248402183e-07   7.81107677395198e-06
-9.758645386263234e-07   1.9682829248402183e-07   7.81107677395198e-06
7.820968784843e-07   -6.589559445725843e-07   1.1341974765115303e-05
7.820968784843e-07   -6.589559445725843e-07   1.1341974765115303e-05
7.820968784843e-07   -6.589559445725843e-07   1.1341974765115303e-05
7.820968784843e-07   -6.589559445725843e-07   1.1341974765115303e-05
-3.2665598783006617e-06   6.750409174181111e-07   5.394611621001495e-06
-3.2665598783006617e-06   6.750409174181111e-07   5.394611621001495e-06
-3.2665598783006617e-06   6.750409174181111e-07   5.394611621001495e-06
-3.2665598783006617e-06   6.750409174181111e-07   5.394611621001495e-06
-3.571839336899964e-06   -9.989675598845275e-07   1.2017510513052856e-05
-3.571839336899964e-06   -9.989675598845275e-07   1.2017510513052856e-05
-3.571839336899964e-06   -9.989675598845275e-07   1.2017510513052856e-05
-3.571839336899964e-06   -9.989675598845275e-07   1.2017510513052856e-05
-1.9630577974532465e-07   1.5882488531196014e-07   5.6969457840105105e-06
-1.9630577974532465e-07   1.5882488531196014e-07   5.6969457840105105e-06
-1.9630577974532465e-07   1.5882488531196014e-07   5.6969457840105105e-06
-1.9630577974532465e-07   1.5882488531196014e-07   5.6969457840105105e-06
-1.4994468854580874e-06   2.4472638414461262e-08   7.949458975003553e-06
-1.4994468854580874e-06   2.4472638414461262e-08   7.949458975003553e-06
-1.4994468854580874e-06   2.4472638414461262e-08   7.949458975003553e-06
-1.4994468854580874e-06   2.4472638414461262e-08   7.949458975003553e-06
-2.606298763932202e-06   1.3311151150297365e-06   2.0260452737514713e-05
-2.606298763932202e-06   1.3311151150297365e-06   2.0260452737514713e-05
-2.606298763932202e-06   1.3311151150297365e-06   2.0260452737514713e-05
-2.606298763932202e-06   1.3311151150297365e-06   2.0260452737514713e-05
-6.845235924976827e-06   1.597023226657785e-06   1.3355102336083777e-05
-6.845235924976827e-06   1.597023226657785e-06   1.3355102336083777e-05
-6.845235924976827e-06   1.597023226657785e-06   1.3355102336083777e-05
-6.845235924976827e-06   1.597023226657785e-06   1.3355102336083777e-05
-7.068271112955295e-06   7.940637382680606e-07   2.020404746394262e-05
-7.068271112955295e-06   7.940637382680606e-07   2.020404746394262e-05
-7.068271112955295e-06   7.940637382680606e-07   2.020404746394262e-05
-7.068271112955295e-06   7.940637382680606e-07   2.020404746394262e-05
-2.901605292945318e-06   1.1016029799361523e-06   1.3075080885591816e-05
-2.901605292945318e-06   1.1016029799361523e-06   1.3075080885591816e-05
-2.901605292945318e-06   1.1016029799361523e-06   1.3075080885591816e-05
-2.901605292945318e-06   1.1016029799361523e-06   1.3075080885591816e-05
-4.884989552770379e-06   1.1480978495795368e-06   1.6352824396847576e-05
-4.884989552770379e-06   1.1480978495795368e-06   1.6352824396847576e-05
-4.884989552770379e-06   1.1480978495795368e-06   1.6352824396847576e-05
-4.884989552770379e-06   1.1480978495795368e-06   1.6352824396847576e-05
-2.9016052929453214e-06   7.940637382680606e-07   2.0019523918941677e-05
-2.9016052929453214e-06   7.940637382680606e-07   2.0019523918941677e-05
-2.9016052929453214e-06   7.940637382680606e-07   2.0019523918941677e-05
-2.9016052929453214e-06   7.940637382680606e-07   2.0019523918941677e-05
-7.068271112955281e-06   1.1016029799361523e-06   1.3259604430592602e-05
-7.068271112955281e-06   1.1016029799361523e-06   1.3259604430592602e-05
-7.068271112955281e-06   1.1016029799361523e-06   1.3259604430592602e-05
-7.068271112955281e-06   1.1016029799361523e-06   1.3259604430592602e-05
-7.2983663621499376e-06   3.393958684682393e-07   2.0240359096868163e-05
-7.2983663621499376e-06   3.393958684682393e-07   2.0240359096868163e-05
-7.2983663621499376e-06   3.393958684682393e-07   2.0240359096868163e-05
-7.2983663621499376e-06   3.393958684682393e-07   2.0240359096868163e-05
-3.2665598783006617e-06   6.448890070607323e-07   1.333738574063057e-05
-3.2665598783006617e-06   6.448890070607323e-07   1.333738574063057e-05
-3.2665598783006617e-06   6.448890070607323e-07   1.333738574063057e-05
-3.2665598783006617e-06   6.448890070607323e-07   1.333738574063057e-05
-5.112820912678779e-06   7.864121325601913e-07   1.63295735892947e-05
-5.112820912678779e-06   7.864121325601913e-07   1.63295735892947e-05
-5.112820912678779e-06   7.864121325601913e-07   1.63295735892947e-05
-5.112820912678779e-06   7.864121325601913e-07   1.63295735892947e-05
-3.2665598783006685e-06   3.393958684682393e-07   2.005706321371256e-05
-3.2665598783006685e-06   3.393958684682393e-07   2.005706321371256e-05
-3.2665598783006685e-06   3.393958684682393e-07   2.005706321371256e-05
-3.2665598783006685e-06   3.393958684682393e-07   2.005706321371256e-05
-7.2983663621499376e-06   6.448890070607323e-07   1.3520681623786052e-05
-7.2983663621499376e-06   6.448890070607323e-07   1.3520681623786052e-05
-7.2983663621499376e-06   6.448890070607323e-07   1.3520681623786052e-05
-7.2983663621499376e-06   6.448890070607323e-07   1.3520681623786052e-05
-7.524201369296947e-06   -1.2464926794951772e-07   2.0630046883865602e-05
-7.524201369296947e-06   -1.2464926794951772e-07   2.0630046883865602e-05
-7.524201369296947e-06   -1.2464926794951772e-07   2.0630046883865602e-05
-7.524201369296947e-06   -1.2464926794951772e-07   2.0630046883865602e-05
-3.5718393368999605e-06   1.5073522552486087e-07   1.3877546133786126e-05
-3.5718393368999605e-06   1.5073522552486087e-07   1.3877546133786126e-05
-3.5718393368999605e-06   1.5073522552486087e-07   1.3877546133786126e-05
-3.5718393368999605e-06   1.5073522552486087e-07   1.3877546133786126e-05
-5.340171677051518e-06   4.31501506644328e-07   1.6656306932033593e-05
-5.340171677051518e-06   4.31501506644328e-07   1.6656306932033593e-05
-5.340171677051518e-06   4.31501506644328e-07   1.6656306932033593e-05
-5.340171677051518e-06   4.31501506644328e-07   1.6656306932033593e-05
-6.845235924976813e-06   2.4906316717335404e-06   2.2798084372895912e-05
-6.845235924976813e-06   2.4906316717335404e-06   2.2798084372895912e-05
-6.845235924976813e-06   2.4906316717335404e-06   2.2798084372895912e-05
-6.845235924976813e-06   2.4906316717335404e-06   2.2798084372895912e-05
-1.1066267011888923e-05   1.919145805566371e-06   1.5420141041675448e-05
-1.1066267011888923e-05   1.919145805566371e-06   1.5420141041675448e-05
-1.1066267011888923e-05   1.919145805566371e-06   1.5420141041675448e-05
-1.1066267011888923e-05   1.919145805566371e-06   1.5420141041675448e-05
-1.1255248786323871e-05   1.996000511467807e-06   2.237555348887034e-05
-1.1255248786323871e-05   1.996000511467807e-06   2.237555348887034e-05
-1.1255248786323871e-05   1.996000511467807e-06   2.237555348887034e-05
-1.1255248786323871e-05   1.996000511467807e-06   2.237555348887034e-05
-7.068271112955281e-06   1.460520517235003e-06   1.5718545363129047e-05
-7.068271112955281e-06   1.460520517235003e-06   1.5718545363129047e-05
-7.068271112955281e-06   1.460520517235003e-06   1.5718545363129047e-05
-7.068271112955281e-06   1.460520517235003e-06   1.5718545363129047e-05
-9.063534794058048e-06   1.928130461600723e-06   1.8763418865014217e-05
-9.063534794058048e-06   1.928130461600723e-06   1.8763418865014217e-05
-9.063534794058048e-06   1.928130461600723e-06   1.8763418865014217e-05
-9.063534794058048e-06   1.928130461600723e-06   1.8763418865014217e-05
-7.068271112955281e-06   1.996000511467807e-06   2.2696841485410108e-05
-7.068271112955281e-06   1.996000511467807e-06   2.2696841485410108e-05
-7.068271112955281e-06   1.996000511467807e-06   2.2696841485410108e-05
-7.068271112955281e-06   1.996000511467807e-06   2.2696841485410108e-05
-1.1255248786323871e-05   1.460520517235003e-06   1.539725736658936e-05
-1.1255248786323871e-05   1.460520517235003e-06   1.539725736658936e-05
-1.1255248786323871e-05   1.460520517235003e-06   1.539725736658936e-05
-1.1255248786323871e-05   1.460520517235003e-06   1.539725736658936e-05
-1.1457671427034314e-05   1.5039165240132886e-06   2.2596776449321015e-05
-1.1457671427034314e-05   1.5039165240132886e-06   2.2596776449321015e-05
-1.1457671427034314e-05   1.5039165240132886e-06   2.2596776449321015e-05
-1.1457671427034314e-05   1.5039165240132886e-06   2.2596776449321015e-05
-7.2983663621499376e-06   9.94447894133929e-07   1.5970282519108068e-05
-7.2983663621499376e-06   9.94447894133929e-07   1.5970282519108068e-05
-7.2983663621499376e-06   9.94447894133929e-07   1.5970282519108068e-05
-7.2983663621499376e-06   9.94447894133929e-07   1.5970282519108068e-05
-9.225015002452115e-06   1.5611369111588093e-06   1.8841350176063403e-05
-9.225015002452115e-06   1.5611369111588093e-06   1.8841350176063403e-05
-9.225015002452115e-06   1.5611369111588093e-06   1.8841350176063403e-05
-9.225015002452115e-06   1.5611369111588093e-06   1.8841350176063403e-05
-7.2983663621499376e-06   1.5039165240132886e-06   2.2902457627248587e-05
-7.2983663621499376e-06   1.5039165240132886e-06   2.2902457627248587e-05
-7.2983663621499376e-06   1.5039165240132886e-06   2.2902457627248587e-05
-7.2983663621499376e-06   1.5039165240132886e-06   2.2902457627248587e-05
-1.1457671427034287e-05   9.94447894133929e-07   1.566460134118044e-05
-1.1457671427034287e-05   9.94447894133929e-07   1.566460134118044e-05
-1.1457671427034287e-05   9.94447894133929e-07   1.566460134118044e-05
-1.1457671427034287e-05   9.94447894133929e-07   1.566460134118044e-05
-1.1655919666511222e-05   1.0328592487255425e-06   2.3060867545538974e-05
-1.1655919666511222e-05   1.0328592487255425e-06   2.3060867545538974e-05
-1.1655919666511222e-05   1.0328592487255425e-06   2.3060867545538974e-05
-1.1655919666511222e-05   1.0328592487255425e-06   2.3060867545538974e-05
-7.524201369296933e-06   5.528504039391258e-07   1.6462675690387152e-05
-7.524201369296933e-06   5.528504039391258e-07   1.6462675690387152e-05
-7.524201369296933e-06   5.528504039391258e-07   1.6462675690387152e-05
-7.524201369296933e-06   5.528504039391258e-07   1.6462675690387152e-05
-9.404915836133845e-06   1.1997651010649821e-06   1.920905098350641e-05
-9.404915836133845e-06   1.1997651010649821e-06   1.920905098350641e-05
-9.404915836133845e-06   1.1997651010649821e-06   1.920905098350641e-05
-9.404915836133845e-06   1.1997651010649821e-06   1.920905098350641e-05
-1.106626701188895e-05   3.7029893127614455e-06   1.971437074225243e-05
-1.106626701188895e-05   3.7029893127614455e-06   1.971437074225243e-05
-1.106626701188895e-05   3.7029893127614455e-06   1.971437074225243e-05
-1.106626701188895e-05   3.7029893127614455e-06   1.971437074225243e-05
-1.5219407038878207e-05   2.5970918029425425e-06   1.2128932191378915e-05
-1.5219407038878207e-05   2.5970918029425425e-06   1.2128932191378915e-05
-1.5219407038878207e-05   2.5970918029425425e-06   1.2128932191378915e-05
-1.5219407038878207e-05   2.5970918029425425e-06   1.2128932191378915e-05
-1.5427129965007113e-05   3.2043793855819017e-06   1.9134356975609524e-05
-1.5427129965007113e-05   3.2043793855819017e-06   1.9134356975609524e-05
-1.5427129965007113e-05   3.2043793855819017e-06   1.9134356975609524e-05
-1.5427129965007113e-05   3.2043793855819017e-06   1.9134356975609524e-05
-1.1255248786323871e-05   2.1146376516095744e-06   1.2835066718187502e-05
-1.1255248786323871e-05   2.1146376516095744e-06   1.2835066718187502e-05
-1.1255248786323871e-05   2.1146376516095744e-06   1.2835066718187502e-05
-1.1255248786323871e-05   2.1146376516095744e-06   1.2835066718187502e-05
-1.321394973543599e-05   2.879370785269144e-06   1.56407284198452e-05
-1.321394973543599e-05   2.879370785269144e-06   1.56407284198452e-05
-1.321394973543599e-05   2.879370785269144e-06   1.56407284198452e-05
-1.321394973543599e-05   2.879370785269144e-06   1.56407284198452e-05
-1.1255248786323871e-05   3.2043793855819017e-06   1.9788202015992877e-05
-1.1255248786323871e-05   3.2043793855819017e-06   1.9788202015992877e-05
-1.1255248786323871e-05   3.2043793855819017e-06   1.9788202015992877e-05
-1.1255248786323871e-05   3.2043793855819017e-06   1.9788202015992877e-05
-1.542712996500706e-05   2.1146376516095744e-06   1.2181221677804094e-05
-1.542712996500706e-05   2.1146376516095744e-06   1.2181221677804094e-05
-1.542712996500706e-05   2.1146376516095744e-06   1.2181221677804094e-05
-1.542712996500706e-05   2.1146376516095744e-06   1.2181221677804094e-05
-1.5713742235479557e-05   2.750762719298675e-06   1.976911633155094e-05
-1.5713742235479557e-05   2.750762719298675e-06   1.976911633155094e-05
-1.5713742235479557e-05   2.750762719298675e-06   1.976911633155094e-05
-1.5713742235479557e-05   2.750762719298675e-06   1.976911633155094e-05
-1.1457671427034314e-05   1.6852002154970356e-06   1.331500248642314e-05
-1.1457671427034314e-05   1.6852002154970356e-06   1.331500248642314e-05
-1.1457671427034314e-05   1.6852002154970356e-06   1.331500248642314e-05
-1.1457671427034314e-05   1.6852002154970356e-06   1.331500248642314e-05
-1.332683058614259e-05   2.523708191074403e-06   1.5927162966257187e-05
-1.332683058614259e-05   2.523708191074403e-06   1.5927162966257187e-05
-1.332683058614259e-05   2.523708191074403e-06   1.5927162966257187e-05
-1.332683058614259e-05   2.523708191074403e-06   1.5927162966257187e-05
-1.1457671427034287e-05   2.750762719298458e-06   2.040845383383149e-05
-1.1457671427034287e-05   2.750762719298458e-06   2.040845383383149e-05
-1.1457671427034287e-05   2.750762719298458e-06   2.040845383383149e-05
-1.1457671427034287e-05   2.750762719298458e-06   2.040845383383149e-05
-1.5713742235479557e-05   1.6852002154970356e-06   1.2675664984142102e-05
-1.5713742235479557e-05   1.6852002154970356e-06   1.2675664984142102e-05
-1.5713742235479557e-05   1.6852002154970356e-06   1.2675664984142102e-05
-1.5713742235479557e-05   1.6852002154970356e-06   1.2675664984142102e-05
-1.5943406330609492e-05   2.265686580027633e-06   2.047441995296545e-05
-1.5943406330609492e-05   2.265686580027633e-06   2.047441995296545e-05
-1.5943406330609492e-05   2.265686580027633e-06   2.047441995296545e-05
-1.5943406330609492e-05   2.265686580027633e-06   2.047441995296545e-05
-1.1655919666511195e-05   1.247484529736764e-06   1.3939530076309645e-05
-1.1655919666511195e-05   1.247484529736764e-06   1.3939530076309645e-05
-1.1655919666511195e-05   1.247484529736764e-06   1.3939530076309645e-05
-1.1655919666511195e-05   1.247484529736764e-06   1.3939530076309645e-05
-1.3564472824697954e-05   2.1852351541529116e-06   1.6557801631971684e-05
-1.3564472824697954e-05   2.1852351541529116e-06   1.6557801631971684e-05
-1.3564472824697954e-05   2.1852351541529116e-06   1.6557801631971684e-05
-1.3564472824697954e-05   2.1852351541529116e-06   1.6557801631971684e-05
-1.5219407038878207e-05   4.560667662316517e-06   8.704947891878924e-06
-1.5219407038878207e-05   4.560667662316517e-06   8.704947891878924e-06
-1.5219407038878207e-05   4.560667662316517e-06   8.704947891878924e-06
-1.5219407038878207e-05   4.560667662316517e-06   8.704947891878924e-06
-1.849136150737621e-05   3.0728884901385723e-06   2.3590229410756027e-06
-1.849136150737621e-05   3.0728884901385723e-06   2.3590229410756027e-06
-1.849136150737621e-05   3.0728884901385723e-06   2.3590229410756027e-06
-1.849136150737621e-05   3.0728884901385723e-06   2.3590229410756027e-06
-1.9278096837762704e-05   4.305549501420949e-06   1.0208738460531054e-05
-1.9278096837762704e-05   4.305549501420949e-06   1.0208738460531054e-05
-1.9278096837762704e-05   4.305549501420949e-06   1.0208738460531054e-05
-1.9278096837762704e-05   4.305549501420949e-06   1.0208738460531054e-05
-1.5427129965007113e-05   2.751917557360659e-06   4.722639505708019e-06
-1.5427129965007113e-05   2.751917557360659e-06   4.722639505708019e-06
-1.5427129965007113e-05   2.751917557360659e-06   4.722639505708019e-06
-1.5427129965007113e-05   2.751917557360659e-06   4.722639505708019e-06
-1.6510269686556442e-05   3.6349278008454555e-06   5.99806622886593e-06
-1.6510269686556442e-05   3.6349278008454555e-06   5.99806622886593e-06
-1.6510269686556442e-05   3.6349278008454555e-06   5.99806622886593e-06
-1.6510269686556442e-05   3.6349278008454555e-06   5.99806622886593e-06
-1.542712996500706e-05   4.3055495014211655e-06   1.114091762696712e-05
-1.542712996500706e-05   4.3055495014211655e-06   1.114091762696712e-05
-1.542712996500706e-05   4.3055495014211655e-06   1.114091762696712e-05
-1.542712996500706e-05   4.3055495014211655e-06   1.114091762696712e-05
-1.9278096837762758e-05   2.7519175573607673e-06   3.790460339271667e-06
-1.9278096837762758e-05   2.7519175573607673e-06   3.790460339271667e-06
-1.9278096837762758e-05   2.7519175573607673e-06   3.790460339271667e-06
-1.9278096837762758e-05   2.7519175573607673e-06   3.790460339271667e-06
-1.995320209815794e-05   4.0917942784638676e-06   1.2022823455960958e-05
-1.995320209815794e-05   4.0917942784638676e-06   1.2022823455960958e-05
-1.995320209815794e-05   4.0917942784638676e-06   1.2022823455960958e-05
-1.995320209815794e-05   4.0917942784638676e-06   1.2022823455960958e-05
-1.5713742235479557e-05   2.531295848261423e-06   5.893356076285081e-06
-1.5713742235479557e-05   2.531295848261423e-06   5.893356076285081e-06
-1.5713742235479557e-05   2.531295848261423e-06   5.893356076285081e-06
-1.5713742235479557e-05   2.531295848261423e-06   5.893356076285081e-06
-1.7177467447471113e-05   3.509430680461627e-06   7.746017196951427e-06
-1.7177467447471113e-05   3.509430680461627e-06   7.746017196951427e-06
-1.7177467447471113e-05   3.509430680461627e-06   7.746017196951427e-06
-1.7177467447471113e-05   3.509430680461627e-06   7.746017196951427e-06
-1.5713742235479557e-05   4.0917942784638676e-06   1.2959122514082317e-05
-1.5713742235479557e-05   4.0917942784638676e-06   1.2959122514082317e-05
-1.5713742235479557e-05   4.0917942784638676e-06   1.2959122514082317e-05
-1.5713742235479557e-05   4.0917942784638676e-06   1.2959122514082317e-05
-1.9953202098157996e-05   2.531295848261423e-06   4.957057018163542e-06
-1.9953202098157996e-05   2.531295848261423e-06   4.957057018163542e-06
-1.9953202098157996e-05   2.531295848261423e-06   4.957057018163542e-06
-1.9953202098157996e-05   2.531295848261423e-06   4.957057018163542e-06
-2.0812085226523907e-05   3.50942779647344e-06   1.5305032402808047e-05
-2.0812085226523907e-05   3.50942779647344e-06   1.5305032402808047e-05
-2.0812085226523907e-05   3.50942779647344e-06   1.5305032402808047e-05
-2.0812085226523907e-05   3.50942779647344e-06   1.5305032402808047e-05
-1.5943406330609438e-05   2.0237587173109603e-06   8.081969023781253e-06
-1.5943406330609438e-05   2.0237587173109603e-06   8.081969023781253e-06
-1.5943406330609438e-05   2.0237587173109603e-06   8.081969023781253e-06
-1.5943406330609438e-05   2.0237587173109603e-06   8.081969023781253e-06
-1.7367245362435432e-05   3.2675682542779912e-06   9.708748354644403e-06
-1.7367245362435432e-05   3.2675682542779912e-06   9.708748354644403e-06
-1.7367245362435432e-05   3.2675682542779912e-06   9.708748354644403e-06
-1.7367245362435432e-05   3.2675682542779912e-06   9.708748354644403e-06
-7.472646105469228e-06   1.3627005758534922e-06   9.048769192535402e-06
-7.472646105469228e-06   1.3627005758534922e-06   9.048769192535402e-06
-7.472646105469228e-06   1.3627005758534922e-06   9.048769192535402e-06
-7.472646105469228e-06   1.3627005758534922e-06   9.048769192535402e-06
-8.21448416063965e-06   2.5815709108714018e-06   8.543694634928695e-06
-8.21448416063965e-06   2.5815709108714018e-06   8.543694634928695e-06
-8.21448416063965e-06   2.5815709108714018e-06   8.543694634928695e-06
-8.21448416063965e-06   2.5815709108714018e-06   8.543694634928695e-06
-8.42788177805799e-06   9.187410097489298e-07   9.70874283842308e-06
-8.42788177805799e-06   9.187410097489298e-07   9.70874283842308e-06
-8.42788177805799e-06   9.187410097489298e-07   9.70874283842308e-06
-8.42788177805799e-06   9.187410097489298e-07   9.70874283842308e-06
-8.366507964218222e-06   2.0153552426463483e-06   8.948484608951827e-06
-8.366507964218222e-06   2.0153552426463483e-06   8.948484608951827e-06
-8.366507964218222e-06   2.0153552426463483e-06   8.948484608951827e-06
-8.366507964218222e-06   2.0153552426463483e-06   8.948484608951827e-06
-7.919952067946798e-06   1.6064991815499616e-06   8.449538418490619e-06
-7.919952067946798e-06   1.6064991815499616e-06   8.449538418490619e-06
-7.919952067946798e-06   1.6064991815499616e-06   8.449538418490619e-06
-7.919952067946798e-06   1.6064991815499616e-06   8.449538418490619e-06
-8.366507964218235e-06   9.187410097490382e-07   9.050774298684553e-06
-8.366507964218235e-06   9.187410097490382e-07   9.050774298684553e-06
-8.366507964218235e-06   9.187410097490382e-07   9.050774298684553e-06
-8.366507964218235e-06   9.187410097490382e-07   9.050774298684553e-06
-8.42788177805799e-06   2.0153552426463483e-06   9.606453148690178e-06
-8.42788177805799e-06   2.0153552426463483e-06   9.606453148690178e-06
-8.42788177805799e-06   2.0153552426463483e-06   9.606453148690178e-06
-8.42788177805799e-06   2.0153552426463483e-06   9.606453148690178e-06
-8.704768604841973e-06   6.750409174181111e-07   1.0009088943401911e-05
-8.704768604841973e-06   6.750409174181111e-07   1.0009088943401911e-05
-8.704768604841973e-06   6.750409174181111e-07   1.0009088943401911e-05
-8.704768604841973e-06   6.750409174181111e-07   1.0009088943401911e-05
-9.236364800613292e-06   1.624541634643044e-06   1.0325382172685622e-05
-9.236364800613292e-06   1.624541634643044e-06   1.0325382172685622e-05
-9.236364800613292e-06   1.624541634643044e-06   1.0325382172685622e-05
-9.236364800613292e-06   1.624541634643044e-06   1.0325382172685622e-05
-8.451748615925927e-06   1.3624596436134047e-06   9.174937726157606e-06
-8.451748615925927e-06   1.3624596436134047e-06   9.174937726157606e-06
-8.451748615925927e-06   1.3624596436134047e-06   9.174937726157606e-06
-8.451748615925927e-06   1.3624596436134047e-06   9.174937726157606e-06
-9.236364800613312e-06   6.750409174181111e-07   9.439388513066637e-06
-9.236364800613312e-06   6.750409174181111e-07   9.439388513066637e-06
-9.236364800613312e-06   6.750409174181111e-07   9.439388513066637e-06
-9.236364800613312e-06   6.750409174181111e-07   9.439388513066637e-06
-8.704768604841973e-06   1.624541634643044e-06   1.0895082603020584e-05
-8.704768604841973e-06   1.624541634643044e-06   1.0895082603020584e-05
-8.704768604841973e-06   1.624541634643044e-06   1.0895082603020584e-05
-8.704768604841973e-06   1.624541634643044e-06   1.0895082603020584e-05
-8.881772348013444e-06   1.5882488531206856e-07   1.0988821402924923e-05
-8.881772348013444e-06   1.5882488531206856e-07   1.0988821402924923e-05
-8.881772348013444e-06   1.5882488531206856e-07   1.0988821402924923e-05
-8.881772348013444e-06   1.5882488531206856e-07   1.0988821402924923e-05
-1.0162834826904832e-05   6.636374161641525e-07   1.282103801589915e-05
-1.0162834826904832e-05   6.636374161641525e-07   1.282103801589915e-05
-1.0162834826904832e-05   6.636374161641525e-07   1.282103801589915e-05
-1.0162834826904832e-05   6.636374161641525e-07   1.282103801589915e-05
-8.827082630748457e-06   1.0637215774547291e-06   1.035473385886383e-05
-8.827082630748457e-06   1.0637215774547291e-06   1.035473385886383e-05
-8.827082630748457e-06   1.0637215774547291e-06   1.035473385886383e-05
-8.827082630748457e-06   1.0637215774547291e-06   1.035473385886383e-05
-8.214484160639636e-06   1.597023226657785e-06   1.796011852411237e-05
-8.214484160639636e-06   1.597023226657785e-06   1.796011852411237e-05
-8.214484160639636e-06   1.597023226657785e-06   1.796011852411237e-05
-8.214484160639636e-06   1.597023226657785e-06   1.796011852411237e-05
-8.352494949830338e-06   6.686076599618463e-07   1.7173051202110307e-05
-8.352494949830338e-06   6.686076599618463e-07   1.7173051202110307e-05
-8.352494949830338e-06   6.686076599618463e-07   1.7173051202110307e-05
-8.352494949830338e-06   6.686076599618463e-07   1.7173051202110307e-05
-8.419607210885985e-06   1.1016029799361523e-06   1.727976195405631e-05
-8.419607210885985e-06   1.1016029799361523e-06   1.727976195405631e-05
-8.419607210885985e-06   1.1016029799361523e-06   1.727976195405631e-05
-8.419607210885985e-06   1.1016029799361523e-06   1.727976195405631e-05
-8.42788177805799e-06   3.192608307483113e-07   1.7762958188855697e-05
-8.42788177805799e-06   3.192608307483113e-07   1.7762958188855697e-05
-8.42788177805799e-06   3.192608307483113e-07   1.7762958188855697e-05
-8.42788177805799e-06   3.192608307483113e-07   1.7762958188855697e-05
-8.32861462957213e-06   8.144852499426813e-07   1.7300378289862638e-05
-8.32861462957213e-06   8.144852499426813e-07   1.7300378289862638e-05
-8.32861462957213e-06   8.144852499426813e-07   1.7300378289862638e-05
-8.32861462957213e-06   8.144852499426813e-07   1.7300378289862638e-05
-8.427881778057983e-06   1.1016029799361523e-06   1.7749167243568667e-05
-8.427881778057983e-06   1.1016029799361523e-06   1.7749167243568667e-05
-8.427881778057983e-06   1.1016029799361523e-06   1.7749167243568667e-05
-8.427881778057983e-06   1.1016029799361523e-06   1.7749167243568667e-05
-8.419607210885971e-06   3.192608307483113e-07   1.7293552899343048e-05
-8.419607210885971e-06   3.192608307483113e-07   1.7293552899343048e-05
-8.419607210885971e-06   3.192608307483113e-07   1.7293552899343048e-05
-8.419607210885971e-06   3.192608307483113e-07   1.7293552899343048e-05
-8.502538400118008e-06   6.448890070606238e-07   1.7514148476948017e-05
-8.502538400118008e-06   6.448890070606238e-07   1.7514148476948017e-05
-8.502538400118008e-06   6.448890070606238e-07   1.7514148476948017e-05
-8.502538400118008e-06   6.448890070606238e-07   1.7514148476948017e-05
-8.704768604841973e-06   -8.463530307752792e-08   1.828891340423749e-05
-8.704768604841973e-06   -8.463530307752792e-08   1.828891340423749e-05
-8.704768604841973e-06   -8.463530307752792e-08   1.828891340423749e-05
-8.704768604841973e-06   -8.463530307752792e-08   1.828891340423749e-05
-8.4106155061388e-06   5.25745402010433e-07   1.743242981667916e-05
-8.4106155061388e-06   5.25745402010433e-07   1.743242981667916e-05
-8.4106155061388e-06   5.25745402010433e-07   1.743242981667916e-05
-8.4106155061388e-06   5.25745402010433e-07   1.743242981667916e-05
-8.704768604841973e-06   6.448890070606238e-07   1.7951863063030756e-05
-8.704768604841973e-06   6.448890070606238e-07   1.7951863063030756e-05
-8.704768604841973e-06   6.448890070606238e-07   1.7951863063030756e-05
-8.704768604841973e-06   6.448890070606238e-07   1.7951863063030756e-05
-8.50253840011798e-06   -8.463530307763634e-08   1.7851198818154474e-05
-8.50253840011798e-06   -8.463530307763634e-08   1.7851198818154474e-05
-8.50253840011798e-06   -8.463530307763634e-08   1.7851198818154474e-05
-8.50253840011798e-06   -8.463530307763634e-08   1.7851198818154474e-05
-8.563519999382467e-06   1.5073522552486087e-07   1.8015513562210468e-05
-8.563519999382467e-06   1.5073522552486087e-07   1.8015513562210468e-05
-8.563519999382467e-06   1.5073522552486087e-07   1.8015513562210468e-05
-8.563519999382467e-06   1.5073522552486087e-07   1.8015513562210468e-05
-8.881772348013438e-06   -6.146526467618475e-07   1.9005166866633933e-05
-8.881772348013438e-06   -6.146526467618475e-07   1.9005166866633933e-05
-8.881772348013438e-06   -6.146526467618475e-07   1.9005166866633933e-05
-8.881772348013438e-06   -6.146526467618475e-07   1.9005166866633933e-05
-8.539213129638787e-06   1.8715649762661522e-07   1.7953149349375934e-05
-8.539213129638787e-06   1.8715649762661522e-07   1.7953149349375934e-05
-8.539213129638787e-06   1.8715649762661522e-07   1.7953149349375934e-05
-8.539213129638787e-06   1.8715649762661522e-07   1.7953149349375934e-05
-8.352494949830365e-06   1.919145805566371e-06   1.981099940938678e-05
-8.352494949830365e-06   1.919145805566371e-06   1.981099940938678e-05
-8.352494949830365e-06   1.919145805566371e-06   1.981099940938678e-05
-8.352494949830365e-06   1.919145805566371e-06   1.981099940938678e-05
-9.01591235323427e-06   1.8658409768244032e-07   1.766576671231656e-05
-9.01591235323427e-06   1.8658409768244032e-07   1.766576671231656e-05
-9.01591235323427e-06   1.8658409768244032e-07   1.766576671231656e-05
-9.01591235323427e-06   1.8658409768244032e-07   1.766576671231656e-05
-9.03955520459529e-06   1.460520517235003e-06   1.8797728286016105e-05
-9.03955520459529e-06   1.460520517235003e-06   1.8797728286016105e-05
-9.03955520459529e-06   1.460520517235003e-06   1.8797728286016105e-05
-9.03955520459529e-06   1.460520517235003e-06   1.8797728286016105e-05
-8.419607210885971e-06   -1.0777048372614083e-07   1.87054562304107e-05
-8.419607210885971e-06   -1.0777048372614083e-07   1.87054562304107e-05
-8.419607210885971e-06   -1.0777048372614083e-07   1.87054562304107e-05
-8.419607210885971e-06   -1.0777048372614083e-07   1.87054562304107e-05
-8.692290808848754e-06   8.35067590914014e-07   1.859422604889795e-05
-8.692290808848754e-06   8.35067590914014e-07   1.859422604889795e-05
-8.692290808848754e-06   8.35067590914014e-07   1.859422604889795e-05
-8.692290808848754e-06   8.35067590914014e-07   1.859422604889795e-05
-8.419607210885971e-06   1.460520517235003e-06   1.9738702886592727e-05
-8.419607210885971e-06   1.460520517235003e-06   1.9738702886592727e-05
-8.419607210885971e-06   1.460520517235003e-06   1.9738702886592727e-05
-8.419607210885971e-06   1.460520517235003e-06   1.9738702886592727e-05
-9.039555204595236e-06   -1.0777048372614083e-07   1.776448162983397e-05
-9.039555204595236e-06   -1.0777048372614083e-07   1.776448162983397e-05
-9.039555204595236e-06   -1.0777048372614083e-07   1.776448162983397e-05
-9.039555204595236e-06   -1.0777048372614083e-07   1.776448162983397e-05
-9.081272140490186e-06   9.94447894133929e-07   1.909096365858786e-05
-9.081272140490186e-06   9.94447894133929e-07   1.909096365858786e-05
-9.081272140490186e-06   9.94447894133929e-07   1.909096365858786e-05
-9.081272140490186e-06   9.94447894133929e-07   1.909096365858786e-05
-8.502538400118008e-06   -4.601949620031175e-07   1.899919313831628e-05
-8.502538400118008e-06   -4.601949620031175e-07   1.899919313831628e-05
-8.502538400118008e-06   -4.601949620031175e-07   1.899919313831628e-05
-8.502538400118008e-06   -4.601949620031175e-07   1.899919313831628e-05
-8.698647103903289e-06   5.438332607219081e-07   1.872362404432284e-05
-8.698647103903289e-06   5.438332607219081e-07   1.872362404432284e-05
-8.698647103903289e-06   5.438332607219081e-07   1.872362404432284e-05
-8.698647103903289e-06   5.438332607219081e-07   1.872362404432284e-05
-8.502538400118008e-06   9.94447894133929e-07   1.996374937226987e-05
-8.502538400118008e-06   9.94447894133929e-07   1.996374937226987e-05
-8.502538400118008e-06   9.94447894133929e-07   1.996374937226987e-05
-8.502538400118008e-06   9.94447894133929e-07   1.996374937226987e-05
-9.081272140490186e-06   -4.601949620030091e-07   1.8126407424634024e-05
-9.081272140490186e-06   -4.601949620030091e-07   1.8126407424634024e-05
-9.081272140490186e-06   -4.601949620030091e-07   1.8126407424634024e-05
-9.081272140490186e-06   -4.601949620030091e-07   1.8126407424634024e-05
-9.10859693598531e-06   5.528504039391258e-07   1.9615530653166327e-05
-9.10859693598531e-06   5.528504039391258e-07   1.9615530653166327e-05
-9.10859693598531e-06   5.528504039391258e-07   1.9615530653166327e-05
-9.10859693598531e-06   5.528504039391258e-07   1.9615530653166327e-05
-8.563519999382467e-06   -8.136192119951625e-07   1.952695086172203e-05
-8.563519999382467e-06   -8.136192119951625e-07   1.952695086172203e-05
-8.563519999382467e-06   -8.136192119951625e-07   1.952695086172203e-05
-8.563519999382467e-06   -8.136192119951625e-07   1.952695086172203e-05
-8.719547106019867e-06   2.4452087747249465e-07   1.9152111985769923e-05
-8.719547106019867e-06   2.4452087747249465e-07   1.9152111985769923e-05
-8.719547106019867e-06   2.4452087747249465e-07   1.9152111985769923e-05
-8.719547106019867e-06   2.4452087747249465e-07   1.9152111985769923e-05
-9.01591235323427e-06   2.5970918029425425e-06   1.6143792040251132e-05
-9.01591235323427e-06   2.5970918029425425e-06   1.6143792040251132e-05
-9.01591235323427e-06   2.5970918029425425e-06   1.6143792040251132e-05
-9.01591235323427e-06   2.5970918029425425e-06   1.6143792040251132e-05
-9.965257161705034e-06   8.54100635704633e-07   1.3515755992457212e-05
-9.965257161705034e-06   8.54100635704633e-07   1.3515755992457212e-05
-9.965257161705034e-06   8.54100635704633e-07   1.3515755992457212e-05
-9.965257161705034e-06   8.54100635704633e-07   1.3515755992457212e-05
-9.983270165819216e-06   2.1146376516095744e-06   1.5246380754215601e-05
-9.983270165819216e-06   2.1146376516095744e-06   1.5246380754215601e-05
-9.983270165819216e-06   2.1146376516095744e-06   1.5246380754215601e-05
-9.983270165819216e-06   2.1146376516095744e-06   1.5246380754215601e-05
-9.03955520459529e-06   4.660428459450725e-07   1.4662679368907677e-05
-9.03955520459529e-06   4.660428459450725e-07   1.4662679368907677e-05
-9.03955520459529e-06   4.660428459450725e-07   1.4662679368907677e-05
-9.03955520459529e-06   4.660428459450725e-07   1.4662679368907677e-05
-9.476213082361694e-06   1.5430826078990456e-06   1.4744218641346042e-05
-9.476213082361694e-06   1.5430826078990456e-06   1.4744218641346042e-05
-9.476213082361694e-06   1.5430826078990456e-06   1.4744218641346042e-05
-9.476213082361694e-06   1.5430826078990456e-06   1.4744218641346042e-05
-9.03955520459529e-06   2.1146376516095744e-06   1.623553763761414e-05
-9.03955520459529e-06   2.1146376516095744e-06   1.623553763761414e-05
-9.03955520459529e-06   2.1146376516095744e-06   1.623553763761414e-05
-9.03955520459529e-06   2.1146376516095744e-06   1.623553763761414e-05
-9.983270165819216e-06   4.660428459450725e-07   1.3673522485509056e-05
-9.983270165819216e-06   4.660428459450725e-07   1.3673522485509056e-05
-9.983270165819216e-06   4.660428459450725e-07   1.3673522485509056e-05
-9.983270165819216e-06   4.660428459450725e-07   1.3673522485509056e-05
-1.009285874378318e-05   1.6852002154970356e-06   1.5810416293343763e-05
-1.009285874378318e-05   1.6852002154970356e-06   1.5810416293343763e-05
-1.009285874378318e-05   1.6852002154970356e-06   1.5810416293343763e-05
-1.009285874378318e-05   1.6852002154970356e-06   1.5810416293343763e-05
-9.081272140490186e-06   1.33619364685875e-07   1.5055387131675225e-05
-9.081272140490186e-06   1.33619364685875e-07   1.5055387131675225e-05
-9.081272140490186e-06   1.33619364685875e-07   1.5055387131675225e-05
-9.081272140490186e-06   1.33619364685875e-07   1.5055387131675225e-05
-9.450636864311097e-06   1.2246230636657387e-06   1.501639278532154e-05
-9.450636864311097e-06   1.2246230636657387e-06   1.501639278532154e-05
-9.450636864311097e-06   1.2246230636657387e-06   1.501639278532154e-05
-9.450636864311097e-06   1.2246230636657387e-06   1.501639278532154e-05
-9.081272140490186e-06   1.685200215497144e-06   1.674136480382996e-05
-9.081272140490186e-06   1.685200215497144e-06   1.674136480382996e-05
-9.081272140490186e-06   1.685200215497144e-06   1.674136480382996e-05
-9.081272140490186e-06   1.685200215497144e-06   1.674136480382996e-05
-1.009285874378318e-05   1.33619364685875e-07   1.4124438621188665e-05
-1.009285874378318e-05   1.33619364685875e-07   1.4124438621188665e-05
-1.009285874378318e-05   1.33619364685875e-07   1.4124438621188665e-05
-1.009285874378318e-05   1.33619364685875e-07   1.4124438621188665e-05
-1.0158641347676213e-05   1.247484529736764e-06   1.6510954885671364e-05
-1.0158641347676213e-05   1.247484529736764e-06   1.6510954885671364e-05
-1.0158641347676213e-05   1.247484529736764e-06   1.6510954885671364e-05
-1.0158641347676213e-05   1.247484529736764e-06   1.6510954885671364e-05
-9.108596935985283e-06   -2.0157457074560306e-07   1.5630316326475685e-05
-9.108596935985283e-06   -2.0157457074560306e-07   1.5630316326475685e-05
-9.108596935985283e-06   -2.0157457074560306e-07   1.5630316326475685e-05
-9.108596935985283e-06   -2.0157457074560306e-07   1.5630316326475685e-05
-9.499598617785765e-06   9.400059788802068e-07   1.5597037466367363e-05
-9.499598617785765e-06   9.400059788802068e-07   1.5597037466367363e-05
-9.499598617785765e-06   9.400059788802068e-07   1.5597037466367363e-05
-9.499598617785765e-06   9.400059788802068e-07   1.5597037466367363e-05
-9.965257161705034e-06   3.0728884901385723e-06   6.22075559291173e-06
-9.965257161705034e-06   3.0728884901385723e-06   6.22075559291173e-06
-9.965257161705034e-06   3.0728884901385723e-06   6.22075559291173e-06
-9.965257161705034e-06   3.0728884901385723e-06   6.22075559291173e-06
-9.865424483014888e-06   1.410516928214184e-06   5.389720453574063e-06
-9.865424483014888e-06   1.410516928214184e-06   5.389720453574063e-06
-9.865424483014888e-06   1.410516928214184e-06   5.389720453574063e-06
-9.865424483014888e-06   1.410516928214184e-06   5.389720453574063e-06
-1.0372841651817713e-05   2.751917557360659e-06   6.817968476233237e-06
-1.0372841651817713e-05   2.751917557360659e-06   6.817968476233237e-06
-1.0372841651817713e-05   2.751917557360659e-06   6.817968476233237e-06
-1.0372841651817713e-05   2.751917557360659e-06   6.817968476233237e-06
-9.983270165819216e-06   1.135534047550413e-06   7.138512772121813e-06
-9.983270165819216e-06   1.135534047550413e-06   7.138512772121813e-06
-9.983270165819216e-06   1.135534047550413e-06   7.138512772121813e-06
-9.983270165819216e-06   1.135534047550413e-06   7.138512772121813e-06
-9.720073357126182e-06   2.1629247330864345e-06   6.083417012978662e-06
-9.720073357126182e-06   2.1629247330864345e-06   6.083417012978662e-06
-9.720073357126182e-06   2.1629247330864345e-06   6.083417012978662e-06
-9.720073357126182e-06   2.1629247330864345e-06   6.083417012978662e-06
-9.983270165819162e-06   2.751917557360659e-06   7.7877985821192e-06
-9.983270165819162e-06   2.751917557360659e-06   7.7877985821192e-06
-9.983270165819162e-06   2.751917557360659e-06   7.7877985821192e-06
-9.983270165819162e-06   2.751917557360659e-06   7.7877985821192e-06
-1.0372841651817768e-05   1.135534047550413e-06   6.168682666235796e-06
-1.0372841651817768e-05   1.135534047550413e-06   6.168682666235796e-06
-1.0372841651817768e-05   1.135534047550413e-06   6.168682666235796e-06
-1.0372841651817768e-05   1.135534047550413e-06   6.168682666235796e-06
-1.0818219798266614e-05   2.5312958482615316e-06   8.082821117976098e-06
-1.0818219798266614e-05   2.5312958482615316e-06   8.082821117976098e-06
-1.0818219798266614e-05   2.5312958482615316e-06   8.082821117976098e-06
-1.0818219798266614e-05   2.5312958482615316e-06   8.082821117976098e-06
-1.009285874378318e-05   9.558187357439898e-07   7.819172294680856e-06
-1.009285874378318e-05   9.558187357439898e-07   7.819172294680856e-06
-1.009285874378318e-05   9.558187357439898e-07   7.819172294680856e-06
-1.009285874378318e-05   9.558187357439898e-07   7.819172294680856e-06
-1.0082292892892898e-05   2.0028696794969006e-06   7.173331976944599e-06
-1.0082292892892898e-05   2.0028696794969006e-06   7.173331976944599e-06
-1.0082292892892898e-05   2.0028696794969006e-06   7.173331976944599e-06
-1.0082292892892898e-05   2.0028696794969006e-06   7.173331976944599e-06
-1.0092858743783125e-05   2.531295848261423e-06   9.028107385486309e-06
-1.0092858743783125e-05   2.531295848261423e-06   9.028107385486309e-06
-1.0092858743783125e-05   2.531295848261423e-06   9.028107385486309e-06
-1.0092858743783125e-05   2.531295848261423e-06   9.028107385486309e-06
-1.0818219798266668e-05   9.558187357439898e-07   6.873886027170239e-06
-1.0818219798266668e-05   9.558187357439898e-07   6.873886027170239e-06
-1.0818219798266668e-05   9.558187357439898e-07   6.873886027170239e-06
-1.0818219798266668e-05   9.558187357439898e-07   6.873886027170239e-06
-1.1479043757082867e-05   2.0237587173110687e-06   1.0406054620194457e-05
-1.1479043757082867e-05   2.0237587173110687e-06   1.0406054620194457e-05
-1.1479043757082867e-05   2.0237587173110687e-06   1.0406054620194457e-05
-1.1479043757082867e-05   2.0237587173110687e-06   1.0406054620194457e-05
-1.0158641347676267e-05   5.933246454394503e-07   9.063644380972753e-06
-1.0158641347676267e-05   5.933246454394503e-07   9.063644380972753e-06
-1.0158641347676267e-05   5.933246454394503e-07   9.063644380972753e-06
-1.0158641347676267e-05   5.933246454394503e-07   9.063644380972753e-06
-1.0204892398484765e-05   1.8117642785191613e-06   8.409665685805002e-06
-1.0204892398484765e-05   1.8117642785191613e-06   8.409665685805002e-06
-1.0204892398484765e-05   1.8117642785191613e-06   8.409665685805002e-06
-1.0204892398484765e-05   1.8117642785191613e-06   8.409665685805002e-06
-1.94921258364289e-05   2.5815709108714018e-06   7.584130316429455e-06
-1.94921258364289e-05   2.5815709108714018e-06   7.584130316429455e-06
-1.94921258364289e-05   2.5815709108714018e-06   7.584130316429455e-06
-1.94921258364289e-05   2.5815709108714018e-06   7.584130316429455e-06
-1.3176795642266343e-05   3.572529743182506e-06   1.8704255939420484e-05
-1.3176795642266343e-05   3.572529743182506e-06   1.8704255939420484e-05
-1.3176795642266343e-05   3.572529743182506e-06   1.8704255939420484e-05
-1.3176795642266343e-05   3.572529743182506e-06   1.8704255939420484e-05
-1.317168042020138e-05   2.0153552426463483e-06   8.5992632128386e-06
-1.317168042020138e-05   2.0153552426463483e-06   8.5992632128386e-06
-1.317168042020138e-05   2.0153552426463483e-06   8.5992632128386e-06
-1.317168042020138e-05   2.0153552426463483e-06   8.5992632128386e-06
-2.148019217627241e-05   1.4390408351683064e-06   2.2792571450777318e-05
-2.148019217627241e-05   1.4390408351683064e-06   2.2792571450777318e-05
-2.148019217627241e-05   1.4390408351683064e-06   2.2792571450777318e-05
-2.148019217627241e-05   1.4390408351683064e-06   2.2792571450777318e-05
-1.596135913383303e-05   2.1151182835384705e-06   1.3188869911022878e-05
-1.596135913383303e-05   2.1151182835384705e-06   1.3188869911022878e-05
-1.596135913383303e-05   2.1151182835384705e-06   1.3188869911022878e-05
-1.596135913383303e-05   2.1151182835384705e-06   1.3188869911022878e-05
-2.148019217627246e-05   2.0153552426463483e-06   8.945051857325403e-06
-2.148019217627246e-05   2.0153552426463483e-06   8.945051857325403e-06
-2.148019217627246e-05   2.0153552426463483e-06   8.945051857325403e-06
-2.148019217627246e-05   2.0153552426463483e-06   8.945051857325403e-06
-1.317168042020138e-05   1.4390408351683064e-06   2.2446782806290514e-05
-1.317168042020138e-05   1.4390408351683064e-06   2.2446782806290514e-05
-1.317168042020138e-05   1.4390408351683064e-06   2.2446782806290514e-05
-1.317168042020138e-05   1.4390408351683064e-06   2.2446782806290514e-05
-1.3354360811207295e-05   1.624541634643044e-06   9.611090488720114e-06
-1.3354360811207295e-05   1.624541634643044e-06   9.611090488720114e-06
-1.3354360811207295e-05   1.624541634643044e-06   9.611090488720114e-06
-1.3354360811207295e-05   1.624541634643044e-06   9.611090488720114e-06
-2.1558512768449113e-05   1.0297101985231932e-06   2.3641575945795002e-05
-2.1558512768449113e-05   1.0297101985231932e-06   2.3641575945795002e-05
-2.1558512768449113e-05   1.0297101985231932e-06   2.3641575945795002e-05
-2.1558512768449113e-05   1.0297101985231932e-06   2.3641575945795002e-05
-1.7036901820330148e-05   1.3183843164461155e-06   1.593235322817613e-05
-1.7036901820330148e-05   1.3183843164461155e-06   1.593235322817613e-05
-1.7036901820330148e-05   1.3183843164461155e-06   1.593235322817613e-05
-1.7036901820330148e-05   1.3183843164461155e-06   1.593235322817613e-05
-2.1558512768449154e-05   1.624541634643044e-06   9.967989350392079e-06
-2.1558512768449154e-05   1.624541634643044e-06   9.967989350392079e-06
-2.1558512768449154e-05   1.624541634643044e-06   9.967989350392079e-06
-2.1558512768449154e-05   1.624541634643044e-06   9.967989350392079e-06
-1.3354360811207275e-05   1.0297101985231932e-06   2.3284677084123106e-05
-1.3354360811207275e-05   1.0297101985231932e-06   2.3284677084123106e-05
-1.3354360811207275e-05   1.0297101985231932e-06   2.3284677084123106e-05
-1.3354360811207275e-05   1.0297101985231932e-06   2.3284677084123106e-05
-1.3214763490842359e-05   6.636374161641525e-07   1.1380290506565977e-05
-1.3214763490842359e-05   6.636374161641525e-07   1.1380290506565977e-05
-1.3214763490842359e-05   6.636374161641525e-07   1.1380290506565977e-05
-1.3214763490842359e-05   6.636374161641525e-07   1.1380290506565977e-05
-2.1796528018623087e-05   -7.127425239474819e-07   2.6509059350267376e-05
-2.1796528018623087e-05   -7.127425239474819e-07   2.6509059350267376e-05
-2.1796528018623087e-05   -7.127425239474819e-07   2.6509059350267376e-05
-2.1796528018623087e-05   -7.127425239474819e-07   2.6509059350267376e-05
-1.677991904452081e-05   6.356763635347561e-07   1.7338993060940922e-05
-1.677991904452081e-05   6.356763635347561e-07   1.7338993060940922e-05
-1.677991904452081e-05   6.356763635347561e-07   1.7338993060940922e-05
-1.677991904452081e-05   6.356763635347561e-07   1.7338993060940922e-05
-1.3176795642266366e-05   6.686076599618463e-07   1.7365111523015412e-05
-1.3176795642266366e-05   6.686076599618463e-07   1.7365111523015412e-05
-1.3176795642266366e-05   6.686076599618463e-07   1.7365111523015412e-05
-1.3176795642266366e-05   6.686076599618463e-07   1.7365111523015412e-05
-8.093500556449065e-06   -4.060581165205273e-06   2.2999756704277337e-05
-8.093500556449065e-06   -4.060581165205273e-06   2.2999756704277337e-05
-8.093500556449065e-06   -4.060581165205273e-06   2.2999756704277337e-05
-8.093500556449065e-06   -4.060581165205273e-06   2.2999756704277337e-05
-8.111863733440135e-06   3.192608307483113e-07   1.4567278736232227e-05
-8.111863733440135e-06   3.192608307483113e-07   1.4567278736232227e-05
-8.111863733440135e-06   3.192608307483113e-07   1.4567278736232227e-05
-8.111863733440135e-06   3.192608307483113e-07   1.4567278736232227e-05
-1.317168042020138e-05   -3.3282216972050065e-06   2.518879606427307e-05
-1.317168042020138e-05   -3.3282216972050065e-06   2.518879606427307e-05
-1.317168042020138e-05   -3.3282216972050065e-06   2.518879606427307e-05
-1.317168042020138e-05   -3.3282216972050065e-06   2.518879606427307e-05
-1.0582755953481197e-05   -2.008631227997564e-06   2.0082167671548373e-05
-1.0582755953481197e-05   -2.008631227997564e-06   2.0082167671548373e-05
-1.0582755953481197e-05   -2.008631227997564e-06   2.0082167671548373e-05
-1.0582755953481197e-05   -2.008631227997564e-06   2.0082167671548373e-05
-1.3171680420201386e-05   3.192608307483113e-07   1.6755768253004044e-05
-1.3171680420201386e-05   3.192608307483113e-07   1.6755768253004044e-05
-1.3171680420201386e-05   3.192608307483113e-07   1.6755768253004044e-05
-1.3171680420201386e-05   3.192608307483113e-07   1.6755768253004044e-05
-8.111863733440122e-06   -3.3282216972050065e-06   2.3000306547501064e-05
-8.111863733440122e-06   -3.3282216972050065e-06   2.3000306547501064e-05
-8.111863733440122e-06   -3.3282216972050065e-06   2.3000306547501064e-05
-8.111863733440122e-06   -3.3282216972050065e-06   2.3000306547501064e-05
-8.146544877848461e-06   -8.463530307752792e-08   1.5014151055257809e-05
-8.146544877848461e-06   -8.463530307752792e-08   1.5014151055257809e-05
-8.146544877848461e-06   -8.463530307752792e-08   1.5014151055257809e-05
-8.146544877848461e-06   -8.463530307752792e-08   1.5014151055257809e-05
-1.3354360811207275e-05   -3.402585694209446e-06   2.5684614512201507e-05
-1.3354360811207275e-05   -3.402585694209446e-06   2.5684614512201507e-05
-1.3354360811207275e-05   -3.402585694209446e-06   2.5684614512201507e-05
-1.3354360811207275e-05   -3.402585694209446e-06   2.5684614512201507e-05
-1.050754024729976e-05   -1.755069350190127e-06   1.995140376594395e-05
-1.050754024729976e-05   -1.755069350190127e-06   1.995140376594395e-05
-1.050754024729976e-05   -1.755069350190127e-06   1.995140376594395e-05
-1.050754024729976e-05   -1.755069350190127e-06   1.995140376594395e-05
-1.3354360811207295e-05   -8.463530307752792e-08   1.7004921289936906e-05
-1.3354360811207295e-05   -8.463530307752792e-08   1.7004921289936906e-05
-1.3354360811207295e-05   -8.463530307752792e-08   1.7004921289936906e-05
-1.3354360811207295e-05   -8.463530307752792e-08   1.7004921289936906e-05
-8.146544877848461e-06   -3.402585694209446e-06   2.3693844277522397e-05
-8.146544877848461e-06   -3.402585694209446e-06   2.3693844277522397e-05
-8.146544877848461e-06   -3.402585694209446e-06   2.3693844277522397e-05
-8.146544877848461e-06   -3.402585694209446e-06   2.3693844277522397e-05
-8.070405268787288e-06   -6.146526467618475e-07   1.5572104535533e-05
-8.070405268787288e-06   -6.146526467618475e-07   1.5572104535533e-05
-8.070405268787288e-06   -6.146526467618475e-07   1.5572104535533e-05
-8.070405268787288e-06   -6.146526467618475e-07   1.5572104535533e-05
-1.3214763490842325e-05   -3.4303648188559644e-06   2.583546220888118e-05
-1.3214763490842325e-05   -3.4303648188559644e-06   2.583546220888118e-05
-1.3214763490842325e-05   -3.4303648188559644e-06   2.583546220888118e-05
-1.3214763490842325e-05   -3.4303648188559644e-06   2.583546220888118e-05
-1.0559440795570334e-05   -1.9684975047755816e-06   2.053280399497964e-05
-1.0559440795570334e-05   -1.9684975047755816e-06   2.053280399497964e-05
-1.0559440795570334e-05   -1.9684975047755816e-06   2.053280399497964e-05
-1.0559440795570334e-05   -1.9684975047755816e-06   2.053280399497964e-05
-8.093500556449065e-06   1.8658409768244032e-07   1.605985076285173e-05
-8.093500556449065e-06   1.8658409768244032e-07   1.605985076285173e-05
-8.093500556449065e-06   1.8658409768244032e-07   1.605985076285173e-05
-8.093500556449065e-06   1.8658409768244032e-07   1.605985076285173e-05
-5.966350400056535e-06   -3.1724713584089723e-06   1.758966774985117e-05
-5.966350400056535e-06   -3.1724713584089723e-06   1.758966774985117e-05
-5.966350400056535e-06   -3.1724713584089723e-06   1.758966774985117e-05
-5.966350400056535e-06   -3.1724713584089723e-06   1.758966774985117e-05
-5.9154639405225825e-06   -1.0777048372614083e-07   1.4174392845574583e-05
-5.9154639405225825e-06   -1.0777048372614083e-07   1.4174392845574583e-05
-5.9154639405225825e-06   -1.0777048372614083e-07   1.4174392845574583e-05
-5.9154639405225825e-06   -1.0777048372614083e-07   1.4174392845574583e-05
-8.111863733440122e-06   -3.1157525199346442e-06   1.9639848388829166e-05
-8.111863733440122e-06   -3.1157525199346442e-06   1.9639848388829166e-05
-8.111863733440122e-06   -3.1157525199346442e-06   1.9639848388829166e-05
-8.111863733440122e-06   -3.1157525199346442e-06   1.9639848388829166e-05
-6.979013275274457e-06   -1.6025552718952661e-06   1.6843845943062888e-05
-6.979013275274457e-06   -1.6025552718952661e-06   1.6843845943062888e-05
-6.979013275274457e-06   -1.6025552718952661e-06   1.6843845943062888e-05
-6.979013275274457e-06   -1.6025552718952661e-06   1.6843845943062888e-05
-8.111863733440122e-06   -1.0777048372614083e-07   1.597918206729977e-05
-8.111863733440122e-06   -1.0777048372614083e-07   1.597918206729977e-05
-8.111863733440122e-06   -1.0777048372614083e-07   1.597918206729977e-05
-8.111863733440122e-06   -1.0777048372614083e-07   1.597918206729977e-05
-5.9154639405225825e-06   -3.1157525199346984e-06   1.783505916710407e-05
-5.9154639405225825e-06   -3.1157525199346984e-06   1.783505916710407e-05
-5.9154639405225825e-06   -3.1157525199346984e-06   1.783505916710407e-05
-5.9154639405225825e-06   -3.1157525199346984e-06   1.783505916710407e-05
-5.872630667863311e-06   -4.601949620031175e-07   1.4512115281601267e-05
-5.872630667863311e-06   -4.601949620031175e-07   1.4512115281601267e-05
-5.872630667863311e-06   -4.601949620031175e-07   1.4512115281601267e-05
-5.872630667863311e-06   -4.601949620031175e-07   1.4512115281601267e-05
-8.146544877848461e-06   -3.2102451183667574e-06   1.9952002392061323e-05
-8.146544877848461e-06   -3.2102451183667574e-06   1.9952002392061323e-05
-8.146544877848461e-06   -3.2102451183667574e-06   1.9952002392061323e-05
-8.146544877848461e-06   -3.2102451183667574e-06   1.9952002392061323e-05
-6.919847502198363e-06   -1.7076486510952818e-06   1.7005948885614563e-05
-6.919847502198363e-06   -1.7076486510952818e-06   1.7005948885614563e-05
-6.919847502198363e-06   -1.7076486510952818e-06   1.7005948885614563e-05
-6.919847502198363e-06   -1.7076486510952818e-06   1.7005948885614563e-05
-8.146544877848461e-06   -4.601949620030091e-07   1.616214537541956e-05
-8.146544877848461e-06   -4.601949620030091e-07   1.616214537541956e-05
-8.146544877848461e-06   -4.601949620030091e-07   1.616214537541956e-05
-8.146544877848461e-06   -4.601949620030091e-07   1.616214537541956e-05
-5.872630667863338e-06   -3.2102451183667574e-06   1.8301972298243152e-05
-5.872630667863338e-06   -3.2102451183667574e-06   1.8301972298243152e-05
-5.872630667863338e-06   -3.2102451183667574e-06   1.8301972298243152e-05
-5.872630667863338e-06   -3.2102451183667574e-06   1.8301972298243152e-05
-5.760882263446896e-06   -8.136192119951625e-07   1.5035460557933852e-05
-5.760882263446896e-06   -8.136192119951625e-07   1.5035460557933852e-05
-5.760882263446896e-06   -8.136192119951625e-07   1.5035460557933852e-05
-5.760882263446896e-06   -8.136192119951625e-07   1.5035460557933852e-05
-8.070405268787275e-06   -3.3430537054272564e-06   2.0402326262893586e-05
-8.070405268787275e-06   -3.3430537054272564e-06   2.0402326262893586e-05
-8.070405268787275e-06   -3.3430537054272564e-06   2.0402326262893586e-05
-8.070405268787275e-06   -3.3430537054272564e-06   2.0402326262893586e-05
-6.850864606731232e-06   -1.8615026680051218e-06   1.748082787034693e-05
-6.850864606731232e-06   -1.8615026680051218e-06   1.748082787034693e-05
-6.850864606731232e-06   -1.8615026680051218e-06   1.748082787034693e-05
-6.850864606731232e-06   -1.8615026680051218e-06   1.748082787034693e-05
-5.966350400056535e-06   8.541006357045246e-07   1.0940201469680376e-05
-5.966350400056535e-06   8.541006357045246e-07   1.0940201469680376e-05
-5.966350400056535e-06   8.541006357045246e-07   1.0940201469680376e-05
-5.966350400056535e-06   8.541006357045246e-07   1.0940201469680376e-05
-4.9885241989535995e-06   -1.3029831937645306e-06   1.1275661507170455e-05
-4.9885241989535995e-06   -1.3029831937645306e-06   1.1275661507170455e-05
-4.9885241989535995e-06   -1.3029831937645306e-06   1.1275661507170455e-05
-4.9885241989535995e-06   -1.3029831937645306e-06   1.1275661507170455e-05
-4.88416380348746e-06   4.660428459450725e-07   9.878485324997912e-06
-4.88416380348746e-06   4.660428459450725e-07   9.878485324997912e-06
-4.88416380348746e-06   4.660428459450725e-07   9.878485324997912e-06
-4.88416380348746e-06   4.660428459450725e-07   9.878485324997912e-06
-5.9154639405225825e-06   -1.5241325868056103e-06   1.2791424146373737e-05
-5.9154639405225825e-06   -1.5241325868056103e-06   1.2791424146373737e-05
-5.9154639405225825e-06   -1.5241325868056103e-06   1.2791424146373737e-05
-5.9154639405225825e-06   -1.5241325868056103e-06   1.2791424146373737e-05
-5.399064000983529e-06   -2.974503263781982e-07   1.1194748224219143e-05
-5.399064000983529e-06   -2.974503263781982e-07   1.1194748224219143e-05
-5.399064000983529e-06   -2.974503263781982e-07   1.1194748224219143e-05
-5.399064000983529e-06   -2.974503263781982e-07   1.1194748224219143e-05
-5.9154639405225825e-06   4.660428459450725e-07   1.1072590584648397e-05
-5.9154639405225825e-06   4.660428459450725e-07   1.1072590584648397e-05
-5.9154639405225825e-06   4.660428459450725e-07   1.1072590584648397e-05
-5.9154639405225825e-06   4.660428459450725e-07   1.1072590584648397e-05
-4.88416380348746e-06   -1.5241325868056103e-06   1.1597318886723252e-05
-4.88416380348746e-06   -1.5241325868056103e-06   1.1597318886723252e-05
-4.88416380348746e-06   -1.5241325868056103e-06   1.1597318886723252e-05
-4.88416380348746e-06   -1.5241325868056103e-06   1.1597318886723252e-05
-4.83877770694318e-06   1.33619364685875e-07   1.0344760135822797e-05
-4.83877770694318e-06   1.33619364685875e-07   1.0344760135822797e-05
-4.83877770694318e-06   1.33619364685875e-07   1.0344760135822797e-05
-4.83877770694318e-06   1.33619364685875e-07   1.0344760135822797e-05
-5.872630667863284e-06   -1.6936053900138749e-06   1.3164183256842723e-05
-5.872630667863284e-06   -1.6936053900138749e-06   1.3164183256842723e-05
-5.872630667863284e-06   -1.6936053900138749e-06   1.3164183256842723e-05
-5.872630667863284e-06   -1.6936053900138749e-06   1.3164183256842723e-05
-5.295486534889277e-06   -5.334561821608293e-07   1.1506186843840253e-05
-5.295486534889277e-06   -5.334561821608293e-07   1.1506186843840253e-05
-5.295486534889277e-06   -5.334561821608293e-07   1.1506186843840253e-05
-5.295486534889277e-06   -5.334561821608293e-07   1.1506186843840253e-05
-5.872630667863311e-06   1.33619364685875e-07   1.1441094988642441e-05
-5.872630667863311e-06   1.33619364685875e-07   1.1441094988642441e-05
-5.872630667863311e-06   1.33619364685875e-07   1.1441094988642441e-05
-5.872630667863311e-06   1.33619364685875e-07   1.1441094988642441e-05
-4.83877770694318e-06   -1.6936053900138749e-06   1.2067848404022862e-05
-4.83877770694318e-06   -1.6936053900138749e-06   1.2067848404022862e-05
-4.83877770694318e-06   -1.6936053900138749e-06   1.2067848404022862e-05
-4.83877770694318e-06   -1.6936053900138749e-06   1.2067848404022862e-05
-4.762038496848456e-06   -2.0157457074549464e-07   1.093030034416537e-05
-4.762038496848456e-06   -2.0157457074549464e-07   1.093030034416537e-05
-4.762038496848456e-06   -2.0157457074549464e-07   1.093030034416537e-05
-4.762038496848456e-06   -2.0157457074549464e-07   1.093030034416537e-05
-5.760882263446896e-06   -1.9155869842167237e-06   1.3623447403245407e-05
-5.760882263446896e-06   -1.9155869842167237e-06   1.3623447403245407e-05
-5.760882263446896e-06   -1.9155869842167237e-06   1.3623447403245407e-05
-5.760882263446896e-06   -1.9155869842167237e-06   1.3623447403245407e-05
-5.21620536025739e-06   -7.405543125895862e-07   1.2010632961620361e-05
-5.21620536025739e-06   -7.405543125895862e-07   1.2010632961620361e-05
-5.21620536025739e-06   -7.405543125895862e-07   1.2010632961620361e-05
-5.21620536025739e-06   -7.405543125895862e-07   1.2010632961620361e-05
-4.9885241989535995e-06   1.410516928214184e-06   2.5173385702705097e-06
-4.9885241989535995e-06   1.410516928214184e-06   2.5173385702705097e-06
-4.9885241989535995e-06   1.410516928214184e-06   2.5173385702705097e-06
-4.9885241989535995e-06   1.410516928214184e-06   2.5173385702705097e-06
-2.906890451841442e-06   -1.4386687697425828e-07   5.054097865677797e-06
-2.906890451841442e-06   -1.4386687697425828e-07   5.054097865677797e-06
-2.906890451841442e-06   -1.4386687697425828e-07   5.054097865677797e-06
-2.906890451841442e-06   -1.4386687697425828e-07   5.054097865677797e-06
-3.074188179504739e-06   1.135534047550413e-06   2.5413163389898354e-06
-3.074188179504739e-06   1.135534047550413e-06   2.5413163389898354e-06
-3.074188179504739e-06   1.135534047550413e-06   2.5413163389898354e-06
-3.074188179504739e-06   1.135534047550413e-06   2.5413163389898354e-06
-4.88416380348746e-06   -2.0139807348456933e-07   6.360101651582293e-06
-4.88416380348746e-06   -2.0139807348456933e-07   6.360101651582293e-06
-4.88416380348746e-06   -2.0139807348456933e-07   6.360101651582293e-06
-4.88416380348746e-06   -2.0139807348456933e-07   6.360101651582293e-06
-3.827082221938299e-06   7.255792748963111e-07   4.04211260663864e-06
-3.827082221938299e-06   7.255792748963111e-07   4.04211260663864e-06
-3.827082221938299e-06   7.255792748963111e-07   4.04211260663864e-06
-3.827082221938299e-06   7.255792748963111e-07   4.04211260663864e-06
-4.88416380348746e-06   1.135534047550413e-06   3.3434756116106946e-06
-4.88416380348746e-06   1.135534047550413e-06   3.3434756116106946e-06
-4.88416380348746e-06   1.135534047550413e-06   3.3434756116106946e-06
-4.88416380348746e-06   1.135534047550413e-06   3.3434756116106946e-06
-3.074188179504739e-06   -2.0139807348451512e-07   5.557942378961217e-06
-3.074188179504739e-06   -2.0139807348451512e-07   5.557942378961217e-06
-3.074188179504739e-06   -2.0139807348451512e-07   5.557942378961217e-06
-3.074188179504739e-06   -2.0139807348451512e-07   5.557942378961217e-06
-3.2118637746397934e-06   9.558187357439898e-07   3.2985962753014813e-06
-3.2118637746397934e-06   9.558187357439898e-07   3.2985962753014813e-06
-3.2118637746397934e-06   9.558187357439898e-07   3.2985962753014813e-06
-3.2118637746397934e-06   9.558187357439898e-07   3.2985962753014813e-06
-4.83877770694318e-06   -2.790104876118659e-07   6.751017029820415e-06
-4.83877770694318e-06   -2.790104876118659e-07   6.751017029820415e-06
-4.83877770694318e-06   -2.790104876118659e-07   6.751017029820415e-06
-4.83877770694318e-06   -2.790104876118659e-07   6.751017029820415e-06
-3.897456484156051e-06   5.90062208868339e-07   4.660704707286855e-06
-3.897456484156051e-06   5.90062208868339e-07   4.660704707286855e-06
-3.897456484156051e-06   5.90062208868339e-07   4.660704707286855e-06
-3.897456484156051e-06   5.90062208868339e-07   4.660704707286855e-06
-4.83877770694318e-06   9.558187357438814e-07   4.039493809314897e-06
-4.83877770694318e-06   9.558187357438814e-07   4.039493809314897e-06
-4.83877770694318e-06   9.558187357438814e-07   4.039493809314897e-06
-4.83877770694318e-06   9.558187357438814e-07   4.039493809314897e-06
-3.211863774639739e-06   -2.790104876118117e-07   6.010119495807053e-06
-3.211863774639739e-06   -2.790104876118117e-07   6.010119495807053e-06
-3.211863774639739e-06   -2.790104876118117e-07   6.010119495807053e-06
-3.211863774639739e-06   -2.790104876118117e-07   6.010119495807053e-06
-3.54587128220614e-06   5.933246454394503e-07   4.652604772134453e-06
-3.54587128220614e-06   5.933246454394503e-07   4.652604772134453e-06
-3.54587128220614e-06   5.933246454394503e-07   4.652604772134453e-06
-3.54587128220614e-06   5.933246454394503e-07   4.652604772134453e-06
-4.762038496848456e-06   -3.7410716592308803e-07   7.260009216688971e-06
-4.762038496848456e-06   -3.7410716592308803e-07   7.260009216688971e-06
-4.762038496848456e-06   -3.7410716592308803e-07   7.260009216688971e-06
-4.762038496848456e-06   -3.7410716592308803e-07   7.260009216688971e-06
-3.908786320087985e-06   4.978914527005765e-07   5.314723084247396e-06
-3.908786320087985e-06   4.978914527005765e-07   5.314723084247396e-06
-3.908786320087985e-06   4.978914527005765e-07   5.314723084247396e-06
-3.908786320087985e-06   4.978914527005765e-07   5.314723084247396e-06
-4.575478597352599e-05   3.5725297431825603e-06   1.9712683839205277e-05
-4.575478597352599e-05   3.5725297431825603e-06   1.9712683839205277e-05
-4.575478597352599e-05   3.5725297431825603e-06   1.9712683839205277e-05
-4.575478597352599e-05   3.5725297431825603e-06   1.9712683839205277e-05
-1.074430914411286e-05   -2.248746281620433e-05   6.242748301926176e-05
-1.074430914411286e-05   -2.248746281620433e-05   6.242748301926176e-05
-1.074430914411286e-05   -2.248746281620433e-05   6.242748301926176e-05
-1.074430914411286e-05   -2.248746281620433e-05   6.242748301926176e-05
-1.2619389288083074e-05   1.4390408351683064e-06   1.0810317331993446e-05
-1.2619389288083074e-05   1.4390408351683064e-06   1.0810317331993446e-05
-1.2619389288083074e-05   1.4390408351683064e-06   1.0810317331993446e-05
-1.2619389288083074e-05   1.4390408351683064e-06   1.0810317331993446e-05
-4.172977349425891e-05   -1.7497886965739017e-05   7.068978102283081e-05
-4.172977349425891e-05   -1.7497886965739017e-05   7.068978102283081e-05
-4.172977349425891e-05   -1.7497886965739017e-05   7.068978102283081e-05
-4.172977349425891e-05   -1.7497886965739017e-05   7.068978102283081e-05
-2.781995285536811e-05   -8.710450065268897e-06   4.223428448439739e-05
-2.781995285536811e-05   -8.710450065268897e-06   4.223428448439739e-05
-2.781995285536811e-05   -8.710450065268897e-06   4.223428448439739e-05
-2.781995285536811e-05   -8.710450065268897e-06   4.223428448439739e-05
-4.1729773494258844e-05   1.4390408351683064e-06   2.2172474012537816e-05
-4.1729773494258844e-05   1.4390408351683064e-06   2.2172474012537816e-05
-4.1729773494258844e-05   1.4390408351683064e-06   2.2172474012537816e-05
-4.1729773494258844e-05   1.4390408351683064e-06   2.2172474012537816e-05
-1.2619389288083095e-05   -1.7497886965739017e-05   5.932762434228641e-05
-1.2619389288083095e-05   -1.7497886965739017e-05   5.932762434228641e-05
-1.2619389288083095e-05   -1.7497886965739017e-05   5.932762434228641e-05
-1.2619389288083095e-05   -1.7497886965739017e-05   5.932762434228641e-05
-1.2908894320397122e-05   1.0297101985231932e-06   1.1880013393152853e-05
-1.2908894320397122e-05   1.0297101985231932e-06   1.1880013393152853e-05
-1.2908894320397122e-05   1.0297101985231932e-06   1.1880013393152853e-05
-1.2908894320397122e-05   1.0297101985231932e-06   1.1880013393152853e-05
-3.937411286883037e-05   -1.5096237358581047e-05   6.566427950813739e-05
-3.937411286883037e-05   -1.5096237358581047e-05   6.566427950813739e-05
-3.937411286883037e-05   -1.5096237358581047e-05   6.566427950813739e-05
-3.937411286883037e-05   -1.5096237358581047e-05   6.566427950813739e-05
-2.6991139133332852e-05   -8.254327149294843e-06   4.092084382340318e-05
-2.6991139133332852e-05   -8.254327149294843e-06   4.092084382340318e-05
-2.6991139133332852e-05   -8.254327149294843e-06   4.092084382340318e-05
-2.6991139133332852e-05   -8.254327149294843e-06   4.092084382340318e-05
-3.93741128688303e-05   1.0297101985231932e-06   2.1555581927415387e-05
-3.93741128688303e-05   1.0297101985231932e-06   2.1555581927415387e-05
-3.93741128688303e-05   1.0297101985231932e-06   2.1555581927415387e-05
-3.93741128688303e-05   1.0297101985231932e-06   2.1555581927415387e-05
-1.2908894320397149e-05   -1.5096237358581047e-05   5.598871097387483e-05
-1.2908894320397149e-05   -1.5096237358581047e-05   5.598871097387483e-05
-1.2908894320397149e-05   -1.5096237358581047e-05   5.598871097387483e-05
-1.2908894320397149e-05   -1.5096237358581047e-05   5.598871097387483e-05
-1.4148737945693932e-05   -7.127425239474819e-07   1.4872662738982416e-05
-1.4148737945693932e-05   -7.127425239474819e-07   1.4872662738982416e-05
-1.4148737945693932e-05   -7.127425239474819e-07   1.4872662738982416e-05
-1.4148737945693932e-05   -7.127425239474819e-07   1.4872662738982416e-05
-3.6353144398195735e-05   -1.1905192417766096e-05   5.859547676277649e-05
-3.6353144398195735e-05   -1.1905192417766096e-05   5.859547676277649e-05
-3.6353144398195735e-05   -1.1905192417766096e-05   5.859547676277649e-05
-3.6353144398195735e-05   -1.1905192417766096e-05   5.859547676277649e-05
-2.596590003686772e-05   -7.620408181946263e-06   3.8712532285737966e-05
-2.596590003686772e-05   -7.620408181946263e-06   3.8712532285737966e-05
-2.596590003686772e-05   -7.620408181946263e-06   3.8712532285737966e-05
-2.596590003686772e-05   -7.620408181946263e-06   3.8712532285737966e-05
-1.0744309144112833e-05   -4.060581165205273e-06   1.120970236353019e-05
-1.0744309144112833e-05   -4.060581165205273e-06   1.120970236353019e-05
-1.0744309144112833e-05   -4.060581165205273e-06   1.120970236353019e-05
-1.0744309144112833e-05   -4.060581165205273e-06   1.120970236353019e-05
-3.739131741225594e-06   -7.006773540025017e-06   2.1117282610117147e-05
-3.739131741225594e-06   -7.006773540025017e-06   2.1117282610117147e-05
-3.739131741225594e-06   -7.006773540025017e-06   2.1117282610117147e-05
-3.739131741225594e-06   -7.006773540025017e-06   2.1117282610117147e-05
-4.1818817297809235e-06   -3.3282216972050065e-06   9.984349850228883e-06
-4.1818817297809235e-06   -3.3282216972050065e-06   9.984349850228883e-06
-4.1818817297809235e-06   -3.3282216972050065e-06   9.984349850228883e-06
-4.1818817297809235e-06   -3.3282216972050065e-06   9.984349850228883e-06
-1.2619389288083095e-05   -9.274856263450196e-06   2.76148431871462e-05
-1.2619389288083095e-05   -9.274856263450196e-06   2.76148431871462e-05
-1.2619389288083095e-05   -9.274856263450196e-06   2.76148431871462e-05
-1.2619389288083095e-05   -9.274856263450196e-06   2.76148431871462e-05
-7.413260902102841e-06   -4.853957789078655e-06   1.628542345922279e-05
-7.413260902102841e-06   -4.853957789078655e-06   1.628542345922279e-05
-7.413260902102841e-06   -4.853957789078655e-06   1.628542345922279e-05
-7.413260902102841e-06   -4.853957789078655e-06   1.628542345922279e-05
-1.2619389288083068e-05   -3.3282216972050065e-06   1.3552330589975867e-05
-1.2619389288083068e-05   -3.3282216972050065e-06   1.3552330589975867e-05
-1.2619389288083068e-05   -3.3282216972050065e-06   1.3552330589975867e-05
-1.2619389288083068e-05   -3.3282216972050065e-06   1.3552330589975867e-05
-4.1818817297809235e-06   -9.274856263450196e-06   2.4046862447399094e-05
-4.1818817297809235e-06   -9.274856263450196e-06   2.4046862447399094e-05
-4.1818817297809235e-06   -9.274856263450196e-06   2.4046862447399094e-05
-4.1818817297809235e-06   -9.274856263450196e-06   2.4046862447399094e-05
-4.5615835640533484e-06   -3.4025856942095003e-06   1.1227021877033977e-05
-4.5615835640533484e-06   -3.4025856942095003e-06   1.1227021877033977e-05
-4.5615835640533484e-06   -3.4025856942095003e-06   1.1227021877033977e-05
-4.5615835640533484e-06   -3.4025856942095003e-06   1.1227021877033977e-05
-1.2908894320397149e-05   -8.490800601205072e-06   2.8192135415137562e-05
-1.2908894320397149e-05   -8.490800601205072e-06   2.8192135415137562e-05
-1.2908894320397149e-05   -8.490800601205072e-06   2.8192135415137562e-05
-1.2908894320397149e-05   -8.490800601205072e-06   2.8192135415137562e-05
-8.364914401044256e-06   -5.929749914891988e-06   1.9082205137761695e-05
-8.364914401044256e-06   -5.929749914891988e-06   1.9082205137761695e-05
-8.364914401044256e-06   -5.929749914891988e-06   1.9082205137761695e-05
-8.364914401044256e-06   -5.929749914891988e-06   1.9082205137761695e-05
-1.2908894320397122e-05   -3.4025856942095003e-06   1.4279950821231336e-05
-1.2908894320397122e-05   -3.4025856942095003e-06   1.4279950821231336e-05
-1.2908894320397122e-05   -3.4025856942095003e-06   1.4279950821231336e-05
-1.2908894320397122e-05   -3.4025856942095003e-06   1.4279950821231336e-05
-4.5615835640533755e-06   -8.490800601205072e-06   2.5139206470940216e-05
-4.5615835640533755e-06   -8.490800601205072e-06   2.5139206470940216e-05
-4.5615835640533755e-06   -8.490800601205072e-06   2.5139206470940216e-05
-4.5615835640533755e-06   -8.490800601205072e-06   2.5139206470940216e-05
-5.180051250276376e-06   -3.4303648188559644e-06   1.2285876566610105e-05
-5.180051250276376e-06   -3.4303648188559644e-06   1.2285876566610105e-05
-5.180051250276376e-06   -3.4303648188559644e-06   1.2285876566610105e-05
-5.180051250276376e-06   -3.4303648188559644e-06   1.2285876566610105e-05
-1.4148737945693946e-05   -7.995393143944371e-06   2.9972704720692328e-05
-1.4148737945693946e-05   -7.995393143944371e-06   2.9972704720692328e-05
-1.4148737945693946e-05   -7.995393143944371e-06   2.9972704720692328e-05
-1.4148737945693946e-05   -7.995393143944371e-06   2.9972704720692328e-05
-8.92325939656167e-06   -5.414907659758957e-06   1.9715282514960628e-05
-8.92325939656167e-06   -5.414907659758957e-06   1.9715282514960628e-05
-8.92325939656167e-06   -5.414907659758957e-06   1.9715282514960628e-05
-8.92325939656167e-06   -5.414907659758957e-06   1.9715282514960628e-05
-3.739131741225594e-06   -3.1724713584089723e-06   6.047331257866994e-06
-3.739131741225594e-06   -3.1724713584089723e-06   6.047331257866994e-06
-3.739131741225594e-06   -3.1724713584089723e-06   6.047331257866994e-06
-3.739131741225594e-06   -3.1724713584089723e-06   6.047331257866994e-06
-2.088354986908193e-06   -1.977756645482311e-06   9.515454676151987e-06
-2.088354986908193e-06   -1.977756645482311e-06   9.515454676151987e-06
-2.088354986908193e-06   -1.977756645482311e-06   9.515454676151987e-06
-2.088354986908193e-06   -1.977756645482311e-06   9.515454676151987e-06
-2.0098941816304873e-06   -3.1157525199346984e-06   6.944040712606456e-06
-2.0098941816304873e-06   -3.1157525199346984e-06   6.944040712606456e-06
-2.0098941816304873e-06   -3.1157525199346984e-06   6.944040712606456e-06
-2.0098941816304873e-06   -3.1157525199346984e-06   6.944040712606456e-06
-4.1818817297809235e-06   -2.5821708181854734e-06   1.024387093847423e-05
-4.1818817297809235e-06   -2.5821708181854734e-06   1.024387093847423e-05
-4.1818817297809235e-06   -2.5821708181854734e-06   1.024387093847423e-05
-4.1818817297809235e-06   -2.5821708181854734e-06   1.024387093847423e-05
-2.8144191699541624e-06   -2.5637812587608595e-06   7.953732936441407e-06
-2.8144191699541624e-06   -2.5637812587608595e-06   7.953732936441407e-06
-2.8144191699541624e-06   -2.5637812587608595e-06   7.953732936441407e-06
-2.8144191699541624e-06   -2.5637812587608595e-06   7.953732936441407e-06
-4.1818817297808964e-06   -3.1157525199346984e-06   6.6238916915569714e-06
-4.1818817297808964e-06   -3.1157525199346984e-06   6.6238916915569714e-06
-4.1818817297808964e-06   -3.1157525199346984e-06   6.6238916915569714e-06
-4.1818817297808964e-06   -3.1157525199346984e-06   6.6238916915569714e-06
-2.0098941816305144e-06   -2.5821708181854734e-06   1.0564019959523742e-05
-2.0098941816305144e-06   -2.5821708181854734e-06   1.0564019959523742e-05
-2.0098941816305144e-06   -2.5821708181854734e-06   1.0564019959523742e-05
-2.0098941816305144e-06   -2.5821708181854734e-06   1.0564019959523742e-05
-2.016214107954784e-06   -3.2102451183667574e-06   7.426438138859984e-06
-2.016214107954784e-06   -3.2102451183667574e-06   7.426438138859984e-06
-2.016214107954784e-06   -3.2102451183667574e-06   7.426438138859984e-06
-2.016214107954784e-06   -3.2102451183667574e-06   7.426438138859984e-06
-4.5615835640533755e-06   -3.308148206221695e-06   1.1727462418403703e-05
-4.5615835640533755e-06   -3.308148206221695e-06   1.1727462418403703e-05
-4.5615835640533755e-06   -3.308148206221695e-06   1.1727462418403703e-05
-4.5615835640533755e-06   -3.308148206221695e-06   1.1727462418403703e-05
-2.9878910118807088e-06   -2.8029792991403606e-06   8.801540153867231e-06
-2.9878910118807088e-06   -2.8029792991403606e-06   8.801540153867231e-06
-2.9878910118807088e-06   -2.8029792991403606e-06   8.801540153867231e-06
-2.9878910118807088e-06   -2.8029792991403606e-06   8.801540153867231e-06
-4.5615835640533484e-06   -3.2102451183667574e-06   7.485179991572889e-06
-4.5615835640533484e-06   -3.2102451183667574e-06   7.485179991572889e-06
-4.5615835640533484e-06   -3.2102451183667574e-06   7.485179991572889e-06
-4.5615835640533484e-06   -3.2102451183667574e-06   7.485179991572889e-06
-2.016214107954784e-06   -3.308148206221695e-06   1.1668720565690771e-05
-2.016214107954784e-06   -3.308148206221695e-06   1.1668720565690771e-05
-2.016214107954784e-06   -3.308148206221695e-06   1.1668720565690771e-05
-2.016214107954784e-06   -3.308148206221695e-06   1.1668720565690771e-05
-2.0521590249521964e-06   -3.3430537054273107e-06   8.149408657406139e-06
-2.0521590249521964e-06   -3.3430537054273107e-06   8.149408657406139e-06
-2.0521590249521964e-06   -3.3430537054273107e-06   8.149408657406139e-06
-2.0521590249521964e-06   -3.3430537054273107e-06   8.149408657406139e-06
-5.180051250276376e-06   -3.9976524828821425e-06   1.375532163275261e-05
-5.180051250276376e-06   -3.9976524828821425e-06   1.375532163275261e-05
-5.180051250276376e-06   -3.9976524828821425e-06   1.375532163275261e-05
-5.180051250276376e-06   -3.9976524828821425e-06   1.375532163275261e-05
-3.186217932908705e-06   -3.0582737503528814e-06   9.868638864288953e-06
-3.186217932908705e-06   -3.0582737503528814e-06   9.868638864288953e-06
-3.186217932908705e-06   -3.0582737503528814e-06   9.868638864288953e-06
-3.186217932908705e-06   -3.0582737503528814e-06   9.868638864288953e-06
-2.088354986908193e-06   -1.3029831937644764e-06   1.7444041406237194e-06
-2.088354986908193e-06   -1.3029831937644764e-06   1.7444041406237194e-06
-2.088354986908193e-06   -1.3029831937644764e-06   1.7444041406237194e-06
-2.088354986908193e-06   -1.3029831937644764e-06   1.7444041406237194e-06
-1.5563209119823142e-06   3.1726697443286027e-07   3.6032776997520005e-06
-1.5563209119823142e-06   3.1726697443286027e-07   3.6032776997520005e-06
-1.5563209119823142e-06   3.1726697443286027e-07   3.6032776997520005e-06
-1.5563209119823142e-06   3.1726697443286027e-07   3.6032776997520005e-06
-1.2618860263770098e-06   -1.5241325868056103e-06   2.874166568345854e-06
-1.2618860263770098e-06   -1.5241325868056103e-06   2.874166568345854e-06
-1.2618860263770098e-06   -1.5241325868056103e-06   2.874166568345854e-06
-1.2618860263770098e-06   -1.5241325868056103e-06   2.874166568345854e-06
-2.0098941816305144e-06   9.880220731040102e-08   3.147085950631922e-06
-2.0098941816305144e-06   9.880220731040102e-08   3.147085950631922e-06
-2.0098941816305144e-06   9.880220731040102e-08   3.147085950631922e-06
-2.0098941816305144e-06   9.880220731040102e-08   3.147085950631922e-06
-1.6221904378880669e-06   -6.191171692794214e-07   2.9316646703481824e-06
-1.6221904378880669e-06   -6.191171692794214e-07   2.9316646703481824e-06
-1.6221904378880669e-06   -6.191171692794214e-07   2.9316646703481824e-06
-1.6221904378880669e-06   -6.191171692794214e-07   2.9316646703481824e-06
-2.0098941816305144e-06   -1.5241325868056103e-06   1.9004056918762438e-06
-2.0098941816305144e-06   -1.5241325868056103e-06   1.9004056918762438e-06
-2.0098941816305144e-06   -1.5241325868056103e-06   1.9004056918762438e-06
-2.0098941816305144e-06   -1.5241325868056103e-06   1.9004056918762438e-06
-1.2618860263770098e-06   9.880220731040102e-08   4.1208468271015865e-06
-1.2618860263770098e-06   9.880220731040102e-08   4.1208468271015865e-06
-1.2618860263770098e-06   9.880220731040102e-08   4.1208468271015865e-06
-1.2618860263770098e-06   9.880220731040102e-08   4.1208468271015865e-06
-1.101448406461581e-06   -1.6936053900138749e-06   3.1576808728818895e-06
-1.101448406461581e-06   -1.6936053900138749e-06   3.1576808728818895e-06
-1.101448406461581e-06   -1.6936053900138749e-06   3.1576808728818895e-06
-1.101448406461581e-06   -1.6936053900138749e-06   3.1576808728818895e-06
-2.016214107954784e-06   -2.452190976432249e-07   3.813258599948176e-06
-2.016214107954784e-06   -2.452190976432249e-07   3.813258599948176e-06
-2.016214107954784e-06   -2.452190976432249e-07   3.813258599948176e-06
-2.016214107954784e-06   -2.452190976432249e-07   3.813258599948176e-06
-1.4727605932598987e-06   -7.914471730886374e-07   3.2352395873906496e-06
-1.4727605932598987e-06   -7.914471730886374e-07   3.2352395873906496e-06
-1.4727605932598987e-06   -7.914471730886374e-07   3.2352395873906496e-06
-1.4727605932598987e-06   -7.914471730886374e-07   3.2352395873906496e-06
-2.016214107954811e-06   -1.6936053900138749e-06   2.2886490974594325e-06
-2.016214107954811e-06   -1.6936053900138749e-06   2.2886490974594325e-06
-2.016214107954811e-06   -1.6936053900138749e-06   2.2886490974594325e-06
-2.016214107954811e-06   -1.6936053900138749e-06   2.2886490974594325e-06
-1.101448406461581e-06   -2.452190976432249e-07   4.682290375370606e-06
-1.101448406461581e-06   -2.452190976432249e-07   4.682290375370606e-06
-1.101448406461581e-06   -2.452190976432249e-07   4.682290375370606e-06
-1.101448406461581e-06   -2.452190976432249e-07   4.682290375370606e-06
-8.555187765157415e-07   -1.9155869842166695e-06   3.468194525600124e-06
-8.555187765157415e-07   -1.9155869842166695e-06   3.468194525600124e-06
-8.555187765157415e-07   -1.9155869842166695e-06   3.468194525600124e-06
-8.555187765157415e-07   -1.9155869842166695e-06   3.468194525600124e-06
-2.0521590249521964e-06   -9.489135979117137e-07   4.882590907877749e-06
-2.0521590249521964e-06   -9.489135979117137e-07   4.882590907877749e-06
-2.0521590249521964e-06   -9.489135979117137e-07   4.882590907877749e-06
-2.0521590249521964e-06   -9.489135979117137e-07   4.882590907877749e-06
-1.3522418172976414e-06   -1.0539322884911898e-06   3.7790734428014066e-06
-1.3522418172976414e-06   -1.0539322884911898e-06   3.7790734428014066e-06
-1.3522418172976414e-06   -1.0539322884911898e-06   3.7790734428014066e-06
-1.3522418172976414e-06   -1.0539322884911898e-06   3.7790734428014066e-06
-1.5563209119823142e-06   -1.4386687697425828e-07   -2.572379116837643e-06
-1.5563209119823142e-06   -1.4386687697425828e-07   -2.572379116837643e-06
-1.5563209119823142e-06   -1.4386687697425828e-07   -2.572379116837643e-06
-1.5563209119823142e-06   -1.4386687697425828e-07   -2.572379116837643e-06
-2.953170984294198e-07   2.2050376914134636e-07   -2.520837065801435e-07
-2.953170984294198e-07   2.2050376914134636e-07   -2.520837065801435e-07
-2.953170984294198e-07   2.2050376914134636e-07   -2.520837065801435e-07
-2.953170984294198e-07   2.2050376914134636e-07   -2.520837065801435e-07
-6.403705287664086e-09   -2.0139807348456933e-07   -2.013879749928325e-06
-6.403705287664086e-09   -2.0139807348456933e-07   -2.013879749928325e-06
-6.403705287664086e-09   -2.0139807348456933e-07   -2.013879749928325e-06
-6.403705287664086e-09   -2.0139807348456933e-07   -2.013879749928325e-06
-1.2618860263770098e-06   3.805534546267901e-07   -2.705801316466288e-07
-1.2618860263770098e-06   3.805534546267901e-07   -2.705801316466288e-07
-1.2618860263770098e-06   3.805534546267901e-07   -2.705801316466288e-07
-1.2618860263770098e-06   3.805534546267901e-07   -2.705801316466288e-07
-7.129174029088373e-07   1.0265892573321105e-07   -1.018791120090969e-06
-7.129174029088373e-07   1.0265892573321105e-07   -1.018791120090969e-06
-7.129174029088373e-07   1.0265892573321105e-07   -1.018791120090969e-06
-7.129174029088373e-07   1.0265892573321105e-07   -1.018791120090969e-06
-1.2618860263770098e-06   -2.0139807348456933e-07   -2.36305066679543e-06
-1.2618860263770098e-06   -2.0139807348456933e-07   -2.36305066679543e-06
-1.2618860263770098e-06   -2.0139807348456933e-07   -2.36305066679543e-06
-1.2618860263770098e-06   -2.0139807348456933e-07   -2.36305066679543e-06
-6.403705287718296e-09   3.805534546267901e-07   7.859078522015096e-08
-6.403705287718296e-09   3.805534546267901e-07   7.859078522015096e-08
-6.403705287718296e-09   3.805534546267901e-07   7.859078522015096e-08
-6.403705287718296e-09   3.805534546267901e-07   7.859078522015096e-08
1.4375199177925953e-07   -2.790104876118659e-07   -1.7978589533405257e-06
1.4375199177925953e-07   -2.790104876118659e-07   -1.7978589533405257e-06
1.4375199177925953e-07   -2.790104876118659e-07   -1.7978589533405257e-06
1.4375199177925953e-07   -2.790104876118659e-07   -1.7978589533405257e-06
-1.101448406461581e-06   3.231420923547994e-07   -8.381650425256203e-08
-1.101448406461581e-06   3.231420923547994e-07   -8.381650425256203e-08
-1.101448406461581e-06   3.231420923547994e-07   -8.381650425256203e-08
-1.101448406461581e-06   3.231420923547994e-07   -8.381650425256203e-08
-5.000405582309666e-07   6.682642769820267e-08   -9.323735191759134e-07
-5.000405582309666e-07   6.682642769820267e-08   -9.323735191759134e-07
-5.000405582309666e-07   6.682642769820267e-08   -9.323735191759134e-07
-5.000405582309666e-07   6.682642769820267e-08   -9.323735191759134e-07
-1.101448406461581e-06   -2.790104876118659e-07   -2.159150501320422e-06
-1.101448406461581e-06   -2.790104876118659e-07   -2.159150501320422e-06
-1.101448406461581e-06   -2.790104876118659e-07   -2.159150501320422e-06
-1.101448406461581e-06   -2.790104876118659e-07   -2.159150501320422e-06
1.4375199177925953e-07   3.231420923547994e-07   2.774750437274697e-07
1.4375199177925953e-07   3.231420923547994e-07   2.774750437274697e-07
1.4375199177925953e-07   3.231420923547994e-07   2.774750437274697e-07
1.4375199177925953e-07   3.231420923547994e-07   2.774750437274697e-07
3.2982189643467573e-07   -3.7410716592314224e-07   -1.4791993306445235e-06
3.2982189643467573e-07   -3.7410716592314224e-07   -1.4791993306445235e-06
3.2982189643467573e-07   -3.7410716592314224e-07   -1.4791993306445235e-06
3.2982189643467573e-07   -3.7410716592314224e-07   -1.4791993306445235e-06
-8.555187765157415e-07   2.719543044586348e-07   1.0873157537695782e-07
-8.555187765157415e-07   2.719543044586348e-07   1.0873157537695782e-07
-8.555187765157415e-07   2.719543044586348e-07   1.0873157537695782e-07
-8.555187765157415e-07   2.719543044586348e-07   1.0873157537695782e-07
-3.076484393573127e-07   2.2942660862150348e-08   -6.549786670624266e-07
-3.076484393573127e-07   2.2942660862150348e-08   -6.549786670624266e-07
-3.076484393573127e-07   2.2942660862150348e-08   -6.549786670624266e-07
-3.076484393573127e-07   2.2942660862150348e-08   -6.549786670624266e-07
              </DataArray>   
             <DataArray type="Float64" NumberOfComponents="3" Name="Stress" format="ascii">   
-2.3771219531900942   -0.5942804882975236   -0.5942804882975236
-2.3771219531900942   -0.5942804882975236   -0.5942804882975236
-2.3771219531900942   -0.5942804882975236   -0.5942804882975236
-2.3771219531900942   -0.5942804882975236   -0.5942804882975236
-1.375501409142293   -0.04382676782567585   -0.02767523786182262
-1.375501409142293   -0.04382676782567585   -0.02767523786182262
-1.375501409142293   -0.04382676782567585   -0.02767523786182262
-1.375501409142293   -0.04382676782567585   -0.02767523786182262
-1.4824257224739399   -0.37060643061848497   -0.37060643061848497
-1.4824257224739399   -0.37060643061848497   -0.37060643061848497
-1.4824257224739399   -0.37060643061848497   -0.37060643061848497
-1.4824257224739399   -0.37060643061848497   -0.37060643061848497
-2.2909561359526   -0.18833190986601983   -0.07208508265233761
-2.2909561359526   -0.18833190986601983   -0.07208508265233761
-2.2909561359526   -0.18833190986601983   -0.07208508265233761
-2.2909561359526   -0.18833190986601983   -0.07208508265233761
-1.7967270972932903   -0.29467838418509534   -0.004974832037294014
-1.7967270972932903   -0.29467838418509534   -0.004974832037294014
-1.7967270972932903   -0.29467838418509534   -0.004974832037294014
-1.7967270972932903   -0.29467838418509534   -0.004974832037294014
-2.487636374943258   -0.6219090937358145   -0.6219090937358145
-2.487636374943258   -0.6219090937358145   -0.6219090937358145
-2.487636374943258   -0.6219090937358145   -0.6219090937358145
-2.487636374943258   -0.6219090937358145   -0.6219090937358145
-1.3324086234541366   0.016307613280458322   -0.007434979418411786
-1.3324086234541366   0.016307613280458322   -0.007434979418411786
-1.3324086234541366   0.016307613280458322   -0.007434979418411786
-1.3324086234541366   0.016307613280458322   -0.007434979418411786
-1.4864890328713711   -0.3716222582178428   -0.3716222582178428
-1.4864890328713711   -0.3716222582178428   -0.3716222582178428
-1.4864890328713711   -0.3716222582178428   -0.3716222582178428
-1.4864890328713711   -0.3716222582178428   -0.3716222582178428
-2.3678189509279584   -0.19010149378544922   -0.10561271011259425
-2.3678189509279584   -0.19010149378544922   -0.10561271011259425
-2.3678189509279584   -0.19010149378544922   -0.10561271011259425
-2.3678189509279584   -0.19010149378544922   -0.10561271011259425
-1.8636149619069704   -0.27740188490117546   -0.09889075705077754
-1.8636149619069704   -0.27740188490117546   -0.09889075705077754
-1.8636149619069704   -0.27740188490117546   -0.09889075705077754
-1.8636149619069704   -0.27740188490117546   -0.09889075705077754
-2.5651956779426146   -0.6412989194856537   -0.6412989194856537
-2.5651956779426146   -0.6412989194856537   -0.6412989194856537
-2.5651956779426146   -0.6412989194856537   -0.6412989194856537
-2.5651956779426146   -0.6412989194856537   -0.6412989194856537
-1.328426510117994   0.0402609632210858   0.006807134110114257
-1.328426510117994   0.0402609632210858   0.006807134110114257
-1.328426510117994   0.0402609632210858   0.006807134110114257
-1.328426510117994   0.0402609632210858   0.006807134110114257
-1.4855753673111654   -0.37139384182779134   -0.37139384182779134
-1.4855753673111654   -0.37139384182779134   -0.37139384182779134
-1.4855753673111654   -0.37139384182779134   -0.37139384182779134
-1.4855753673111654   -0.37139384182779134   -0.37139384182779134
-2.5051728385537655   -0.16665523203848615   -0.06342568805087122
-2.5051728385537655   -0.16665523203848615   -0.06342568805087122
-2.5051728385537655   -0.16665523203848615   -0.06342568805087122
-2.5051728385537655   -0.16665523203848615   -0.06342568805087122
-1.9131972839600857   -0.27304929652331267   -0.17870227145612402
-1.9131972839600857   -0.27304929652331267   -0.17870227145612402
-1.9131972839600857   -0.27304929652331267   -0.17870227145612402
-1.9131972839600857   -0.27304929652331267   -0.17870227145612402
-1.5124455644497727   -0.3781113911124432   -0.3781113911124432
-1.5124455644497727   -0.3781113911124432   -0.3781113911124432
-1.5124455644497727   -0.3781113911124432   -0.3781113911124432
-1.5124455644497727   -0.3781113911124432   -0.3781113911124432
-0.6311901986610863   -0.042161418286856364   -0.013687174530527136
-0.6311901986610863   -0.042161418286856364   -0.013687174530527136
-0.6311901986610863   -0.042161418286856364   -0.013687174530527136
-0.6311901986610863   -0.042161418286856364   -0.013687174530527136
-0.6624710583305262   -0.16561776458263155   -0.16561776458263155
-0.6624710583305262   -0.16561776458263155   -0.16561776458263155
-0.6624710583305262   -0.16561776458263155   -0.16561776458263155
-0.6624710583305262   -0.16561776458263155   -0.16561776458263155
-1.3769113827078774   -0.1620410694973779   -0.05160009290927957
-1.3769113827078774   -0.1620410694973779   -0.05160009290927957
-1.3769113827078774   -0.1620410694973779   -0.05160009290927957
-1.3769113827078774   -0.1620410694973779   -0.05160009290927957
-1.0156196705867169   -0.19245232562204387   0.007916373944124203
-1.0156196705867169   -0.19245232562204387   0.007916373944124203
-1.0156196705867169   -0.19245232562204387   0.007916373944124203
-1.0156196705867169   -0.19245232562204387   0.007916373944124203
-1.4824257224739386   -0.37060643061848464   -0.37060643061848464
-1.4824257224739386   -0.37060643061848464   -0.37060643061848464
-1.4824257224739386   -0.37060643061848464   -0.37060643061848464
-1.4824257224739386   -0.37060643061848464   -0.37060643061848464
-0.5954017903741687   0.004502524728770468   -0.00039171411224621366
-0.5954017903741687   0.004502524728770468   -0.00039171411224621366
-0.5954017903741687   0.004502524728770468   -0.00039171411224621366
-0.5954017903741687   0.004502524728770468   -0.00039171411224621366
-0.6475732239254293   -0.16189330598135732   -0.16189330598135732
-0.6475732239254293   -0.16189330598135732   -0.16189330598135732
-0.6475732239254293   -0.16189330598135732   -0.16189330598135732
-0.6475732239254293   -0.16189330598135732   -0.16189330598135732
-1.3733348669520784   -0.13215994672094125   -0.04531374011828004
-1.3733348669520784   -0.13215994672094125   -0.04531374011828004
-1.3733348669520784   -0.13215994672094125   -0.04531374011828004
-1.3733348669520784   -0.13215994672094125   -0.04531374011828004
-1.0013673556336093   -0.16199610130930162   -0.05234304746017482
-1.0013673556336093   -0.16199610130930162   -0.05234304746017482
-1.0013673556336093   -0.16199610130930162   -0.05234304746017482
-1.0013673556336093   -0.16199610130930162   -0.05234304746017482
-1.4864890328713711   -0.3716222582178428   -0.3716222582178428
-1.4864890328713711   -0.3716222582178428   -0.3716222582178428
-1.4864890328713711   -0.3716222582178428   -0.3716222582178428
-1.4864890328713711   -0.3716222582178428   -0.3716222582178428
-0.5716553889221497   0.0403326745995308   0.015469888454151738
-0.5716553889221497   0.0403326745995308   0.015469888454151738
-0.5716553889221497   0.0403326745995308   0.015469888454151738
-0.5716553889221497   0.0403326745995308   0.015469888454151738
-0.6339881862043403   -0.15849704655108507   -0.15849704655108507
-0.6339881862043403   -0.15849704655108507   -0.15849704655108507
-0.6339881862043403   -0.15849704655108507   -0.15849704655108507
-0.6339881862043403   -0.15849704655108507   -0.15849704655108507
-1.3631213598300804   -0.10194468147804592   -0.02857296477212974
-1.3631213598300804   -0.10194468147804592   -0.02857296477212974
-1.3631213598300804   -0.10194468147804592   -0.02857296477212974
-1.3631213598300804   -0.10194468147804592   -0.02857296477212974
-1.006199849718583   -0.14332482000702756   -0.11660068566553834
-1.006199849718583   -0.14332482000702756   -0.11660068566553834
-1.006199849718583   -0.14332482000702756   -0.11660068566553834
-1.006199849718583   -0.14332482000702756   -0.11660068566553834
-0.6889116445529007   -0.17222791113822516   -0.17222791113822516
-0.6889116445529007   -0.17222791113822516   -0.17222791113822516
-0.6889116445529007   -0.17222791113822516   -0.17222791113822516
-0.6889116445529007   -0.17222791113822516   -0.17222791113822516
0.08135074335670102   0.005253780612709938   0.000671990859922162
0.08135074335670102   0.005253780612709938   0.000671990859922162
0.08135074335670102   0.005253780612709938   0.000671990859922162
0.08135074335670102   0.005253780612709938   0.000671990859922162
0.1060042772902741   0.026501069322568526   0.026501069322568526
0.1060042772902741   0.026501069322568526   0.026501069322568526
0.1060042772902741   0.026501069322568526   0.026501069322568526
0.1060042772902741   0.026501069322568526   0.026501069322568526
-0.6227713141720365   -0.10763807866456186   -0.025098729708258282
-0.6227713141720365   -0.10763807866456186   -0.025098729708258282
-0.6227713141720365   -0.10763807866456186   -0.025098729708258282
-0.6227713141720365   -0.10763807866456186   -0.025098729708258282
-0.2668055241320298   -0.0676742025864707   0.04518815826722614
-0.2668055241320298   -0.0676742025864707   0.04518815826722614
-0.2668055241320298   -0.0676742025864707   0.04518815826722614
-0.2668055241320298   -0.0676742025864707   0.04518815826722614
-0.6624710583305262   -0.16561776458263155   -0.16561776458263155
-0.6624710583305262   -0.16561776458263155   -0.16561776458263155
-0.6624710583305262   -0.16561776458263155   -0.16561776458263155
-0.6624710583305262   -0.16561776458263155   -0.16561776458263155
0.10791160598244082   0.046688339774316016   0.015850442331653763
0.10791160598244082   0.046688339774316016   0.015850442331653763
0.10791160598244082   0.046688339774316016   0.015850442331653763
0.10791160598244082   0.046688339774316016   0.015850442331653763
0.11938312812846238   0.029845782032115596   0.029845782032115596
0.11938312812846238   0.029845782032115596   0.029845782032115596
0.11938312812846238   0.029845782032115596   0.029845782032115596
0.11938312812846238   0.029845782032115596   0.029845782032115596
-0.6006670630943968   -0.07242544517126306   -0.016830362636298897
-0.6006670630943968   -0.07242544517126306   -0.016830362636298897
-0.6006670630943968   -0.07242544517126306   -0.016830362636298897
-0.6006670630943968   -0.07242544517126306   -0.016830362636298897
-0.25584670336341647   -0.041811740801087544   -0.015473933061353862
-0.25584670336341647   -0.041811740801087544   -0.015473933061353862
-0.25584670336341647   -0.041811740801087544   -0.015473933061353862
-0.25584670336341647   -0.041811740801087544   -0.015473933061353862
-0.6475732239254293   -0.16189330598135732   -0.16189330598135732
-0.6475732239254293   -0.16189330598135732   -0.16189330598135732
-0.6475732239254293   -0.16189330598135732   -0.16189330598135732
-0.6475732239254293   -0.16189330598135732   -0.16189330598135732
0.12925780138585288   0.08228215526856933   0.026782775082613446
0.12925780138585288   0.08228215526856933   0.026782775082613446
0.12925780138585288   0.08228215526856933   0.026782775082613446
0.12925780138585288   0.08228215526856933   0.026782775082613446
0.13734546670726905   0.03433636667681726   0.03433636667681726
0.13734546670726905   0.03433636667681726   0.03433636667681726
0.13734546670726905   0.03433636667681726   0.03433636667681726
0.13734546670726905   0.03433636667681726   0.03433636667681726
-0.5766127565059099   -0.030440687189598928   0.0003237425795736791
-0.5766127565059099   -0.030440687189598928   0.0003237425795736791
-0.5766127565059099   -0.030440687189598928   0.0003237425795736791
-0.5766127565059099   -0.030440687189598928   0.0003237425795736791
-0.24809720203684044   -0.016879328479142593   -0.07559422796420169
-0.24809720203684044   -0.016879328479142593   -0.07559422796420169
-0.24809720203684044   -0.016879328479142593   -0.07559422796420169
-0.24809720203684044   -0.016879328479142593   -0.07559422796420169
0.0890728767357497   0.022268219183937427   0.022268219183937427
0.0890728767357497   0.022268219183937427   0.022268219183937427
0.0890728767357497   0.022268219183937427   0.022268219183937427
0.0890728767357497   0.022268219183937427   0.022268219183937427
0.86143252632373   0.07905281348570227   0.026625518570978172
0.86143252632373   0.07905281348570227   0.026625518570978172
0.86143252632373   0.07905281348570227   0.026625518570978172
0.86143252632373   0.07905281348570227   0.026625518570978172
0.9354565865514639   0.23386414663786598   0.23386414663786598
0.9354565865514639   0.23386414663786598   0.23386414663786598
0.9354565865514639   0.23386414663786598   0.23386414663786598
0.9354565865514639   0.23386414663786598   0.23386414663786598
0.08074888210858348   -0.06064641645922868   -0.012628420804089067
0.08074888210858348   -0.06064641645922868   -0.012628420804089067
0.08074888210858348   -0.06064641645922868   -0.012628420804089067
0.08074888210858348   -0.06064641645922868   -0.012628420804089067
0.49110634046152485   0.06114895784693096   0.08919145206446286
0.49110634046152485   0.06114895784693096   0.08919145206446286
0.49110634046152485   0.06114895784693096   0.08919145206446286
0.49110634046152485   0.06114895784693096   0.08919145206446286
0.10600427729027448   0.02650106932256862   0.02650106932256862
0.10600427729027448   0.02650106932256862   0.02650106932256862
0.10600427729027448   0.02650106932256862   0.02650106932256862
0.10600427729027448   0.02650106932256862   0.02650106932256862
0.8717833970642124   0.10829886655050812   0.04106347928896603
0.8717833970642124   0.10829886655050812   0.04106347928896603
0.8717833970642124   0.10829886655050812   0.04106347928896603
0.8717833970642124   0.10829886655050812   0.04106347928896603
0.9315649497309771   0.23289123743274429   0.23289123743274429
0.9315649497309771   0.23289123743274429   0.23289123743274429
0.9315649497309771   0.23289123743274429   0.23289123743274429
0.9315649497309771   0.23289123743274429   0.23289123743274429
0.10222976441953137   -0.02620971712052788   0.00013446264010309392
0.10222976441953137   -0.02620971712052788   0.00013446264010309392
0.10222976441953137   -0.02620971712052788   0.00013446264010309392
0.10222976441953137   -0.02620971712052788   0.00013446264010309392
0.48759891984802944   0.08029640984996893   0.02316742859236226
0.48759891984802944   0.08029640984996893   0.02316742859236226
0.48759891984802944   0.08029640984996893   0.02316742859236226
0.48759891984802944   0.08029640984996893   0.02316742859236226
0.11938312812846248   0.02984578203211562   0.02984578203211562
0.11938312812846248   0.02984578203211562   0.02984578203211562
0.11938312812846248   0.02984578203211562   0.02984578203211562
0.11938312812846248   0.02984578203211562   0.02984578203211562
0.876363650761325   0.13878780301937982   0.05098817699784791
0.876363650761325   0.13878780301937982   0.05098817699784791
0.876363650761325   0.13878780301937982   0.05098817699784791
0.876363650761325   0.13878780301937982   0.05098817699784791
0.9497168557868739   0.23742921394671848   0.23742921394671848
0.9497168557868739   0.23742921394671848   0.23742921394671848
0.9497168557868739   0.23742921394671848   0.23742921394671848
0.9497168557868739   0.23742921394671848   0.23742921394671848
0.13036156824096304   0.01933845301848479   0.014414788003618569
0.13036156824096304   0.01933845301848479   0.014414788003618569
0.13036156824096304   0.01933845301848479   0.014414788003618569
0.13036156824096304   0.01933845301848479   0.014414788003618569
0.49527654962485596   0.10895866267194836   -0.038050878357174356
0.49527654962485596   0.10895866267194836   -0.038050878357174356
0.49527654962485596   0.10895866267194836   -0.038050878357174356
0.49527654962485596   0.10895866267194836   -0.038050878357174356
0.9336631776804377   0.23341579442010943   0.23341579442010943
0.9336631776804377   0.23341579442010943   0.23341579442010943
0.9336631776804377   0.23341579442010943   0.23341579442010943
0.9336631776804377   0.23341579442010943   0.23341579442010943
1.9374285300674046   0.14771958168361304   0.05080307182439717
1.9374285300674046   0.14771958168361304   0.05080307182439717
1.9374285300674046   0.14771958168361304   0.05080307182439717
1.9374285300674046   0.14771958168361304   0.05080307182439717
1.9804720013392834   0.49511800033482084   0.49511800033482084
1.9804720013392834   0.49511800033482084   0.49511800033482084
1.9804720013392834   0.49511800033482084   0.49511800033482084
1.9804720013392834   0.49511800033482084   0.49511800033482084
0.8315521095797789   -0.04719413675645001   -0.004599954826242703
0.8315521095797789   -0.04719413675645001   -0.004599954826242703
0.8315521095797789   -0.04719413675645001   -0.004599954826242703
0.8315521095797789   -0.04719413675645001   -0.004599954826242703
1.3816639306774823   0.19559366624073232   0.15592183435230703
1.3816639306774823   0.19559366624073232   0.15592183435230703
1.3816639306774823   0.19559366624073232   0.15592183435230703
1.3816639306774823   0.19559366624073232   0.15592183435230703
0.935456586551463   0.23386414663786576   0.23386414663786576
0.935456586551463   0.23386414663786576   0.23386414663786576
0.935456586551463   0.23386414663786576   0.23386414663786576
0.935456586551463   0.23386414663786576   0.23386414663786576
1.8353842437677714   0.17287643634068395   0.09192077647142897
1.8353842437677714   0.17287643634068395   0.09192077647142897
1.8353842437677714   0.17287643634068395   0.09192077647142897
1.8353842437677714   0.17287643634068395   0.09192077647142897
1.9214471049999216   0.4803617762499804   0.4803617762499804
1.9214471049999216   0.4803617762499804   0.4803617762499804
1.9214471049999216   0.4803617762499804   0.4803617762499804
1.9214471049999216   0.4803617762499804   0.4803617762499804
0.8345691311683028   -0.025964558956304645   0.006767941008421367
0.8345691311683028   -0.025964558956304645   0.006767941008421367
0.8345691311683028   -0.025964558956304645   0.006767941008421367
0.8345691311683028   -0.025964558956304645   0.006767941008421367
1.3408137395854465   0.20127686177545243   0.0747585301611666
1.3408137395854465   0.20127686177545243   0.0747585301611666
1.3408137395854465   0.20127686177545243   0.0747585301611666
1.3408137395854465   0.20127686177545243   0.0747585301611666
0.9315649497309771   0.23289123743274429   0.23289123743274429
0.9315649497309771   0.23289123743274429   0.23289123743274429
0.9315649497309771   0.23289123743274429   0.23289123743274429
0.9315649497309771   0.23289123743274429   0.23289123743274429
1.7764239703713494   0.17347866379503987   0.062129215562091396
1.7764239703713494   0.17347866379503987   0.062129215562091396
1.7764239703713494   0.17347866379503987   0.062129215562091396
1.7764239703713494   0.17347866379503987   0.062129215562091396
1.833495406509903   0.45837385162747574   0.45837385162747574
1.833495406509903   0.45837385162747574   0.45837385162747574
1.833495406509903   0.45837385162747574   0.45837385162747574
1.833495406509903   0.45837385162747574   0.45837385162747574
0.8655697830849973   0.027542684604456635   0.02658037977959756
0.8655697830849973   0.027542684604456635   0.02658037977959756
0.8655697830849973   0.027542684604456635   0.02658037977959756
0.8655697830849973   0.027542684604456635   0.02658037977959756
1.2840030605289945   0.21828137335567002   -0.01965187225268491
1.2840030605289945   0.21828137335567002   -0.01965187225268491
1.2840030605289945   0.21828137335567002   -0.01965187225268491
1.2840030605289945   0.21828137335567002   -0.01965187225268491
-1.877775072515715   -0.13448224013161214   0.021321063981920033
-1.877775072515715   -0.13448224013161214   0.021321063981920033
-1.877775072515715   -0.13448224013161214   0.021321063981920033
-1.877775072515715   -0.13448224013161214   0.021321063981920033
-1.1954116186840387   -0.027749940592624894   -0.007794724236045318
-1.1954116186840387   -0.027749940592624894   -0.007794724236045318
-1.1954116186840387   -0.027749940592624894   -0.007794724236045318
-1.1954116186840387   -0.027749940592624894   -0.007794724236045318
-1.2033682882615722   0.048652108519316783   0.02524716158331984
-1.2033682882615722   0.048652108519316783   0.02524716158331984
-1.2033682882615722   0.048652108519316783   0.02524716158331984
-1.2033682882615722   0.048652108519316783   0.02524716158331984
-1.9056601561710136   -0.13008262293654804   -0.022645675194986503
-1.9056601561710136   -0.13008262293654804   -0.022645675194986503
-1.9056601561710136   -0.13008262293654804   -0.022645675194986503
-1.9056601561710136   -0.13008262293654804   -0.022645675194986503
-1.484752920622115   -0.050760072750008045   -0.005979174831106146
-1.484752920622115   -0.050760072750008045   -0.005979174831106146
-1.484752920622115   -0.050760072750008045   -0.005979174831106146
-1.484752920622115   -0.050760072750008045   -0.005979174831106146
-1.8917250759704924   -0.09223271730409754   0.009179820175168482
-1.8917250759704924   -0.09223271730409754   0.009179820175168482
-1.8917250759704924   -0.09223271730409754   0.009179820175168482
-1.8917250759704924   -0.09223271730409754   0.009179820175168482
-1.2192941727167363   0.008811398632227296   -0.014541550805390616
-1.2192941727167363   0.008811398632227296   -0.014541550805390616
-1.2192941727167363   0.008811398632227296   -0.014541550805390616
-1.2192941727167363   0.008811398632227296   -0.014541550805390616
-1.2047250322420917   0.06938320334148285   0.0287168568362013
-1.2047250322420917   0.06938320334148285   0.0287168568362013
-1.2047250322420917   0.06938320334148285   0.0287168568362013
-1.2047250322420917   0.06938320334148285   0.0287168568362013
-1.9171031772367992   -0.1145512191298883   -0.029886905928845464
-1.9171031772367992   -0.1145512191298883   -0.029886905928845464
-1.9171031772367992   -0.1145512191298883   -0.029886905928845464
-1.9171031772367992   -0.1145512191298883   -0.029886905928845464
-1.5263505798361963   -0.03394990891432792   -0.014520121565136254
-1.5263505798361963   -0.03394990891432792   -0.014520121565136254
-1.5263505798361963   -0.03394990891432792   -0.014520121565136254
-1.5263505798361963   -0.03394990891432792   -0.014520121565136254
-1.882593734558322   -0.05526007568522989   0.08336916401886803
-1.882593734558322   -0.05526007568522989   0.08336916401886803
-1.882593734558322   -0.05526007568522989   0.08336916401886803
-1.882593734558322   -0.05526007568522989   0.08336916401886803
-1.2248806422803924   0.024445892537000302   -0.027123882550809525
-1.2248806422803924   0.024445892537000302   -0.027123882550809525
-1.2248806422803924   0.024445892537000302   -0.027123882550809525
-1.2248806422803924   0.024445892537000302   -0.027123882550809525
-1.182724538950888   0.12093607565846498   0.05208255083101085
-1.182724538950888   0.12093607565846498   0.05208255083101085
-1.182724538950888   0.12093607565846498   0.05208255083101085
-1.182724538950888   0.12093607565846498   0.05208255083101085
-1.8639585124037699   -0.09236089273162917   -0.04885021999998908
-1.8639585124037699   -0.09236089273162917   -0.04885021999998908
-1.8639585124037699   -0.09236089273162917   -0.04885021999998908
-1.8639585124037699   -0.09236089273162917   -0.04885021999998908
-1.4678562069094092   0.013763137169018669   0.03255826098920671
-1.4678562069094092   0.013763137169018669   0.03255826098920671
-1.4678562069094092   0.013763137169018669   0.03255826098920671
-1.4678562069094092   0.013763137169018669   0.03255826098920671
-1.225057302497217   -0.16246001743907496   -0.02131306645548746
-1.225057302497217   -0.16246001743907496   -0.02131306645548746
-1.225057302497217   -0.16246001743907496   -0.02131306645548746
-1.225057302497217   -0.16246001743907496   -0.02131306645548746
-0.5646010242290442   -0.012663300638517838   0.0059660089953885685
-0.5646010242290442   -0.012663300638517838   0.0059660089953885685
-0.5646010242290442   -0.012663300638517838   0.0059660089953885685
-0.5646010242290442   -0.012663300638517838   0.0059660089953885685
-0.5727796495314577   0.010823686989911957   0.008591956350752064
-0.5727796495314577   0.010823686989911957   0.008591956350752064
-0.5727796495314577   0.010823686989911957   0.008591956350752064
-0.5727796495314577   0.010823686989911957   0.008591956350752064
-1.24928862133868   -0.11890188219537784   -0.03680051308752419
-1.24928862133868   -0.11890188219537784   -0.03680051308752419
-1.24928862133868   -0.11890188219537784   -0.03680051308752419
-1.24928862133868   -0.11890188219537784   -0.03680051308752419
-0.9029149696040442   -0.07336420878227329   -0.020743653997921926
-0.9029149696040442   -0.07336420878227329   -0.020743653997921926
-0.9029149696040442   -0.07336420878227329   -0.020743653997921926
-0.9029149696040442   -0.07336420878227329   -0.020743653997921926
-1.248096144690561   -0.12992167143376765   -0.019818340608542637
-1.248096144690561   -0.12992167143376765   -0.019818340608542637
-1.248096144690561   -0.12992167143376765   -0.019818340608542637
-1.248096144690561   -0.12992167143376765   -0.019818340608542637
-0.5717474952828671   0.02406810712501231   0.0005083074586099551
-0.5717474952828671   0.02406810712501231   0.0005083074586099551
-0.5717474952828671   0.02406810712501231   0.0005083074586099551
-0.5717474952828671   0.02406810712501231   0.0005083074586099551
-0.5705537647772994   0.03978593640619249   0.011634573342611684
-0.5705537647772994   0.03978593640619249   0.011634573342611684
-0.5705537647772994   0.03978593640619249   0.011634573342611684
-0.5705537647772994   0.03978593640619249   0.011634573342611684
-1.2497254651093463   -0.08709334595685922   -0.03980875820173067
-1.2497254651093463   -0.08709334595685922   -0.03980875820173067
-1.2497254651093463   -0.08709334595685922   -0.03980875820173067
-1.2497254651093463   -0.08709334595685922   -0.03980875820173067
-0.9010959826189916   -0.04081232262280096   -0.00986514375493943
-0.9010959826189916   -0.04081232262280096   -0.00986514375493943
-0.9010959826189916   -0.04081232262280096   -0.00986514375493943
-0.9010959826189916   -0.04081232262280096   -0.00986514375493943
-1.2448250441466358   -0.09822936167100355   -0.004170637674032404
-1.2448250441466358   -0.09822936167100355   -0.004170637674032404
-1.2448250441466358   -0.09822936167100355   -0.004170637674032404
-1.2448250441466358   -0.09822936167100355   -0.004170637674032404
-0.5713223518290118   0.055053786031336926   -0.007476211541084667
-0.5713223518290118   0.055053786031336926   -0.007476211541084667
-0.5713223518290118   0.055053786031336926   -0.007476211541084667
-0.5713223518290118   0.055053786031336926   -0.007476211541084667
-0.5609344728065611   0.06887166274224643   0.023321869305812523
-0.5609344728065611   0.06887166274224643   0.023321869305812523
-0.5609344728065611   0.06887166274224643   0.023321869305812523
-0.5609344728065611   0.06887166274224643   0.023321869305812523
-1.2362678869577686   -0.05033966962603856   -0.044358443918893105
-1.2362678869577686   -0.05033966962603856   -0.044358443918893105
-1.2362678869577686   -0.05033966962603856   -0.044358443918893105
-1.2362678869577686   -0.05033966962603856   -0.044358443918893105
-0.897258161717602   -0.010006686004322307   0.004500848788834992
-0.897258161717602   -0.010006686004322307   0.004500848788834992
-0.897258161717602   -0.010006686004322307   0.004500848788834992
-0.897258161717602   -0.010006686004322307   0.004500848788834992
-0.5953371891592286   -0.13524485610105969   -0.025133260192996453
-0.5953371891592286   -0.13524485610105969   -0.025133260192996453
-0.5953371891592286   -0.13524485610105969   -0.025133260192996453
-0.5953371891592286   -0.13524485610105969   -0.025133260192996453
0.0613102956332496   0.01393225378691415   0.02319185270488077
0.0613102956332496   0.01393225378691415   0.02319185270488077
0.0613102956332496   0.01393225378691415   0.02319185270488077
0.0613102956332496   0.01393225378691415   0.02319185270488077
0.05857088101001651   0.0340241237157386   0.0018700870111909938
0.05857088101001651   0.0340241237157386   0.0018700870111909938
0.05857088101001651   0.0340241237157386   0.0018700870111909938
0.05857088101001651   0.0340241237157386   0.0018700870111909938
-0.5977866108460207   -0.08956726252653985   -0.016051900705611515
-0.5977866108460207   -0.08956726252653985   -0.016051900705611515
-0.5977866108460207   -0.08956726252653985   -0.016051900705611515
-0.5977866108460207   -0.08956726252653985   -0.016051900705611515
-0.2709067976016258   -0.04487030946329335   -0.008594193202706482
-0.2709067976016258   -0.04487030946329335   -0.008594193202706482
-0.2709067976016258   -0.04487030946329335   -0.008594193202706482
-0.2709067976016258   -0.04487030946329335   -0.008594193202706482
-0.6019241787972309   -0.1030919218713247   -0.02321508111687807
-0.6019241787972309   -0.1030919218713247   -0.02321508111687807
-0.6019241787972309   -0.1030919218713247   -0.02321508111687807
-0.6019241787972309   -0.1030919218713247   -0.02321508111687807
0.06500110611314915   0.04984144021244581   0.01820389603014696
0.06500110611314915   0.04984144021244581   0.01820389603014696
0.06500110611314915   0.04984144021244581   0.01820389603014696
0.06500110611314915   0.04984144021244581   0.01820389603014696
0.06331876552132211   0.06589232743338902   0.01077267177124462
0.06331876552132211   0.06589232743338902   0.01077267177124462
0.06331876552132211   0.06589232743338902   0.01077267177124462
0.06331876552132211   0.06589232743338902   0.01077267177124462
-0.5957681636847796   -0.05461836428485167   -0.02003312050374536
-0.5957681636847796   -0.05461836428485167   -0.02003312050374536
-0.5957681636847796   -0.05461836428485167   -0.02003312050374536
-0.5957681636847796   -0.05461836428485167   -0.02003312050374536
-0.2665900639117842   -0.011008394613974397   0.003168319378585858
-0.2665900639117842   -0.011008394613974397   0.003168319378585858
-0.2665900639117842   -0.011008394613974397   0.003168319378585858
-0.2665900639117842   -0.011008394613974397   0.003168319378585858
-0.5973730543374138   -0.07077979875246732   -0.011896139299301
-0.5973730543374138   -0.07077979875246732   -0.011896139299301
-0.5973730543374138   -0.07077979875246732   -0.011896139299301
-0.5973730543374138   -0.07077979875246732   -0.011896139299301
0.06739138580582014   0.08452149153286903   0.01250660909425446
0.06739138580582014   0.08452149153286903   0.01250660909425446
0.06739138580582014   0.08452149153286903   0.01250660909425446
0.06739138580582014   0.08452149153286903   0.01250660909425446
0.06488050994214375   0.10133686951263403   0.017718259642684753
0.06488050994214375   0.10133686951263403   0.017718259642684753
0.06488050994214375   0.10133686951263403   0.017718259642684753
0.06488050994214375   0.10133686951263403   0.017718259642684753
-0.5878759361520528   -0.017263415889531133   -0.025250368789866678
-0.5878759361520528   -0.017263415889531133   -0.025250368789866678
-0.5878759361520528   -0.017263415889531133   -0.025250368789866678
-0.5878759361520528   -0.017263415889531133   -0.025250368789866678
-0.2598246725618214   0.02440306407687498   0.01604560272410259
-0.2598246725618214   0.02440306407687498   0.01604560272410259
-0.2598246725618214   0.02440306407687498   0.01604560272410259
-0.2598246725618214   0.02440306407687498   0.01604560272410259
0.02787060775343429   -0.09916628377000704   -0.03090804913727458
0.02787060775343429   -0.09916628377000704   -0.03090804913727458
0.02787060775343429   -0.09916628377000704   -0.03090804913727458
0.02787060775343429   -0.09916628377000704   -0.03090804913727458
0.7081456133130622   0.04882438540526414   0.04259237574880852
0.7081456133130622   0.04882438540526414   0.04259237574880852
0.7081456133130622   0.04882438540526414   0.04259237574880852
0.7081456133130622   0.04882438540526414   0.04259237574880852
0.7073742699700244   0.06583854811926733   -0.0068289857730499635
0.7073742699700244   0.06583854811926733   -0.0068289857730499635
0.7073742699700244   0.06583854811926733   -0.0068289857730499635
0.7073742699700244   0.06583854811926733   -0.0068289857730499635
0.04035105388340959   -0.05951539875302944   0.004310473846924439
0.04035105388340959   -0.05951539875302944   0.004310473846924439
0.04035105388340959   -0.05951539875302944   0.004310473846924439
0.04035105388340959   -0.05951539875302944   0.004310473846924439
0.3663589171508396   -0.008536131161034896   0.000746618613923361
0.3663589171508396   -0.008536131161034896   0.000746618613923361
0.3663589171508396   -0.008536131161034896   0.000746618613923361
0.3663589171508396   -0.008536131161034896   0.000746618613923361
0.03228558331074913   -0.07243320634321593   -0.023099071426190967
0.03228558331074913   -0.07243320634321593   -0.023099071426190967
0.03228558331074913   -0.07243320634321593   -0.023099071426190967
0.03228558331074913   -0.07243320634321593   -0.023099071426190967
0.7195657366384066   0.08288235180517543   0.037084543882947976
0.7195657366384066   0.08288235180517543   0.037084543882947976
0.7195657366384066   0.08288235180517543   0.037084543882947976
0.7195657366384066   0.08288235180517543   0.037084543882947976
0.7130923228820766   0.09736354195046709   0.007138199532530837
0.7130923228820766   0.09736354195046709   0.007138199532530837
0.7130923228820766   0.09736354195046709   0.007138199532530837
0.7130923228820766   0.09736354195046709   0.007138199532530837
0.041923878294812825   -0.028274666126586082   -0.002034770801326684
0.041923878294812825   -0.028274666126586082   -0.002034770801326684
0.041923878294812825   -0.028274666126586082   -0.002034770801326684
0.041923878294812825   -0.028274666126586082   -0.002034770801326684
0.37137978326208054   0.02159389073039515   0.015203589186754525
0.37137978326208054   0.02159389073039515   0.015203589186754525
0.37137978326208054   0.02159389073039515   0.015203589186754525
0.37137978326208054   0.02159389073039515   0.015203589186754525
0.03603757887246002   -0.04285269463824806   -0.01688823940142841
0.03603757887246002   -0.04285269463824806   -0.01688823940142841
0.03603757887246002   -0.04285269463824806   -0.01688823940142841
0.03603757887246002   -0.04285269463824806   -0.01688823940142841
0.721965263965773   0.11492821212347074   0.03393823477799721
0.721965263965773   0.11492821212347074   0.03393823477799721
0.721965263965773   0.11492821212347074   0.03393823477799721
0.721965263965773   0.11492821212347074   0.03393823477799721
0.7017518706388773   0.13374500830337546   0.015057262030157538
0.7017518706388773   0.13374500830337546   0.015057262030157538
0.7017518706388773   0.13374500830337546   0.015057262030157538
0.7017518706388773   0.13374500830337546   0.015057262030157538
0.0416558479830197   0.010397180113814991   -0.007465360754116436
0.0416558479830197   0.010397180113814991   -0.007465360754116436
0.0416558479830197   0.010397180113814991   -0.007465360754116436
0.0416558479830197   0.010397180113814991   -0.007465360754116436
0.37699945260569934   0.056035900561510234   0.028591880012115364
0.37699945260569934   0.056035900561510234   0.028591880012115364
0.37699945260569934   0.056035900561510234   0.028591880012115364
0.37699945260569934   0.056035900561510234   0.028591880012115364
0.6522363211787043   -0.1309211786354582   -0.057208520882258806
0.6522363211787043   -0.1309211786354582   -0.057208520882258806
0.6522363211787043   -0.1309211786354582   -0.057208520882258806
0.6522363211787043   -0.1309211786354582   -0.057208520882258806
1.3434928971643503   0.08874560604556908   0.04158102104799678
1.3434928971643503   0.08874560604556908   0.04158102104799678
1.3434928971643503   0.08874560604556908   0.04158102104799678
1.3434928971643503   0.08874560604556908   0.04158102104799678
1.3588296401821407   0.04196795399103695   -0.0860670316911713
1.3588296401821407   0.04196795399103695   -0.0860670316911713
1.3588296401821407   0.04196795399103695   -0.0860670316911713
1.3588296401821407   0.04196795399103695   -0.0860670316911713
0.69520724703985   -0.026721148098148906   0.0248955957934833
0.69520724703985   -0.026721148098148906   0.0248955957934833
0.69520724703985   -0.026721148098148906   0.0248955957934833
0.69520724703985   -0.026721148098148906   0.0248955957934833
0.9620896341381352   -0.01690522482867232   -0.024142731130748753
0.9620896341381352   -0.01690522482867232   -0.024142731130748753
0.9620896341381352   -0.01690522482867232   -0.024142731130748753
0.9620896341381352   -0.01690522482867232   -0.024142731130748753
0.6707644135727753   -0.08603302410050626   -0.03800669553952408
0.6707644135727753   -0.08603302410050626   -0.03800669553952408
0.6707644135727753   -0.08603302410050626   -0.03800669553952408
0.6707644135727753   -0.08603302410050626   -0.03800669553952408
1.3956307935191883   0.1136381498633689   0.026268539121734366
1.3956307935191883   0.1136381498633689   0.026268539121734366
1.3956307935191883   0.1136381498633689   0.026268539121734366
1.3956307935191883   0.1136381498633689   0.026268539121734366
1.373993429191036   0.07664601844181981   -0.01960347002369154
1.373993429191036   0.07664601844181981   -0.01960347002369154
1.373993429191036   0.07664601844181981   -0.01960347002369154
1.373993429191036   0.07664601844181981   -0.01960347002369154
0.6925408615452425   -0.011132219753720002   0.012876654552535664
0.6925408615452425   -0.011132219753720002   0.012876654552535664
0.6925408615452425   -0.011132219753720002   0.012876654552535664
0.6925408615452425   -0.011132219753720002   0.012876654552535664
1.0126617372144187   0.025306347710739863   0.016658979758344884
1.0126617372144187   0.025306347710739863   0.016658979758344884
1.0126617372144187   0.025306347710739863   0.016658979758344884
1.0126617372144187   0.025306347710739863   0.016658979758344884
0.6729149475533254   -0.065771675760947   -0.03061345939981698
0.6729149475533254   -0.065771675760947   -0.03061345939981698
0.6729149475533254   -0.065771675760947   -0.03061345939981698
0.6729149475533254   -0.065771675760947   -0.03061345939981698
1.3919943306822984   0.1296604619483934   0.017386593926046794
1.3919943306822984   0.1296604619483934   0.017386593926046794
1.3919943306822984   0.1296604619483934   0.017386593926046794
1.3919943306822984   0.1296604619483934   0.017386593926046794
1.3719152479799874   0.11750213467968504   -0.02996783473925258
1.3719152479799874   0.11750213467968504   -0.02996783473925258
1.3719152479799874   0.11750213467968504   -0.02996783473925258
1.3719152479799874   0.11750213467968504   -0.02996783473925258
0.6783810091841903   0.024760184719249276   0.007187778340836389
0.6783810091841903   0.024760184719249276   0.007187778340836389
0.6783810091841903   0.024760184719249276   0.007187778340836389
0.6783810091841903   0.024760184719249276   0.007187778340836389
0.9869205808670439   0.04442554306210353   0.01240956505796615
0.9869205808670439   0.04442554306210353   0.01240956505796615
0.9869205808670439   0.04442554306210353   0.01240956505796615
0.9869205808670439   0.04442554306210353   0.01240956505796615
-1.4750406730393106   -0.06689360147160073   0.0761160257243439
-1.4750406730393106   -0.06689360147160073   0.0761160257243439
-1.4750406730393106   -0.06689360147160073   0.0761160257243439
-1.4750406730393106   -0.06689360147160073   0.0761160257243439
-0.9798817810725532   -0.037345695003867446   -0.01980556691490113
-0.9798817810725532   -0.037345695003867446   -0.01980556691490113
-0.9798817810725532   -0.037345695003867446   -0.01980556691490113
-0.9798817810725532   -0.037345695003867446   -0.01980556691490113
-0.9444465303885403   0.07945718079922898   0.06383971770142549
-0.9444465303885403   0.07945718079922898   0.06383971770142549
-0.9444465303885403   0.07945718079922898   0.06383971770142549
-0.9444465303885403   0.07945718079922898   0.06383971770142549
-1.4817968608311518   -0.10583179751403615   -0.031022453504212705
-1.4817968608311518   -0.10583179751403615   -0.031022453504212705
-1.4817968608311518   -0.10583179751403615   -0.031022453504212705
-1.4817968608311518   -0.10583179751403615   -0.031022453504212705
-1.1707603575273917   -0.01809990867890554   -0.00224180913979391
-1.1707603575273917   -0.01809990867890554   -0.00224180913979391
-1.1707603575273917   -0.01809990867890554   -0.00224180913979391
-1.1707603575273917   -0.01809990867890554   -0.00224180913979391
-1.440467090508018   -0.01546329553788961   0.0852578961353101
-1.440467090508018   -0.01546329553788961   0.0852578961353101
-1.440467090508018   -0.01546329553788961   0.0852578961353101
-1.440467090508018   -0.01546329553788961   0.0852578961353101
-0.9792686837853244   -0.004403704250566437   -0.026410164232699145
-0.9792686837853244   -0.004403704250566437   -0.026410164232699145
-0.9792686837853244   -0.004403704250566437   -0.026410164232699145
-0.9792686837853244   -0.004403704250566437   -0.026410164232699145
-0.9405449086560598   0.09856981273759208   0.059159984827816925
-0.9405449086560598   0.09856981273759208   0.059159984827816925
-0.9405449086560598   0.09856981273759208   0.059159984827816925
-0.9405449086560598   0.09856981273759208   0.059159984827816925
-1.45874262774511   -0.0885015079061297   -0.042461861949134275
-1.45874262774511   -0.0885015079061297   -0.042461861949134275
-1.45874262774511   -0.0885015079061297   -0.042461861949134275
-1.45874262774511   -0.0885015079061297   -0.042461861949134275
-1.1731659622854638   0.004354379905100625   0.013481638092821463
-1.1731659622854638   0.004354379905100625   0.013481638092821463
-1.1731659622854638   0.004354379905100625   0.013481638092821463
-1.1731659622854638   0.004354379905100625   0.013481638092821463
-1.420260932379416   0.0025696936849988194   0.05887541328820689
-1.420260932379416   0.0025696936849988194   0.05887541328820689
-1.420260932379416   0.0025696936849988194   0.05887541328820689
-1.420260932379416   0.0025696936849988194   0.05887541328820689
-0.9768824480472004   0.009642767121019524   -0.03360066651130536
-0.9768824480472004   0.009642767121019524   -0.03360066651130536
-0.9768824480472004   0.009642767121019524   -0.03360066651130536
-0.9768824480472004   0.009642767121019524   -0.03360066651130536
-0.9414100428121374   0.11130735099352429   0.046942529034145516
-0.9414100428121374   0.11130735099352429   0.046942529034145516
-0.9414100428121374   0.11130735099352429   0.046942529034145516
-0.9414100428121374   0.11130735099352429   0.046942529034145516
-1.4288457886959138   -0.07006055195377697   -0.05413636814756384
-1.4288457886959138   -0.07006055195377697   -0.05413636814756384
-1.4288457886959138   -0.07006055195377697   -0.05413636814756384
-1.4288457886959138   -0.07006055195377697   -0.05413636814756384
-1.1393751832127557   0.02447476175215038   0.028123351030971563
-1.1393751832127557   0.02447476175215038   0.028123351030971563
-1.1393751832127557   0.02447476175215038   0.028123351030971563
-1.1393751832127557   0.02447476175215038   0.028123351030971563
-0.9827513402021381   -0.09315531428796071   0.021656256721268027
-0.9827513402021381   -0.09315531428796071   0.021656256721268027
-0.9827513402021381   -0.09315531428796071   0.021656256721268027
-0.9827513402021381   -0.09315531428796071   0.021656256721268027
-0.49656087868061927   -0.018021301430353992   0.0009390413775427139
-0.49656087868061927   -0.018021301430353992   0.0009390413775427139
-0.49656087868061927   -0.018021301430353992   0.0009390413775427139
-0.49656087868061927   -0.018021301430353992   0.0009390413775427139
-0.4824209704980375   0.04876946517095228   0.03468857290348393
-0.4824209704980375   0.04876946517095228   0.03468857290348393
-0.4824209704980375   0.04876946517095228   0.03468857290348393
-0.4824209704980375   0.04876946517095228   0.03468857290348393
-0.9983604416141922   -0.09186708133763033   -0.03440557628998189
-0.9983604416141922   -0.09186708133763033   -0.03440557628998189
-0.9983604416141922   -0.09186708133763033   -0.03440557628998189
-0.9983604416141922   -0.09186708133763033   -0.03440557628998189
-0.7374043055035245   -0.0361869101929336   -0.014981635536651862
-0.7374043055035245   -0.0361869101929336   -0.014981635536651862
-0.7374043055035245   -0.0361869101929336   -0.014981635536651862
-0.7374043055035245   -0.0361869101929336   -0.014981635536651862
-0.9795979699036967   -0.05341309092158558   0.02095279184645399
-0.9795979699036967   -0.05341309092158558   0.02095279184645399
-0.9795979699036967   -0.05341309092158558   0.02095279184645399
-0.9795979699036967   -0.05341309092158558   0.02095279184645399
-0.4973843917802108   0.014114525183229767   -0.005473593519655082
-0.4973843917802108   0.014114525183229767   -0.005473593519655082
-0.4973843917802108   0.014114525183229767   -0.005473593519655082
-0.4973843917802108   0.014114525183229767   -0.005473593519655082
-0.4808455394186546   0.08064521485720341   0.030004120177890663
-0.4808455394186546   0.08064521485720341   0.030004120177890663
-0.4808455394186546   0.08064521485720341   0.030004120177890663
-0.4808455394186546   0.08064521485720341   0.030004120177890663
-0.9926410302879998   -0.062122431592641386   -0.04062837900164878
-0.9926410302879998   -0.062122431592641386   -0.04062837900164878
-0.9926410302879998   -0.062122431592641386   -0.04062837900164878
-0.9926410302879998   -0.062122431592641386   -0.04062837900164878
-0.7293023711892589   -0.003950081893367624   -7.559224290176053e-05
-0.7293023711892589   -0.003950081893367624   -7.559224290176053e-05
-0.7293023711892589   -0.003950081893367624   -7.559224290176053e-05
-0.7293023711892589   -0.003950081893367624   -7.559224290176053e-05
-0.9734963629370396   -0.021076057208291282   0.014048583368801958
-0.9734963629370396   -0.021076057208291282   0.014048583368801958
-0.9734963629370396   -0.021076057208291282   0.014048583368801958
-0.9734963629370396   -0.021076057208291282   0.014048583368801958
-0.4968970016195591   0.04269204562291043   -0.0123000215923302
-0.4968970016195591   0.04269204562291043   -0.0123000215923302
-0.4968970016195591   0.04269204562291043   -0.0123000215923302
-0.4968970016195591   0.04269204562291043   -0.0123000215923302
-0.48065671768102386   0.1141494631557697   0.02247605071339967
-0.48065671768102386   0.1141494631557697   0.02247605071339967
-0.48065671768102386   0.1141494631557697   0.02247605071339967
-0.48065671768102386   0.1141494631557697   0.02247605071339967
-0.9878064533071523   -0.030015126216591498   -0.04371704623081795
-0.9878064533071523   -0.030015126216591498   -0.04371704623081795
-0.9878064533071523   -0.030015126216591498   -0.04371704623081795
-0.9878064533071523   -0.030015126216591498   -0.04371704623081795
-0.7297199672930084   0.02562737903561238   0.011324149992247644
-0.7297199672930084   0.02562737903561238   0.011324149992247644
-0.7297199672930084   0.02562737903561238   0.011324149992247644
-0.7297199672930084   0.02562737903561238   0.011324149992247644
-0.5150352801644545   -0.10655507117333499   -0.0028991962986569357
-0.5150352801644545   -0.10655507117333499   -0.0028991962986569357
-0.5150352801644545   -0.10655507117333499   -0.0028991962986569357
-0.5150352801644545   -0.10655507117333499   -0.0028991962986569357
-0.01769673645928529   0.005182654849464823   0.021991102187565833
-0.01769673645928529   0.005182654849464823   0.021991102187565833
-0.01769673645928529   0.005182654849464823   0.021991102187565833
-0.01769673645928529   0.005182654849464823   0.021991102187565833
-0.019534975610474018   0.03139657729316919   0.01051566315738706
-0.019534975610474018   0.03139657729316919   0.01051566315738706
-0.019534975610474018   0.03139657729316919   0.01051566315738706
-0.019534975610474018   0.03139657729316919   0.01051566315738706
-0.515334610048303   -0.06824892922247378   -0.012861230454417996
-0.515334610048303   -0.06824892922247378   -0.012861230454417996
-0.515334610048303   -0.06824892922247378   -0.012861230454417996
-0.515334610048303   -0.06824892922247378   -0.012861230454417996
-0.2677212768733221   -0.03343129814405832   -0.008394234615569023
-0.2677212768733221   -0.03343129814405832   -0.008394234615569023
-0.2677212768733221   -0.03343129814405832   -0.008394234615569023
-0.2677212768733221   -0.03343129814405832   -0.008394234615569023
-0.5147793576604809   -0.0711851760798882   -0.007148721657892924
-0.5147793576604809   -0.0711851760798882   -0.007148721657892924
-0.5147793576604809   -0.0711851760798882   -0.007148721657892924
-0.5147793576604809   -0.0711851760798882   -0.007148721657892924
-0.017258873118543468   0.037164179030336336   0.01612857387987291
-0.017258873118543468   0.037164179030336336   0.01612857387987291
-0.017258873118543468   0.037164179030336336   0.01612857387987291
-0.017258873118543468   0.037164179030336336   0.01612857387987291
-0.017137649957648562   0.06612076449585758   0.005032009672669771
-0.017137649957648562   0.06612076449585758   0.005032009672669771
-0.017137649957648562   0.06612076449585758   0.005032009672669771
-0.017137649957648562   0.06612076449585758   0.005032009672669771
-0.5139894972736655   -0.03621077882080362   -0.0188596754191527
-0.5139894972736655   -0.03621077882080362   -0.0188596754191527
-0.5139894972736655   -0.03621077882080362   -0.0188596754191527
-0.5139894972736655   -0.03621077882080362   -0.0188596754191527
-0.26507498286152914   -0.001329170815538773   0.0036518884360480005
-0.26507498286152914   -0.001329170815538773   0.0036518884360480005
-0.26507498286152914   -0.001329170815538773   0.0036518884360480005
-0.26507498286152914   -0.001329170815538773   0.0036518884360480005
-0.513217286536498   -0.03695287072105774   -0.014256529833061235
-0.513217286536498   -0.03695287072105774   -0.014256529833061235
-0.513217286536498   -0.03695287072105774   -0.014256529833061235
-0.513217286536498   -0.03695287072105774   -0.014256529833061235
-0.015572298329995144   0.06920041876093327   0.009779113545861414
-0.015572298329995144   0.06920041876093327   0.009779113545861414
-0.015572298329995144   0.06920041876093327   0.009779113545861414
-0.015572298329995144   0.06920041876093327   0.009779113545861414
-0.01658981428465092   0.10188030874566652   -0.0008178674812802551
-0.01658981428465092   0.10188030874566652   -0.0008178674812802551
-0.01658981428465092   0.10188030874566652   -0.0008178674812802551
-0.01658981428465092   0.10188030874566652   -0.0008178674812802551
-0.5136925001614296   -0.003629890089646398   -0.02492350844321569
-0.5136925001614296   -0.003629890089646398   -0.02492350844321569
-0.5136925001614296   -0.003629890089646398   -0.02492350844321569
-0.5136925001614296   -0.003629890089646398   -0.02492350844321569
-0.2630089616483988   0.030803684031827136   0.014699275904824945
-0.2630089616483988   0.030803684031827136   0.014699275904824945
-0.2630089616483988   0.030803684031827136   0.014699275904824945
-0.2630089616483988   0.030803684031827136   0.014699275904824945
-0.051584950292507425   -0.11674472074285556   -0.025522591386224192
-0.051584950292507425   -0.11674472074285556   -0.025522591386224192
-0.051584950292507425   -0.11674472074285556   -0.025522591386224192
-0.051584950292507425   -0.11674472074285556   -0.025522591386224192
0.45928648285610446   0.03233196937142052   0.04181368652675205
0.45928648285610446   0.03233196937142052   0.04181368652675205
0.45928648285610446   0.03233196937142052   0.04181368652675205
0.45928648285610446   0.03233196937142052   0.04181368652675205
0.44425035330872675   0.017095891350027898   -0.01653237506310602
0.44425035330872675   0.017095891350027898   -0.01653237506310602
0.44425035330872675   0.017095891350027898   -0.01653237506310602
0.44425035330872675   0.017095891350027898   -0.01653237506310602
-0.03465040875751649   -0.04269063503556872   0.009025709750912887
-0.03465040875751649   -0.04269063503556872   0.009025709750912887
-0.03465040875751649   -0.04269063503556872   0.009025709750912887
-0.03465040875751649   -0.04269063503556872   0.009025709750912887
0.20142793275717322   -0.027078326567746676   -0.0047457635421266735
0.20142793275717322   -0.027078326567746676   -0.0047457635421266735
0.20142793275717322   -0.027078326567746676   -0.0047457635421266735
0.20142793275717322   -0.027078326567746676   -0.0047457635421266735
-0.05135611453789132   -0.08513134836998312   -0.03206210581654692
-0.05135611453789132   -0.08513134836998312   -0.03206210581654692
-0.05135611453789132   -0.08513134836998312   -0.03206210581654692
-0.05135611453789132   -0.08513134836998312   -0.03206210581654692
0.4641765811602494   0.06275712675559081   0.03743752878894459
0.4641765811602494   0.06275712675559081   0.03743752878894459
0.4641765811602494   0.06275712675559081   0.03743752878894459
0.4641765811602494   0.06275712675559081   0.03743752878894459
0.4515072641525457   0.04940441771893121   -0.023222737431473066
0.4515072641525457   0.04940441771893121   -0.023222737431473066
0.4515072641525457   0.04940441771893121   -0.023222737431473066
0.4515072641525457   0.04940441771893121   -0.023222737431473066
-0.03364065048761492   -0.013984675901079421   0.0026224474197754674
-0.03364065048761492   -0.013984675901079421   0.0026224474197754674
-0.03364065048761492   -0.013984675901079421   0.0026224474197754674
-0.03364065048761492   -0.013984675901079421   0.0026224474197754674
0.2032578275138967   0.0019720230768088542   0.007227225066194894
0.2032578275138967   0.0019720230768088542   0.007227225066194894
0.2032578275138967   0.0019720230768088542   0.007227225066194894
0.2032578275138967   0.0019720230768088542   0.007227225066194894
-0.049889242545606366   -0.05395947824054741   -0.03864571053071413
-0.049889242545606366   -0.05395947824054741   -0.03864571053071413
-0.049889242545606366   -0.05395947824054741   -0.03864571053071413
-0.049889242545606366   -0.05395947824054741   -0.03864571053071413
0.4712657757686431   0.0928891396165051   0.03208509875144011
0.4712657757686431   0.0928891396165051   0.03208509875144011
0.4712657757686431   0.0928891396165051   0.03208509875144011
0.4712657757686431   0.0928891396165051   0.03208509875144011
0.45599875501228804   0.08990697060730538   -0.024259315315932856
0.45599875501228804   0.08990697060730538   -0.024259315315932856
0.45599875501228804   0.08990697060730538   -0.024259315315932856
0.45599875501228804   0.08990697060730538   -0.024259315315932856
-0.03364533680462413   0.019550338804809348   -0.0037655101402887872
-0.03364533680462413   0.019550338804809348   -0.0037655101402887872
-0.03364533680462413   0.019550338804809348   -0.0037655101402887872
-0.03364533680462413   0.019550338804809348   -0.0037655101402887872
0.21035249947367518   0.034353753084064846   0.02144036066419219
0.21035249947367518   0.034353753084064846   0.02144036066419219
0.21035249947367518   0.034353753084064846   0.02144036066419219
0.21035249947367518   0.034353753084064846   0.02144036066419219
0.4113218347539221   -0.11595027297388583   -0.04972731163884969
0.4113218347539221   -0.11595027297388583   -0.04972731163884969
0.4113218347539221   -0.11595027297388583   -0.04972731163884969
0.4113218347539221   -0.11595027297388583   -0.04972731163884969
0.9048343217174462   0.06723393383712845   0.0465556444144485
0.9048343217174462   0.06723393383712845   0.0465556444144485
0.9048343217174462   0.06723393383712845   0.0465556444144485
0.9048343217174462   0.06723393383712845   0.0465556444144485
0.8977945652585595   -0.004421205126622724   -0.06619200756759894
0.8977945652585595   -0.004421205126622724   -0.06619200756759894
0.8977945652585595   -0.004421205126622724   -0.06619200756759894
0.8977945652585595   -0.004421205126622724   -0.06619200756759894
0.4484695632459768   -0.009603618964387828   0.031263184937564845
0.4484695632459768   -0.009603618964387828   0.031263184937564845
0.4484695632459768   -0.009603618964387828   0.031263184937564845
0.4484695632459768   -0.009603618964387828   0.031263184937564845
0.6332927990456912   -0.022659775580457203   -0.020808931409814144
0.6332927990456912   -0.022659775580457203   -0.020808931409814144
0.6332927990456912   -0.022659775580457203   -0.020808931409814144
0.6332927990456912   -0.022659775580457203   -0.020808931409814144
0.411778836037439   -0.10062063622602413   -0.06117343384348548
0.411778836037439   -0.10062063622602413   -0.06117343384348548
0.411778836037439   -0.10062063622602413   -0.06117343384348548
0.411778836037439   -0.10062063622602413   -0.06117343384348548
0.9371200705166186   0.08923059018453539   0.03678372341153903
0.9371200705166186   0.08923059018453539   0.03678372341153903
0.9371200705166186   0.08923059018453539   0.03678372341153903
0.9371200705166186   0.08923059018453539   0.03678372341153903
0.9199148544364343   0.014007075188034596   -0.08880086362988288
0.9199148544364343   0.014007075188034596   -0.08880086362988288
0.9199148544364343   0.014007075188034596   -0.08880086362988288
0.9199148544364343   0.014007075188034596   -0.08880086362988288
0.4518233835592912   0.004455677836299091   0.023306599484894608
0.4518233835592912   0.004455677836299091   0.023306599484894608
0.4518233835592912   0.004455677836299091   0.023306599484894608
0.4518233835592912   0.004455677836299091   0.023306599484894608
0.6620415281326555   -0.0027297230198196354   -0.00633057459115427
0.6620415281326555   -0.0027297230198196354   -0.00633057459115427
0.6620415281326555   -0.0027297230198196354   -0.00633057459115427
0.6620415281326555   -0.0027297230198196354   -0.00633057459115427
0.41650764693530173   -0.08223122895497237   -0.06658517684378526
0.41650764693530173   -0.08223122895497237   -0.06658517684378526
0.41650764693530173   -0.08223122895497237   -0.06658517684378526
0.41650764693530173   -0.08223122895497237   -0.06658517684378526
0.9610519658705987   0.10651535678948154   0.024376411939499493
0.9610519658705987   0.10651535678948154   0.024376411939499493
0.9610519658705987   0.10651535678948154   0.024376411939499493
0.9610519658705987   0.10651535678948154   0.024376411939499493
0.9550329713048148   0.06194319521602219   -0.0835491312959234
0.9550329713048148   0.06194319521602219   -0.0835491312959234
0.9550329713048148   0.06194319521602219   -0.0835491312959234
0.9550329713048148   0.06194319521602219   -0.0835491312959234
0.4533724235799063   0.03548949811590085   0.017026500013571907
0.4533724235799063   0.03548949811590085   0.017026500013571907
0.4533724235799063   0.03548949811590085   0.017026500013571907
0.4533724235799063   0.03548949811590085   0.017026500013571907
0.6670278971298437   0.020048912185703094   0.00970090090770391
0.6670278971298437   0.020048912185703094   0.00970090090770391
0.6670278971298437   0.020048912185703094   0.00970090090770391
0.6670278971298437   0.020048912185703094   0.00970090090770391
-1.0535954761844406   -0.03434425422674725   0.06891533208258732
-1.0535954761844406   -0.03434425422674725   0.06891533208258732
-1.0535954761844406   -0.03434425422674725   0.06891533208258732
-1.0535954761844406   -0.03434425422674725   0.06891533208258732
-0.737486727272944   -0.04934539065485144   -0.026008938026041928
-0.737486727272944   -0.04934539065485144   -0.026008938026041928
-0.737486727272944   -0.04934539065485144   -0.026008938026041928
-0.737486727272944   -0.04934539065485144   -0.026008938026041928
-0.694096635491506   0.06966339426578322   0.058753280055238444
-0.694096635491506   0.06966339426578322   0.058753280055238444
-0.694096635491506   0.06966339426578322   0.058753280055238444
-0.694096635491506   0.06966339426578322   0.058753280055238444
-1.0536738020772107   -0.0867491888256278   -0.0380490640127036
-1.0536738020772107   -0.0867491888256278   -0.0380490640127036
-1.0536738020772107   -0.0867491888256278   -0.0380490640127036
-1.0536738020772107   -0.0867491888256278   -0.0380490640127036
-0.8484861749319885   -0.013504133467178991   -0.00193636438697075
-0.8484861749319885   -0.013504133467178991   -0.00193636438697075
-0.8484861749319885   -0.013504133467178991   -0.00193636438697075
-0.8484861749319885   -0.013504133467178991   -0.00193636438697075
-1.014204882084452   0.0070002986343656315   0.06554604849109638
-1.014204882084452   0.0070002986343656315   0.06554604849109638
-1.014204882084452   0.0070002986343656315   0.06554604849109638
-1.014204882084452   0.0070002986343656315   0.06554604849109638
-0.730352876466951   -0.020873414176895116   -0.03199111637929996
-0.730352876466951   -0.020873414176895116   -0.03199111637929996
-0.730352876466951   -0.020873414176895116   -0.03199111637929996
-0.730352876466951   -0.020873414176895116   -0.03199111637929996
-0.6875568579621327   0.08415688207990063   0.04964431819803261
-0.6875568579621327   0.08415688207990063   0.04964431819803261
-0.6875568579621327   0.08415688207990063   0.04964431819803261
-0.6875568579621327   0.08415688207990063   0.04964431819803261
-1.028696116549485   -0.07059184867811835   -0.04809029872063038
-1.028696116549485   -0.07059184867811835   -0.04809029872063038
-1.028696116549485   -0.07059184867811835   -0.04809029872063038
-1.028696116549485   -0.07059184867811835   -0.04809029872063038
-0.8425270570241409   0.005608250288898775   0.008860758176982439
-0.8425270570241409   0.005608250288898775   0.008860758176982439
-0.8425270570241409   0.005608250288898775   0.008860758176982439
-0.8425270570241409   0.005608250288898775   0.008860758176982439
-0.9895706828510683   0.024345214734311504   0.05259980635902259
-0.9895706828510683   0.024345214734311504   0.05259980635902259
-0.9895706828510683   0.024345214734311504   0.05259980635902259
-0.9895706828510683   0.024345214734311504   0.05259980635902259
-0.7237792914719284   -0.007877181143907674   -0.03943378612713358
-0.7237792914719284   -0.007877181143907674   -0.03943378612713358
-0.7237792914719284   -0.007877181143907674   -0.03943378612713358
-0.7237792914719284   -0.007877181143907674   -0.03943378612713358
-0.6839370655916287   0.09829212250803362   0.0427182810572118
-0.6839370655916287   0.09829212250803362   0.0427182810572118
-0.6839370655916287   0.09829212250803362   0.0427182810572118
-0.6839370655916287   0.09829212250803362   0.0427182810572118
-0.9952531723670929   -0.049220687314356526   -0.05757167122183645
-0.9952531723670929   -0.049220687314356526   -0.05757167122183645
-0.9952531723670929   -0.049220687314356526   -0.05757167122183645
-0.9952531723670929   -0.049220687314356526   -0.05757167122183645
-0.8108912933165567   0.02352483532328986   0.023996628264896222
-0.8108912933165567   0.02352483532328986   0.023996628264896222
-0.8108912933165567   0.02352483532328986   0.023996628264896222
-0.8108912933165567   0.02352483532328986   0.023996628264896222
-0.729144569949003   -0.05954546364314875   0.025901921581952654
-0.729144569949003   -0.05954546364314875   0.025901921581952654
-0.729144569949003   -0.05954546364314875   0.025901921581952654
-0.729144569949003   -0.05954546364314875   0.025901921581952654
-0.4231004279503572   -0.03197297320964913   -0.004199008303206523
-0.4231004279503572   -0.03197297320964913   -0.004199008303206523
-0.4231004279503572   -0.03197297320964913   -0.004199008303206523
-0.4231004279503572   -0.03197297320964913   -0.004199008303206523
-0.4015952395304236   0.04070245857901082   0.031676921209455214
-0.4015952395304236   0.04070245857901082   0.031676921209455214
-0.4015952395304236   0.04070245857901082   0.031676921209455214
-0.4015952395304236   0.04070245857901082   0.031676921209455214
-0.7401255705033358   -0.07088364349748073   -0.03084435724064614
-0.7401255705033358   -0.07088364349748073   -0.03084435724064614
-0.7401255705033358   -0.07088364349748073   -0.03084435724064614
-0.7401255705033358   -0.07088364349748073   -0.03084435724064614
-0.5711935263748009   -0.027832617167220214   -0.011690432253362047
-0.5711935263748009   -0.027832617167220214   -0.011690432253362047
-0.5711935263748009   -0.027832617167220214   -0.011690432253362047
-0.5711935263748009   -0.027832617167220214   -0.011690432253362047
-0.7205859571680986   -0.025197546669003534   0.0211676126070586
-0.7205859571680986   -0.025197546669003534   0.0211676126070586
-0.7205859571680986   -0.025197546669003534   0.0211676126070586
-0.7205859571680986   -0.025197546669003534   0.0211676126070586
-0.418628031404183   -0.0024768167879893332   -0.010307762792341909
-0.418628031404183   -0.0024768167879893332   -0.010307762792341909
-0.418628031404183   -0.0024768167879893332   -0.010307762792341909
-0.418628031404183   -0.0024768167879893332   -0.010307762792341909
-0.3964885147450095   0.070427377798369   0.025968152410413024
-0.3964885147450095   0.070427377798369   0.025968152410413024
-0.3964885147450095   0.070427377798369   0.025968152410413024
-0.3964885147450095   0.070427377798369   0.025968152410413024
-0.7301541825017902   -0.042840606391220226   -0.036344816029133205
-0.7301541825017902   -0.042840606391220226   -0.036344816029133205
-0.7301541825017902   -0.042840606391220226   -0.036344816029133205
-0.7301541825017902   -0.042840606391220226   -0.036344816029133205
-0.5602231609606271   0.0013735802202817643   0.0008571589376314831
-0.5602231609606271   0.0013735802202817643   0.0008571589376314831
-0.5602231609606271   0.0013735802202817643   0.0008571589376314831
-0.5602231609606271   0.0013735802202817643   0.0008571589376314831
-0.7091360200365718   0.0065711035326012635   0.0193342863731367
-0.7091360200365718   0.0065711035326012635   0.0193342863731367
-0.7091360200365718   0.0065711035326012635   0.0193342863731367
-0.7091360200365718   0.0065711035326012635   0.0193342863731367
-0.41439366868874195   0.0241286763960364   -0.017258915905913594
-0.41439366868874195   0.0241286763960364   -0.017258915905913594
-0.41439366868874195   0.0241286763960364   -0.017258915905913594
-0.41439366868874195   0.0241286763960364   -0.017258915905913594
-0.3915541385437258   0.10210913996032112   0.020651969890318596
-0.3915541385437258   0.10210913996032112   0.020651969890318596
-0.3915541385437258   0.10210913996032112   0.020651969890318596
-0.3915541385437258   0.10210913996032112   0.020651969890318596
-0.7226940673936049   -0.01261108363495686   -0.0401635218096787
-0.7226940673936049   -0.01261108363495686   -0.0401635218096787
-0.7226940673936049   -0.01261108363495686   -0.0401635218096787
-0.7226940673936049   -0.01261108363495686   -0.0401635218096787
-0.5559687819090818   0.028867337604585402   0.012810201563475426
-0.5559687819090818   0.028867337604585402   0.012810201563475426
-0.5559687819090818   0.028867337604585402   0.012810201563475426
-0.5559687819090818   0.028867337604585402   0.012810201563475426
-0.4320235743021102   -0.08186539650911485   0.0010776832374923657
-0.4320235743021102   -0.08186539650911485   0.0010776832374923657
-0.4320235743021102   -0.08186539650911485   0.0010776832374923657
-0.4320235743021102   -0.08186539650911485   0.0010776832374923657
-0.11193030506199021   -0.009623102542840855   0.01760770898934759
-0.11193030506199021   -0.009623102542840855   0.01760770898934759
-0.11193030506199021   -0.009623102542840855   0.01760770898934759
-0.11193030506199021   -0.009623102542840855   0.01760770898934759
-0.10919656680882217   0.01675192348526991   0.006004989844819475
-0.10919656680882217   0.01675192348526991   0.006004989844819475
-0.10919656680882217   0.01675192348526991   0.006004989844819475
-0.10919656680882217   0.01675192348526991   0.006004989844819475
-0.4272861291003156   -0.04786126180810884   -0.008213806252890152
-0.4272861291003156   -0.04786126180810884   -0.008213806252890152
-0.4272861291003156   -0.04786126180810884   -0.008213806252890152
-0.4272861291003156   -0.04786126180810884   -0.008213806252890152
-0.2705711326468373   -0.02933776781987946   -0.008312255949800479
-0.2705711326468373   -0.02933776781987946   -0.008312255949800479
-0.2705711326468373   -0.02933776781987946   -0.008312255949800479
-0.2705711326468373   -0.02933776781987946   -0.008312255949800479
-0.42658717868740326   -0.04870271671558136   -0.0038775992808557976
-0.42658717868740326   -0.04870271671558136   -0.0038775992808557976
-0.42658717868740326   -0.04870271671558136   -0.0038775992808557976
-0.42658717868740326   -0.04870271671558136   -0.0038775992808557976
-0.10738231829876276   0.020106577315714216   0.011721578564672276
-0.10738231829876276   0.020106577315714216   0.011721578564672276
-0.10738231829876276   0.020106577315714216   0.011721578564672276
-0.10738231829876276   0.020106577315714216   0.011721578564672276
-0.10302920646326835   0.05006411323549674   0.0015544940519596345
-0.10302920646326835   0.05006411323549674   0.0015544940519596345
-0.10302920646326835   0.05006411323549674   0.0015544940519596345
-0.10302920646326835   0.05006411323549674   0.0015544940519596345
-0.42217365427173786   -0.01792386951383748   -0.014106297911022515
-0.42217365427173786   -0.01792386951383748   -0.014106297911022515
-0.42217365427173786   -0.01792386951383748   -0.014106297911022515
-0.42217365427173786   -0.01792386951383748   -0.014106297911022515
-0.263983384871081   0.0005934462905124102   0.0035152944887781937
-0.263983384871081   0.0005934462905124102   0.0035152944887781937
-0.263983384871081   0.0005934462905124102   0.0035152944887781937
-0.263983384871081   0.0005934462905124102   0.0035152944887781937
-0.42060290495064007   -0.015497341196868505   -0.008679079622502566
-0.42060290495064007   -0.015497341196868505   -0.008679079622502566
-0.42060290495064007   -0.015497341196868505   -0.008679079622502566
-0.42060290495064007   -0.015497341196868505   -0.008679079622502566
-0.10227946426973832   0.04995807643315703   0.005409241821950447
-0.10227946426973832   0.04995807643315703   0.005409241821950447
-0.10227946426973832   0.04995807643315703   0.005409241821950447
-0.10227946426973832   0.04995807643315703   0.005409241821950447
-0.09749535448309833   0.08385950463257852   -0.0036736805104301724
-0.09749535448309833   0.08385950463257852   -0.0036736805104301724
-0.09749535448309833   0.08385950463257852   -0.0036736805104301724
-0.09749535448309833   0.08385950463257852   -0.0036736805104301724
-0.41768880463275615   0.012359548149509153   -0.020271768744021885
-0.41768880463275615   0.012359548149509153   -0.020271768744021885
-0.41768880463275615   0.012359548149509153   -0.020271768744021885
-0.41768880463275615   0.012359548149509153   -0.020271768744021885
-0.25796895774050754   0.03066824267766151   0.014910023918652555
-0.25796895774050754   0.03066824267766151   0.014910023918652555
-0.25796895774050754   0.03066824267766151   0.014910023918652555
-0.25796895774050754   0.03066824267766151   0.014910023918652555
-0.13819529205577397   -0.10016265718399014   -0.023177671338422898
-0.13819529205577397   -0.10016265718399014   -0.023177671338422898
-0.13819529205577397   -0.10016265718399014   -0.023177671338422898
-0.13819529205577397   -0.10016265718399014   -0.023177671338422898
0.19505797707078631   0.015433555282465587   0.03817911965241875
0.19505797707078631   0.015433555282465587   0.03817911965241875
0.19505797707078631   0.015433555282465587   0.03817911965241875
0.19505797707078631   0.015433555282465587   0.03817911965241875
0.18138423909013093   -0.005557790246215721   -0.021344714149969534
0.18138423909013093   -0.005557790246215721   -0.021344714149969534
0.18138423909013093   -0.005557790246215721   -0.021344714149969534
0.18138423909013093   -0.005557790246215721   -0.021344714149969534
-0.11556129528464248   -0.023227383751997913   0.014160654702985725
-0.11556129528464248   -0.023227383751997913   0.014160654702985725
-0.11556129528464248   -0.023227383751997913   0.014160654702985725
-0.11556129528464248   -0.023227383751997913   0.014160654702985725
0.029439571635789998   -0.02759052965261342   -0.0059193301696589444
0.029439571635789998   -0.02759052965261342   -0.0059193301696589444
0.029439571635789998   -0.02759052965261342   -0.0059193301696589444
0.029439571635789998   -0.02759052965261342   -0.0059193301696589444
-0.13344721678780397   -0.06996200492064392   -0.028534331644175622
-0.13344721678780397   -0.06996200492064392   -0.028534331644175622
-0.13344721678780397   -0.06996200492064392   -0.028534331644175622
-0.13344721678780397   -0.06996200492064392   -0.028534331644175622
0.20226077871056736   0.04416744903970745   0.033312744666287364
0.20226077871056736   0.04416744903970745   0.033312744666287364
0.20226077871056736   0.04416744903970745   0.033312744666287364
0.20226077871056736   0.04416744903970745   0.033312744666287364
0.19286329196451132   0.025954491901173438   -0.024185656021086507
0.19286329196451132   0.025954491901173438   -0.024185656021086507
0.19286329196451132   0.025954491901173438   -0.024185656021086507
0.19286329196451132   0.025954491901173438   -0.024185656021086507
-0.11111111204202832   0.003545479200650941   0.007663600193006506
-0.11111111204202832   0.003545479200650941   0.007663600193006506
-0.11111111204202832   0.003545479200650941   0.007663600193006506
-0.11111111204202832   0.003545479200650941   0.007663600193006506
0.03554804520506867   -0.00044464301759650215   0.006114654482292734
0.03554804520506867   -0.00044464301759650215   0.006114654482292734
0.03554804520506867   -0.00044464301759650215   0.006114654482292734
0.03554804520506867   -0.00044464301759650215   0.006114654482292734
-0.1283720159752434   -0.0403954387808699   -0.03470000149154849
-0.1283720159752434   -0.0403954387808699   -0.03470000149154849
-0.1283720159752434   -0.0403954387808699   -0.03470000149154849
-0.1283720159752434   -0.0403954387808699   -0.03470000149154849
0.21271798063858063   0.07248919462355036   0.02855308462687925
0.21271798063858063   0.07248919462355036   0.02855308462687925
0.21271798063858063   0.07248919462355036   0.02855308462687925
0.21271798063858063   0.07248919462355036   0.02855308462687925
0.20210855410685788   0.06186394199408485   -0.027951385105400985
0.20210855410685788   0.06186394199408485   -0.027951385105400985
0.20210855410685788   0.06186394199408485   -0.027951385105400985
0.20210855410685788   0.06186394199408485   -0.027951385105400985
-0.10635541485780323   0.03440257152576384   0.0014829507228588286
-0.10635541485780323   0.03440257152576384   0.0014829507228588286
-0.10635541485780323   0.03440257152576384   0.0014829507228588286
-0.10635541485780323   0.03440257152576384   0.0014829507228588286
0.04497549990937655   0.029075005199555106   0.01857288760011898
0.04497549990937655   0.029075005199555106   0.01857288760011898
0.04497549990937655   0.029075005199555106   0.01857288760011898
0.04497549990937655   0.029075005199555106   0.01857288760011898
0.15494102917423147   -0.10120855538665152   -0.04576350916123659
0.15494102917423147   -0.10120855538665152   -0.04576350916123659
0.15494102917423147   -0.10120855538665152   -0.04576350916123659
0.15494102917423147   -0.10120855538665152   -0.04576350916123659
0.4677186647081889   0.04615258518941602   0.04948489213667279
0.4677186647081889   0.04615258518941602   0.04948489213667279
0.4677186647081889   0.04615258518941602   0.04948489213667279
0.4677186647081889   0.04615258518941602   0.04948489213667279
0.46303234487585104   -0.024993757468943   -0.0602502892150852
0.46303234487585104   -0.024993757468943   -0.0602502892150852
0.46303234487585104   -0.024993757468943   -0.0602502892150852
0.46303234487585104   -0.024993757468943   -0.0602502892150852
0.19583692241318088   0.008427262128881244   0.03693365009018117
0.19583692241318088   0.008427262128881244   0.03693365009018117
0.19583692241318088   0.008427262128881244   0.03693365009018117
0.19583692241318088   0.008427262128881244   0.03693365009018117
0.30367742181649093   -0.020970965442584852   -0.016080978138671473
0.30367742181649093   -0.020970965442584852   -0.016080978138671473
0.30367742181649093   -0.020970965442584852   -0.016080978138671473
0.30367742181649093   -0.020970965442584852   -0.016080978138671473
0.15932210513393164   -0.08427365200812215   -0.05293952216906156
0.15932210513393164   -0.08427365200812215   -0.05293952216906156
0.15932210513393164   -0.08427365200812215   -0.05293952216906156
0.15932210513393164   -0.08427365200812215   -0.05293952216906156
0.5025962671387125   0.07075626165167392   0.041819302978612874
0.5025962671387125   0.07075626165167392   0.041819302978612874
0.5025962671387125   0.07075626165167392   0.041819302978612874
0.5025962671387125   0.07075626165167392   0.041819302978612874
0.4884092296591608   -0.0073431097917478205   -0.07227318475520958
0.4884092296591608   -0.0073431097917478205   -0.07227318475520958
0.4884092296591608   -0.0073431097917478205   -0.07227318475520958
0.4884092296591608   -0.0073431097917478205   -0.07227318475520958
0.20254241585555988   0.021357394206651226   0.02880706112867462
0.20254241585555988   0.021357394206651226   0.02880706112867462
0.20254241585555988   0.021357394206651226   0.02880706112867462
0.20254241585555988   0.021357394206651226   0.02880706112867462
0.3292928564106246   -0.0031675655616329457   -0.001908822273149459
0.3292928564106246   -0.0031675655616329457   -0.001908822273149459
0.3292928564106246   -0.0031675655616329457   -0.001908822273149459
0.3292928564106246   -0.0031675655616329457   -0.001908822273149459
0.16631163779329156   -0.0695882318409021   -0.06140120313511164
0.16631163779329156   -0.0695882318409021   -0.06140120313511164
0.16631163779329156   -0.0695882318409021   -0.06140120313511164
0.16631163779329156   -0.0695882318409021   -0.06140120313511164
0.5278184354968994   0.0867809440312774   0.030648790610465937
0.5278184354968994   0.0867809440312774   0.030648790610465937
0.5278184354968994   0.0867809440312774   0.030648790610465937
0.5278184354968994   0.0867809440312774   0.030648790610465937
0.5273864294944014   0.031411506205579906   -0.0773774654525203
0.5273864294944014   0.031411506205579906   -0.0773774654525203
0.5273864294944014   0.031411506205579906   -0.0773774654525203
0.5273864294944014   0.031411506205579906   -0.0773774654525203
0.2094039637167359   0.04749763551689319   0.02289196942117887
0.2094039637167359   0.04749763551689319   0.02289196942117887
0.2094039637167359   0.04749763551689319   0.02289196942117887
0.2094039637167359   0.04749763551689319   0.02289196942117887
0.34209924877177944   0.016444714051798696   0.010296082117617856
0.34209924877177944   0.016444714051798696   0.010296082117617856
0.34209924877177944   0.016444714051798696   0.010296082117617856
0.34209924877177944   0.016444714051798696   0.010296082117617856
-0.6309603861325526   -0.010489211909687615   0.06174561455941645
-0.6309603861325526   -0.010489211909687615   0.06174561455941645
-0.6309603861325526   -0.010489211909687615   0.06174561455941645
-0.6309603861325526   -0.010489211909687615   0.06174561455941645
-0.49254368360357836   -0.0625806706433055   -0.030518508130195195
-0.49254368360357836   -0.0625806706433055   -0.030518508130195195
-0.49254368360357836   -0.0625806706433055   -0.030518508130195195
-0.49254368360357836   -0.0625806706433055   -0.030518508130195195
-0.44582342198651437   0.05298881273697456   0.05279056370961189
-0.44582342198651437   0.05298881273697456   0.05279056370961189
-0.44582342198651437   0.05298881273697456   0.05279056370961189
-0.44582342198651437   0.05298881273697456   0.05279056370961189
-0.6283143271657173   -0.06845803725370352   -0.041551070633869036
-0.6283143271657173   -0.06845803725370352   -0.041551070633869036
-0.6283143271657173   -0.06845803725370352   -0.041551070633869036
-0.6283143271657173   -0.06845803725370352   -0.041551070633869036
-0.528400914071621   -0.01452377126448709   -0.007838045057766994
-0.528400914071621   -0.01452377126448709   -0.007838045057766994
-0.528400914071621   -0.01452377126448709   -0.007838045057766994
-0.528400914071621   -0.01452377126448709   -0.007838045057766994
-0.5894131510098793   0.0255100906405855   0.05898668225103152
-0.5894131510098793   0.0255100906405855   0.05898668225103152
-0.5894131510098793   0.0255100906405855   0.05898668225103152
-0.5894131510098793   0.0255100906405855   0.05898668225103152
-0.4820183915579753   -0.03827310857293682   -0.0369223628377775
-0.4820183915579753   -0.03827310857293682   -0.0369223628377775
-0.4820183915579753   -0.03827310857293682   -0.0369223628377775
-0.4820183915579753   -0.03827310857293682   -0.0369223628377775
-0.434783266360917   0.06673779041581135   0.044645046560450055
-0.434783266360917   0.06673779041581135   0.044645046560450055
-0.434783266360917   0.06673779041581135   0.044645046560450055
-0.434783266360917   0.06673779041581135   0.044645046560450055
-0.5994543232105509   -0.05287703952591645   -0.05190473322111762
-0.5994543232105509   -0.05287703952591645   -0.05190473322111762
-0.5994543232105509   -0.05287703952591645   -0.05190473322111762
-0.5994543232105509   -0.05287703952591645   -0.05190473322111762
-0.5133136933280337   0.0034685054566675894   0.0036490262870628766
-0.5133136933280337   0.0034685054566675894   0.0036490262870628766
-0.5133136933280337   0.0034685054566675894   0.0036490262870628766
-0.5133136933280337   0.0034685054566675894   0.0036490262870628766
-0.5605287054317266   0.04219079709914683   0.047655519047937064
-0.5605287054317266   0.04219079709914683   0.047655519047937064
-0.5605287054317266   0.04219079709914683   0.047655519047937064
-0.5605287054317266   0.04219079709914683   0.047655519047937064
-0.4711485767574303   -0.025769738826940863   -0.044673976179360295
-0.4711485767574303   -0.025769738826940863   -0.044673976179360295
-0.4711485767574303   -0.025769738826940863   -0.044673976179360295
-0.4711485767574303   -0.025769738826940863   -0.044673976179360295
-0.4258470029502921   0.0838755233068369   0.038503212467345296
-0.4258470029502921   0.0838755233068369   0.038503212467345296
-0.4258470029502921   0.0838755233068369   0.038503212467345296
-0.4258470029502921   0.0838755233068369   0.038503212467345296
-0.5606845575697232   -0.027929633218300373   -0.06006401799900063
-0.5606845575697232   -0.027929633218300373   -0.06006401799900063
-0.5606845575697232   -0.027929633218300373   -0.06006401799900063
-0.5606845575697232   -0.027929633218300373   -0.06006401799900063
-0.4828776826907934   0.021217280272844585   0.01789453666590765
-0.4828776826907934   0.021217280272844585   0.01789453666590765
-0.4828776826907934   0.021217280272844585   0.01789453666590765
-0.4828776826907934   0.021217280272844585   0.01789453666590765
-0.4752363866097034   -0.0357274183680852   0.029164724563959434
-0.4752363866097034   -0.0357274183680852   0.029164724563959434
-0.4752363866097034   -0.0357274183680852   0.029164724563959434
-0.4752363866097034   -0.0357274183680852   0.029164724563959434
-0.34923786685960406   -0.047443271782036556   -0.00903349601836452
-0.34923786685960406   -0.047443271782036556   -0.00903349601836452
-0.34923786685960406   -0.047443271782036556   -0.00903349601836452
-0.34923786685960406   -0.047443271782036556   -0.00903349601836452
-0.3232021342504936   0.024067671059326112   0.026988779290561243
-0.3232021342504936   0.024067671059326112   0.026988779290561243
-0.3232021342504936   0.024067671059326112   0.026988779290561243
-0.3232021342504936   0.024067671059326112   0.026988779290561243
-0.48229569822752216   -0.050524356526771334   -0.02605764823167711
-0.48229569822752216   -0.050524356526771334   -0.02605764823167711
-0.48229569822752216   -0.050524356526771334   -0.02605764823167711
-0.48229569822752216   -0.050524356526771334   -0.02605764823167711
-0.40637594443709163   -0.0252412698619517   -0.010965694455454318
-0.40637594443709163   -0.0252412698619517   -0.010965694455454318
-0.40637594443709163   -0.0252412698619517   -0.010965694455454318
-0.40637594443709163   -0.0252412698619517   -0.010965694455454318
-0.4628757514729286   -0.004301052033642269   0.024818781048154322
-0.4628757514729286   -0.004301052033642269   0.024818781048154322
-0.4628757514729286   -0.004301052033642269   0.024818781048154322
-0.4628757514729286   -0.004301052033642269   0.024818781048154322
-0.3404395225816743   -0.019973075010388787   -0.01515741629562758
-0.3404395225816743   -0.019973075010388787   -0.01515741629562758
-0.3404395225816743   -0.019973075010388787   -0.01515741629562758
-0.3404395225816743   -0.019973075010388787   -0.01515741629562758
-0.3136843388347705   0.052039159753997935   0.021584171029938044
-0.3136843388347705   0.052039159753997935   0.021584171029938044
-0.3136843388347705   0.052039159753997935   0.021584171029938044
-0.3136843388347705   0.052039159753997935   0.021584171029938044
-0.46802751365334827   -0.023640694953015004   -0.03119770453286771
-0.46802751365334827   -0.023640694953015004   -0.03119770453286771
-0.46802751365334827   -0.023640694953015004   -0.03119770453286771
-0.46802751365334827   -0.023640694953015004   -0.03119770453286771
-0.39260347589830047   0.0017197733221693129   0.0011096130512671248
-0.39260347589830047   0.0017197733221693129   0.0011096130512671248
-0.39260347589830047   0.0017197733221693129   0.0011096130512671248
-0.39260347589830047   0.0017197733221693129   0.0011096130512671248
-0.4474673981426886   0.025465124416589463   0.022497053650813816
-0.4474673981426886   0.025465124416589463   0.022497053650813816
-0.4474673981426886   0.025465124416589463   0.022497053650813816
-0.4474673981426886   0.025465124416589463   0.022497053650813816
-0.331724842603894   0.005452952125924407   -0.02203214018760954
-0.331724842603894   0.005452952125924407   -0.02203214018760954
-0.331724842603894   0.005452952125924407   -0.02203214018760954
-0.331724842603894   0.005452952125924407   -0.02203214018760954
-0.30419650484641236   0.08240842661780153   0.01643646690690534
-0.30419650484641236   0.08240842661780153   0.01643646690690534
-0.30419650484641236   0.08240842661780153   0.01643646690690534
-0.30419650484641236   0.08240842661780153   0.01643646690690534
-0.45625583776966755   0.005730035244776319   -0.03539547356746393
-0.45625583776966755   0.005730035244776319   -0.03539547356746393
-0.45625583776966755   0.005730035244776319   -0.03539547356746393
-0.45625583776966755   0.005730035244776319   -0.03539547356746393
-0.38264679899783344   0.02815961196901312   0.012924217295489173
-0.38264679899783344   0.02815961196901312   0.012924217295489173
-0.38264679899783344   0.02815961196901312   0.012924217295489173
-0.38264679899783344   0.02815961196901312   0.012924217295489173
-0.3488091568326682   -0.05948921518999038   0.005155997524262629
-0.3488091568326682   -0.05948921518999038   0.005155997524262629
-0.3488091568326682   -0.05948921518999038   0.005155997524262629
-0.3488091568326682   -0.05948921518999038   0.005155997524262629
-0.2078408546659636   -0.025078581532994935   0.012804114439502431
-0.2078408546659636   -0.025078581532994935   0.012804114439502431
-0.2078408546659636   -0.025078581532994935   0.012804114439502431
-0.2078408546659636   -0.025078581532994935   0.012804114439502431
-0.20076340580403534   -0.0005841812795556386   0.0016488730935956108
-0.20076340580403534   -0.0005841812795556386   0.0016488730935956108
-0.20076340580403534   -0.0005841812795556386   0.0016488730935956108
-0.20076340580403534   -0.0005841812795556386   0.0016488730935956108
-0.33943726234009053   -0.027112057783368976   -0.003007132314728298
-0.33943726234009053   -0.027112057783368976   -0.003007132314728298
-0.33943726234009053   -0.027112057783368976   -0.003007132314728298
-0.33943726234009053   -0.027112057783368976   -0.003007132314728298
-0.27464956497391946   -0.02675215571546531   -0.007988740622226296
-0.27464956497391946   -0.02675215571546531   -0.007988740622226296
-0.27464956497391946   -0.02675215571546531   -0.007988740622226296
-0.27464956497391946   -0.02675215571546531   -0.007988740622226296
-0.3390282681036823   -0.028484810117846808   0.00041059120178673324
-0.3390282681036823   -0.028484810117846808   0.00041059120178673324
-0.3390282681036823   -0.028484810117846808   0.00041059120178673324
-0.3390282681036823   -0.028484810117846808   0.00041059120178673324
-0.1990016401217569   0.002959330973608218   0.006914189251824045
-0.1990016401217569   0.002959330973608218   0.006914189251824045
-0.1990016401217569   0.002959330973608218   0.006914189251824045
-0.1990016401217569   0.002959330973608218   0.006914189251824045
-0.1904222632231884   0.030693878230627754   -0.002768950237230526
-0.1904222632231884   0.030693878230627754   -0.002768950237230526
-0.1904222632231884   0.030693878230627754   -0.002768950237230526
-0.1904222632231884   0.030693878230627754   -0.002768950237230526
-0.32990172822649566   0.0013263552065169992   -0.008789971381210696
-0.32990172822649566   0.0013263552065169992   -0.008789971381210696
-0.32990172822649566   0.0013263552065169992   -0.008789971381210696
-0.32990172822649566   0.0013263552065169992   -0.008789971381210696
-0.2637400731814136   0.0013642497470482337   0.003723806682411474
-0.2637400731814136   0.0013642497470482337   0.003723806682411474
-0.2637400731814136   0.0013642497470482337   0.003723806682411474
-0.2637400731814136   0.0013642497470482337   0.003723806682411474
-0.3287527268030243   0.002698211458865757   -0.004416820516204574
-0.3287527268030243   0.002698211458865757   -0.004416820516204574
-0.3287527268030243   0.002698211458865757   -0.004416820516204574
-0.3287527268030243   0.002698211458865757   -0.004416820516204574
-0.18960795999075347   0.03128532663418525   0.0007111175213883325
-0.18960795999075347   0.03128532663418525   0.0007111175213883325
-0.18960795999075347   0.03128532663418525   0.0007111175213883325
-0.18960795999075347   0.03128532663418525   0.0007111175213883325
-0.1806543223120136   0.062259718070661295   -0.007805401459003745
-0.1806543223120136   0.062259718070661295   -0.007805401459003745
-0.1806543223120136   0.062259718070661295   -0.007805401459003745
-0.1806543223120136   0.062259718070661295   -0.007805401459003745
-0.32096348132270386   0.029983724583171292   -0.014973713439921755
-0.32096348132270386   0.029983724583171292   -0.014973713439921755
-0.32096348132270386   0.029983724583171292   -0.014973713439921755
-0.32096348132270386   0.029983724583171292   -0.014973713439921755
-0.25342276382722745   0.029581770547054215   0.01496472109388132
-0.25342276382722745   0.029581770547054215   0.01496472109388132
-0.25342276382722745   0.029581770547054215   0.01496472109388132
-0.25342276382722745   0.029581770547054215   0.01496472109388132
-0.22523314403914518   -0.08008972971824027   -0.01914618424116367
-0.22523314403914518   -0.08008972971824027   -0.01914618424116367
-0.22523314403914518   -0.08008972971824027   -0.01914618424116367
-0.22523314403914518   -0.08008972971824027   -0.01914618424116367
-0.07048248529590351   -0.0013341351053020338   0.03356612557379496
-0.07048248529590351   -0.0013341351053020338   0.03356612557379496
-0.07048248529590351   -0.0013341351053020338   0.03356612557379496
-0.07048248529590351   -0.0013341351053020338   0.03356612557379496
-0.08004202994177001   -0.023897062693060092   -0.024707005345197652
-0.08004202994177001   -0.023897062693060092   -0.024707005345197652
-0.08004202994177001   -0.023897062693060092   -0.024707005345197652
-0.08004202994177001   -0.023897062693060092   -0.024707005345197652
-0.19774153533426395   -0.0030547087079550866   0.01922875287085033
-0.19774153533426395   -0.0030547087079550866   0.01922875287085033
-0.19774153533426395   -0.0030547087079550866   0.01922875287085033
-0.19774153533426395   -0.0030547087079550866   0.01922875287085033
-0.14334157991665092   -0.025912794189518983   -0.005766147919077399
-0.14334157991665092   -0.025912794189518983   -0.005766147919077399
-0.14334157991665092   -0.025912794189518983   -0.005766147919077399
-0.14334157991665092   -0.025912794189518983   -0.005766147919077399
-0.2160210848727089   -0.05099684443005962   -0.024226859099271723
-0.2160210848727089   -0.05099684443005962   -0.024226859099271723
-0.2160210848727089   -0.05099684443005962   -0.024226859099271723
-0.2160210848727089   -0.05099684443005962   -0.024226859099271723
-0.05933063336863257   0.02647692006373888   0.028475994763688745
-0.05933063336863257   0.02647692006373888   0.028475994763688745
-0.05933063336863257   0.02647692006373888   0.028475994763688745
-0.05933063336863257   0.02647692006373888   0.028475994763688745
-0.06490465023055454   0.005690922227470509   -0.02781564648438479
-0.06490465023055454   0.005690922227470509   -0.02781564648438479
-0.06490465023055454   0.005690922227470509   -0.02781564648438479
-0.06490465023055454   0.005690922227470509   -0.02781564648438479
-0.18894551524921055   0.022479266526396056   0.012829401336890495
-0.18894551524921055   0.022479266526396056   0.012829401336890495
-0.18894551524921055   0.022479266526396056   0.012829401336890495
-0.18894551524921055   0.022479266526396056   0.012829401336890495
-0.13172968086884335   0.0002790997423867854   0.006171935339308362
-0.13172968086884335   0.0002790997423867854   0.006171935339308362
-0.13172968086884335   0.0002790997423867854   0.006171935339308362
-0.13172968086884335   0.0002790997423867854   0.006171935339308362
-0.20664458175770675   -0.02310938976410198   -0.030077274915095036
-0.20664458175770675   -0.02310938976410198   -0.030077274915095036
-0.20664458175770675   -0.02310938976410198   -0.030077274915095036
-0.20664458175770675   -0.02310938976410198   -0.030077274915095036
-0.04494164576350451   0.053543516476522265   0.02414678160181553
-0.04494164576350451   0.053543516476522265   0.02414678160181553
-0.04494164576350451   0.053543516476522265   0.02414678160181553
-0.04494164576350451   0.053543516476522265   0.02414678160181553
-0.05210162540274966   0.03872396267810773   -0.031163882970475336
-0.05210162540274966   0.03872396267810773   -0.031163882970475336
-0.05210162540274966   0.03872396267810773   -0.031163882970475336
-0.05210162540274966   0.03872396267810773   -0.031163882970475336
-0.179940566969449   0.051362968771390266   0.006660124553090237
-0.179940566969449   0.051362968771390266   0.006660124553090237
-0.179940566969449   0.051362968771390266   0.006660124553090237
-0.179940566969449   0.051362968771390266   0.006660124553090237
-0.11971742957684368   0.02757027542643476   0.01810770905991453
-0.11971742957684368   0.02757027542643476   0.01810770905991453
-0.11971742957684368   0.02757027542643476   0.01810770905991453
-0.11971742957684368   0.02757027542643476   0.01810770905991453
-0.10247856848783178   -0.08611127081279395   -0.041637154678356394
-0.10247856848783178   -0.08611127081279395   -0.041637154678356394
-0.10247856848783178   -0.08611127081279395   -0.041637154678356394
-0.10247856848783178   -0.08611127081279395   -0.041637154678356394
0.03300263594807237   0.025339712438144008   0.05122188809381089
0.03300263594807237   0.025339712438144008   0.05122188809381089
0.03300263594807237   0.025339712438144008   0.05122188809381089
0.03300263594807237   0.025339712438144008   0.05122188809381089
0.03322531287244108   -0.042511092553098984   -0.055146513778980166
0.03322531287244108   -0.042511092553098984   -0.055146513778980166
0.03322531287244108   -0.042511092553098984   -0.055146513778980166
0.03322531287244108   -0.042511092553098984   -0.055146513778980166
-0.0566177528610103   0.02659284856975571   0.04192446879578515
-0.0566177528610103   0.02659284856975571   0.04192446879578515
-0.0566177528610103   0.02659284856975571   0.04192446879578515
-0.0566177528610103   0.02659284856975571   0.04192446879578515
-0.02428243375990502   -0.01831937619630538   -0.009711949109218205
-0.02428243375990502   -0.01831937619630538   -0.009711949109218205
-0.02428243375990502   -0.01831937619630538   -0.009711949109218205
-0.02428243375990502   -0.01831937619630538   -0.009711949109218205
-0.09316239405334208   -0.06633375741806964   -0.04787213117805032
-0.09316239405334208   -0.06633375741806964   -0.04787213117805032
-0.09316239405334208   -0.06633375741806964   -0.04787213117805032
-0.09316239405334208   -0.06633375741806964   -0.04787213117805032
0.07236925985470093   0.05301481922465476   0.04504730935456916
0.07236925985470093   0.05301481922465476   0.04504730935456916
0.07236925985470093   0.05301481922465476   0.04504730935456916
0.07236925985470093   0.05301481922465476   0.04504730935456916
0.06223218360009841   -0.02556981008548431   -0.06551872807654159
0.06223218360009841   -0.02556981008548431   -0.06551872807654159
0.06223218360009841   -0.02556981008548431   -0.06551872807654159
0.06223218360009841   -0.02556981008548431   -0.06551872807654159
-0.045976774285117095   0.03888606075219235   0.033628594718082536
-0.045976774285117095   0.03888606075219235   0.033628594718082536
-0.045976774285117095   0.03888606075219235   0.033628594718082536
-0.045976774285117095   0.03888606075219235   0.033628594718082536
-0.0004557368538066607   -0.0008836331942985421   0.0032192892942744986
-0.0004557368538066607   -0.0008836331942985421   0.0032192892942744986
-0.0004557368538066607   -0.0008836331942985421   0.0032192892942744986
-0.0004557368538066607   -0.0008836331942985421   0.0032192892942744986
-0.08203324253678594   -0.05239390571263926   -0.05537378007543199
-0.08203324253678594   -0.05239390571263926   -0.05537378007543199
-0.08203324253678594   -0.05239390571263926   -0.05537378007543199
-0.08203324253678594   -0.05239390571263926   -0.05537378007543199
0.10089132562889165   0.06831283015647202   0.0338943418254721
0.10089132562889165   0.06831283015647202   0.0338943418254721
0.10089132562889165   0.06831283015647202   0.0338943418254721
0.10089132562889165   0.06831283015647202   0.0338943418254721
0.10290346346814458   0.007584440690240605   -0.07017350446349277
0.10290346346814458   0.007584440690240605   -0.07017350446349277
0.10290346346814458   0.007584440690240605   -0.07017350446349277
0.10290346346814458   0.007584440690240605   -0.07017350446349277
-0.03603764759019741   0.06055090902435095   0.02732905974604269
-0.03603764759019741   0.06055090902435095   0.02732905974604269
-0.03603764759019741   0.06055090902435095   0.02732905974604269
-0.03603764759019741   0.06055090902435095   0.02732905974604269
0.02105136631853092   0.017426279726562854   0.01586750531173916
0.02105136631853092   0.017426279726562854   0.01586750531173916
0.02105136631853092   0.017426279726562854   0.01586750531173916
0.02105136631853092   0.017426279726562854   0.01586750531173916
-0.2084409939978994   0.012048551660371241   0.05852491378250949
-0.2084409939978994   0.012048551660371241   0.05852491378250949
-0.2084409939978994   0.012048551660371241   0.05852491378250949
-0.2084409939978994   0.012048551660371241   0.05852491378250949
-0.24849023378363017   -0.07626023782961776   -0.034459251378126846
-0.24849023378363017   -0.07626023782961776   -0.034459251378126846
-0.24849023378363017   -0.07626023782961776   -0.034459251378126846
-0.24849023378363017   -0.07626023782961776   -0.034459251378126846
-0.19838910335281104   0.03541971879726605   0.047912485808072586
-0.19838910335281104   0.03541971879726605   0.047912485808072586
-0.19838910335281104   0.03541971879726605   0.047912485808072586
-0.19838910335281104   0.03541971879726605   0.047912485808072586
-0.20243125086803598   -0.0500593595818427   -0.044420514321029045
-0.20243125086803598   -0.0500593595818427   -0.044420514321029045
-0.20243125086803598   -0.0500593595818427   -0.044420514321029045
-0.20243125086803598   -0.0500593595818427   -0.044420514321029045
-0.20903905453388524   -0.01607525631008192   -0.016040067515314095
-0.20903905453388524   -0.01607525631008192   -0.016040067515314095
-0.20903905453388524   -0.01607525631008192   -0.016040067515314095
-0.20903905453388524   -0.01607525631008192   -0.016040067515314095
-0.16390681186596023   0.043635120128769224   0.054507200978737666
-0.16390681186596023   0.043635120128769224   0.054507200978737666
-0.16390681186596023   0.043635120128769224   0.054507200978737666
-0.16390681186596023   0.043635120128769224   0.054507200978737666
-0.23449445102452698   -0.05585566958298605   -0.04133886417025483
-0.23449445102452698   -0.05585566958298605   -0.04133886417025483
-0.23449445102452698   -0.05585566958298605   -0.04133886417025483
-0.23449445102452698   -0.05585566958298605   -0.04133886417025483
-0.1829672468826209   0.04886439577736379   0.04031536696735351
-0.1829672468826209   0.04886439577736379   0.04031536696735351
-0.1829672468826209   0.04886439577736379   0.04031536696735351
-0.1829672468826209   0.04886439577736379   0.04031536696735351
-0.16933183015978717   -0.03486512732951634   -0.05532147689294418
-0.16933183015978717   -0.03486512732951634   -0.05532147689294418
-0.16933183015978717   -0.03486512732951634   -0.05532147689294418
-0.16933183015978717   -0.03486512732951634   -0.05532147689294418
-0.1846219034694562   0.001097272197921835   -0.0033677672061798516
-0.1846219034694562   0.001097272197921835   -0.0033677672061798516
-0.1846219034694562   0.001097272197921835   -0.0033677672061798516
-0.1846219034694562   0.001097272197921835   -0.0033677672061798516
-0.13059012370615364   0.05998427719027201   0.04353765085542739
-0.13059012370615364   0.05998427719027201   0.04353765085542739
-0.13059012370615364   0.05998427719027201   0.04353765085542739
-0.13059012370615364   0.05998427719027201   0.04353765085542739
-0.21942915111384143   -0.04370520652001284   -0.04942455189137244
-0.21942915111384143   -0.04370520652001284   -0.04942455189137244
-0.21942915111384143   -0.04370520652001284   -0.04942455189137244
-0.21942915111384143   -0.04370520652001284   -0.04942455189137244
-0.16886320994938023   0.06941130093239162   0.03481930513411621
-0.16886320994938023   0.06941130093239162   0.03481930513411621
-0.16886320994938023   0.06941130093239162   0.03481930513411621
-0.16886320994938023   0.06941130093239162   0.03481930513411621
-0.1251477794679224   -0.005984174021902787   -0.062317319597314125
-0.1251477794679224   -0.005984174021902787   -0.062317319597314125
-0.1251477794679224   -0.005984174021902787   -0.062317319597314125
-0.1251477794679224   -0.005984174021902787   -0.062317319597314125
-0.15528080767600222   0.0190474991569169   0.010194141344650293
-0.15528080767600222   0.0190474991569169   0.010194141344650293
-0.15528080767600222   0.0190474991569169   0.010194141344650293
-0.15528080767600222   0.0190474991569169   0.010194141344650293
-0.22240777229321837   -0.013609991680186392   0.03330280992450063
-0.22240777229321837   -0.013609991680186392   0.03330280992450063
-0.22240777229321837   -0.013609991680186392   0.03330280992450063
-0.22240777229321837   -0.013609991680186392   0.03330280992450063
-0.27655015996743987   -0.062207880270805996   -0.01346224064698973
-0.27655015996743987   -0.062207880270805996   -0.01346224064698973
-0.27655015996743987   -0.062207880270805996   -0.01346224064698973
-0.27655015996743987   -0.062207880270805996   -0.01346224064698973
-0.24661026459834307   0.0062712454202729015   0.022234927874349573
-0.24661026459834307   0.0062712454202729015   0.022234927874349573
-0.24661026459834307   0.0062712454202729015   0.022234927874349573
-0.24661026459834307   0.0062712454202729015   0.022234927874349573
-0.22499333488726325   -0.02931760752832671   -0.020371345538595643
-0.22499333488726325   -0.02931760752832671   -0.020371345538595643
-0.22499333488726325   -0.02931760752832671   -0.020371345538595643
-0.22499333488726325   -0.02931760752832671   -0.020371345538595643
-0.24282079496276143   -0.022817506707678018   -0.01127364867809388
-0.24282079496276143   -0.022817506707678018   -0.01127364867809388
-0.24282079496276143   -0.022817506707678018   -0.01127364867809388
-0.24282079496276143   -0.022817506707678018   -0.01127364867809388
-0.20609442420612098   0.015740456659670367   0.029065143679114815
-0.20609442420612098   0.015740456659670367   0.029065143679114815
-0.20609442420612098   0.015740456659670367   0.029065143679114815
-0.20609442420612098   0.015740456659670367   0.029065143679114815
-0.2636139118921542   -0.03689155538039403   -0.019620507794041283
-0.2636139118921542   -0.03689155538039403   -0.019620507794041283
-0.2636139118921542   -0.03689155538039403   -0.019620507794041283
-0.2636139118921542   -0.03689155538039403   -0.019620507794041283
-0.23284256148504492   0.03302828601289   0.016962248128354052
-0.23284256148504492   0.03302828601289   0.016962248128354052
-0.23284256148504492   0.03302828601289   0.016962248128354052
-0.23284256148504492   0.03302828601289   0.016962248128354052
-0.20656839794778437   -0.003536227452322835   -0.02528976512877328
-0.20656839794778437   -0.003536227452322835   -0.02528976512877328
-0.20656839794778437   -0.003536227452322835   -0.02528976512877328
-0.20656839794778437   -0.003536227452322835   -0.02528976512877328
-0.22636795924192712   0.002143718355686393   0.00042063757593973836
-0.22636795924192712   0.002143718355686393   0.00042063757593973836
-0.22636795924192712   0.002143718355686393   0.00042063757593973836
-0.22636795924192712   0.002143718355686393   0.00042063757593973836
-0.186749656140144   0.04408996728968056   0.026177749167421247
-0.186749656140144   0.04408996728968056   0.026177749167421247
-0.186749656140144   0.04408996728968056   0.026177749167421247
-0.186749656140144   0.04408996728968056   0.026177749167421247
-0.250640933372236   -0.012577538808667847   -0.026423786486046753
-0.250640933372236   -0.012577538808667847   -0.026423786486046753
-0.250640933372236   -0.012577538808667847   -0.026423786486046753
-0.250640933372236   -0.012577538808667847   -0.026423786486046753
-0.2190072763089524   0.06264895706213636   0.011950574058621169
-0.2190072763089524   0.06264895706213636   0.011950574058621169
-0.2190072763089524   0.06264895706213636   0.011950574058621169
-0.2190072763089524   0.06264895706213636   0.011950574058621169
-0.19067585747298121   0.02508351692308739   -0.029916148474580732
-0.19067585747298121   0.02508351692308739   -0.029916148474580732
-0.19067585747298121   0.02508351692308739   -0.029916148474580732
-0.19067585747298121   0.02508351692308739   -0.029916148474580732
-0.2108122788043181   0.027927751294085694   0.012325246107949148
-0.2108122788043181   0.027927751294085694   0.012325246107949148
-0.2108122788043181   0.027927751294085694   0.012325246107949148
-0.2108122788043181   0.027927751294085694   0.012325246107949148
-0.2670647346981275   -0.0376106494513132   0.00936765488007507
-0.2670647346981275   -0.0376106494513132   0.00936765488007507
-0.2670647346981275   -0.0376106494513132   0.00936765488007507
-0.2670647346981275   -0.0376106494513132   0.00936765488007507
-0.30449785418432035   -0.03932452652420694   0.008137466343690055
-0.30449785418432035   -0.03932452652420694   0.008137466343690055
-0.30449785418432035   -0.03932452652420694   0.008137466343690055
-0.30449785418432035   -0.03932452652420694   0.008137466343690055
-0.29347314650362977   -0.01789493091397979   -0.0028856138042277716
-0.29347314650362977   -0.01789493091397979   -0.0028856138042277716
-0.29347314650362977   -0.01789493091397979   -0.0028856138042277716
-0.29347314650362977   -0.01789493091397979   -0.0028856138042277716
-0.2528414379437918   -0.0053089777037700625   0.002659284271146681
-0.2528414379437918   -0.0053089777037700625   0.002659284271146681
-0.2528414379437918   -0.0053089777037700625   0.002659284271146681
-0.2528414379437918   -0.0053089777037700625   0.002659284271146681
-0.279888592206136   -0.023615829641224245   -0.00748573341722001
-0.279888592206136   -0.023615829641224245   -0.00748573341722001
-0.279888592206136   -0.023615829641224245   -0.00748573341722001
-0.279888592206136   -0.023615829641224245   -0.00748573341722001
-0.2530400201829687   -0.008299753178917388   0.004657148550407827
-0.2530400201829687   -0.008299753178917388   0.004657148550407827
-0.2530400201829687   -0.008299753178917388   0.004657148550407827
-0.2530400201829687   -0.008299753178917388   0.004657148550407827
-0.291487026820666   -0.013116617995042969   0.0022666716916563846
-0.291487026820666   -0.013116617995042969   0.0022666716916563846
-0.291487026820666   -0.013116617995042969   0.0022666716916563846
-0.291487026820666   -0.013116617995042969   0.0022666716916563846
-0.27900805720369076   0.011799262099437699   -0.0073191079393968295
-0.27900805720369076   0.011799262099437699   -0.0073191079393968295
-0.27900805720369076   0.011799262099437699   -0.0073191079393968295
-0.27900805720369076   0.011799262099437699   -0.0073191079393968295
-0.23912008115984207   0.021621971948965236   -0.003019036181706611
-0.23912008115984207   0.021621971948965236   -0.003019036181706611
-0.23912008115984207   0.021621971948965236   -0.003019036181706611
-0.23912008115984207   0.021621971948965236   -0.003019036181706611
-0.26477551206569644   0.0029240345054447267   0.004062422839017105
-0.26477551206569644   0.0029240345054447267   0.004062422839017105
-0.26477551206569644   0.0029240345054447267   0.004062422839017105
-0.26477551206569644   0.0029240345054447267   0.004062422839017105
-0.23863215006031363   0.021288986140812455   -0.00024639487591547604
-0.23863215006031363   0.021288986140812455   -0.00024639487591547604
-0.23863215006031363   0.021288986140812455   -0.00024639487591547604
-0.23863215006031363   0.021288986140812455   -0.00024639487591547604
-0.2779363405683067   0.013691895642504878   -0.003853158305543773
-0.2779363405683067   0.013691895642504878   -0.003853158305543773
-0.2779363405683067   0.013691895642504878   -0.003853158305543773
-0.2779363405683067   0.013691895642504878   -0.003853158305543773
-0.26515710719582564   0.0416756110908736   -0.012320655028288437
-0.26515710719582564   0.0416756110908736   -0.012320655028288437
-0.26515710719582564   0.0416756110908736   -0.012320655028288437
-0.26515710719582564   0.0416756110908736   -0.012320655028288437
-0.2260458665287877   0.04866320448100551   -0.009256624459422432
-0.2260458665287877   0.04866320448100551   -0.009256624459422432
-0.2260458665287877   0.04866320448100551   -0.009256624459422432
-0.2260458665287877   0.04866320448100551   -0.009256624459422432
-0.25036353545707385   0.029512785150208734   0.015069934212533831
-0.25036353545707385   0.029512785150208734   0.015069934212533831
-0.25036353545707385   0.029512785150208734   0.015069934212533831
-0.25036353545707385   0.029512785150208734   0.015069934212533831
-0.3132235083540149   -0.059632192531237735   -0.015183138497756776
-0.3132235083540149   -0.059632192531237735   -0.015183138497756776
-0.3132235083540149   -0.059632192531237735   -0.015183138497756776
-0.3132235083540149   -0.059632192531237735   -0.015183138497756776
-0.33485312223466884   -0.0169108945781569   0.028774376884808897
-0.33485312223466884   -0.0169108945781569   0.028774376884808897
-0.33485312223466884   -0.0169108945781569   0.028774376884808897
-0.33485312223466884   -0.0169108945781569   0.028774376884808897
-0.34027485954019393   -0.04107523809803301   -0.02834056987360932
-0.34027485954019393   -0.04107523809803301   -0.02834056987360932
-0.34027485954019393   -0.04107523809803301   -0.02834056987360932
-0.34027485954019393   -0.04107523809803301   -0.02834056987360932
-0.2808861454468995   0.017858122641190438   0.024296337924253324
-0.2808861454468995   0.017858122641190438   0.024296337924253324
-0.2808861454468995   0.017858122641190438   0.024296337924253324
-0.2808861454468995   0.017858122641190438   0.024296337924253324
-0.31598637288967474   -0.023329116519796522   -0.004706509109825514
-0.31598637288967474   -0.023329116519796522   -0.004706509109825514
-0.31598637288967474   -0.023329116519796522   -0.004706509109825514
-0.31598637288967474   -0.023329116519796522   -0.004706509109825514
-0.299582680937159   -0.031278609816565446   -0.02004960706929112
-0.299582680937159   -0.031278609816565446   -0.02004960706929112
-0.299582680937159   -0.031278609816565446   -0.02004960706929112
-0.299582680937159   -0.031278609816565446   -0.02004960706929112
-0.31970412070163556   0.009935697708013627   0.02350218851313601
-0.31970412070163556   0.009935697708013627   0.02350218851313601
-0.31970412070163556   0.009935697708013627   0.02350218851313601
-0.31970412070163556   0.009935697708013627   0.02350218851313601
-0.321304390135188   -0.01291793420692873   -0.03179772744375588
-0.321304390135188   -0.01291793420692873   -0.03179772744375588
-0.321304390135188   -0.01291793420692873   -0.03179772744375588
-0.321304390135188   -0.01291793420692873   -0.03179772744375588
-0.26786611986617803   0.04214638680503276   0.01804345404256913
-0.26786611986617803   0.04214638680503276   0.01804345404256913
-0.26786611986617803   0.04214638680503276   0.01804345404256913
-0.26786611986617803   0.04214638680503276   0.01804345404256913
-0.29880530416978257   0.002232000112148594   0.007215493987483248
-0.29880530416978257   0.002232000112148594   0.007215493987483248
-0.29880530416978257   0.002232000112148594   0.007215493987483248
-0.29880530416978257   0.002232000112148594   0.007215493987483248
-0.2859828385114516   -0.004644024057650992   -0.02574972832111893
-0.2859828385114516   -0.004644024057650992   -0.02574972832111893
-0.2859828385114516   -0.004644024057650992   -0.02574972832111893
-0.2859828385114516   -0.004644024057650992   -0.02574972832111893
-0.3012936034614114   0.03576654468426067   0.019571727033942027
-0.3012936034614114   0.03576654468426067   0.019571727033942027
-0.3012936034614114   0.03576654468426067   0.019571727033942027
-0.3012936034614114   0.03576654468426067   0.019571727033942027
-0.30470570118098783   0.018098927565695144   -0.03489494726384656
-0.30470570118098783   0.018098927565695144   -0.03489494726384656
-0.30470570118098783   0.018098927565695144   -0.03489494726384656
-0.30470570118098783   0.018098927565695144   -0.03489494726384656
-0.2548103891728624   0.06921241111029766   0.011876135067103631
-0.2548103891728624   0.06921241111029766   0.011876135067103631
-0.2548103891728624   0.06921241111029766   0.011876135067103631
-0.2548103891728624   0.06921241111029766   0.011876135067103631
-0.2842255876751227   0.027589224948758817   0.0186122047050415
-0.2842255876751227   0.027589224948758817   0.0186122047050415
-0.2842255876751227   0.027589224948758817   0.0186122047050415
-0.2842255876751227   0.027589224948758817   0.0186122047050415
-0.35902194930560843   -0.07092142736747027   -0.03805922568057967
-0.35902194930560843   -0.07092142736747027   -0.03805922568057967
-0.35902194930560843   -0.07092142736747027   -0.03805922568057967
-0.35902194930560843   -0.07092142736747027   -0.03805922568057967
-0.397529253891249   0.005364926278909443   0.05181153627066719
-0.397529253891249   0.005364926278909443   0.05181153627066719
-0.397529253891249   0.005364926278909443   0.05181153627066719
-0.397529253891249   0.005364926278909443   0.05181153627066719
-0.3922490724433434   -0.05905998783363349   -0.05070839363882776
-0.3922490724433434   -0.05905998783363349   -0.05070839363882776
-0.3922490724433434   -0.05905998783363349   -0.05070839363882776
-0.3922490724433434   -0.05905998783363349   -0.05070839363882776
-0.3081583835300283   0.04472589044817818   0.046440681631004024
-0.3081583835300283   0.04472589044817818   0.046440681631004024
-0.3081583835300283   0.04472589044817818   0.046440681631004024
-0.3081583835300283   0.04472589044817818   0.046440681631004024
-0.3496339370666748   -0.015270142195249858   -0.002292913763088298
-0.3496339370666748   -0.015270142195249858   -0.002292913763088298
-0.3496339370666748   -0.015270142195249858   -0.002292913763088298
-0.3496339370666748   -0.015270142195249858   -0.002292913763088298
-0.34471904138221793   -0.048116371941661455   -0.0435203452401084
-0.34471904138221793   -0.048116371941661455   -0.0435203452401084
-0.34471904138221793   -0.048116371941661455   -0.0435203452401084
-0.34471904138221793   -0.048116371941661455   -0.0435203452401084
-0.3537074415898723   0.03576324755749341   0.047176525237393394
-0.3537074415898723   0.03576324755749341   0.047176525237393394
-0.3537074415898723   0.03576324755749341   0.047176525237393394
-0.3537074415898723   0.03576324755749341   0.047176525237393394
-0.359457694722323   -0.04262505350002262   -0.060446056105771084
-0.359457694722323   -0.04262505350002262   -0.060446056105771084
-0.359457694722323   -0.04262505350002262   -0.060446056105771084
-0.359457694722323   -0.04262505350002262   -0.060446056105771084
-0.2934974685790659   0.056302138944899355   0.03801680718502669
-0.2934974685790659   0.056302138944899355   0.03801680718502669
-0.2934974685790659   0.056302138944899355   0.03801680718502669
-0.2934974685790659   0.056302138944899355   0.03801680718502669
-0.3274685705812412   0.0019102473785365115   0.00914198885105319
-0.3274685705812412   0.0019102473785365115   0.00914198885105319
-0.3274685705812412   0.0019102473785365115   0.00914198885105319
-0.3274685705812412   0.0019102473785365115   0.00914198885105319
-0.3293508130820542   -0.0345866843565151   -0.050361092028502266
-0.3293508130820542   -0.0345866843565151   -0.050361092028502266
-0.3293508130820542   -0.0345866843565151   -0.050361092028502266
-0.3293508130820542   -0.0345866843565151   -0.050361092028502266
-0.321527841101732   0.050340278918994216   0.036237879578167
-0.321527841101732   0.050340278918994216   0.036237879578167
-0.321527841101732   0.050340278918994216   0.036237879578167
-0.321527841101732   0.050340278918994216   0.036237879578167
-0.31639728908927955   -0.014200021515172134   -0.06606595145249058
-0.31639728908927955   -0.014200021515172134   -0.06606595145249058
-0.31639728908927955   -0.014200021515172134   -0.06606595145249058
-0.31639728908927955   -0.014200021515172134   -0.06606595145249058
-0.2803726151054579   0.0735556624260131   0.0313137482534832
-0.2803726151054579   0.0735556624260131   0.0313137482534832
-0.2803726151054579   0.0735556624260131   0.0313137482534832
-0.2803726151054579   0.0735556624260131   0.0313137482534832
-0.2970869216860292   0.019068637434991015   0.022387713053070746
-0.2970869216860292   0.019068637434991015   0.022387713053070746
-0.2970869216860292   0.019068637434991015   0.022387713053070746
-0.2970869216860292   0.019068637434991015   0.022387713053070746
0.21733854225777186   0.03511086551914784   0.05656748932432986
0.21733854225777186   0.03511086551914784   0.05656748932432986
0.21733854225777186   0.03511086551914784   0.05656748932432986
0.21733854225777186   0.03511086551914784   0.05656748932432986
-0.005077344212980315   -0.09088080922559481   -0.03733523415968348
-0.005077344212980315   -0.09088080922559481   -0.03733523415968348
-0.005077344212980315   -0.09088080922559481   -0.03733523415968348
-0.005077344212980315   -0.09088080922559481   -0.03733523415968348
0.0483162288467315   0.017713601008427515   0.04369680891555454
0.0483162288467315   0.017713601008427515   0.04369680891555454
0.0483162288467315   0.017713601008427515   0.04369680891555454
0.0483162288467315   0.017713601008427515   0.04369680891555454
0.2266692218372247   -0.031747908861282106   -0.04674197318163914
0.2266692218372247   -0.031747908861282106   -0.04674197318163914
0.2266692218372247   -0.031747908861282106   -0.04674197318163914
0.2266692218372247   -0.031747908861282106   -0.04674197318163914
0.11092602485216285   -0.01762271477495549   -0.026963787571583603
0.11092602485216285   -0.01762271477495549   -0.026963787571583603
0.11092602485216285   -0.01762271477495549   -0.026963787571583603
0.11092602485216285   -0.01762271477495549   -0.026963787571583603
0.2650826947344804   0.06253585740961361   0.051041625033736084
0.2650826947344804   0.06253585740961361   0.051041625033736084
0.2650826947344804   0.06253585740961361   0.051041625033736084
0.2650826947344804   0.06253585740961361   0.051041625033736084
0.012269708218329699   -0.0742032129936162   -0.04461898022441459
0.012269708218329699   -0.0742032129936162   -0.04461898022441459
0.012269708218329699   -0.0742032129936162   -0.04461898022441459
0.012269708218329699   -0.0742032129936162   -0.04461898022441459
0.06775163636567133   0.030908498749000625   0.03646318697418217
0.06775163636567133   0.030908498749000625   0.03646318697418217
0.06775163636567133   0.030908498749000625   0.03646318697418217
0.06775163636567133   0.030908498749000625   0.03646318697418217
0.26393135723241684   -0.016843171671312038   -0.05846277277510378
0.26393135723241684   -0.016843171671312038   -0.05846277277510378
0.26393135723241684   -0.016843171671312038   -0.05846277277510378
0.26393135723241684   -0.016843171671312038   -0.05846277277510378
0.1445565204601691   -0.0011767679909291118   -0.012687985009244422
0.1445565204601691   -0.0011767679909291118   -0.012687985009244422
0.1445565204601691   -0.0011767679909291118   -0.012687985009244422
0.1445565204601691   -0.0011767679909291118   -0.012687985009244422
0.30276244157457805   0.07865659820735296   0.04019287905703712
0.30276244157457805   0.07865659820735296   0.04019287905703712
0.30276244157457805   0.07865659820735296   0.04019287905703712
0.30276244157457805   0.07865659820735296   0.04019287905703712
0.03123400860706381   -0.062277814546104315   -0.052938638523742795
0.03123400860706381   -0.062277814546104315   -0.052938638523742795
0.03123400860706381   -0.062277814546104315   -0.052938638523742795
0.03123400860706381   -0.062277814546104315   -0.052938638523742795
0.0866117437408637   0.0551418002250328   0.03155302842857771
0.0866117437408637   0.0551418002250328   0.03155302842857771
0.0866117437408637   0.0551418002250328   0.03155302842857771
0.0866117437408637   0.0551418002250328   0.03155302842857771
0.3134000481982044   0.016514497711684534   -0.06447067203685326
0.3134000481982044   0.016514497711684534   -0.06447067203685326
0.3134000481982044   0.016514497711684534   -0.06447067203685326
0.3134000481982044   0.016514497711684534   -0.06447067203685326
0.17276197937473511   0.017260735636911696   0.0008048293496335426
0.17276197937473511   0.017260735636911696   0.0008048293496335426
0.17276197937473511   0.017260735636911696   0.0008048293496335426
0.17276197937473511   0.017260735636911696   0.0008048293496335426
0.030152472403584454   0.009509751893588266   0.038423287803957276
0.030152472403584454   0.009509751893588266   0.038423287803957276
0.030152472403584454   0.009509751893588266   0.038423287803957276
0.030152472403584454   0.009509751893588266   0.038423287803957276
-0.20616728261396364   -0.07717138341437432   -0.017129838115074618
-0.20616728261396364   -0.07717138341437432   -0.017129838115074618
-0.20616728261396364   -0.07717138341437432   -0.017129838115074618
-0.20616728261396364   -0.07717138341437432   -0.017129838115074618
-0.17249362411372476   -0.011234653906580273   0.01754371179659805
-0.17249362411372476   -0.011234653906580273   0.01754371179659805
-0.17249362411372476   -0.011234653906580273   0.01754371179659805
-0.17249362411372476   -0.011234653906580273   0.01754371179659805
0.03155789416171512   -0.00879103238456519   -0.013590231116538464
0.03155789416171512   -0.00879103238456519   -0.013590231116538464
0.03155789416171512   -0.00879103238456519   -0.013590231116538464
0.03155789416171512   -0.00879103238456519   -0.013590231116538464
-0.08094169121485867   -0.019945845617971213   -0.012955063103553242
-0.08094169121485867   -0.019945845617971213   -0.012955063103553242
-0.08094169121485867   -0.019945845617971213   -0.012955063103553242
-0.08094169121485867   -0.019945845617971213   -0.012955063103553242
0.05017307665439896   0.03660739473348997   0.03408725422882556
0.05017307665439896   0.03660739473348997   0.03408725422882556
0.05017307665439896   0.03660739473348997   0.03408725422882556
0.05017307665439896   0.03660739473348997   0.03408725422882556
-0.18938449748155603   -0.05490877189978287   -0.023236537049355726
-0.18938449748155603   -0.05490877189978287   -0.023236537049355726
-0.18938449748155603   -0.05490877189978287   -0.023236537049355726
-0.18938449748155603   -0.05490877189978287   -0.023236537049355726
-0.15477426447696074   0.014360102938137276   0.012397753352703673
-0.15477426447696074   0.014360102938137276   0.012397753352703673
-0.15477426447696074   0.014360102938137276   0.012397753352703673
-0.15477426447696074   0.014360102938137276   0.012397753352703673
0.05369761632464576   0.01549528460206925   -0.018393699084014285
0.05369761632464576   0.01549528460206925   -0.018393699084014285
0.05369761632464576   0.01549528460206925   -0.018393699084014285
0.05369761632464576   0.01549528460206925   -0.018393699084014285
-0.062159097045561024   0.0026306342464369054   -0.0015794918720774785
-0.062159097045561024   0.0026306342464369054   -0.0015794918720774785
-0.062159097045561024   0.0026306342464369054   -0.0015794918720774785
-0.062159097045561024   0.0026306342464369054   -0.0015794918720774785
0.07309636713403504   0.06356145541899666   0.030533884146004754
0.07309636713403504   0.06356145541899666   0.030533884146004754
0.07309636713403504   0.06356145541899666   0.030533884146004754
0.07309636713403504   0.06356145541899666   0.030533884146004754
-0.17251314256379077   -0.03204619515623086   -0.029890338987078307
-0.17251314256379077   -0.03204619515623086   -0.029890338987078307
-0.17251314256379077   -0.03204619515623086   -0.029890338987078307
-0.17251314256379077   -0.03204619515623086   -0.029890338987078307
-0.1369483845200899   0.04331071606020715   0.007492374258157453
-0.1369483845200899   0.04331071606020715   0.007492374258157453
-0.1369483845200899   0.04331071606020715   0.007492374258157453
-0.1369483845200899   0.04331071606020715   0.007492374258157453
0.07318372308501908   0.043039881744431865   -0.023485156370044506
0.07318372308501908   0.043039881744431865   -0.023485156370044506
0.07318372308501908   0.043039881744431865   -0.023485156370044506
0.07318372308501908   0.043039881744431865   -0.023485156370044506
-0.04138104646222071   0.02756304711124745   0.010550371718159368
-0.04138104646222071   0.02756304711124745   0.010550371718159368
-0.04138104646222071   0.02756304711124745   0.010550371718159368
-0.04138104646222071   0.02756304711124745   0.010550371718159368
-0.18749756521880906   -0.014785407425476162   0.013832772871802013
-0.18749756521880906   -0.014785407425476162   0.013832772871802013
-0.18749756521880906   -0.014785407425476162   0.013832772871802013
-0.18749756521880906   -0.014785407425476162   0.013832772871802013
-0.4036095574538431   -0.05487258695861855   0.003544448390156292
-0.4036095574538431   -0.05487258695861855   0.003544448390156292
-0.4036095574538431   -0.05487258695861855   0.003544448390156292
-0.4036095574538431   -0.05487258695861855   0.003544448390156292
-0.3881027629939851   -0.03441335582366504   -0.00760128127813489
-0.3881027629939851   -0.03441335582366504   -0.00760128127813489
-0.3881027629939851   -0.03441335582366504   -0.00760128127813489
-0.3881027629939851   -0.03441335582366504   -0.00760128127813489
-0.1691762253746742   0.014327834641344878   0.008568216943927488
-0.1691762253746742   0.014327834641344878   0.008568216943927488
-0.1691762253746742   0.014327834641344878   0.008568216943927488
-0.1691762253746742   0.014327834641344878   0.008568216943927488
-0.2875157322811859   -0.020602348847990927   -0.00754758339516186
-0.2875157322811859   -0.020602348847990927   -0.00754758339516186
-0.2875157322811859   -0.020602348847990927   -0.00754758339516186
-0.2875157322811859   -0.020602348847990927   -0.00754758339516186
-0.16939269557657974   0.012676378358826644   0.009137322216918134
-0.16939269557657974   0.012676378358826644   0.009137322216918134
-0.16939269557657974   0.012676378358826644   0.009137322216918134
-0.16939269557657974   0.012676378358826644   0.009137322216918134
-0.38640614061359446   -0.03128174736266166   -0.0022497778371850102
-0.38640614061359446   -0.03128174736266166   -0.0022497778371850102
-0.38640614061359446   -0.03128174736266166   -0.0022497778371850102
-0.38640614061359446   -0.03128174736266166   -0.0022497778371850102
-0.3694686687807638   -0.0062345884991133055   -0.011953250801177609
-0.3694686687807638   -0.0062345884991133055   -0.011953250801177609
-0.3694686687807638   -0.0062345884991133055   -0.011953250801177609
-0.3694686687807638   -0.0062345884991133055   -0.011953250801177609
-0.15163270174666738   0.039308411220609296   0.0031572587217004386
-0.15163270174666738   0.039308411220609296   0.0031572587217004386
-0.15163270174666738   0.039308411220609296   0.0031572587217004386
-0.15163270174666738   0.039308411220609296   0.0031572587217004386
-0.26827504458090656   0.004146311483770933   0.003914560132519809
-0.26827504458090656   0.004146311483770933   0.003914560132519809
-0.26827504458090656   0.004146311483770933   0.003914560132519809
-0.26827504458090656   0.004146311483770933   0.003914560132519809
-0.15117601099253009   0.04063701496780682   0.0041121087451893475
-0.15117601099253009   0.04063701496780682   0.0041121087451893475
-0.15117601099253009   0.04063701496780682   0.0041121087451893475
-0.15117601099253009   0.04063701496780682   0.0041121087451893475
-0.36874165219313365   -0.006379484904543917   -0.008173271457599298
-0.36874165219313365   -0.006379484904543917   -0.008173271457599298
-0.36874165219313365   -0.006379484904543917   -0.008173271457599298
-0.36874165219313365   -0.006379484904543917   -0.008173271457599298
-0.3515862339034372   0.022023075705985343   -0.01691690095987378
-0.3515862339034372   0.022023075705985343   -0.01691690095987378
-0.3515862339034372   0.022023075705985343   -0.01691690095987378
-0.3515862339034372   0.022023075705985343   -0.01691690095987378
-0.1348517711641859   0.06436248564483343   -0.0030763285469448537
-0.1348517711641859   0.06436248564483343   -0.0030763285469448537
-0.1348517711641859   0.06436248564483343   -0.0030763285469448537
-0.1348517711641859   0.06436248564483343   -0.0030763285469448537
-0.250039856238993   0.02882765981773522   0.014628540682875557
-0.250039856238993   0.02882765981773522   0.014628540682875557
-0.250039856238993   0.02882765981773522   0.014628540682875557
-0.250039856238993   0.02882765981773522   0.014628540682875557
-0.40338025610650013   -0.03867293591319997   -0.011508695918544512
-0.40338025610650013   -0.03867293591319997   -0.011508695918544512
-0.40338025610650013   -0.03867293591319997   -0.011508695918544512
-0.40338025610650013   -0.03867293591319997   -0.011508695918544512
-0.5990647533585812   -0.0339130279107778   0.023838023534384974
-0.5990647533585812   -0.0339130279107778   0.023838023534384974
-0.5990647533585812   -0.0339130279107778   0.023838023534384974
-0.5990647533585812   -0.0339130279107778   0.023838023534384974
-0.5993051766555327   -0.05711637729388892   -0.03215713054251028
-0.5993051766555327   -0.05711637729388892   -0.03215713054251028
-0.5993051766555327   -0.05711637729388892   -0.03215713054251028
-0.5993051766555327   -0.05711637729388892   -0.03215713054251028
-0.36657770952156404   0.03640441240997465   0.029206217850330733
-0.36657770952156404   0.03640441240997465   0.029206217850330733
-0.36657770952156404   0.03640441240997465   0.029206217850330733
-0.36657770952156404   0.03640441240997465   0.029206217850330733
-0.48932810108773417   -0.02093378857705666   -0.0031816066118235606
-0.48932810108773417   -0.02093378857705666   -0.0031816066118235606
-0.48932810108773417   -0.02093378857705666   -0.0031816066118235606
-0.48932810108773417   -0.02093378857705666   -0.0031816066118235606
-0.3851210715261088   -0.011057805093326059   -0.016048374669089167
-0.3851210715261088   -0.011057805093326059   -0.016048374669089167
-0.3851210715261088   -0.011057805093326059   -0.016048374669089167
-0.3851210715261088   -0.011057805093326059   -0.016048374669089167
-0.5795368198686109   -0.00842916500820974   0.017997441106424848
-0.5795368198686109   -0.00842916500820974   0.017997441106424848
-0.5795368198686109   -0.00842916500820974   0.017997441106424848
-0.5795368198686109   -0.00842916500820974   0.017997441106424848
-0.5759498883423627   -0.03023529021879212   -0.03578116260037058
-0.5759498883423627   -0.03023529021879212   -0.03578116260037058
-0.5759498883423627   -0.03023529021879212   -0.03578116260037058
-0.5759498883423627   -0.03023529021879212   -0.03578116260037058
-0.3493545531559075   0.05913820808092156   0.02324453074306903
-0.3493545531559075   0.05913820808092156   0.02324453074306903
-0.3493545531559075   0.05913820808092156   0.02324453074306903
-0.3493545531559075   0.05913820808092156   0.02324453074306903
-0.46624105664303783   0.004014832965856724   0.008630517193980801
-0.46624105664303783   0.004014832965856724   0.008630517193980801
-0.46624105664303783   0.004014832965856724   0.008630517193980801
-0.46624105664303783   0.004014832965856724   0.008630517193980801
-0.36728270917595846   0.01433564156609149   -0.021593682842356805
-0.36728270917595846   0.01433564156609149   -0.021593682842356805
-0.36728270917595846   0.01433564156609149   -0.021593682842356805
-0.36728270917595846   0.01433564156609149   -0.021593682842356805
-0.5566444252229342   0.015944583395415227   0.014566279382564211
-0.5566444252229342   0.015944583395415227   0.014566279382564211
-0.5566444252229342   0.015944583395415227   0.014566279382564211
-0.5566444252229342   0.015944583395415227   0.014566279382564211
-0.5550574311918303   -0.0009157227049118588   -0.038517491989976255
-0.5550574311918303   -0.0009157227049118588   -0.038517491989976255
-0.5550574311918303   -0.0009157227049118588   -0.038517491989976255
-0.5550574311918303   -0.0009157227049118588   -0.038517491989976255
-0.33231090766764315   0.08424502624722831   0.017237779677853247
-0.33231090766764315   0.08424502624722831   0.017237779677853247
-0.33231090766764315   0.08424502624722831   0.017237779677853247
-0.33231090766764315   0.08424502624722831   0.017237779677853247
-0.4489727883475713   0.02728033471098873   0.019216423980979523
-0.4489727883475713   0.02728033471098873   0.019216423980979523
-0.4489727883475713   0.02728033471098873   0.019216423980979523
-0.4489727883475713   0.02728033471098873   0.019216423980979523
-0.615156488856338   -0.05552463695106945   -0.03500904491410746
-0.615156488856338   -0.05552463695106945   -0.03500904491410746
-0.615156488856338   -0.05552463695106945   -0.03500904491410746
-0.615156488856338   -0.05552463695106945   -0.03500904491410746
-0.8219151779444571   -0.014536708648005214   0.05168471407439954
-0.8219151779444571   -0.014536708648005214   0.05168471407439954
-0.8219151779444571   -0.014536708648005214   0.05168471407439954
-0.8219151779444571   -0.014536708648005214   0.05168471407439954
-0.8105333182680495   -0.07438508874762044   -0.04673927960999853
-0.8105333182680495   -0.07438508874762044   -0.04673927960999853
-0.8105333182680495   -0.07438508874762044   -0.04673927960999853
-0.8105333182680495   -0.07438508874762044   -0.04673927960999853
-0.5589528035505928   0.06153778217513531   0.050950575513164904
-0.5589528035505928   0.06153778217513531   0.050950575513164904
-0.5589528035505928   0.06153778217513531   0.050950575513164904
-0.5589528035505928   0.06153778217513531   0.050950575513164904
-0.671387156182054   -0.011920820434384805   0.005596550731145629
-0.671387156182054   -0.011920820434384805   0.005596550731145629
-0.671387156182054   -0.011920820434384805   0.005596550731145629
-0.671387156182054   -0.011920820434384805   0.005596550731145629
-0.5953546101147679   -0.029921355184565665   -0.03959931994800632
-0.5953546101147679   -0.029921355184565665   -0.03959931994800632
-0.5953546101147679   -0.029921355184565665   -0.03959931994800632
-0.5953546101147679   -0.029921355184565665   -0.03959931994800632
-0.7730188047495369   0.018186755566416496   0.04826144366851485
-0.7730188047495369   0.018186755566416496   0.04826144366851485
-0.7730188047495369   0.018186755566416496   0.04826144366851485
-0.7730188047495369   0.018186755566416496   0.04826144366851485
-0.773554156207213   -0.058439222351302264   -0.05563331166783429
-0.773554156207213   -0.058439222351302264   -0.05563331166783429
-0.773554156207213   -0.058439222351302264   -0.05563331166783429
-0.773554156207213   -0.058439222351302264   -0.05563331166783429
-0.5399407456329293   0.07202230981066372   0.04200695091733625
-0.5399407456329293   0.07202230981066372   0.04200695091733625
-0.5399407456329293   0.07202230981066372   0.04200695091733625
-0.5399407456329293   0.07202230981066372   0.04200695091733625
-0.6504557273673078   0.004816879620683723   0.01513324902291207
-0.6504557273673078   0.004816879620683723   0.01513324902291207
-0.6504557273673078   0.004816879620683723   0.01513324902291207
-0.6504557273673078   0.004816879620683723   0.01513324902291207
-0.5752530503058465   -0.01679899280398714   -0.04573326983259458
-0.5752530503058465   -0.01679899280398714   -0.04573326983259458
-0.5752530503058465   -0.01679899280398714   -0.04573326983259458
-0.5752530503058465   -0.01679899280398714   -0.04573326983259458
-0.7368818653823506   0.03174206641528898   0.03754685368988378
-0.7368818653823506   0.03174206641528898   0.03754685368988378
-0.7368818653823506   0.03174206641528898   0.03754685368988378
-0.7368818653823506   0.03174206641528898   0.03754685368988378
-0.7279783973912732   -0.034637813723494365   -0.0620478502082386
-0.7279783973912732   -0.034637813723494365   -0.0620478502082386
-0.7279783973912732   -0.034637813723494365   -0.0620478502082386
-0.7279783973912732   -0.034637813723494365   -0.0620478502082386
-0.5232399067850948   0.08466345078978325   0.03499095654900572
-0.5232399067850948   0.08466345078978325   0.03499095654900572
-0.5232399067850948   0.08466345078978325   0.03499095654900572
-0.5232399067850948   0.08466345078978325   0.03499095654900572
-0.6111644255009716   0.020489544766778278   0.02857401749890367
-0.6111644255009716   0.020489544766778278   0.02857401749890367
-0.6111644255009716   0.020489544766778278   0.02857401749890367
-0.6111644255009716   0.020489544766778278   0.02857401749890367
0.6516919033254721   0.05923178759551237   0.05645850240736925
0.6516919033254721   0.05923178759551237   0.05645850240736925
0.6516919033254721   0.05923178759551237   0.05645850240736925
0.6516919033254721   0.05923178759551237   0.05645850240736925
0.23859253555937202   -0.10818355550536977   -0.03715907528662423
0.23859253555937202   -0.10818355550536977   -0.03715907528662423
0.23859253555937202   -0.10818355550536977   -0.03715907528662423
0.23859253555937202   -0.10818355550536977   -0.03715907528662423
0.29450025819686637   -0.0007104347078593504   0.04061436122583295
0.29450025819686637   -0.0007104347078593504   0.04061436122583295
0.29450025819686637   -0.0007104347078593504   0.04061436122583295
0.29450025819686637   -0.0007104347078593504   0.04061436122583295
0.6634471535654843   -0.014896649955935648   -0.04744563032848031
0.6634471535654843   -0.014896649955935648   -0.04744563032848031
0.6634471535654843   -0.014896649955935648   -0.04744563032848031
0.6634471535654843   -0.014896649955935648   -0.04744563032848031
0.4336385656575643   -0.019542086158429006   -0.04183235093180678
0.4336385656575643   -0.019542086158429006   -0.04183235093180678
0.4336385656575643   -0.019542086158429006   -0.04183235093180678
0.4336385656575643   -0.019542086158429006   -0.04183235093180678
0.702235741669375   0.08252826815706854   0.04907239207796395
0.702235741669375   0.08252826815706854   0.04907239207796395
0.702235741669375   0.08252826815706854   0.04907239207796395
0.702235741669375   0.08252826815706854   0.04907239207796395
0.25846125200605874   -0.09538577090778069   -0.04490533352827986
0.25846125200605874   -0.09538577090778069   -0.04490533352827986
0.25846125200605874   -0.09538577090778069   -0.04490533352827986
0.25846125200605874   -0.09538577090778069   -0.04490533352827986
0.31652670197329175   0.012065691725983249   0.03348619947049772
0.31652670197329175   0.012065691725983249   0.03348619947049772
0.31652670197329175   0.012065691725983249   0.03348619947049772
0.31652670197329175   0.012065691725983249   0.03348619947049772
0.7036529757771065   -0.00037849655283875294   -0.059750583388963906
0.7036529757771065   -0.00037849655283875294   -0.059750583388963906
0.7036529757771065   -0.00037849655283875294   -0.059750583388963906
0.7036529757771065   -0.00037849655283875294   -0.059750583388963906
0.47563961907753727   -0.003864904393809279   -0.025347456451339477
0.47563961907753727   -0.003864904393809279   -0.025347456451339477
0.47563961907753727   -0.003864904393809279   -0.025347456451339477
0.47563961907753727   -0.003864904393809279   -0.025347456451339477
0.7428679714667401   0.09818823785987148   0.03775766064649051
0.7428679714667401   0.09818823785987148   0.03775766064649051
0.7428679714667401   0.09818823785987148   0.03775766064649051
0.7428679714667401   0.09818823785987148   0.03775766064649051
0.28023355355552737   -0.08357919541485248   -0.05233465547748426
0.28023355355552737   -0.08357919541485248   -0.05233465547748426
0.28023355355552737   -0.08357919541485248   -0.05233465547748426
0.28023355355552737   -0.08357919541485248   -0.05233465547748426
0.33852341162205296   0.04023777687658343   0.029022360363792583
0.33852341162205296   0.04023777687658343   0.029022360363792583
0.33852341162205296   0.04023777687658343   0.029022360363792583
0.33852341162205296   0.04023777687658343   0.029022360363792583
0.7564583689658027   0.0374825796683462   -0.06444880273438958
0.7564583689658027   0.0374825796683462   -0.06444880273438958
0.7564583689658027   0.0374825796683462   -0.06444880273438958
0.7564583689658027   0.0374825796683462   -0.06444880273438958
0.5015133666259289   0.015215765065096601   -0.01109724796051776
0.5015133666259289   0.015215765065096601   -0.01109724796051776
0.5015133666259289   0.015215765065096601   -0.01109724796051776
0.5015133666259289   0.015215765065096601   -0.01109724796051776
0.2833301900362642   0.03318600588098235   0.04515963571148086
0.2833301900362642   0.03318600588098235   0.04515963571148086
0.2833301900362642   0.03318600588098235   0.04515963571148086
0.2833301900362642   0.03318600588098235   0.04515963571148086
-0.13821392972545715   -0.10094715102633367   -0.019472067399020892
-0.13821392972545715   -0.10094715102633367   -0.019472067399020892
-0.13821392972545715   -0.10094715102633367   -0.019472067399020892
-0.13821392972545715   -0.10094715102633367   -0.019472067399020892
-0.09978731565206382   -0.02961035597080963   0.013658360766018281
-0.09978731565206382   -0.02961035597080963   0.013658360766018281
-0.09978731565206382   -0.02961035597080963   0.013658360766018281
-0.09978731565206382   -0.02961035597080963   0.013658360766018281
0.2855201591675931   0.0009502256962645242   -0.005946794324653148
0.2855201591675931   0.0009502256962645242   -0.005946794324653148
0.2855201591675931   0.0009502256962645242   -0.005946794324653148
0.2855201591675931   0.0009502256962645242   -0.005946794324653148
0.07898372025702538   -0.021305228162736417   -0.01781121458137591
0.07898372025702538   -0.021305228162736417   -0.01781121458137591
0.07898372025702538   -0.021305228162736417   -0.01781121458137591
0.07898372025702538   -0.021305228162736417   -0.01781121458137591
0.3059614020305913   0.056874703791531186   0.040334941895067214
0.3059614020305913   0.056874703791531186   0.040334941895067214
0.3059614020305913   0.056874703791531186   0.040334941895067214
0.3059614020305913   0.056874703791531186   0.040334941895067214
-0.11856902451895462   -0.08387530006996956   -0.025985239469275827
-0.11856902451895462   -0.08387530006996956   -0.025985239469275827
-0.11856902451895462   -0.08387530006996956   -0.025985239469275827
-0.11856902451895462   -0.08387530006996956   -0.025985239469275827
-0.07926964381931695   -0.0056935312471986434   0.008629481813608939
-0.07926964381931695   -0.0056935312471986434   0.008629481813608939
-0.07926964381931695   -0.0056935312471986434   0.008629481813608939
-0.07926964381931695   -0.0056935312471986434   0.008629481813608939
0.3096762713235312   0.022404094525759304   -0.011104356578076973
0.3096762713235312   0.022404094525759304   -0.011104356578076973
0.3096762713235312   0.022404094525759304   -0.011104356578076973
0.3096762713235312   0.022404094525759304   -0.011104356578076973
0.09880295970258252   -0.0024094604971780925   -0.007081051966161104
0.09880295970258252   -0.0024094604971780925   -0.007081051966161104
0.09880295970258252   -0.0024094604971780925   -0.007081051966161104
0.09880295970258252   -0.0024094604971780925   -0.007081051966161104
0.3309360885427752   0.08178456972606464   0.03581425431783326
0.3309360885427752   0.08178456972606464   0.03581425431783326
0.3309360885427752   0.08178456972606464   0.03581425431783326
0.3309360885427752   0.08178456972606464   0.03581425431783326
-0.09886674437878894   -0.06341128978773784   -0.03163826244321187
-0.09886674437878894   -0.06341128978773784   -0.03163826244321187
-0.09886674437878894   -0.06341128978773784   -0.03163826244321187
-0.09886674437878894   -0.06341128978773784   -0.03163826244321187
-0.05900796120123605   0.02202350356721406   0.0036246370301216187
-0.05900796120123605   0.02202350356721406   0.0036246370301216187
-0.05900796120123605   0.02202350356721406   0.0036246370301216187
-0.05900796120123605   0.02202350356721406   0.0036246370301216187
0.33109187708518356   0.04795801353717616   -0.01585554898114731
0.33109187708518356   0.04795801353717616   -0.01585554898114731
0.33109187708518356   0.04795801353717616   -0.01585554898114731
0.33109187708518356   0.04795801353717616   -0.01585554898114731
0.12330615102421917   0.02077129794226356   0.005448627973645472
0.12330615102421917   0.02077129794226356   0.005448627973645472
0.12330615102421917   0.02077129794226356   0.005448627973645472
0.12330615102421917   0.02077129794226356   0.005448627973645472
-0.10884500394912035   0.007213763462967208   0.019211646993362346
-0.10884500394912035   0.007213763462967208   0.019211646993362346
-0.10884500394912035   0.007213763462967208   0.019211646993362346
-0.10884500394912035   0.007213763462967208   0.019211646993362346
-0.5075443857606643   -0.08915637569011232   -0.002587969427902264
-0.5075443857606643   -0.08915637569011232   -0.002587969427902264
-0.5075443857606643   -0.08915637569011232   -0.002587969427902264
-0.5075443857606643   -0.08915637569011232   -0.002587969427902264
-0.48322536717595366   -0.05257966285438005   -0.011920128733417745
-0.48322536717595366   -0.05257966285438005   -0.011920128733417745
-0.48322536717595366   -0.05257966285438005   -0.011920128733417745
-0.48322536717595366   -0.05257966285438005   -0.011920128733417745
-0.09136766158169715   0.013383048926703466   0.012763226220338538
-0.09136766158169715   0.013383048926703466   0.012763226220338538
-0.09136766158169715   0.013383048926703466   0.012763226220338538
-0.09136766158169715   0.013383048926703466   0.012763226220338538
-0.29826802049564966   -0.02739841633548093   -0.01112263331273957
-0.29826802049564966   -0.02739841633548093   -0.01112263331273957
-0.29826802049564966   -0.02739841633548093   -0.01112263331273957
-0.29826802049564966   -0.02739841633548093   -0.01112263331273957
-0.08731003146944877   0.031895262646051054   0.014539163062232893
-0.08731003146944877   0.031895262646051054   0.014539163062232893
-0.08731003146944877   0.031895262646051054   0.014539163062232893
-0.08731003146944877   0.031895262646051054   0.014539163062232893
-0.48617138228768814   -0.06998026157321373   -0.009249605573256436
-0.48617138228768814   -0.06998026157321373   -0.009249605573256436
-0.48617138228768814   -0.06998026157321373   -0.009249605573256436
-0.48617138228768814   -0.06998026157321373   -0.009249605573256436
-0.46060981874652523   -0.026338850752031476   -0.016101934141645523
-0.46060981874652523   -0.026338850752031476   -0.016101934141645523
-0.46060981874652523   -0.026338850752031476   -0.016101934141645523
-0.46060981874652523   -0.026338850752031476   -0.016101934141645523
-0.0713984251115029   0.03505675306606003   0.007235291039420437
-0.0713984251115029   0.03505675306606003   0.007235291039420437
-0.0713984251115029   0.03505675306606003   0.007235291039420437
-0.0713984251115029   0.03505675306606003   0.007235291039420437
-0.27545627488439306   -0.005444431919436249   -0.0001685803063544624
-0.27545627488439306   -0.005444431919436249   -0.0001685803063544624
-0.27545627488439306   -0.005444431919436249   -0.0001685803063544624
-0.27545627488439306   -0.005444431919436249   -0.0001685803063544624
-0.06650064092996325   0.05754963720187149   0.009231327811307286
-0.06650064092996325   0.05754963720187149   0.009231327811307286
-0.06650064092996325   0.05754963720187149   0.009231327811307286
-0.06650064092996325   0.05754963720187149   0.009231327811307286
-0.4644757513851791   -0.047799883344957106   -0.013970564741989041
-0.4644757513851791   -0.047799883344957106   -0.013970564741989041
-0.4644757513851791   -0.047799883344957106   -0.013970564741989041
-0.4644757513851791   -0.047799883344957106   -0.013970564741989041
-0.4395568895990158   -0.00018266325449685372   -0.02109695460876631
-0.4395568895990158   -0.00018266325449685372   -0.02109695460876631
-0.4395568895990158   -0.00018266325449685372   -0.02109695460876631
-0.4395568895990158   -0.00018266325449685372   -0.02109695460876631
-0.052342246576127655   0.057189848873341456   0.001786864849536246
-0.052342246576127655   0.057189848873341456   0.001786864849536246
-0.052342246576127655   0.057189848873341456   0.001786864849536246
-0.052342246576127655   0.057189848873341456   0.001786864849536246
-0.2545036860439088   0.016427613324533602   0.010253679287731056
-0.2545036860439088   0.016427613324533602   0.010253679287731056
-0.2545036860439088   0.016427613324533602   0.010253679287731056
-0.2545036860439088   0.016427613324533602   0.010253679287731056
-0.4945580198948718   -0.019284824235602058   -0.007527691553445771
-0.4945580198948718   -0.019284824235602058   -0.007527691553445771
-0.4945580198948718   -0.019284824235602058   -0.007527691553445771
-0.4945580198948718   -0.019284824235602058   -0.007527691553445771
-0.8685695682279685   -0.07227778419157098   0.016685656077103737
-0.8685695682279685   -0.07227778419157098   0.016685656077103737
-0.8685695682279685   -0.07227778419157098   0.016685656077103737
-0.8685695682279685   -0.07227778419157098   0.016685656077103737
-0.8567999451276017   -0.07465266680078315   -0.035856942597420574
-0.8567999451276017   -0.07465266680078315   -0.035856942597420574
-0.8567999451276017   -0.07465266680078315   -0.035856942597420574
-0.8567999451276017   -0.07465266680078315   -0.035856942597420574
-0.45718122459432364   0.03367081948080662   0.03205010183954966
-0.45718122459432364   0.03367081948080662   0.03205010183954966
-0.45718122459432364   0.03367081948080662   0.03205010183954966
-0.45718122459432364   0.03367081948080662   0.03205010183954966
-0.6646473159025849   -0.02897095953127589   -0.0038806299116136596
-0.6646473159025849   -0.02897095953127589   -0.0038806299116136596
-0.6646473159025849   -0.02897095953127589   -0.0038806299116136596
-0.6646473159025849   -0.02897095953127589   -0.0038806299116136596
-0.47114864581424776   0.0073547871879323795   -0.011470971967196871
-0.47114864581424776   0.0073547871879323795   -0.011470971967196871
-0.47114864581424776   0.0073547871879323795   -0.011470971967196871
-0.47114864581424776   0.0073547871879323795   -0.011470971967196871
-0.8427660551760232   -0.048270165776253315   0.007930006135949505
-0.8427660551760232   -0.048270165776253315   0.007930006135949505
-0.8427660551760232   -0.048270165776253315   0.007930006135949505
-0.8427660551760232   -0.048270165776253315   0.007930006135949505
-0.8272373912327469   -0.04901941012084604   -0.03966072218892961
-0.8272373912327469   -0.04901941012084604   -0.03966072218892961
-0.8272373912327469   -0.04901941012084604   -0.03966072218892961
-0.8272373912327469   -0.04901941012084604   -0.03966072218892961
-0.43613124020967037   0.05433136052800959   0.025620747262591774
-0.43613124020967037   0.05433136052800959   0.025620747262591774
-0.43613124020967037   0.05433136052800959   0.025620747262591774
-0.43613124020967037   0.05433136052800959   0.025620747262591774
-0.6345625908086349   -0.004707897789993587   0.00710857117241339
-0.6345625908086349   -0.004707897789993587   0.00710857117241339
-0.6345625908086349   -0.004707897789993587   0.00710857117241339
-0.6345625908086349   -0.004707897789993587   0.00710857117241339
-0.44924318848492656   0.031158373457806365   -0.016766007043487817
-0.44924318848492656   0.031158373457806365   -0.016766007043487817
-0.44924318848492656   0.031158373457806365   -0.016766007043487817
-0.44924318848492656   0.031158373457806365   -0.016766007043487817
-0.8134221744610675   -0.025143154554219893   0.005539106102841342
-0.8134221744610675   -0.025143154554219893   0.005539106102841342
-0.8134221744610675   -0.025143154554219893   0.005539106102841342
-0.8134221744610675   -0.025143154554219893   0.005539106102841342
-0.8008042498891286   -0.021241790186032256   -0.041702960266964136
-0.8008042498891286   -0.021241790186032256   -0.041702960266964136
-0.8008042498891286   -0.021241790186032256   -0.041702960266964136
-0.8008042498891286   -0.021241790186032256   -0.041702960266964136
-0.4157438681485734   0.07704141734552412   0.02074407204342834
-0.4157438681485734   0.07704141734552412   0.02074407204342834
-0.4157438681485734   0.07704141734552412   0.02074407204342834
-0.4157438681485734   0.07704141734552412   0.02074407204342834
-0.6142405920892751   0.016028786294523367   0.016586191026749818
-0.6142405920892751   0.016028786294523367   0.016586191026749818
-0.6142405920892751   0.016028786294523367   0.016586191026749818
-0.6142405920892751   0.016028786294523367   0.016586191026749818
-0.8721837795850079   -0.04138334064243493   -0.03227984425722908
-0.8721837795850079   -0.04138334064243493   -0.03227984425722908
-0.8721837795850079   -0.04138334064243493   -0.03227984425722908
-0.8721837795850079   -0.04138334064243493   -0.03227984425722908
-1.2433190344259155   -0.044868962375674726   0.05592406237190453
-1.2433190344259155   -0.044868962375674726   0.05592406237190453
-1.2433190344259155   -0.044868962375674726   0.05592406237190453
-1.2433190344259155   -0.044868962375674726   0.05592406237190453
-1.219561800228574   -0.08933498541006082   -0.04280426573483453
-1.219561800228574   -0.08933498541006082   -0.04280426573483453
-1.219561800228574   -0.08933498541006082   -0.04280426573483453
-1.219561800228574   -0.08933498541006082   -0.04280426573483453
-0.8094322793690677   0.06946670725605758   0.05686201213840923
-0.8094322793690677   0.06946670725605758   0.05686201213840923
-0.8094322793690677   0.06946670725605758   0.05686201213840923
-0.8094322793690677   0.06946670725605758   0.05686201213840923
-0.9901602282284491   -0.01223683736261058   0.011521803644084984
-0.9901602282284491   -0.01223683736261058   0.011521803644084984
-0.9901602282284491   -0.01223683736261058   0.011521803644084984
-0.9901602282284491   -0.01223683736261058   0.011521803644084984
-0.8444620075353984   -0.012931798343246231   -0.03588812309393726
-0.8444620075353984   -0.012931798343246231   -0.03588812309393726
-0.8444620075353984   -0.012931798343246231   -0.03588812309393726
-0.8444620075353984   -0.012931798343246231   -0.03588812309393726
-1.1839466533854797   -0.006351061133994695   0.05228754420455982
-1.1839466533854797   -0.006351061133994695   0.05228754420455982
-1.1839466533854797   -0.006351061133994695   0.05228754420455982
-1.1839466533854797   -0.006351061133994695   0.05228754420455982
-1.1747901466590371   -0.07343228723266537   -0.050416633273201256
-1.1747901466590371   -0.07343228723266537   -0.050416633273201256
-1.1747901466590371   -0.07343228723266537   -0.050416633273201256
-1.1747901466590371   -0.07343228723266537   -0.050416633273201256
-0.7846334079632183   0.0792743460867548   0.04506543795111209
-0.7846334079632183   0.0792743460867548   0.04506543795111209
-0.7846334079632183   0.0792743460867548   0.04506543795111209
-0.7846334079632183   0.0792743460867548   0.04506543795111209
-0.9671214908582388   0.005124164630875061   0.020655505134995117
-0.9671214908582388   0.005124164630875061   0.020655505134995117
-0.9671214908582388   0.005124164630875061   0.020655505134995117
-0.9671214908582388   0.005124164630875061   0.020655505134995117
-0.8176917062725874   -9.9678335442277e-05   -0.04085202917353559
-0.8176917062725874   -9.9678335442277e-05   -0.04085202917353559
-0.8176917062725874   -9.9678335442277e-05   -0.04085202917353559
-0.8176917062725874   -9.9678335442277e-05   -0.04085202917353559
-1.1411467583559467   0.0065268271832449876   0.037841193826322186
-1.1411467583559467   0.0065268271832449876   0.037841193826322186
-1.1411467583559467   0.0065268271832449876   0.037841193826322186
-1.1411467583559467   0.0065268271832449876   0.037841193826322186
-1.125835212736934   -0.054346091170003885   -0.057461447298090745
-1.125835212736934   -0.054346091170003885   -0.057461447298090745
-1.125835212736934   -0.054346091170003885   -0.057461447298090745
-1.125835212736934   -0.054346091170003885   -0.057461447298090745
-0.7628485162335397   0.08845954097146452   0.038374376853483785
-0.7628485162335397   0.08845954097146452   0.038374376853483785
-0.7628485162335397   0.08845954097146452   0.038374376853483785
-0.7628485162335397   0.08845954097146452   0.038374376853483785
-0.9177041260935169   0.019549443789309118   0.034477195908319734
-0.9177041260935169   0.019549443789309118   0.034477195908319734
-0.9177041260935169   0.019549443789309118   0.034477195908319734
-0.9177041260935169   0.019549443789309118   0.034477195908319734
1.093159441990208   0.0817259086538048   0.05782133907841252
1.093159441990208   0.0817259086538048   0.05782133907841252
1.093159441990208   0.0817259086538048   0.05782133907841252
1.093159441990208   0.0817259086538048   0.05782133907841252
0.48205493610564076   -0.12857028323928904   -0.02660977111276898
0.48205493610564076   -0.12857028323928904   -0.02660977111276898
0.48205493610564076   -0.12857028323928904   -0.02660977111276898
0.48205493610564076   -0.12857028323928904   -0.02660977111276898
0.5373877795504223   -0.0226792310111667   0.03970083841042645
0.5373877795504223   -0.0226792310111667   0.03970083841042645
0.5373877795504223   -0.0226792310111667   0.03970083841042645
0.5373877795504223   -0.0226792310111667   0.03970083841042645
1.1051517647854159   -0.0018566950841241159   -0.04168091639123468
1.1051517647854159   -0.0018566950841241159   -0.04168091639123468
1.1051517647854159   -0.0018566950841241159   -0.04168091639123468
1.1051517647854159   -0.0018566950841241159   -0.04168091639123468
0.757328290490452   -0.02289223285270406   -0.05917552800857836
0.757328290490452   -0.02289223285270406   -0.05917552800857836
0.757328290490452   -0.02289223285270406   -0.05917552800857836
0.757328290490452   -0.02289223285270406   -0.05917552800857836
1.1435929762457795   0.10029610817592408   0.04837233765052324
1.1435929762457795   0.10029610817592408   0.04837233765052324
1.1435929762457795   0.10029610817592408   0.04837233765052324
1.1435929762457795   0.10029610817592408   0.04837233765052324
0.5026396717863661   -0.12113893057490951   -0.03558000084611185
0.5026396717863661   -0.12113893057490951   -0.03558000084611185
0.5026396717863661   -0.12113893057490951   -0.03558000084611185
0.5026396717863661   -0.12113893057490951   -0.03558000084611185
0.5590000093869295   -0.010940686174157582   0.032091434894618916
0.5590000093869295   -0.010940686174157582   0.032091434894618916
0.5590000093869295   -0.010940686174157582   0.032091434894618916
0.5590000093869295   -0.010940686174157582   0.032091434894618916
1.1429588623683922   0.011084274479257833   -0.052062128625745524
1.1429588623683922   0.011084274479257833   -0.052062128625745524
1.1429588623683922   0.011084274479257833   -0.052062128625745524
1.1429588623683922   0.011084274479257833   -0.052062128625745524
0.8048315557069319   -0.009067534265212979   -0.040262348594436004
0.8048315557069319   -0.009067534265212979   -0.040262348594436004
0.8048315557069319   -0.009067534265212979   -0.040262348594436004
0.8048315557069319   -0.009067534265212979   -0.040262348594436004
1.1811727125830755   0.11424487239294481   0.035846524533984715
1.1811727125830755   0.11424487239294481   0.035846524533984715
1.1811727125830755   0.11424487239294481   0.035846524533984715
1.1811727125830755   0.11424487239294481   0.035846524533984715
0.5240169855044722   -0.1108704577556184   -0.04289391293620681
0.5240169855044722   -0.1108704577556184   -0.04289391293620681
0.5240169855044722   -0.1108704577556184   -0.04289391293620681
0.5240169855044722   -0.1108704577556184   -0.04289391293620681
0.5785818245207756   0.020424165506172792   0.028135670899770433
0.5785818245207756   0.020424165506172792   0.028135670899770433
0.5785818245207756   0.020424165506172792   0.028135670899770433
0.5785818245207756   0.020424165506172792   0.028135670899770433
1.189485727826134   0.048954326514154795   -0.05451372056682576
1.189485727826134   0.048954326514154795   -0.05451372056682576
1.189485727826134   0.048954326514154795   -0.05451372056682576
1.189485727826134   0.048954326514154795   -0.05451372056682576
0.8225427215890388   0.00955460856367632   -0.02718019945422971
0.8225427215890388   0.00955460856367632   -0.02718019945422971
0.8225427215890388   0.00955460856367632   -0.02718019945422971
0.8225427215890388   0.00955460856367632   -0.02718019945422971
0.5332536013903749   0.04783618590913227   0.05297708616247676
0.5332536013903749   0.04783618590913227   0.05297708616247676
0.5332536013903749   0.04783618590913227   0.05297708616247676
0.5332536013903749   0.04783618590913227   0.05297708616247676
-0.06622754185907304   -0.15834674936760038   -0.01516320373776207
-0.06622754185907304   -0.15834674936760038   -0.01516320373776207
-0.06622754185907304   -0.15834674936760038   -0.01516320373776207
-0.06622754185907304   -0.15834674936760038   -0.01516320373776207
-0.018600967426442586   -0.05599651010875872   0.013440653244297013
-0.018600967426442586   -0.05599651010875872   0.013440653244297013
-0.018600967426442586   -0.05599651010875872   0.013440653244297013
-0.018600967426442586   -0.05599651010875872   0.013440653244297013
0.5287219055277498   -0.028954535111344396   0.002646772397241391
0.5287219055277498   -0.028954535111344396   0.002646772397241391
0.5287219055277498   -0.028954535111344396   0.002646772397241391
0.5287219055277498   -0.028954535111344396   0.002646772397241391
0.23766570504831905   -0.04406483821669767   -0.028171090744991963
0.23766570504831905   -0.04406483821669767   -0.028171090744991963
0.23766570504831905   -0.04406483821669767   -0.028171090744991963
0.23766570504831905   -0.04406483821669767   -0.028171090744991963
0.5565135986838935   0.06572367756481014   0.04692702550180526
0.5565135986838935   0.06572367756481014   0.04692702550180526
0.5565135986838935   0.06572367756481014   0.04692702550180526
0.5565135986838935   0.06572367756481014   0.04692702550180526
-0.04444340908286013   -0.14872547128518712   -0.023042593861362322
-0.04444340908286013   -0.14872547128518712   -0.023042593861362322
-0.04444340908286013   -0.14872547128518712   -0.023042593861362322
-0.04444340908286013   -0.14872547128518712   -0.023042593861362322
0.0034359811642318706   -0.03498429984814607   0.008193961711726172
0.0034359811642318706   -0.03498429984814607   0.008193961711726172
0.0034359811642318706   -0.03498429984814607   0.008193961711726172
0.0034359811642318706   -0.03498429984814607   0.008193961711726172
0.5512993479982269   -0.013110232278578382   -0.004242325944473477
0.5512993479982269   -0.013110232278578382   -0.004242325944473477
0.5512993479982269   -0.013110232278578382   -0.004242325944473477
0.5512993479982269   -0.013110232278578382   -0.004242325944473477
0.2567967608543744   -0.031161247342863407   -0.018255508709506995
0.2567967608543744   -0.031161247342863407   -0.018255508709506995
0.2567967608543744   -0.031161247342863407   -0.018255508709506995
0.2567967608543744   -0.031161247342863407   -0.018255508709506995
0.5805843397339995   0.0871842163455255   0.04188818411028575
0.5805843397339995   0.0871842163455255   0.04188818411028575
0.5805843397339995   0.0871842163455255   0.04188818411028575
0.5805843397339995   0.0871842163455255   0.04188818411028575
-0.0246868617717923   -0.1341165996724964   -0.033287953144044355
-0.0246868617717923   -0.1341165996724964   -0.033287953144044355
-0.0246868617717923   -0.1341165996724964   -0.033287953144044355
-0.0246868617717923   -0.1341165996724964   -0.033287953144044355
0.020736073251649875   -0.0103636725262671   0.0028918245351700423
0.020736073251649875   -0.0103636725262671   0.0028918245351700423
0.020736073251649875   -0.0103636725262671   0.0028918245351700423
0.020736073251649875   -0.0103636725262671   0.0028918245351700423
0.5681987382087161   0.007106563074890243   -0.010462158229256308
0.5681987382087161   0.007106563074890243   -0.010462158229256308
0.5681987382087161   0.007106563074890243   -0.010462158229256308
0.5681987382087161   0.007106563074890243   -0.010462158229256308
0.2802620029674151   -0.011855710014706727   -0.007609484981723185
0.2802620029674151   -0.011855710014706727   -0.007609484981723185
0.2802620029674151   -0.011855710014706727   -0.007609484981723185
0.2802620029674151   -0.011855710014706727   -0.007609484981723185
-0.02357554468140835   0.013420827473254494   0.026329205309706505
-0.02357554468140835   0.013420827473254494   0.026329205309706505
-0.02357554468140835   0.013420827473254494   0.026329205309706505
-0.02357554468140835   0.013420827473254494   0.026329205309706505
-0.6102643354772119   -0.1986557130126829   -0.012175132905294914
-0.6102643354772119   -0.1986557130126829   -0.012175132905294914
-0.6102643354772119   -0.1986557130126829   -0.012175132905294914
-0.6102643354772119   -0.1986557130126829   -0.012175132905294914
-0.5621238462818429   -0.08589099014188578   -0.01285078442249266
-0.5621238462818429   -0.08589099014188578   -0.01285078442249266
-0.5621238462818429   -0.08589099014188578   -0.01285078442249266
-0.5621238462818429   -0.08589099014188578   -0.01285078442249266
-0.021306542554368972   -0.06797839875066006   0.011894666246566418
-0.021306542554368972   -0.06797839875066006   0.011894666246566418
-0.021306542554368972   -0.06797839875066006   0.011894666246566418
-0.021306542554368972   -0.06797839875066006   0.011894666246566418
-0.30569560653095756   -0.08023067835797874   -0.025156778319781754
-0.30569560653095756   -0.08023067835797874   -0.025156778319781754
-0.30569560653095756   -0.08023067835797874   -0.025156778319781754
-0.30569560653095756   -0.08023067835797874   -0.025156778319781754
0.0009023270092470429   0.03356377038635668   0.021396844927629756
0.0009023270092470429   0.03356377038635668   0.021396844927629756
0.0009023270092470429   0.03356377038635668   0.021396844927629756
0.0009023270092470429   0.03356377038635668   0.021396844927629756
-0.5829238644285584   -0.18602430786200197   -0.016717557435953774
-0.5829238644285584   -0.18602430786200197   -0.016717557435953774
-0.5829238644285584   -0.18602430786200197   -0.016717557435953774
-0.5829238644285584   -0.18602430786200197   -0.016717557435953774
-0.5347879839269981   -0.062566241273144   -0.017490121841104486
-0.5347879839269981   -0.062566241273144   -0.017490121841104486
-0.5347879839269981   -0.062566241273144   -0.017490121841104486
-0.5347879839269981   -0.062566241273144   -0.017490121841104486
-0.0007788571549554694   -0.05274995042801053   0.004885420695653928
-0.0007788571549554694   -0.05274995042801053   0.004885420695653928
-0.0007788571549554694   -0.05274995042801053   0.004885420695653928
-0.0007788571549554694   -0.05274995042801053   0.004885420695653928
-0.27915908040625226   -0.06345747795458276   -0.01395890046374029
-0.27915908040625226   -0.06345747795458276   -0.01395890046374029
-0.27915908040625226   -0.06345747795458276   -0.01395890046374029
-0.27915908040625226   -0.06345747795458276   -0.01395890046374029
0.023300810954620388   0.05588025352875428   0.01665355728676842
0.023300810954620388   0.05588025352875428   0.01665355728676842
0.023300810954620388   0.05588025352875428   0.01665355728676842
0.023300810954620388   0.05588025352875428   0.01665355728676842
-0.5588695573935112   -0.1711983505868454   -0.02926587985996471
-0.5588695573935112   -0.1711983505868454   -0.02926587985996471
-0.5588695573935112   -0.1711983505868454   -0.02926587985996471
-0.5588695573935112   -0.1711983505868454   -0.02926587985996471
-0.5154691420159924   -0.04032787127539264   -0.02267484045423881
-0.5154691420159924   -0.04032787127539264   -0.02267484045423881
-0.5154691420159924   -0.04032787127539264   -0.02267484045423881
-0.5154691420159924   -0.04032787127539264   -0.02267484045423881
0.012696157646443593   -0.040569497242692154   -0.007101928774436325
0.012696157646443593   -0.040569497242692154   -0.007101928774436325
0.012696157646443593   -0.040569497242692154   -0.007101928774436325
0.012696157646443593   -0.040569497242692154   -0.007101928774436325
-0.25969712418702684   -0.04780767113059879   -0.006939977497583899
-0.25969712418702684   -0.04780767113059879   -0.006939977497583899
-0.25969712418702684   -0.04780767113059879   -0.006939977497583899
-0.25969712418702684   -0.04780767113059879   -0.006939977497583899
-0.5715393011315572   -0.016374997354709528   -0.0008306768350002901
-0.5715393011315572   -0.016374997354709528   -0.0008306768350002901
-0.5715393011315572   -0.016374997354709528   -0.0008306768350002901
-0.5715393011315572   -0.016374997354709528   -0.0008306768350002901
-1.1568795502065197   -0.21357862770258368   -0.009772130232555108
-1.1568795502065197   -0.21357862770258368   -0.009772130232555108
-1.1568795502065197   -0.21357862770258368   -0.009772130232555108
-1.1568795502065197   -0.21357862770258368   -0.009772130232555108
-1.1052195991780498   -0.10998399422787714   -0.03818559212017372
-1.1052195991780498   -0.10998399422787714   -0.03818559212017372
-1.1052195991780498   -0.10998399422787714   -0.03818559212017372
-1.1052195991780498   -0.10998399422787714   -0.03818559212017372
-0.5514647111867746   -0.070635028036975   0.02518892894793371
-0.5514647111867746   -0.070635028036975   0.02518892894793371
-0.5514647111867746   -0.070635028036975   0.02518892894793371
-0.5514647111867746   -0.070635028036975   0.02518892894793371
-0.8388737250318357   -0.09648876670787149   -0.01772662653480986
-0.8388737250318357   -0.09648876670787149   -0.01772662653480986
-0.8388737250318357   -0.09648876670787149   -0.01772662653480986
-0.8388737250318357   -0.09648876670787149   -0.01772662653480986
-0.541340055068104   0.009553724432507696   -0.004376542928195323
-0.541340055068104   0.009553724432507696   -0.004376542928195323
-0.541340055068104   0.009553724432507696   -0.004376542928195323
-0.541340055068104   0.009553724432507696   -0.004376542928195323
-1.1157785469492991   -0.1906070383499423   -0.010357286854347536
-1.1157785469492991   -0.1906070383499423   -0.010357286854347536
-1.1157785469492991   -0.1906070383499423   -0.010357286854347536
-1.1157785469492991   -0.1906070383499423   -0.010357286854347536
-1.0661330263295394   -0.08563647618373893   -0.04421665017625126
-1.0661330263295394   -0.08563647618373893   -0.04421665017625126
-1.0661330263295394   -0.08563647618373893   -0.04421665017625126
-1.0661330263295394   -0.08563647618373893   -0.04421665017625126
-0.524925907329342   -0.052360729735211095   0.021614749609247686
-0.524925907329342   -0.052360729735211095   0.021614749609247686
-0.524925907329342   -0.052360729735211095   0.021614749609247686
-0.524925907329342   -0.052360729735211095   0.021614749609247686
-0.7986873491609666   -0.07312856404887912   -0.005799035803472848
-0.7986873491609666   -0.07312856404887912   -0.005799035803472848
-0.7986873491609666   -0.07312856404887912   -0.005799035803472848
-0.7986873491609666   -0.07312856404887912   -0.005799035803472848
-0.5139413399708701   0.032067135380435444   -0.007890278714048723
-0.5139413399708701   0.032067135380435444   -0.007890278714048723
-0.5139413399708701   0.032067135380435444   -0.007890278714048723
-0.5139413399708701   0.032067135380435444   -0.007890278714048723
-1.0789912327504327   -0.17193798036181232   -0.02220617810263669
-1.0789912327504327   -0.17193798036181232   -0.02220617810263669
-1.0789912327504327   -0.17193798036181232   -0.02220617810263669
-1.0789912327504327   -0.17193798036181232   -0.02220617810263669
-1.0344401135593875   -0.05997272531928538   -0.04563039586983576
-1.0344401135593875   -0.05997272531928538   -0.04563039586983576
-1.0344401135593875   -0.05997272531928538   -0.04563039586983576
-1.0344401135593875   -0.05997272531928538   -0.04563039586983576
-0.5096847039838333   -0.040742735423475576   0.006662213854644848
-0.5096847039838333   -0.040742735423475576   0.006662213854644848
-0.5096847039838333   -0.040742735423475576   0.006662213854644848
-0.5096847039838333   -0.040742735423475576   0.006662213854644848
-0.7765688789778129   -0.05889133606717156   -0.001900446482856477
-0.7765688789778129   -0.05889133606717156   -0.001900446482856477
-0.7765688789778129   -0.05889133606717156   -0.001900446482856477
-0.7765688789778129   -0.05889133606717156   -0.001900446482856477
-1.1253812321893952   -0.03803170664387917   -0.027827461205637893
-1.1253812321893952   -0.03803170664387917   -0.027827461205637893
-1.1253812321893952   -0.03803170664387917   -0.027827461205637893
-1.1253812321893952   -0.03803170664387917   -0.027827461205637893
-1.696980803894649   -0.14458418791077104   0.06396485447277754
-1.696980803894649   -0.14458418791077104   0.06396485447277754
-1.696980803894649   -0.14458418791077104   0.06396485447277754
-1.696980803894649   -0.14458418791077104   0.06396485447277754
-1.6389632496351803   -0.11526884048313474   -0.03728475629143997
-1.6389632496351803   -0.11526884048313474   -0.03728475629143997
-1.6389632496351803   -0.11526884048313474   -0.03728475629143997
-1.6389632496351803   -0.11526884048313474   -0.03728475629143997
-1.0577356227447263   0.030398262515197394   0.05885203330335906
-1.0577356227447263   0.030398262515197394   0.05885203330335906
-1.0577356227447263   0.030398262515197394   0.05885203330335906
-1.0577356227447263   0.030398262515197394   0.05885203330335906
-1.318014345924717   -0.045319695329449544   0.006418701196167102
-1.318014345924717   -0.045319695329449544   0.006418701196167102
-1.318014345924717   -0.045319695329449544   0.006418701196167102
-1.318014345924717   -0.045319695329449544   0.006418701196167102
-1.082284643501434   -0.0026459413259092845   -0.030848866639058878
-1.082284643501434   -0.0026459413259092845   -0.030848866639058878
-1.082284643501434   -0.0026459413259092845   -0.030848866639058878
-1.082284643501434   -0.0026459413259092845   -0.030848866639058878
-1.6104557308295164   -0.07826613859306958   0.06825013584681419
-1.6104557308295164   -0.07826613859306958   0.06825013584681419
-1.6104557308295164   -0.07826613859306958   0.06825013584681419
-1.6104557308295164   -0.07826613859306958   0.06825013584681419
-1.576711630919565   -0.09703482698940469   -0.044402204473338536
-1.576711630919565   -0.09703482698940469   -0.044402204473338536
-1.576711630919565   -0.09703482698940469   -0.044402204473338536
-1.576711630919565   -0.09703482698940469   -0.044402204473338536
-1.019089162564181   0.04855349564511416   0.05681269682168741
-1.019089162564181   0.04855349564511416   0.05681269682168741
-1.019089162564181   0.04855349564511416   0.05681269682168741
-1.019089162564181   0.04855349564511416   0.05681269682168741
-1.2813642730313466   -0.01827976084654731   0.026281999159545585
-1.2813642730313466   -0.01827976084654731   0.026281999159545585
-1.2813642730313466   -0.01827976084654731   0.026281999159545585
-1.2813642730313466   -0.01827976084654731   0.026281999159545585
-1.0445026367319703   0.011622647556962462   -0.033323825929097745
-1.0445026367319703   0.011622647556962462   -0.033323825929097745
-1.0445026367319703   0.011622647556962462   -0.033323825929097745
-1.0445026367319703   0.011622647556962462   -0.033323825929097745
-1.5504908715315744   -0.059296693681052004   0.04896345915824987
-1.5504908715315744   -0.059296693681052004   0.04896345915824987
-1.5504908715315744   -0.059296693681052004   0.04896345915824987
-1.5504908715315744   -0.059296693681052004   0.04896345915824987
-1.5123205078495603   -0.07984324690025651   -0.053667570889100805
-1.5123205078495603   -0.07984324690025651   -0.053667570889100805
-1.5123205078495603   -0.07984324690025651   -0.053667570889100805
-1.5123205078495603   -0.07984324690025651   -0.053667570889100805
-0.990488191836891   0.07022871772577216   0.043927769697588576
-0.990488191836891   0.07022871772577216   0.043927769697588576
-0.990488191836891   0.07022871772577216   0.043927769697588576
-0.990488191836891   0.07022871772577216   0.043927769697588576
-1.2120746116187995   0.004823268787993773   0.04621365076532209
-1.2120746116187995   0.004823268787993773   0.04621365076532209
-1.2120746116187995   0.004823268787993773   0.04621365076532209
-1.2120746116187995   0.004823268787993773   0.04621365076532209
1.4920609133642115   0.08954928844089055   0.053982110029527366
1.4920609133642115   0.08954928844089055   0.053982110029527366
1.4920609133642115   0.08954928844089055   0.053982110029527366
1.4920609133642115   0.08954928844089055   0.053982110029527366
0.7110690499204402   -0.13304560845490238   0.011968822520424444
0.7110690499204402   -0.13304560845490238   0.011968822520424444
0.7110690499204402   -0.13304560845490238   0.011968822520424444
0.7110690499204402   -0.13304560845490238   0.011968822520424444
0.7502115898970578   -0.0562098161717442   0.04149365305902303
0.7502115898970578   -0.0562098161717442   0.04149365305902303
0.7502115898970578   -0.0562098161717442   0.04149365305902303
0.7502115898970578   -0.0562098161717442   0.04149365305902303
1.4998664309886844   0.01295244752553737   -0.012104471181882015
1.4998664309886844   0.01295244752553737   -0.012104471181882015
1.4998664309886844   0.01295244752553737   -0.012104471181882015
1.4998664309886844   0.01295244752553737   -0.012104471181882015
1.048892360261553   -0.028518567490133345   -0.0696268998486182
1.048892360261553   -0.028518567490133345   -0.0696268998486182
1.048892360261553   -0.028518567490133345   -0.0696268998486182
1.048892360261553   -0.028518567490133345   -0.0696268998486182
1.5281571450337714   0.0996173946313435   0.04268415193774787
1.5281571450337714   0.0996173946313435   0.04268415193774787
1.5281571450337714   0.0996173946313435   0.04268415193774787
1.5281571450337714   0.0996173946313435   0.04268415193774787
0.7287018641951359   -0.13609377493438496   0.013828983312054677
0.7287018641951359   -0.13609377493438496   0.013828983312054677
0.7287018641951359   -0.13609377493438496   0.013828983312054677
0.7287018641951359   -0.13609377493438496   0.013828983312054677
0.7650152233786833   -0.04777859216257094   0.03156717715481931
0.7650152233786833   -0.04777859216257094   0.03156717715481931
0.7650152233786833   -0.04777859216257094   0.03156717715481931
0.7650152233786833   -0.04777859216257094   0.03156717715481931
1.5260699755084222   0.022454006704908047   -0.003784217149433347
1.5260699755084222   0.022454006704908047   -0.003784217149433347
1.5260699755084222   0.022454006704908047   -0.003784217149433347
1.5260699755084222   0.022454006704908047   -0.003784217149433347
1.0920809086121088   -0.02253712312566647   -0.04758712228791594
1.0920809086121088   -0.02253712312566647   -0.04758712228791594
1.0920809086121088   -0.02253712312566647   -0.04758712228791594
1.0920809086121088   -0.02253712312566647   -0.04758712228791594
1.5500131296347648   0.10882055474593261   0.02956500544125565
1.5500131296347648   0.10882055474593261   0.02956500544125565
1.5500131296347648   0.10882055474593261   0.02956500544125565
1.5500131296347648   0.10882055474593261   0.02956500544125565
0.745788890054797   -0.12942831940113914   0.017085237773955667
0.745788890054797   -0.12942831940113914   0.017085237773955667
0.745788890054797   -0.12942831940113914   0.017085237773955667
0.745788890054797   -0.12942831940113914   0.017085237773955667
0.7868128727283448   -0.014905863729276797   0.028858183313836022
0.7868128727283448   -0.014905863729276797   0.028858183313836022
0.7868128727283448   -0.014905863729276797   0.028858183313836022
0.7868128727283448   -0.014905863729276797   0.028858183313836022
1.553339839495551   0.044264605087613096   -0.000710187415611574
1.553339839495551   0.044264605087613096   -0.000710187415611574
1.553339839495551   0.044264605087613096   -0.000710187415611574
1.553339839495551   0.044264605087613096   -0.000710187415611574
1.0973737198552656   -0.010347618260684421   -0.03560038162186675
1.0973737198552656   -0.010347618260684421   -0.03560038162186675
1.0973737198552656   -0.010347618260684421   -0.03560038162186675
1.0973737198552656   -0.010347618260684421   -0.03560038162186675
0.7504895351375178   0.019362029007871706   0.0566636111430382
0.7504895351375178   0.019362029007871706   0.0566636111430382
0.7504895351375178   0.019362029007871706   0.0566636111430382
0.7504895351375178   0.019362029007871706   0.0566636111430382
0.03895940606549238   -0.26468574509382414   0.027067242209019002
0.03895940606549238   -0.26468574509382414   0.027067242209019002
0.03895940606549238   -0.26468574509382414   0.027067242209019002
0.03895940606549238   -0.26468574509382414   0.027067242209019002
0.08992538425842234   -0.11218317455500704   0.02530009644825567
0.08992538425842234   -0.11218317455500704   0.02530009644825567
0.08992538425842234   -0.11218317455500704   0.02530009644825567
0.08992538425842234   -0.11218317455500704   0.02530009644825567
0.7312659104625938   -0.12671823050406913   0.017273670219021806
0.7312659104625938   -0.12671823050406913   0.017273670219021806
0.7312659104625938   -0.12671823050406913   0.017273670219021806
0.7312659104625938   -0.12671823050406913   0.017273670219021806
0.3895921089483824   -0.11848634945324046   -0.04443881039447782
0.3895921089483824   -0.11848634945324046   -0.04443881039447782
0.3895921089483824   -0.11848634945324046   -0.04443881039447782
0.3895921089483824   -0.11848634945324046   -0.04443881039447782
0.7681974639704605   0.027878219623840905   0.04733498763045712
0.7681974639704605   0.027878219623840905   0.04733498763045712
0.7681974639704605   0.027878219623840905   0.04733498763045712
0.7681974639704605   0.027878219623840905   0.04733498763045712
0.06274517259515804   -0.25702828283831236   0.0342441464152415
0.06274517259515804   -0.25702828283831236   0.0342441464152415
0.06274517259515804   -0.25702828283831236   0.0342441464152415
0.06274517259515804   -0.25702828283831236   0.0342441464152415
0.11040081917319641   -0.09677833713053385   0.018315678620779638
0.11040081917319641   -0.09677833713053385   0.018315678620779638
0.11040081917319641   -0.09677833713053385   0.018315678620779638
0.11040081917319641   -0.09677833713053385   0.018315678620779638
0.7487985414008776   -0.11863491553071681   0.021340090633937034
0.7487985414008776   -0.11863491553071681   0.021340090633937034
0.7487985414008776   -0.11863491553071681   0.021340090633937034
0.7487985414008776   -0.11863491553071681   0.021340090633937034
0.4070042479283712   -0.11257741484041998   -0.02222218035562632
0.4070042479283712   -0.11257741484041998   -0.02222218035562632
0.4070042479283712   -0.11257741484041998   -0.02222218035562632
0.4070042479283712   -0.11257741484041998   -0.02222218035562632
0.7847181028737856   0.04240215031581662   0.03990083215194287
0.7847181028737856   0.04240215031581662   0.03990083215194287
0.7847181028737856   0.04240215031581662   0.03990083215194287
0.7847181028737856   0.04240215031581662   0.03990083215194287
0.08386131418702795   -0.24843534649032725   0.03727516304973459
0.08386131418702795   -0.24843534649032725   0.03727516304973459
0.08386131418702795   -0.24843534649032725   0.03727516304973459
0.08386131418702795   -0.24843534649032725   0.03727516304973459
0.1418384121385879   -0.07365102726956034   0.0121102161186189
0.1418384121385879   -0.07365102726956034   0.0121102161186189
0.1418384121385879   -0.07365102726956034   0.0121102161186189
0.1418384121385879   -0.07365102726956034   0.0121102161186189
0.7679790696107682   -0.10635469464058317   0.0261379986372611
0.7679790696107682   -0.10635469464058317   0.0261379986372611
0.7679790696107682   -0.10635469464058317   0.0261379986372611
0.7679790696107682   -0.10635469464058317   0.0261379986372611
0.4375962565446454   -0.09828347493074109   0.0036391110256973475
0.4375962565446454   -0.09828347493074109   0.0036391110256973475
0.4375962565446454   -0.09828347493074109   0.0036391110256973475
0.4375962565446454   -0.09828347493074109   0.0036391110256973475
0.08375451715033454   -0.050121254498527903   0.03647830703793355
0.08375451715033454   -0.050121254498527903   0.03647830703793355
0.08375451715033454   -0.050121254498527903   0.03647830703793355
0.08375451715033454   -0.050121254498527903   0.03647830703793355
-0.6385990507911408   -0.45440049195803467   0.039295431707962236
-0.6385990507911408   -0.45440049195803467   0.039295431707962236
-0.6385990507911408   -0.45440049195803467   0.039295431707962236
-0.6385990507911408   -0.45440049195803467   0.039295431707962236
-0.558069043432549   -0.17719876932747353   0.0025553142406791393
-0.558069043432549   -0.17719876932747353   0.0025553142406791393
-0.558069043432549   -0.17719876932747353   0.0025553142406791393
-0.558069043432549   -0.17719876932747353   0.0025553142406791393
0.04431695319055934   -0.330000945082385   0.015075711636320627
0.04431695319055934   -0.330000945082385   0.015075711636320627
0.04431695319055934   -0.330000945082385   0.015075711636320627
0.04431695319055934   -0.330000945082385   0.015075711636320627
-0.2754640712307353   -0.25473759475178853   -0.05331897686093217
-0.2754640712307353   -0.25473759475178853   -0.05331897686093217
-0.2754640712307353   -0.25473759475178853   -0.05331897686093217
-0.2754640712307353   -0.25473759475178853   -0.05331897686093217
0.10519532173395457   -0.03930303107343856   0.028769640344350332
0.10519532173395457   -0.03930303107343856   0.028769640344350332
0.10519532173395457   -0.03930303107343856   0.028769640344350332
0.10519532173395457   -0.03930303107343856   0.028769640344350332
-0.6048215634581515   -0.45377083481863645   0.04536477960383578
-0.6048215634581515   -0.45377083481863645   0.04536477960383578
-0.6048215634581515   -0.45377083481863645   0.04536477960383578
-0.6048215634581515   -0.45377083481863645   0.04536477960383578
-0.5270037482157937   -0.15899765344115532   -0.00012820330923188697
-0.5270037482157937   -0.15899765344115532   -0.00012820330923188697
-0.5270037482157937   -0.15899765344115532   -0.00012820330923188697
-0.5270037482157937   -0.15899765344115532   -0.00012820330923188697
0.0659069255421684   -0.3226785668643301   0.021746440199439637
0.0659069255421684   -0.3226785668643301   0.021746440199439637
0.0659069255421684   -0.3226785668643301   0.021746440199439637
0.0659069255421684   -0.3226785668643301   0.021746440199439637
-0.24398838124464342   -0.24597937833977065   -0.01984566824927486
-0.24398838124464342   -0.24597937833977065   -0.01984566824927486
-0.24398838124464342   -0.24597937833977065   -0.01984566824927486
-0.24398838124464342   -0.24597937833977065   -0.01984566824927486
0.12479857764145819   -0.024921934034622395   0.018448067866180928
0.12479857764145819   -0.024921934034622395   0.018448067866180928
0.12479857764145819   -0.024921934034622395   0.018448067866180928
0.12479857764145819   -0.024921934034622395   0.018448067866180928
-0.5731578691215333   -0.4440167550773219   0.05412029379824379
-0.5731578691215333   -0.4440167550773219   0.05412029379824379
-0.5731578691215333   -0.4440167550773219   0.05412029379824379
-0.5731578691215333   -0.4440167550773219   0.05412029379824379
-0.47573718635759144   -0.13803721603718788   -0.0060071787428492545
-0.47573718635759144   -0.13803721603718788   -0.0060071787428492545
-0.47573718635759144   -0.13803721603718788   -0.0060071787428492545
-0.47573718635759144   -0.13803721603718788   -0.0060071787428492545
0.0996054348750824   -0.30234729496156726   0.029641597493098262
0.0996054348750824   -0.30234729496156726   0.029641597493098262
0.0996054348750824   -0.30234729496156726   0.029641597493098262
0.0996054348750824   -0.30234729496156726   0.029641597493098262
-0.2031542076319514   -0.22646328663501966   0.015151940962612326
-0.2031542076319514   -0.22646328663501966   0.015151940962612326
-0.2031542076319514   -0.22646328663501966   0.015151940962612326
-0.2031542076319514   -0.22646328663501966   0.015151940962612326
-0.5702643249407187   -0.09082286900208801   0.01739143800412232
-0.5702643249407187   -0.09082286900208801   0.01739143800412232
-0.5702643249407187   -0.09082286900208801   0.01739143800412232
-0.5702643249407187   -0.09082286900208801   0.01739143800412232
-1.4196292263845574   -0.7069728485917829   -0.033021987266531286
-1.4196292263845574   -0.7069728485917829   -0.033021987266531286
-1.4196292263845574   -0.7069728485917829   -0.033021987266531286
-1.4196292263845574   -0.7069728485917829   -0.033021987266531286
-1.2867807897978403   -0.23056600007378678   -0.039149852625059815
-1.2867807897978403   -0.23056600007378678   -0.039149852625059815
-1.2867807897978403   -0.23056600007378678   -0.039149852625059815
-1.2867807897978403   -0.23056600007378678   -0.039149852625059815
-0.6388729762504748   -0.5906532201534374   0.0119901009770145
-0.6388729762504748   -0.5906532201534374   0.0119901009770145
-0.6388729762504748   -0.5906532201534374   0.0119901009770145
-0.6388729762504748   -0.5906532201534374   0.0119901009770145
-0.9777918262891602   -0.41819143236107226   -0.056037547141387443
-0.9777918262891602   -0.41819143236107226   -0.056037547141387443
-0.9777918262891602   -0.41819143236107226   -0.056037547141387443
-0.9777918262891602   -0.41819143236107226   -0.056037547141387443
-0.5335747789521692   -0.06877437826384974   0.01660224557895449
-0.5335747789521692   -0.06877437826384974   0.01660224557895449
-0.5335747789521692   -0.06877437826384974   0.01660224557895449
-0.5335747789521692   -0.06877437826384974   0.01660224557895449
-1.3888006433658477   -0.7491664982330662   -0.03064862230581844
-1.3888006433658477   -0.7491664982330662   -0.03064862230581844
-1.3888006433658477   -0.7491664982330662   -0.03064862230581844
-1.3888006433658477   -0.7491664982330662   -0.03064862230581844
-1.2453911136983757   -0.20875874941427977   -0.03991014241703111
-1.2453911136983757   -0.20875874941427977   -0.03991014241703111
-1.2453911136983757   -0.20875874941427977   -0.03991014241703111
-1.2453911136983757   -0.20875874941427977   -0.03991014241703111
-0.6087311138271498   -0.5859164344174406   0.01815374961027455
-0.6087311138271498   -0.5859164344174406   0.01815374961027455
-0.6087311138271498   -0.5859164344174406   0.01815374961027455
-0.6087311138271498   -0.5859164344174406   0.01815374961027455
-0.9343042769330258   -0.40676939191036754   -0.039154610465489535
-0.9343042769330258   -0.40676939191036754   -0.039154610465489535
-0.9343042769330258   -0.40676939191036754   -0.039154610465489535
-0.9343042769330258   -0.40676939191036754   -0.039154610465489535
-0.5043514177549884   -0.05145135219288986   0.00558714774653097
-0.5043514177549884   -0.05145135219288986   0.00558714774653097
-0.5043514177549884   -0.05145135219288986   0.00558714774653097
-0.5043514177549884   -0.05145135219288986   0.00558714774653097
-1.3496523219176342   -0.7431053437859155   -0.026869589141677336
-1.3496523219176342   -0.7431053437859155   -0.026869589141677336
-1.3496523219176342   -0.7431053437859155   -0.026869589141677336
-1.3496523219176342   -0.7431053437859155   -0.026869589141677336
-1.1807923677281922   -0.18534632577962665   -0.045248074181751426
-1.1807923677281922   -0.18534632577962665   -0.045248074181751426
-1.1807923677281922   -0.18534632577962665   -0.045248074181751426
-1.1807923677281922   -0.18534632577962665   -0.045248074181751426
-0.5435142098610176   -0.5264849074691428   0.04355539517198234
-0.5435142098610176   -0.5264849074691428   0.04355539517198234
-0.5435142098610176   -0.5264849074691428   0.04355539517198234
-0.5435142098610176   -0.5264849074691428   0.04355539517198234
-0.8858390775912274   -0.3684964182101713   -0.02159369772186736
-0.8858390775912274   -0.3684964182101713   -0.02159369772186736
-0.8858390775912274   -0.3684964182101713   -0.02159369772186736
-0.8858390775912274   -0.3684964182101713   -0.02159369772186736
-1.2889395915357542   -0.07756520721367793   -0.00898145440062087
-1.2889395915357542   -0.07756520721367793   -0.00898145440062087
-1.2889395915357542   -0.07756520721367793   -0.00898145440062087
-1.2889395915357542   -0.07756520721367793   -0.00898145440062087
-2.273192095652542   -0.44999547250388283   0.02321473313312772
-2.273192095652542   -0.44999547250388283   0.02321473313312772
-2.273192095652542   -0.44999547250388283   0.02321473313312772
-2.273192095652542   -0.44999547250388283   0.02321473313312772
-2.183903261864936   -0.21615232487223063   -0.04773326451357138
-2.183903261864936   -0.21615232487223063   -0.04773326451357138
-2.183903261864936   -0.21615232487223063   -0.04773326451357138
-2.183903261864936   -0.21615232487223063   -0.04773326451357138
-1.260847791473205   -0.23348310875814776   0.09343224768246622
-1.260847791473205   -0.23348310875814776   0.09343224768246622
-1.260847791473205   -0.23348310875814776   0.09343224768246622
-1.260847791473205   -0.23348310875814776   0.09343224768246622
-1.6807940865605542   -0.2608889022456573   0.023873665146128147
-1.6807940865605542   -0.2608889022456573   0.023873665146128147
-1.6807940865605542   -0.2608889022456573   0.023873665146128147
-1.6807940865605542   -0.2608889022456573   0.023873665146128147
-1.2361821295620299   -0.017004963177412735   0.0002824116576122526
-1.2361821295620299   -0.017004963177412735   0.0002824116576122526
-1.2361821295620299   -0.017004963177412735   0.0002824116576122526
-1.2361821295620299   -0.017004963177412735   0.0002824116576122526
-2.2170279829918966   -0.4410895296687531   0.01158033464813124
-2.2170279829918966   -0.4410895296687531   0.01158033464813124
-2.2170279829918966   -0.4410895296687531   0.01158033464813124
-2.2170279829918966   -0.4410895296687531   0.01158033464813124
-2.134853982975424   -0.19808048455648153   -0.060592383775048525
-2.134853982975424   -0.19808048455648153   -0.060592383775048525
-2.134853982975424   -0.19808048455648153   -0.060592383775048525
-2.134853982975424   -0.19808048455648153   -0.060592383775048525
-1.2182457042540273   -0.22186459147726417   0.10892274686770648
-1.2182457042540273   -0.22186459147726417   0.10892274686770648
-1.2182457042540273   -0.22186459147726417   0.10892274686770648
-1.2182457042540273   -0.22186459147726417   0.10892274686770648
-1.655017131527649   -0.21490611759041617   0.022999306495339312
-1.655017131527649   -0.21490611759041617   0.022999306495339312
-1.655017131527649   -0.21490611759041617   0.022999306495339312
-1.655017131527649   -0.21490611759041617   0.022999306495339312
-1.1982335800041788   -0.001011809899410132   -0.011869413460905434
-1.1982335800041788   -0.001011809899410132   -0.011869413460905434
-1.1982335800041788   -0.001011809899410132   -0.011869413460905434
-1.1982335800041788   -0.001011809899410132   -0.011869413460905434
-2.1579321312557243   -0.42199929016479576   0.04793568043174523
-2.1579321312557243   -0.42199929016479576   0.04793568043174523
-2.1579321312557243   -0.42199929016479576   0.04793568043174523
-2.1579321312557243   -0.42199929016479576   0.04793568043174523
-2.0329855572268616   -0.16061618452151966   -0.06779937614890028
-2.0329855572268616   -0.16061618452151966   -0.06779937614890028
-2.0329855572268616   -0.16061618452151966   -0.06779937614890028
-2.0329855572268616   -0.16061618452151966   -0.06779937614890028
-1.151947779706845   -0.2063865399269127   0.12001508007228145
-1.151947779706845   -0.2063865399269127   0.12001508007228145
-1.151947779706845   -0.2063865399269127   0.12001508007228145
-1.151947779706845   -0.2063865399269127   0.12001508007228145
-1.556286353130898   -0.1643245535452944   0.04734293172889659
-1.556286353130898   -0.1643245535452944   0.04734293172889659
-1.556286353130898   -0.1643245535452944   0.04734293172889659
-1.556286353130898   -0.1643245535452944   0.04734293172889659
1.6342910974229936   0.053794824022393606   0.022948937404351055
1.6342910974229936   0.053794824022393606   0.022948937404351055
1.6342910974229936   0.053794824022393606   0.022948937404351055
1.6342910974229936   0.053794824022393606   0.022948937404351055
0.8341074315656132   -0.044082133176725796   0.01679072052568953
0.8341074315656132   -0.044082133176725796   0.01679072052568953
0.8341074315656132   -0.044082133176725796   0.01679072052568953
0.8341074315656132   -0.044082133176725796   0.01679072052568953
0.8016292109501022   -0.11764177808576584   0.033161620800184144
0.8016292109501022   -0.11764177808576584   0.033161620800184144
0.8016292109501022   -0.11764177808576584   0.033161620800184144
0.8016292109501022   -0.11764177808576584   0.033161620800184144
1.6224419419149432   0.0913963274653487   0.012116389003510183
1.6224419419149432   0.0913963274653487   0.012116389003510183
1.6224419419149432   0.0913963274653487   0.012116389003510183
1.6224419419149432   0.0913963274653487   0.012116389003510183
1.1579323758125954   -0.016381668452857795   -0.04277958292461628
1.1579323758125954   -0.016381668452857795   -0.04277958292461628
1.1579323758125954   -0.016381668452857795   -0.04277958292461628
1.1579323758125954   -0.016381668452857795   -0.04277958292461628
1.6135746212379898   0.04162516869049432   0.017550944393597445
1.6135746212379898   0.04162516869049432   0.017550944393597445
1.6135746212379898   0.04162516869049432   0.017550944393597445
1.6135746212379898   0.04162516869049432   0.017550944393597445
0.8078452620559128   -0.07052188888205432   0.017121987125525442
0.8078452620559128   -0.07052188888205432   0.017121987125525442
0.8078452620559128   -0.07052188888205432   0.017121987125525442
0.8078452620559128   -0.07052188888205432   0.017121987125525442
0.7808999439922856   -0.12033925553829189   0.027419503150703226
0.7808999439922856   -0.12033925553829189   0.027419503150703226
0.7808999439922856   -0.12033925553829189   0.027419503150703226
0.7808999439922856   -0.12033925553829189   0.027419503150703226
1.6035129784340745   0.0874616143973268   0.021031423425395213
1.6035129784340745   0.0874616143973268   0.021031423425395213
1.6035129784340745   0.0874616143973268   0.021031423425395213
1.6035129784340745   0.0874616143973268   0.021031423425395213
1.1545594587216972   -0.02259375785039308   -0.04946886945036014
1.1545594587216972   -0.02259375785039308   -0.04946886945036014
1.1545594587216972   -0.02259375785039308   -0.04946886945036014
1.1545594587216972   -0.02259375785039308   -0.04946886945036014
1.5902842394941643   0.03710297629714032   0.005246366826016535
1.5902842394941643   0.03710297629714032   0.005246366826016535
1.5902842394941643   0.03710297629714032   0.005246366826016535
1.5902842394941643   0.03710297629714032   0.005246366826016535
0.7893591536731371   -0.0747501466971717   0.024126442713840263
0.7893591536731371   -0.0747501466971717   0.024126442713840263
0.7893591536731371   -0.0747501466971717   0.024126442713840263
0.7893591536731371   -0.0747501466971717   0.024126442713840263
0.7590408507504565   -0.10971760043710466   0.023677773705894065
0.7590408507504565   -0.10971760043710466   0.023677773705894065
0.7590408507504565   -0.10971760043710466   0.023677773705894065
0.7590408507504565   -0.10971760043710466   0.023677773705894065
1.5743555098436737   0.08851833688846977   0.030295830508106608
1.5743555098436737   0.08851833688846977   0.030295830508106608
1.5743555098436737   0.08851833688846977   0.030295830508106608
1.5743555098436737   0.08851833688846977   0.030295830508106608
1.1112548200323575   -0.022740093562290176   -0.06674421699691542
1.1112548200323575   -0.022740093562290176   -0.06674421699691542
1.1112548200323575   -0.022740093562290176   -0.06674421699691542
1.1112548200323575   -0.022740093562290176   -0.06674421699691542
0.826871087739409   -0.10434290296438012   0.04086977118232264
0.826871087739409   -0.10434290296438012   0.04086977118232264
0.826871087739409   -0.10434290296438012   0.04086977118232264
0.826871087739409   -0.10434290296438012   0.04086977118232264
0.15974618729602677   -0.09845081209574932   0.008646397202556867
0.15974618729602677   -0.09845081209574932   0.008646397202556867
0.15974618729602677   -0.09845081209574932   0.008646397202556867
0.15974618729602677   -0.09845081209574932   0.008646397202556867
0.10372895708675915   -0.2469673905589927   0.04356482332023866
0.10372895708675915   -0.2469673905589927   0.04356482332023866
0.10372895708675915   -0.2469673905589927   0.04356482332023866
0.10372895708675915   -0.2469673905589927   0.04356482332023866
0.8313248917157241   0.03245633945955906   0.031541907082968675
0.8313248917157241   0.03245633945955906   0.031541907082968675
0.8313248917157241   0.03245633945955906   0.031541907082968675
0.8313248917157241   0.03245633945955906   0.031541907082968675
0.473029726843327   -0.10474626414964415   -0.0018339448940383682
0.473029726843327   -0.10474626414964415   -0.0018339448940383682
0.473029726843327   -0.10474626414964415   -0.0018339448940383682
0.473029726843327   -0.10474626414964415   -0.0018339448940383682
0.8036061634578858   -0.10885332741512371   0.034257932668456906
0.8036061634578858   -0.10885332741512371   0.034257932668456906
0.8036061634578858   -0.10885332741512371   0.034257932668456906
0.8036061634578858   -0.10885332741512371   0.034257932668456906
0.12444506498433619   -0.11266034404457169   0.012838316293702787
0.12444506498433619   -0.11266034404457169   0.012838316293702787
0.12444506498433619   -0.11266034404457169   0.012838316293702787
0.12444506498433619   -0.11266034404457169   0.012838316293702787
0.07862409215355774   -0.24913823555005357   0.03899793978457319
0.07862409215355774   -0.24913823555005357   0.03899793978457319
0.07862409215355774   -0.24913823555005357   0.03899793978457319
0.07862409215355774   -0.24913823555005357   0.03899793978457319
0.812210016299238   0.026276077830476224   0.037354531316696596
0.812210016299238   0.026276077830476224   0.037354531316696596
0.812210016299238   0.026276077830476224   0.037354531316696596
0.812210016299238   0.026276077830476224   0.037354531316696596
0.43892026824116975   -0.11162742652808506   -0.02263678573862954
0.43892026824116975   -0.11162742652808506   -0.02263678573862954
0.43892026824116975   -0.11162742652808506   -0.02263678573862954
0.43892026824116975   -0.11162742652808506   -0.02263678573862954
0.7830794609957712   -0.11037598601045578   0.028353818640287173
0.7830794609957712   -0.11037598601045578   0.028353818640287173
0.7830794609957712   -0.11037598601045578   0.028353818640287173
0.7830794609957712   -0.11037598601045578   0.028353818640287173
0.10014277163451975   -0.12009804753161733   0.017551149170947064
0.10014277163451975   -0.12009804753161733   0.017551149170947064
0.10014277163451975   -0.12009804753161733   0.017551149170947064
0.10014277163451975   -0.12009804753161733   0.017551149170947064
0.05053612470196589   -0.24897025464545644   0.030503143521697113
0.05053612470196589   -0.24897025464545644   0.030503143521697113
0.05053612470196589   -0.24897025464545644   0.030503143521697113
0.05053612470196589   -0.24897025464545644   0.030503143521697113
0.7905163741294408   0.026691561682647913   0.04464622848106454
0.7905163741294408   0.026691561682647913   0.04464622848106454
0.7905163741294408   0.026691561682647913   0.04464622848106454
0.7905163741294408   0.026691561682647913   0.04464622848106454
0.4181137309039598   -0.11073101000196123   -0.04032018638136468
0.4181137309039598   -0.11073101000196123   -0.04032018638136468
0.4181137309039598   -0.11073101000196123   -0.04032018638136468
0.4181137309039598   -0.11073101000196123   -0.04032018638136468
0.12458361749220773   -0.3022887478545125   0.0366714839422248
0.12458361749220773   -0.3022887478545125   0.0366714839422248
0.12458361749220773   -0.3022887478545125   0.0366714839422248
0.12458361749220773   -0.3022887478545125   0.0366714839422248
-0.4886098286958611   -0.15264538497511465   0.0004572637382105893
-0.4886098286958611   -0.15264538497511465   0.0004572637382105893
-0.4886098286958611   -0.15264538497511465   0.0004572637382105893
-0.4886098286958611   -0.15264538497511465   0.0004572637382105893
-0.5899524405676019   -0.44988437055462316   0.049927978033352305
-0.5899524405676019   -0.44988437055462316   0.049927978033352305
-0.5899524405676019   -0.44988437055462316   0.049927978033352305
-0.5899524405676019   -0.44988437055462316   0.049927978033352305
0.14331940060928566   -0.025417959925401593   0.019967610299278182
0.14331940060928566   -0.025417959925401593   0.019967610299278182
0.14331940060928566   -0.025417959925401593   0.019967610299278182
0.14331940060928566   -0.025417959925401593   0.019967610299278182
-0.19996990753951296   -0.22928112793450156   0.00864050709621348
-0.19996990753951296   -0.22928112793450156   0.00864050709621348
-0.19996990753951296   -0.22928112793450156   0.00864050709621348
-0.19996990753951296   -0.22928112793450156   0.00864050709621348
0.08579421459837525   -0.31944657588685055   0.02637029620617691
0.08579421459837525   -0.31944657588685055   0.02637029620617691
0.08579421459837525   -0.31944657588685055   0.02637029620617691
0.08579421459837525   -0.31944657588685055   0.02637029620617691
-0.5422345508250759   -0.16566305086155902   0.00429610705291392
-0.5422345508250759   -0.16566305086155902   0.00429610705291392
-0.5422345508250759   -0.16566305086155902   0.00429610705291392
-0.5422345508250759   -0.16566305086155902   0.00429610705291392
-0.6249079201472311   -0.4570525927043342   0.04069115668888032
-0.6249079201472311   -0.4570525927043342   0.04069115668888032
-0.6249079201472311   -0.4570525927043342   0.04069115668888032
-0.6249079201472311   -0.4570525927043342   0.04069115668888032
0.11979373073935917   -0.03227685090841245   0.02798474807193923
0.11979373073935917   -0.03227685090841245   0.02798474807193923
0.11979373073935917   -0.03227685090841245   0.02798474807193923
0.11979373073935917   -0.03227685090841245   0.02798474807193923
-0.24365681466873548   -0.24318794125809734   -0.02053137027744288
-0.24365681466873548   -0.24318794125809734   -0.02053137027744288
-0.24365681466873548   -0.24318794125809734   -0.02053137027744288
-0.24365681466873548   -0.24318794125809734   -0.02053137027744288
0.05905259297898788   -0.3249985664537664   0.017000774815438754
0.05905259297898788   -0.3249985664537664   0.017000774815438754
0.05905259297898788   -0.3249985664537664   0.017000774815438754
0.05905259297898788   -0.3249985664537664   0.017000774815438754
-0.5758437281095258   -0.1760078228816363   0.004967347054704946
-0.5758437281095258   -0.1760078228816363   0.004967347054704946
-0.5758437281095258   -0.1760078228816363   0.004967347054704946
-0.5758437281095258   -0.1760078228816363   0.004967347054704946
-0.6628055241641271   -0.4539156078197822   0.03421099224123299
-0.6628055241641271   -0.4539156078197822   0.03421099224123299
-0.6628055241641271   -0.4539156078197822   0.03421099224123299
-0.6628055241641271   -0.4539156078197822   0.03421099224123299
0.09362177117798076   -0.03608786444137337   0.03304898569768844
0.09362177117798076   -0.03608786444137337   0.03304898569768844
0.09362177117798076   -0.03608786444137337   0.03304898569768844
0.09362177117798076   -0.03608786444137337   0.03304898569768844
-0.2791131796394449   -0.24845960856420898   -0.04969547903361205
-0.2791131796394449   -0.24845960856420898   -0.04969547903361205
-0.2791131796394449   -0.24845960856420898   -0.04969547903361205
-0.2791131796394449   -0.24845960856420898   -0.04969547903361205
-0.5531211342771372   -0.5183464687880401   0.043601819644761855
-0.5531211342771372   -0.5183464687880401   0.043601819644761855
-0.5531211342771372   -0.5183464687880401   0.043601819644761855
-0.5531211342771372   -0.5183464687880401   0.043601819644761855
-1.2253190145439894   -0.19000629392975493   -0.028318156878384963
-1.2253190145439894   -0.19000629392975493   -0.028318156878384963
-1.2253190145439894   -0.19000629392975493   -0.028318156878384963
-1.2253190145439894   -0.19000629392975493   -0.028318156878384963
-1.4024556997973048   -0.7535482578170196   -0.03890236379412809
-1.4024556997973048   -0.7535482578170196   -0.03890236379412809
-1.4024556997973048   -0.7535482578170196   -0.03890236379412809
-1.4024556997973048   -0.7535482578170196   -0.03890236379412809
-0.5149719095919865   -0.04230638516433856   0.017252647521140748
-0.5149719095919865   -0.04230638516433856   0.017252647521140748
-0.5149719095919865   -0.04230638516433856   0.017252647521140748
-0.5149719095919865   -0.04230638516433856   0.017252647521140748
-0.9150938800556891   -0.3613780697220381   -0.030943257874381694
-0.9150938800556891   -0.3613780697220381   -0.030943257874381694
-0.9150938800556891   -0.3613780697220381   -0.030943257874381694
-0.9150938800556891   -0.3613780697220381   -0.030943257874381694
-0.6244550094702584   -0.5872179119997462   0.014748674965192443
-0.6244550094702584   -0.5872179119997462   0.014748674965192443
-0.6244550094702584   -0.5872179119997462   0.014748674965192443
-0.6244550094702584   -0.5872179119997462   0.014748674965192443
-1.2902050479442175   -0.2058691790067959   -0.02532818333891521
-1.2902050479442175   -0.2058691790067959   -0.02532818333891521
-1.2902050479442175   -0.2058691790067959   -0.02532818333891521
-1.2902050479442175   -0.2058691790067959   -0.02532818333891521
-1.4440485728329449   -0.7656079769282991   -0.04498650393828443
-1.4440485728329449   -0.7656079769282991   -0.04498650393828443
-1.4440485728329449   -0.7656079769282991   -0.04498650393828443
-1.4440485728329449   -0.7656079769282991   -0.04498650393828443
-0.5472081582375663   -0.05358051850821799   0.025717892041084052
-0.5472081582375663   -0.05358051850821799   0.025717892041084052
-0.5472081582375663   -0.05358051850821799   0.025717892041084052
-0.5472081582375663   -0.05358051850821799   0.025717892041084052
-0.9659394510518846   -0.4004650849146981   -0.04394818155748479
-0.9659394510518846   -0.4004650849146981   -0.04394818155748479
-0.9659394510518846   -0.4004650849146981   -0.04394818155748479
-0.9659394510518846   -0.4004650849146981   -0.04394818155748479
-0.6602189651979467   -0.598690072389552   0.005773411120514382
-0.6602189651979467   -0.598690072389552   0.005773411120514382
-0.6602189651979467   -0.598690072389552   0.005773411120514382
-0.6602189651979467   -0.598690072389552   0.005773411120514382
-1.3312750500770754   -0.22073570725148853   -0.02599115983575947
-1.3312750500770754   -0.22073570725148853   -0.02599115983575947
-1.3312750500770754   -0.22073570725148853   -0.02599115983575947
-1.3312750500770754   -0.22073570725148853   -0.02599115983575947
-1.4795054090233535   -0.7325396394761813   -0.050727065700874346
-1.4795054090233535   -0.7325396394761813   -0.050727065700874346
-1.4795054090233535   -0.7325396394761813   -0.050727065700874346
-1.4795054090233535   -0.7325396394761813   -0.050727065700874346
-0.5879994410036656   -0.06950997402371323   0.023835774247461212
-0.5879994410036656   -0.06950997402371323   0.023835774247461212
-0.5879994410036656   -0.06950997402371323   0.023835774247461212
-0.5879994410036656   -0.06950997402371323   0.023835774247461212
-1.0128069649578517   -0.41376552362112795   -0.056408883648082914
-1.0128069649578517   -0.41376552362112795   -0.056408883648082914
-1.0128069649578517   -0.41376552362112795   -0.056408883648082914
-1.0128069649578517   -0.41376552362112795   -0.056408883648082914
-1.2039772416113037   -0.2192654712926726   0.10764988514794072
-1.2039772416113037   -0.2192654712926726   0.10764988514794072
-1.2039772416113037   -0.2192654712926726   0.10764988514794072
-1.2039772416113037   -0.2192654712926726   0.10764988514794072
-2.118479800233657   -0.15833463037955986   -0.03744851508420903
-2.118479800233657   -0.15833463037955986   -0.03744851508420903
-2.118479800233657   -0.15833463037955986   -0.03744851508420903
-2.118479800233657   -0.15833463037955986   -0.03744851508420903
-2.2479424515713182   -0.44368306148357683   0.029527144153433715
-2.2479424515713182   -0.44368306148357683   0.029527144153433715
-2.2479424515713182   -0.44368306148357683   0.029527144153433715
-2.2479424515713182   -0.44368306148357683   0.029527144153433715
-1.2382208682242997   0.018017337568638103   0.010706198685230872
-1.2382208682242997   0.018017337568638103   0.010706198685230872
-1.2382208682242997   0.018017337568638103   0.010706198685230872
-1.2382208682242997   0.018017337568638103   0.010706198685230872
-1.6210969409319338   -0.15584344273157255   0.03254349740312024
-1.6210969409319338   -0.15584344273157255   0.03254349740312024
-1.6210969409319338   -0.15584344273157255   0.03254349740312024
-1.6210969409319338   -0.15584344273157255   0.03254349740312024
-1.2719215266350903   -0.23528354707253007   0.09550379127243991
-1.2719215266350903   -0.23528354707253007   0.09550379127243991
-1.2719215266350903   -0.23528354707253007   0.09550379127243991
-1.2719215266350903   -0.23528354707253007   0.09550379127243991
-2.20860807824234   -0.1847484619242188   -0.03273558876101307
-2.20860807824234   -0.1847484619242188   -0.03273558876101307
-2.20860807824234   -0.1847484619242188   -0.03273558876101307
-2.20860807824234   -0.1847484619242188   -0.03273558876101307
-2.302775558218167   -0.46252642347532064   -0.009856559158436307
-2.302775558218167   -0.46252642347532064   -0.009856559158436307
-2.302775558218167   -0.46252642347532064   -0.009856559158436307
-2.302775558218167   -0.46252642347532064   -0.009856559158436307
-1.2769457232995258   0.005351874507597998   0.019567892292901526
-1.2769457232995258   0.005351874507597998   0.019567892292901526
-1.2769457232995258   0.005351874507597998   0.019567892292901526
-1.2769457232995258   0.005351874507597998   0.019567892292901526
-1.7178402841153924   -0.20568677798564636   0.0133668485683568
-1.7178402841153924   -0.20568677798564636   0.0133668485683568
-1.7178402841153924   -0.20568677798564636   0.0133668485683568
-1.7178402841153924   -0.20568677798564636   0.0133668485683568
-1.315565767399853   -0.2472910368501649   0.07911058314902863
-1.315565767399853   -0.2472910368501649   0.07911058314902863
-1.315565767399853   -0.2472910368501649   0.07911058314902863
-1.315565767399853   -0.2472910368501649   0.07911058314902863
-2.252807834688514   -0.19853583268822572   -0.024008532297228644
-2.252807834688514   -0.19853583268822572   -0.024008532297228644
-2.252807834688514   -0.19853583268822572   -0.024008532297228644
-2.252807834688514   -0.19853583268822572   -0.024008532297228644
-2.3503799561992467   -0.47011124640067636   -0.00017627580413537292
-2.3503799561992467   -0.47011124640067636   -0.00017627580413537292
-2.3503799561992467   -0.47011124640067636   -0.00017627580413537292
-2.3503799561992467   -0.47011124640067636   -0.00017627580413537292
-1.3313455938376013   -0.05050791842560701   0.008040289177312386
-1.3313455938376013   -0.05050791842560701   0.008040289177312386
-1.3313455938376013   -0.05050791842560701   0.008040289177312386
-1.3313455938376013   -0.05050791842560701   0.008040289177312386
-1.7385940198892889   -0.24845929763305308   0.021087420456897207
-1.7385940198892889   -0.24845929763305308   0.021087420456897207
-1.7385940198892889   -0.24845929763305308   0.021087420456897207
-1.7385940198892889   -0.24845929763305308   0.021087420456897207
1.432289479021833   0.0659973524955666   -0.030993898569068284
1.432289479021833   0.0659973524955666   -0.030993898569068284
1.432289479021833   0.0659973524955666   -0.030993898569068284
1.432289479021833   0.0659973524955666   -0.030993898569068284
0.7206786609694967   -0.014673222374827877   0.015203697497930484
0.7206786609694967   -0.014673222374827877   0.015203697497930484
0.7206786609694967   -0.014673222374827877   0.015203697497930484
0.7206786609694967   -0.014673222374827877   0.015203697497930484
0.6749474683023109   -0.10601126474604683   -0.027427098440835143
0.6749474683023109   -0.10601126474604683   -0.027427098440835143
0.6749474683023109   -0.10601126474604683   -0.027427098440835143
0.6749474683023109   -0.10601126474604683   -0.027427098440835143
1.4157375620875177   0.10333491151707588   0.017788121092130578
1.4157375620875177   0.10333491151707588   0.017788121092130578
1.4157375620875177   0.10333491151707588   0.017788121092130578
1.4157375620875177   0.10333491151707588   0.017788121092130578
1.0053020971725246   0.002469231191562421   -0.03882891691746504
1.0053020971725246   0.002469231191562421   -0.03882891691746504
1.0053020971725246   0.002469231191562421   -0.03882891691746504
1.0053020971725246   0.002469231191562421   -0.03882891691746504
1.3926036078898527   0.036746695986505984   -0.031293434365612896
1.3926036078898527   0.036746695986505984   -0.031293434365612896
1.3926036078898527   0.036746695986505984   -0.031293434365612896
1.3926036078898527   0.036746695986505984   -0.031293434365612896
0.6968001329319133   -0.040704338783538435   0.016529298744663475
0.6968001329319133   -0.040704338783538435   0.016529298744663475
0.6968001329319133   -0.040704338783538435   0.016529298744663475
0.6968001329319133   -0.040704338783538435   0.016529298744663475
0.650319067518849   -0.11191586174155485   -0.022662046353787407
0.650319067518849   -0.11191586174155485   -0.022662046353787407
0.650319067518849   -0.11191586174155485   -0.022662046353787407
0.650319067518849   -0.11191586174155485   -0.022662046353787407
1.381535279604399   0.09496021502602134   0.026030385955606007
1.381535279604399   0.09496021502602134   0.026030385955606007
1.381535279604399   0.09496021502602134   0.026030385955606007
1.381535279604399   0.09496021502602134   0.026030385955606007
0.9919089642416274   -0.010022806086448732   -0.046312272181756556
0.9919089642416274   -0.010022806086448732   -0.046312272181756556
0.9919089642416274   -0.010022806086448732   -0.046312272181756556
0.9919089642416274   -0.010022806086448732   -0.046312272181756556
1.3582284535609457   0.029241432408745327   -0.02478496164438343
1.3582284535609457   0.029241432408745327   -0.02478496164438343
1.3582284535609457   0.029241432408745327   -0.02478496164438343
1.3582284535609457   0.029241432408745327   -0.02478496164438343
0.6718441285523441   -0.047978844134236864   0.021026241206369818
0.6718441285523441   -0.047978844134236864   0.021026241206369818
0.6718441285523441   -0.047978844134236864   0.021026241206369818
0.6718441285523441   -0.047978844134236864   0.021026241206369818
0.6264738261535268   -0.1102263381680317   -0.01554586108425382
0.6264738261535268   -0.1102263381680317   -0.01554586108425382
0.6264738261535268   -0.1102263381680317   -0.01554586108425382
0.6264738261535268   -0.1102263381680317   -0.01554586108425382
1.3391938073749785   0.08931652431858447   0.03389529907446936
1.3391938073749785   0.08931652431858447   0.03389529907446936
1.3391938073749785   0.08931652431858447   0.03389529907446936
1.3391938073749785   0.08931652431858447   0.03389529907446936
0.9429396121875141   -0.01747810652913065   -0.06080437969904052
0.9429396121875141   -0.01747810652913065   -0.06080437969904052
0.9429396121875141   -0.01747810652913065   -0.06080437969904052
0.9429396121875141   -0.01747810652913065   -0.06080437969904052
0.7247073876755391   0.014122475225243125   0.006551633428068124
0.7247073876755391   0.014122475225243125   0.006551633428068124
0.7247073876755391   0.014122475225243125   0.006551633428068124
0.7247073876755391   0.014122475225243125   0.006551633428068124
0.06928322734141848   -0.04350166776166069   -0.0016955750545999803
0.06928322734141848   -0.04350166776166069   -0.0016955750545999803
0.06928322734141848   -0.04350166776166069   -0.0016955750545999803
0.06928322734141848   -0.04350166776166069   -0.0016955750545999803
0.02618903455311658   -0.1401606120572328   -0.026406993338321874
0.02618903455311658   -0.1401606120572328   -0.026406993338321874
0.02618903455311658   -0.1401606120572328   -0.026406993338321874
0.02618903455311658   -0.1401606120572328   -0.026406993338321874
0.7255487191541863   0.08371294788554631   0.03585494318694324
0.7255487191541863   0.08371294788554631   0.03585494318694324
0.7255487191541863   0.08371294788554631   0.03585494318694324
0.7255487191541863   0.08371294788554631   0.03585494318694324
0.3793413902876718   -0.01962412500805112   -0.015004789051954067
0.3793413902876718   -0.01962412500805112   -0.015004789051954067
0.3793413902876718   -0.01962412500805112   -0.015004789051954067
0.3793413902876718   -0.01962412500805112   -0.015004789051954067
0.7044669044303646   0.0030067700637984585   0.011152047389586375
0.7044669044303646   0.0030067700637984585   0.011152047389586375
0.7044669044303646   0.0030067700637984585   0.011152047389586375
0.7044669044303646   0.0030067700637984585   0.011152047389586375
0.04807334338957299   -0.058651940122849584   0.0015058789095769957
0.04807334338957299   -0.058651940122849584   0.0015058789095769957
0.04807334338957299   -0.058651940122849584   0.0015058789095769957
0.04807334338957299   -0.058651940122849584   0.0015058789095769957
0.0024419758432856556   -0.14682758653037498   -0.018395750031668358
0.0024419758432856556   -0.14682758653037498   -0.018395750031668358
0.0024419758432856556   -0.14682758653037498   -0.018395750031668358
0.0024419758432856556   -0.14682758653037498   -0.018395750031668358
0.699480580256449   0.07168616635531613   0.039543489237341516
0.699480580256449   0.07168616635531613   0.039543489237341516
0.699480580256449   0.07168616635531613   0.039543489237341516
0.699480580256449   0.07168616635531613   0.039543489237341516
0.35199841538375803   -0.030700378877553322   -0.02124414540389345
0.35199841538375803   -0.030700378877553322   -0.02124414540389345
0.35199841538375803   -0.030700378877553322   -0.02124414540389345
0.35199841538375803   -0.030700378877553322   -0.02124414540389345
0.6795851128271145   -0.004474454531730732   0.016226772977723937
0.6795851128271145   -0.004474454531730732   0.016226772977723937
0.6795851128271145   -0.004474454531730732   0.016226772977723937
0.6795851128271145   -0.004474454531730732   0.016226772977723937
0.022226337995665833   -0.07077807092028106   0.0044765451201386405
0.022226337995665833   -0.07077807092028106   0.0044765451201386405
0.022226337995665833   -0.07077807092028106   0.0044765451201386405
0.022226337995665833   -0.07077807092028106   0.0044765451201386405
-0.0230468183047223   -0.14746224412761783   -0.01255960813610106
-0.0230468183047223   -0.14746224412761783   -0.01255960813610106
-0.0230468183047223   -0.14746224412761783   -0.01255960813610106
-0.0230468183047223   -0.14746224412761783   -0.01255960813610106
0.6731791111620133   0.06405434936249926   0.04369987642765128
0.6731791111620133   0.06405434936249926   0.04369987642765128
0.6731791111620133   0.06405434936249926   0.04369987642765128
0.6731791111620133   0.06405434936249926   0.04369987642765128
0.33063131610196317   -0.03509489676376465   -0.02659645833600944
0.33063131610196317   -0.03509489676376465   -0.02659645833600944
0.33063131610196317   -0.03509489676376465   -0.02659645833600944
0.33063131610196317   -0.03509489676376465   -0.02659645833600944
0.07073976494377801   -0.04037485829643493   0.002460303491969986
0.07073976494377801   -0.04037485829643493   0.002460303491969986
0.07073976494377801   -0.04037485829643493   0.002460303491969986
0.07073976494377801   -0.04037485829643493   0.002460303491969986
-0.5604153358635771   -0.06473969962518963   -0.01762466912944636
-0.5604153358635771   -0.06473969962518963   -0.01762466912944636
-0.5604153358635771   -0.06473969962518963   -0.01762466912944636
-0.5604153358635771   -0.06473969962518963   -0.01762466912944636
-0.6083249348234354   -0.1857621720523645   -0.03010911490275386
-0.6083249348234354   -0.1857621720523645   -0.03010911490275386
-0.6083249348234354   -0.1857621720523645   -0.03010911490275386
-0.6083249348234354   -0.1857621720523645   -0.03010911490275386
0.07589379621105051   0.06135777551871368   0.0205984273754013
0.07589379621105051   0.06135777551871368   0.0205984273754013
0.07589379621105051   0.06135777551871368   0.0205984273754013
0.07589379621105051   0.06135777551871368   0.0205984273754013
-0.25627770622816376   -0.05463328073477188   -0.01488316451234431
-0.25627770622816376   -0.05463328073477188   -0.01488316451234431
-0.25627770622816376   -0.05463328073477188   -0.01488316451234431
-0.25627770622816376   -0.05463328073477188   -0.01488316451234431
0.05289339792431469   -0.045088200191813754   0.012042411652249691
0.05289339792431469   -0.045088200191813754   0.012042411652249691
0.05289339792431469   -0.045088200191813754   0.012042411652249691
0.05289339792431469   -0.045088200191813754   0.012042411652249691
-0.5835615387441345   -0.07755319854927709   -0.014501108009336803
-0.5835615387441345   -0.07755319854927709   -0.014501108009336803
-0.5835615387441345   -0.07755319854927709   -0.014501108009336803
-0.5835615387441345   -0.07755319854927709   -0.014501108009336803
-0.6361700696464759   -0.19306066448726894   -0.019970519436508072
-0.6361700696464759   -0.19306066448726894   -0.019970519436508072
-0.6361700696464759   -0.19306066448726894   -0.019970519436508072
-0.6361700696464759   -0.19306066448726894   -0.019970519436508072
0.04984100107078493   0.04848499258755313   0.023286796987899924
0.04984100107078493   0.04848499258755313   0.023286796987899924
0.04984100107078493   0.04848499258755313   0.023286796987899924
0.04984100107078493   0.04848499258755313   0.023286796987899924
-0.27931688966298085   -0.06229005941586361   -0.017848960908905476
-0.27931688966298085   -0.06229005941586361   -0.017848960908905476
-0.27931688966298085   -0.06229005941586361   -0.017848960908905476
-0.27931688966298085   -0.06229005941586361   -0.017848960908905476
0.02823784175068659   -0.05286148310461879   0.01661747607958014
0.02823784175068659   -0.05286148310461879   0.01661747607958014
0.02823784175068659   -0.05286148310461879   0.01661747607958014
0.02823784175068659   -0.05286148310461879   0.01661747607958014
-0.6141950795667759   -0.09134235803549585   -0.011813875489784308
-0.6141950795667759   -0.09134235803549585   -0.011813875489784308
-0.6141950795667759   -0.09134235803549585   -0.011813875489784308
-0.6141950795667759   -0.09134235803549585   -0.011813875489784308
-0.6670628795511396   -0.19838497443561798   -0.01775191354441416
-0.6670628795511396   -0.19838497443561798   -0.01775191354441416
-0.6670628795511396   -0.19838497443561798   -0.01775191354441416
-0.6670628795511396   -0.19838497443561798   -0.01775191354441416
0.021660466151058048   0.03749632089992465   0.026018249115258227
0.021660466151058048   0.03749632089992465   0.026018249115258227
0.021660466151058048   0.03749632089992465   0.026018249115258227
0.021660466151058048   0.03749632089992465   0.026018249115258227
-0.3092445886963708   -0.07145667288523479   -0.024998528042175817
-0.3092445886963708   -0.07145667288523479   -0.024998528042175817
-0.3092445886963708   -0.07145667288523479   -0.024998528042175817
-0.3092445886963708   -0.07145667288523479   -0.024998528042175817
-0.5517612226731817   -0.047874887283698264   0.008781084481029367
-0.5517612226731817   -0.047874887283698264   0.008781084481029367
-0.5517612226731817   -0.047874887283698264   0.008781084481029367
-0.5517612226731817   -0.047874887283698264   0.008781084481029367
-1.1751464402039764   -0.07577489366326959   -0.031031792621535832
-1.1751464402039764   -0.07577489366326959   -0.031031792621535832
-1.1751464402039764   -0.07577489366326959   -0.031031792621535832
-1.1751464402039764   -0.07577489366326959   -0.031031792621535832
-1.229594744358979   -0.19470405253442874   -0.030112854562317635
-1.229594744358979   -0.19470405253442874   -0.030112854562317635
-1.229594744358979   -0.19470405253442874   -0.030112854562317635
-1.229594744358979   -0.19470405253442874   -0.030112854562317635
-0.5545972203239105   0.04690032636581162   0.0058669591766872115
-0.5545972203239105   0.04690032636581162   0.0058669591766872115
-0.5545972203239105   0.04690032636581162   0.0058669591766872115
-0.5545972203239105   0.04690032636581162   0.0058669591766872115
-0.8705497858191114   -0.06472056324006945   -0.012483946657042708
-0.8705497858191114   -0.06472056324006945   -0.012483946657042708
-0.8705497858191114   -0.06472056324006945   -0.012483946657042708
-0.8705497858191114   -0.06472056324006945   -0.012483946657042708
-0.5715248930804406   -0.05286810584524933   0.020997027605102525
-0.5715248930804406   -0.05286810584524933   0.020997027605102525
-0.5715248930804406   -0.05286810584524933   0.020997027605102525
-0.5715248930804406   -0.05286810584524933   0.020997027605102525
-1.2092158029174436   -0.09148435163837387   -0.03143784825070703
-1.2092158029174436   -0.09148435163837387   -0.03143784825070703
-1.2092158029174436   -0.09148435163837387   -0.03143784825070703
-1.2092158029174436   -0.09148435163837387   -0.03143784825070703
-1.268107772642497   -0.20713645655506593   -0.021162183788225118
-1.268107772642497   -0.20713645655506593   -0.021162183788225118
-1.268107772642497   -0.20713645655506593   -0.021162183788225118
-1.268107772642497   -0.20713645655506593   -0.021162183788225118
-0.5855706820279901   0.032798375937417246   0.007167378231230939
-0.5855706820279901   0.032798375937417246   0.007167378231230939
-0.5855706820279901   0.032798375937417246   0.007167378231230939
-0.5855706820279901   0.032798375937417246   0.007167378231230939
-0.8948755113360045   -0.07158924037149547   -0.01251054355369293
-0.8948755113360045   -0.07158924037149547   -0.01251054355369293
-0.8948755113360045   -0.07158924037149547   -0.01251054355369293
-0.8948755113360045   -0.07158924037149547   -0.01251054355369293
-0.6022778165174612   -0.0653766768567966   0.021806758578085818
-0.6022778165174612   -0.0653766768567966   0.021806758578085818
-0.6022778165174612   -0.0653766768567966   0.021806758578085818
-0.6022778165174612   -0.0653766768567966   0.021806758578085818
-1.2490865801523097   -0.10664734576013651   -0.02654533213221834
-1.2490865801523097   -0.10664734576013651   -0.02654533213221834
-1.2490865801523097   -0.10664734576013651   -0.02654533213221834
-1.2490865801523097   -0.10664734576013651   -0.02654533213221834
-1.311679521610068   -0.22353971618010193   -0.02263285592807991
-1.311679521610068   -0.22353971618010193   -0.02263285592807991
-1.311679521610068   -0.22353971618010193   -0.02263285592807991
-1.311679521610068   -0.22353971618010193   -0.02263285592807991
-0.6190462037417027   0.015385099820677678   0.008561391246465419
-0.6190462037417027   0.015385099820677678   0.008561391246465419
-0.6190462037417027   0.015385099820677678   0.008561391246465419
-0.6190462037417027   0.015385099820677678   0.008561391246465419
-0.938137974195261   -0.08842763662585616   -0.020365410975129093
-0.938137974195261   -0.08842763662585616   -0.020365410975129093
-0.938137974195261   -0.08842763662585616   -0.020365410975129093
-0.938137974195261   -0.08842763662585616   -0.020365410975129093
-1.135428465079916   0.053434981279264354   0.03834820805623283
-1.135428465079916   0.053434981279264354   0.03834820805623283
-1.135428465079916   0.053434981279264354   0.03834820805623283
-1.135428465079916   0.053434981279264354   0.03834820805623283
-1.7603708214932332   -0.08769490086615161   -0.023571391547143355
-1.7603708214932332   -0.08769490086615161   -0.023571391547143355
-1.7603708214932332   -0.08769490086615161   -0.023571391547143355
-1.7603708214932332   -0.08769490086615161   -0.023571391547143355
-1.8035062608901824   -0.08931078846823448   0.03935096116675085
-1.8035062608901824   -0.08931078846823448   0.03935096116675085
-1.8035062608901824   -0.08931078846823448   0.03935096116675085
-1.8035062608901824   -0.08931078846823448   0.03935096116675085
-1.179177679707467   0.03662623162531925   -0.00935781546451575
-1.179177679707467   0.03662623162531925   -0.00935781546451575
-1.179177679707467   0.03662623162531925   -0.00935781546451575
-1.179177679707467   0.03662623162531925   -0.00935781546451575
-1.401121395144288   0.0010215486873029755   0.035582864324785995
-1.401121395144288   0.0010215486873029755   0.035582864324785995
-1.401121395144288   0.0010215486873029755   0.035582864324785995
-1.401121395144288   0.0010215486873029755   0.035582864324785995
-1.1669773661752094   0.0398156625048659   0.0484543213172184
-1.1669773661752094   0.0398156625048659   0.0484543213172184
-1.1669773661752094   0.0398156625048659   0.0484543213172184
-1.1669773661752094   0.0398156625048659   0.0484543213172184
-1.8148990376762881   -0.09169268260161495   -0.015231028630396146
-1.8148990376762881   -0.09169268260161495   -0.015231028630396146
-1.8148990376762881   -0.09169268260161495   -0.015231028630396146
-1.8148990376762881   -0.09169268260161495   -0.015231028630396146
-1.8579406634704718   -0.10405330694742793   0.05353692518871796
-1.8579406634704718   -0.10405330694742793   0.05353692518871796
-1.8579406634704718   -0.10405330694742793   0.05353692518871796
-1.8579406634704718   -0.10405330694742793   0.05353692518871796
-1.2190854255389267   0.026606664684897086   -0.009793569510349459
-1.2190854255389267   0.026606664684897086   -0.009793569510349459
-1.2190854255389267   0.026606664684897086   -0.009793569510349459
-1.2190854255389267   0.026606664684897086   -0.009793569510349459
-1.4714297283962472   -0.016223409723300664   0.01952577213533485
-1.4714297283962472   -0.016223409723300664   0.01952577213533485
-1.4714297283962472   -0.016223409723300664   0.01952577213533485
-1.4714297283962472   -0.016223409723300664   0.01952577213533485
-1.207931596099019   0.0247979749699469   0.04778426740413928
-1.207931596099019   0.0247979749699469   0.04778426740413928
-1.207931596099019   0.0247979749699469   0.04778426740413928
-1.207931596099019   0.0247979749699469   0.04778426740413928
-1.871195220397459   -0.10434534471955698   -0.012443821674087835
-1.871195220397459   -0.10434534471955698   -0.012443821674087835
-1.871195220397459   -0.10434534471955698   -0.012443821674087835
-1.871195220397459   -0.10434534471955698   -0.012443821674087835
-1.9353480038479782   -0.1636232689390004   0.04646594662072214
-1.9353480038479782   -0.1636232689390004   0.04646594662072214
-1.9353480038479782   -0.1636232689390004   0.04646594662072214
-1.9353480038479782   -0.1636232689390004   0.04646594662072214
-1.2650984215315666   -0.00404070038304527   -0.009226371332652278
-1.2650984215315666   -0.00404070038304527   -0.009226371332652278
-1.2650984215315666   -0.00404070038304527   -0.009226371332652278
-1.2650984215315666   -0.00404070038304527   -0.009226371332652278
-1.5012312789571947   -0.0379609344247836   0.0054366476061056546
-1.5012312789571947   -0.0379609344247836   0.0054366476061056546
-1.5012312789571947   -0.0379609344247836   0.0054366476061056546
-1.5012312789571947   -0.0379609344247836   0.0054366476061056546
1.161606298008816   0.062219315341713405   -0.041261250958682584
1.161606298008816   0.062219315341713405   -0.041261250958682584
1.161606298008816   0.062219315341713405   -0.041261250958682584
1.161606298008816   0.062219315341713405   -0.041261250958682584
0.5756329688613105   -0.0007504910937220777   0.014908337582198013
0.5756329688613105   -0.0007504910937220777   0.014908337582198013
0.5756329688613105   -0.0007504910937220777   0.014908337582198013
0.5756329688613105   -0.0007504910937220777   0.014908337582198013
0.5262676977635313   -0.08569318302063214   -0.03788248727242304
0.5262676977635313   -0.08569318302063214   -0.03788248727242304
0.5262676977635313   -0.08569318302063214   -0.03788248727242304
0.5262676977635313   -0.08569318302063214   -0.03788248727242304
1.1398099010647567   0.09385354304950044   0.01870243061717424
1.1398099010647567   0.09385354304950044   0.01870243061717424
1.1398099010647567   0.09385354304950044   0.01870243061717424
1.1398099010647567   0.09385354304950044   0.01870243061717424
0.8068423215677671   0.007119290119489141   -0.026557842478675597
0.8068423215677671   0.007119290119489141   -0.026557842478675597
0.8068423215677671   0.007119290119489141   -0.026557842478675597
0.8068423215677671   0.007119290119489141   -0.026557842478675597
1.1157099686767653   0.03181919246820883   -0.03976288074148283
1.1157099686767653   0.03181919246820883   -0.03976288074148283
1.1157099686767653   0.03181919246820883   -0.03976288074148283
1.1157099686767653   0.03181919246820883   -0.03976288074148283
0.5493378539159119   -0.024688608674946294   0.016463719143785298
0.5493378539159119   -0.024688608674946294   0.016463719143785298
0.5493378539159119   -0.024688608674946294   0.016463719143785298
0.5493378539159119   -0.024688608674946294   0.016463719143785298
0.5015789574361302   -0.09282493783157363   -0.03293905616410019
0.5015789574361302   -0.09282493783157363   -0.03293905616410019
0.5015789574361302   -0.09282493783157363   -0.03293905616410019
0.5015789574361302   -0.09282493783157363   -0.03293905616410019
1.1028865342815797   0.08404312142306025   0.02559509124557216
1.1028865342815797   0.08404312142306025   0.02559509124557216
1.1028865342815797   0.08404312142306025   0.02559509124557216
1.1028865342815797   0.08404312142306025   0.02559509124557216
0.7875873278032877   -0.005751974606375249   -0.034836691400847004
0.7875873278032877   -0.005751974606375249   -0.034836691400847004
0.7875873278032877   -0.005751974606375249   -0.034836691400847004
0.7875873278032877   -0.005751974606375249   -0.034836691400847004
1.0792988560114378   0.023039014483246828   -0.031339193165305555
1.0792988560114378   0.023039014483246828   -0.031339193165305555
1.0792988560114378   0.023039014483246828   -0.031339193165305555
1.0792988560114378   0.023039014483246828   -0.031339193165305555
0.5242399134325911   -0.03274755316543887   0.0202883391520651
0.5242399134325911   -0.03274755316543887   0.0202883391520651
0.5242399134325911   -0.03274755316543887   0.0202883391520651
0.5242399134325911   -0.03274755316543887   0.0202883391520651
0.4790433184092681   -0.09487527467555312   -0.026913206930508242
0.4790433184092681   -0.09487527467555312   -0.026913206930508242
0.4790433184092681   -0.09487527467555312   -0.026913206930508242
0.4790433184092681   -0.09487527467555312   -0.026913206930508242
1.0612615333932507   0.07549121231867653   0.031875101757613926
1.0612615333932507   0.07549121231867653   0.031875101757613926
1.0612615333932507   0.07549121231867653   0.031875101757613926
1.0612615333932507   0.07549121231867653   0.031875101757613926
0.7425060916916628   -0.014594984602519068   -0.04728964071502152
0.7425060916916628   -0.014594984602519068   -0.04728964071502152
0.7425060916916628   -0.014594984602519068   -0.04728964071502152
0.7425060916916628   -0.014594984602519068   -0.04728964071502152
0.5856080582817872   0.06075756012958736   0.003275733461271621
0.5856080582817872   0.06075756012958736   0.003275733461271621
0.5856080582817872   0.06075756012958736   0.003275733461271621
0.5856080582817872   0.06075756012958736   0.003275733461271621
0.019695136733292876   -0.019303076502766053   -0.0024323178049719518
0.019695136733292876   -0.019303076502766053   -0.0024323178049719518
0.019695136733292876   -0.019303076502766053   -0.0024323178049719518
0.019695136733292876   -0.019303076502766053   -0.0024323178049719518
-0.017516380949160974   -0.07723134729645284   -0.025801432619674686
-0.017516380949160974   -0.07723134729645284   -0.025801432619674686
-0.017516380949160974   -0.07723134729645284   -0.025801432619674686
-0.017516380949160974   -0.07723134729645284   -0.025801432619674686
0.5743487723509695   0.08502342178770995   0.03180628085641621
0.5743487723509695   0.08502342178770995   0.03180628085641621
0.5743487723509695   0.08502342178770995   0.03180628085641621
0.5743487723509695   0.08502342178770995   0.03180628085641621
0.28600565647721604   0.012113521093525537   -0.00325549858911137
0.28600565647721604   0.012113521093525537   -0.00325549858911137
0.28600565647721604   0.012113521093525537   -0.00325549858911137
0.28600565647721604   0.012113521093525537   -0.00325549858911137
0.5612982451724678   0.045006064835115   0.006571001916505059
0.5612982451724678   0.045006064835115   0.006571001916505059
0.5612982451724678   0.045006064835115   0.006571001916505059
0.5612982451724678   0.045006064835115   0.006571001916505059
-0.004233018718957486   -0.036981155292150576   0.0003651865270404876
-0.004233018718957486   -0.036981155292150576   0.0003651865270404876
-0.004233018718957486   -0.036981155292150576   0.0003651865270404876
-0.004233018718957486   -0.036981155292150576   0.0003651865270404876
-0.04090323090883374   -0.08876156594823895   -0.02231136111518184
-0.04090323090883374   -0.08876156594823895   -0.02231136111518184
-0.04090323090883374   -0.08876156594823895   -0.02231136111518184
-0.04090323090883374   -0.08876156594823895   -0.02231136111518184
0.5478549974287384   0.0704261136550195   0.035190092312343754
0.5478549974287384   0.0704261136550195   0.035190092312343754
0.5478549974287384   0.0704261136550195   0.035190092312343754
0.5478549974287384   0.0704261136550195   0.035190092312343754
0.257424024284252   -0.002277922929375474   -0.011431010739223297
0.257424024284252   -0.002277922929375474   -0.011431010739223297
0.257424024284252   -0.002277922929375474   -0.011431010739223297
0.257424024284252   -0.002277922929375474   -0.011431010739223297
0.535294878255659   0.03291954177340835   0.009896068328561856
0.535294878255659   0.03291954177340835   0.009896068328561856
0.535294878255659   0.03291954177340835   0.009896068328561856
0.535294878255659   0.03291954177340835   0.009896068328561856
-0.02832097750351144   -0.05123285983438425   0.0030711997975749906
-0.02832097750351144   -0.05123285983438425   0.0030711997975749906
-0.02832097750351144   -0.05123285983438425   0.0030711997975749906
-0.02832097750351144   -0.05123285983438425   0.0030711997975749906
-0.0640508388574271   -0.09568361577105204   -0.01775999922063414
-0.0640508388574271   -0.09568361577105204   -0.01775999922063414
-0.0640508388574271   -0.09568361577105204   -0.01775999922063414
-0.0640508388574271   -0.09568361577105204   -0.01775999922063414
0.5226563733001571   0.058129709241426006   0.038147083606951265
0.5226563733001571   0.058129709241426006   0.038147083606951265
0.5226563733001571   0.058129709241426006   0.038147083606951265
0.5226563733001571   0.058129709241426006   0.038147083606951265
0.23631432839327166   -0.011462998309137759   -0.017450123375332992
0.23631432839327166   -0.011462998309137759   -0.017450123375332992
0.23631432839327166   -0.011462998309137759   -0.017450123375332992
0.23631432839327166   -0.011462998309137759   -0.017450123375332992
0.03894035466172886   0.06129542614387466   0.013195269190569167
0.03894035466172886   0.06129542614387466   0.013195269190569167
0.03894035466172886   0.06129542614387466   0.013195269190569167
0.03894035466172886   0.06129542614387466   0.013195269190569167
-0.5190419815267467   -0.033681870370907016   -0.01784681244803602
-0.5190419815267467   -0.033681870370907016   -0.01784681244803602
-0.5190419815267467   -0.033681870370907016   -0.01784681244803602
-0.5190419815267467   -0.033681870370907016   -0.01784681244803602
-0.5480727620279326   -0.07083006717876991   -0.01637422787303354
-0.5480727620279326   -0.07083006717876991   -0.01637422787303354
-0.5480727620279326   -0.07083006717876991   -0.01637422787303354
-0.5480727620279326   -0.07083006717876991   -0.01637422787303354
0.020103421735403984   0.06963023250891148   0.015436000997785776
0.020103421735403984   0.06963023250891148   0.015436000997785776
0.020103421735403984   0.06963023250891148   0.015436000997785776
0.020103421735403984   0.06963023250891148   0.015436000997785776
-0.2517008180052541   0.007774043885747858   0.0009684043374591153
-0.2517008180052541   0.007774043885747858   0.0009684043374591153
-0.2517008180052541   0.007774043885747858   0.0009684043374591153
-0.2517008180052541   0.007774043885747858   0.0009684043374591153
0.016122674776087153   0.048596971248886144   0.01656552746122697
0.016122674776087153   0.048596971248886144   0.01656552746122697
0.016122674776087153   0.048596971248886144   0.01656552746122697
0.016122674776087153   0.048596971248886144   0.01656552746122697
-0.543453411516161   -0.049158202366289774   -0.01494934012665548
-0.543453411516161   -0.049158202366289774   -0.01494934012665548
-0.543453411516161   -0.049158202366289774   -0.01494934012665548
-0.543453411516161   -0.049158202366289774   -0.01494934012665548
-0.5731693824151655   -0.08349671970203587   -0.013611380974094738
-0.5731693824151655   -0.08349671970203587   -0.013611380974094738
-0.5731693824151655   -0.08349671970203587   -0.013611380974094738
-0.5731693824151655   -0.08349671970203587   -0.013611380974094738
-0.004020222056090797   0.054615116901875024   0.018727000298418943
-0.004020222056090797   0.054615116901875024   0.018727000298418943
-0.004020222056090797   0.054615116901875024   0.018727000298418943
-0.004020222056090797   0.054615116901875024   0.018727000298418943
-0.27574640671861245   -0.0046305728267411125   -0.005172150353291676
-0.27574640671861245   -0.0046305728267411125   -0.005172150353291676
-0.27574640671861245   -0.0046305728267411125   -0.005172150353291676
-0.27574640671861245   -0.0046305728267411125   -0.005172150353291676
-0.007418960362144587   0.0363711050311602   0.019977320638864808
-0.007418960362144587   0.0363711050311602   0.019977320638864808
-0.007418960362144587   0.0363711050311602   0.019977320638864808
-0.007418960362144587   0.0363711050311602   0.019977320638864808
-0.5692232134420157   -0.06470527716422417   -0.012671978646152078
-0.5692232134420157   -0.06470527716422417   -0.012671978646152078
-0.5692232134420157   -0.06470527716422417   -0.012671978646152078
-0.5692232134420157   -0.06470527716422417   -0.012671978646152078
-0.5980941866142139   -0.0934617755568915   -0.009017580403550648
-0.5980941866142139   -0.0934617755568915   -0.009017580403550648
-0.5980941866142139   -0.0934617755568915   -0.009017580403550648
-0.5980941866142139   -0.0934617755568915   -0.009017580403550648
-0.029013334815148735   0.040470504097984035   0.021273401121721568
-0.029013334815148735   0.040470504097984035   0.021273401121721568
-0.029013334815148735   0.040470504097984035   0.021273401121721568
-0.029013334815148735   0.040470504097984035   0.021273401121721568
-0.30161989857731075   -0.017245575718130214   -0.011884474102534149
-0.30161989857731075   -0.017245575718130214   -0.011884474102534149
-0.30161989857731075   -0.017245575718130214   -0.011884474102534149
-0.30161989857731075   -0.017245575718130214   -0.011884474102534149
-0.48946608027269584   0.07236475128129284   0.023986072170026372
-0.48946608027269584   0.07236475128129284   0.023986072170026372
-0.48946608027269584   0.07236475128129284   0.023986072170026372
-0.48946608027269584   0.07236475128129284   0.023986072170026372
-1.040044634858765   -0.04629462856557959   -0.02922734966785598
-1.040044634858765   -0.04629462856557959   -0.02922734966785598
-1.040044634858765   -0.04629462856557959   -0.02922734966785598
-1.040044634858765   -0.04629462856557959   -0.02922734966785598
-1.0626747556433607   -0.05683861242579308   -0.0047501994619169735
-1.0626747556433607   -0.05683861242579308   -0.0047501994619169735
-1.0626747556433607   -0.05683861242579308   -0.0047501994619169735
-1.0626747556433607   -0.05683861242579308   -0.0047501994619169735
-0.5202561079285628   0.052693532582726424   -0.0008145571376725474
-0.5202561079285628   0.052693532582726424   -0.0008145571376725474
-0.5202561079285628   0.052693532582726424   -0.0008145571376725474
-0.5202561079285628   0.052693532582726424   -0.0008145571376725474
-0.7724884920650141   0.007857123784854564   0.005638479711888189
-0.7724884920650141   0.007857123784854564   0.005638479711888189
-0.7724884920650141   0.007857123784854564   0.005638479711888189
-0.7724884920650141   0.007857123784854564   0.005638479711888189
-0.5133776094515796   0.05935429189245035   0.026917175937519258
-0.5133776094515796   0.05935429189245035   0.026917175937519258
-0.5133776094515796   0.05935429189245035   0.026917175937519258
-0.5133776094515796   0.05935429189245035   0.026917175937519258
-1.0686888778658785   -0.06263499548105281   -0.029024427519253132
-1.0686888778658785   -0.06263499548105281   -0.029024427519253132
-1.0686888778658785   -0.06263499548105281   -0.029024427519253132
-1.0686888778658785   -0.06263499548105281   -0.029024427519253132
-1.0935794412166013   -0.07108290902408748   -0.004230287387681289
-1.0935794412166013   -0.07108290902408748   -0.004230287387681289
-1.0935794412166013   -0.07108290902408748   -0.004230287387681289
-1.0935794412166013   -0.07108290902408748   -0.004230287387681289
-0.5456515939980966   0.038365147965836566   0.002115693443383068
-0.5456515939980966   0.038365147965836566   0.002115693443383068
-0.5456515939980966   0.038365147965836566   0.002115693443383068
-0.5456515939980966   0.038365147965836566   0.002115693443383068
-0.7941075012289568   -0.0034792424116135423   0.0006032818978410834
-0.7941075012289568   -0.0034792424116135423   0.0006032818978410834
-0.7941075012289568   -0.0034792424116135423   0.0006032818978410834
-0.7941075012289568   -0.0034792424116135423   0.0006032818978410834
-0.5381162223312007   0.04707277681605729   0.031084922927641742
-0.5381162223312007   0.04707277681605729   0.031084922927641742
-0.5381162223312007   0.04707277681605729   0.031084922927641742
-0.5381162223312007   0.04707277681605729   0.031084922927641742
-1.0993548980138337   -0.078030623004646   -0.02615985739329256
-1.0993548980138337   -0.078030623004646   -0.02615985739329256
-1.0993548980138337   -0.078030623004646   -0.02615985739329256
-1.0993548980138337   -0.078030623004646   -0.02615985739329256
-1.1220305330828675   -0.08633851563552372   0.0029276433065926477
-1.1220305330828675   -0.08633851563552372   0.0029276433065926477
-1.1220305330828675   -0.08633851563552372   0.0029276433065926477
-1.1220305330828675   -0.08633851563552372   0.0029276433065926477
-0.5725645357766161   0.021306738256487906   0.003862159971070249
-0.5725645357766161   0.021306738256487906   0.003862159971070249
-0.5725645357766161   0.021306738256487906   0.003862159971070249
-0.5725645357766161   0.021306738256487906   0.003862159971070249
-0.8279035765888957   -0.019414488102169114   -0.006175135546866696
-0.8279035765888957   -0.019414488102169114   -0.006175135546866696
-0.8279035765888957   -0.019414488102169114   -0.006175135546866696
-0.8279035765888957   -0.019414488102169114   -0.006175135546866696
-1.0031985947095734   0.0751628894187592   0.033545333093750906
-1.0031985947095734   0.0751628894187592   0.033545333093750906
-1.0031985947095734   0.0751628894187592   0.033545333093750906
-1.0031985947095734   0.0751628894187592   0.033545333093750906
-1.535388801562905   -0.0710398505994761   -0.026899241034461466
-1.535388801562905   -0.0710398505994761   -0.026899241034461466
-1.535388801562905   -0.0710398505994761   -0.026899241034461466
-1.535388801562905   -0.0710398505994761   -0.026899241034461466
-1.5563745683562418   -0.031237724125863953   0.028519294428312483
-1.5563745683562418   -0.031237724125863953   0.028519294428312483
-1.5563745683562418   -0.031237724125863953   0.028519294428312483
-1.5563745683562418   -0.031237724125863953   0.028519294428312483
-1.0470428056822874   0.031615830030916836   -0.015044892113261182
-1.0470428056822874   0.031615830030916836   -0.015044892113261182
-1.0470428056822874   0.031615830030916836   -0.015044892113261182
-1.0470428056822874   0.031615830030916836   -0.015044892113261182
-1.2286793902257651   0.015604679807532162   0.028265246993684642
-1.2286793902257651   0.015604679807532162   0.028265246993684642
-1.2286793902257651   0.015604679807532162   0.028265246993684642
-1.2286793902257651   0.015604679807532162   0.028265246993684642
-1.0273312388175235   0.07657736445375782   0.03855140778770301
-1.0273312388175235   0.07657736445375782   0.03855140778770301
-1.0273312388175235   0.07657736445375782   0.03855140778770301
-1.0273312388175235   0.07657736445375782   0.03855140778770301
-1.574923101183718   -0.07503622451141495   -0.020424869323489803
-1.574923101183718   -0.07503622451141495   -0.020424869323489803
-1.574923101183718   -0.07503622451141495   -0.020424869323489803
-1.574923101183718   -0.07503622451141495   -0.020424869323489803
-1.5947618888092954   -0.03869054847337683   0.0393968279686496
-1.5947618888092954   -0.03869054847337683   0.0393968279686496
-1.5947618888092954   -0.03869054847337683   0.0393968279686496
-1.5947618888092954   -0.03869054847337683   0.0393968279686496
-1.0765177657325682   0.023381989170647266   -0.013386808162250727
-1.0765177657325682   0.023381989170647266   -0.013386808162250727
-1.0765177657325682   0.023381989170647266   -0.013386808162250727
-1.0765177657325682   0.023381989170647266   -0.013386808162250727
-1.2815573281939276   0.00770556137006162   0.01820329697968101
-1.2815573281939276   0.00770556137006162   0.01820329697968101
-1.2815573281939276   0.00770556137006162   0.01820329697968101
-1.2815573281939276   0.00770556137006162   0.01820329697968101
-1.0547453586088797   0.07100402941528686   0.04785318721155232
-1.0547453586088797   0.07100402941528686   0.04785318721155232
-1.0547453586088797   0.07100402941528686   0.04785318721155232
-1.0547453586088797   0.07100402941528686   0.04785318721155232
-1.615409046564631   -0.08518733934965955   -0.017342169931722315
-1.615409046564631   -0.08518733934965955   -0.017342169931722315
-1.615409046564631   -0.08518733934965955   -0.017342169931722315
-1.615409046564631   -0.08518733934965955   -0.017342169931722315
-1.6468308184884322   -0.07071070830996068   0.03915598598963596
-1.6468308184884322   -0.07071070830996068   0.03915598598963596
-1.6468308184884322   -0.07071070830996068   0.03915598598963596
-1.6468308184884322   -0.07071070830996068   0.03915598598963596
-1.1081347544128812   -0.0013518957556891975   -0.012580083223310334
-1.1081347544128812   -0.0013518957556891975   -0.012580083223310334
-1.1081347544128812   -0.0013518957556891975   -0.012580083223310334
-1.1081347544128812   -0.0013518957556891975   -0.012580083223310334
-1.2968623121137088   -0.0036836543811516465   0.014889905908525555
-1.2968623121137088   -0.0036836543811516465   0.014889905908525555
-1.2968623121137088   -0.0036836543811516465   0.014889905908525555
-1.2968623121137088   -0.0036836543811516465   0.014889905908525555
0.881407255832009   0.049034309766794765   -0.04194194508591626
0.881407255832009   0.049034309766794765   -0.04194194508591626
0.881407255832009   0.049034309766794765   -0.04194194508591626
0.881407255832009   0.049034309766794765   -0.04194194508591626
0.41900432630672513   0.008276225924696304   0.01596072671543537
0.41900432630672513   0.008276225924696304   0.01596072671543537
0.41900432630672513   0.008276225924696304   0.01596072671543537
0.41900432630672513   0.008276225924696304   0.01596072671543537
0.37242168093554623   -0.07133474110064437   -0.03985077000433931
0.37242168093554623   -0.07133474110064437   -0.03985077000433931
0.37242168093554623   -0.07133474110064437   -0.03985077000433931
0.37242168093554623   -0.07133474110064437   -0.03985077000433931
0.8623922066574462   0.08094558038146663   0.019740945246506804
0.8623922066574462   0.08094558038146663   0.019740945246506804
0.8623922066574462   0.08094558038146663   0.019740945246506804
0.8623922066574462   0.08094558038146663   0.019740945246506804
0.601072978630113   0.008123609584678587   -0.01777752702549324
0.601072978630113   0.008123609584678587   -0.01777752702549324
0.601072978630113   0.008123609584678587   -0.01777752702549324
0.601072978630113   0.008123609584678587   -0.01777752702549324
0.8387166230403235   0.02196343569137582   -0.03965482814901559
0.8387166230403235   0.02196343569137582   -0.03965482814901559
0.8387166230403235   0.02196343569137582   -0.03965482814901559
0.8387166230403235   0.02196343569137582   -0.03965482814901559
0.39563175794761557   -0.012818103015607388   0.017682976970967344
0.39563175794761557   -0.012818103015607388   0.017682976970967344
0.39563175794761557   -0.012818103015607388   0.017682976970967344
0.39563175794761557   -0.012818103015607388   0.017682976970967344
0.35066576967187957   -0.07831942181457746   -0.03399686033294705
0.35066576967187957   -0.07831942181457746   -0.03399686033294705
0.35066576967187957   -0.07831942181457746   -0.03399686033294705
0.35066576967187957   -0.07831942181457746   -0.03399686033294705
0.828562319724218   0.07095813135375204   0.025982011970877482
0.828562319724218   0.07095813135375204   0.025982011970877482
0.828562319724218   0.07095813135375204   0.025982011970877482
0.828562319724218   0.07095813135375204   0.025982011970877482
0.5816410535994668   -0.003999167788975577   -0.02492637939545017
0.5816410535994668   -0.003999167788975577   -0.02492637939545017
0.5816410535994668   -0.003999167788975577   -0.02492637939545017
0.5816410535994668   -0.003999167788975577   -0.02492637939545017
0.8054356981027856   0.013079452484739962   -0.031772417267266
0.8054356981027856   0.013079452484739962   -0.031772417267266
0.8054356981027856   0.013079452484739962   -0.031772417267266
0.8054356981027856   0.013079452484739962   -0.031772417267266
0.3732020570207755   -0.02103107721810135   0.0213962318150532
0.3732020570207755   -0.02103107721810135   0.0213962318150532
0.3732020570207755   -0.02103107721810135   0.0213962318150532
0.3732020570207755   -0.02103107721810135   0.0213962318150532
0.3310642338411131   -0.08258617205198157   -0.02831452054353905
0.3310642338411131   -0.08258617205198157   -0.02831452054353905
0.3310642338411131   -0.08258617205198157   -0.02831452054353905
0.3310642338411131   -0.08258617205198157   -0.02831452054353905
0.7904079997944746   0.060171012923852754   0.030880862098613713
0.7904079997944746   0.060171012923852754   0.030880862098613713
0.7904079997944746   0.060171012923852754   0.030880862098613713
0.7904079997944746   0.060171012923852754   0.030880862098613713
0.543097437543401   -0.013147180695873534   -0.03552730687860731
0.543097437543401   -0.013147180695873534   -0.03552730687860731
0.543097437543401   -0.013147180695873534   -0.03552730687860731
0.543097437543401   -0.013147180695873534   -0.03552730687860731
0.4260566513486222   0.061962837959349204   -0.002464260109725009
0.4260566513486222   0.061962837959349204   -0.002464260109725009
0.4260566513486222   0.061962837959349204   -0.002464260109725009
0.4260566513486222   0.061962837959349204   -0.002464260109725009
-0.02797147907094676   -0.006135397751566624   -0.0002542495681760456
-0.02797147907094676   -0.006135397751566624   -0.0002542495681760456
-0.02797147907094676   -0.006135397751566624   -0.0002542495681760456
-0.02797147907094676   -0.006135397751566624   -0.0002542495681760456
-0.060787655942146634   -0.053436221093851904   -0.025355505258277025
-0.060787655942146634   -0.053436221093851904   -0.025355505258277025
-0.060787655942146634   -0.053436221093851904   -0.025355505258277025
-0.060787655942146634   -0.053436221093851904   -0.025355505258277025
0.4150230436986151   0.07359339808456956   0.028227904625788006
0.4150230436986151   0.07359339808456956   0.028227904625788006
0.4150230436986151   0.07359339808456956   0.028227904625788006
0.4150230436986151   0.07359339808456956   0.028227904625788006
0.18517998069061817   0.018143161100099094   0.0013300382463419316
0.18517998069061817   0.018143161100099094   0.0013300382463419316
0.18517998069061817   0.018143161100099094   0.0013300382463419316
0.18517998069061817   0.018143161100099094   0.0013300382463419316
0.40387817051888597   0.04482286051028941   0.0012740763014276093
0.40387817051888597   0.04482286051028941   0.0012740763014276093
0.40387817051888597   0.04482286051028941   0.0012740763014276093
0.40387817051888597   0.04482286051028941   0.0012740763014276093
-0.049452638721089404   -0.02447553947824791   0.002358899231405126
-0.049452638721089404   -0.02447553947824791   0.002358899231405126
-0.049452638721089404   -0.02447553947824791   0.002358899231405126
-0.049452638721089404   -0.02447553947824791   0.002358899231405126
-0.08127873225408606   -0.06663353725867208   -0.020974432573289528
-0.08127873225408606   -0.06663353725867208   -0.020974432573289528
-0.08127873225408606   -0.06663353725867208   -0.020974432573289528
-0.08127873225408606   -0.06663353725867208   -0.020974432573289528
0.3908644368593786   0.05781993369460482   0.030857120095362393
0.3908644368593786   0.05781993369460482   0.030857120095362393
0.3908644368593786   0.05781993369460482   0.030857120095362393
0.3908644368593786   0.05781993369460482   0.030857120095362393
0.15991371704709179   0.002541527978990245   -0.006501281832189525
0.15991371704709179   0.002541527978990245   -0.006501281832189525
0.15991371704709179   0.002541527978990245   -0.006501281832189525
0.15991371704709179   0.002541527978990245   -0.006501281832189525
0.38008974089193764   0.030663132229786456   0.004140441722979464
0.38008974089193764   0.030663132229786456   0.004140441722979464
0.38008974089193764   0.030663132229786456   0.004140441722979464
0.38008974089193764   0.030663132229786456   0.004140441722979464
-0.07066215939777576   -0.03963485890497867   0.005109753354568617
-0.07066215939777576   -0.03963485890497867   0.005109753354568617
-0.07066215939777576   -0.03963485890497867   0.005109753354568617
-0.07066215939777576   -0.03963485890497867   0.005109753354568617
-0.10150001820295726   -0.07770270109966101   -0.016858576595369528
-0.10150001820295726   -0.07770270109966101   -0.016858576595369528
-0.10150001820295726   -0.07770270109966101   -0.016858576595369528
-0.10150001820295726   -0.07770270109966101   -0.016858576595369528
0.3685590095186231   0.043249456694821116   0.0333237290972072
0.3685590095186231   0.043249456694821116   0.0333237290972072
0.3685590095186231   0.043249456694821116   0.0333237290972072
0.3685590095186231   0.043249456694821116   0.0333237290972072
0.1405544075689453   -0.009265741991836565   -0.01301921932202083
0.1405544075689453   -0.009265741991836565   -0.01301921932202083
0.1405544075689453   -0.009265741991836565   -0.01301921932202083
0.1405544075689453   -0.009265741991836565   -0.01301921932202083
-0.009885844404171246   0.07377202062170732   0.010266505392429515
-0.009885844404171246   0.07377202062170732   0.010266505392429515
-0.009885844404171246   0.07377202062170732   0.010266505392429515
-0.009885844404171246   0.07377202062170732   0.010266505392429515
-0.46543769196001133   -0.020287275002968244   -0.01543673528014975
-0.46543769196001133   -0.020287275002968244   -0.01543673528014975
-0.46543769196001133   -0.020287275002968244   -0.01543673528014975
-0.46543769196001133   -0.020287275002968244   -0.01543673528014975
-0.48658569098831334   -0.037206902383982   -0.012060560742964337
-0.48658569098831334   -0.037206902383982   -0.012060560742964337
-0.48658569098831334   -0.037206902383982   -0.012060560742964337
-0.48658569098831334   -0.037206902383982   -0.012060560742964337
-0.030679364709409646   0.05943206413092608   0.012317665680629919
-0.030679364709409646   0.05943206413092608   0.012317665680629919
-0.030679364709409646   0.05943206413092608   0.012317665680629919
-0.030679364709409646   0.05943206413092608   0.012317665680629919
-0.24755846935062303   0.01904933948457182   0.004854047114360185
-0.24755846935062303   0.01904933948457182   0.004854047114360185
-0.24755846935062303   0.01904933948457182   0.004854047114360185
-0.24755846935062303   0.01904933948457182   0.004854047114360185
-0.030274131498707713   0.059352250696287606   0.014423645168778077
-0.030274131498707713   0.059352250696287606   0.014423645168778077
-0.030274131498707713   0.059352250696287606   0.014423645168778077
-0.030274131498707713   0.059352250696287606   0.014423645168778077
-0.4865961545962813   -0.036732319346609546   -0.012587461820176605
-0.4865961545962813   -0.036732319346609546   -0.012587461820176605
-0.4865961545962813   -0.036732319346609546   -0.012587461820176605
-0.4865961545962813   -0.036732319346609546   -0.012587461820176605
-0.5075751691472324   -0.051489252929130806   -0.008239901765437955
-0.5075751691472324   -0.051489252929130806   -0.008239901765437955
-0.5075751691472324   -0.051489252929130806   -0.008239901765437955
-0.5075751691472324   -0.051489252929130806   -0.008239901765437955
-0.05204421688574744   0.04319076292967369   0.01537384408005784
-0.05204421688574744   0.04319076292967369   0.01537384408005784
-0.05204421688574744   0.04319076292967369   0.01537384408005784
-0.05204421688574744   0.04319076292967369   0.01537384408005784
-0.26876408585868367   0.004950409028875627   -0.0014962769934700228
-0.26876408585868367   0.004950409028875627   -0.0014962769934700228
-0.26876408585868367   0.004950409028875627   -0.0014962769934700228
-0.26876408585868367   0.004950409028875627   -0.0014962769934700228
-0.05121467350894922   0.044977742775298285   0.017734581118424325
-0.05121467350894922   0.044977742775298285   0.017734581118424325
-0.05121467350894922   0.044977742775298285   0.017734581118424325
-0.05121467350894922   0.044977742775298285   0.017734581118424325
-0.5082904562731909   -0.053161976523915744   -0.01014361380044583
-0.5082904562731909   -0.053161976523915744   -0.01014361380044583
-0.5082904562731909   -0.053161976523915744   -0.01014361380044583
-0.5082904562731909   -0.053161976523915744   -0.01014361380044583
-0.5283149968492169   -0.06453579636678884   -0.004456439168105255
-0.5283149968492169   -0.06453579636678884   -0.004456439168105255
-0.5283149968492169   -0.06453579636678884   -0.004456439168105255
-0.5283149968492169   -0.06453579636678884   -0.004456439168105255
-0.07349799055554883   0.02748275136500121   0.01796610917701036
-0.07349799055554883   0.02748275136500121   0.01796610917701036
-0.07349799055554883   0.02748275136500121   0.01796610917701036
-0.07349799055554883   0.02748275136500121   0.01796610917701036
-0.29094297496847454   -0.009266193066277205   -0.008569713982947582
-0.29094297496847454   -0.009266193066277205   -0.008569713982947582
-0.29094297496847454   -0.009266193066277205   -0.008569713982947582
-0.29094297496847454   -0.009266193066277205   -0.008569713982947582
-0.43692050926175247   0.08462337260752394   0.022238530600649023
-0.43692050926175247   0.08462337260752394   0.022238530600649023
-0.43692050926175247   0.08462337260752394   0.022238530600649023
-0.43692050926175247   0.08462337260752394   0.022238530600649023
-0.8930078961822646   -0.0347515574341313   -0.02780664258025011
-0.8930078961822646   -0.0347515574341313   -0.02780664258025011
-0.8930078961822646   -0.0347515574341313   -0.02780664258025011
-0.8930078961822646   -0.0347515574341313   -0.02780664258025011
-0.9045604286331849   -0.023519517367279474   0.0024245138169200764
-0.9045604286331849   -0.023519517367279474   0.0024245138169200764
-0.9045604286331849   -0.023519517367279474   0.0024245138169200764
-0.9045604286331849   -0.023519517367279474   0.0024245138169200764
-0.46889939007630127   0.04269638444660974   -0.003532343013492152
-0.46889939007630127   0.04269638444660974   -0.003532343013492152
-0.46889939007630127   0.04269638444660974   -0.003532343013492152
-0.46889939007630127   0.04269638444660974   -0.003532343013492152
-0.6714517443505229   0.018110918143727173   0.008223862917598065
-0.6714517443505229   0.018110918143727173   0.008223862917598065
-0.6714517443505229   0.018110918143727173   0.008223862917598065
-0.6714517443505229   0.018110918143727173   0.008223862917598065
-0.4573467070016356   0.07068651296411238   0.026240943842330042
-0.4573467070016356   0.07068651296411238   0.026240943842330042
-0.4573467070016356   0.07068651296411238   0.026240943842330042
-0.4573467070016356   0.07068651296411238   0.026240943842330042
-0.9160089879515473   -0.0514055221284794   -0.02693227801369199
-0.9160089879515473   -0.0514055221284794   -0.02693227801369199
-0.9160089879515473   -0.0514055221284794   -0.02693227801369199
-0.9160089879515473   -0.0514055221284794   -0.02693227801369199
-0.929003628868983   -0.03795882648098961   0.003847856080138587
-0.929003628868983   -0.03795882648098961   0.003847856080138587
-0.929003628868983   -0.03795882648098961   0.003847856080138587
-0.929003628868983   -0.03795882648098961   0.003847856080138587
-0.49018423801362815   0.02765342967314996   -0.00042792869969407454
-0.49018423801362815   0.02765342967314996   -0.00042792869969407454
-0.49018423801362815   0.02765342967314996   -0.00042792869969407454
-0.49018423801362815   0.02765342967314996   -0.00042792869969407454
-0.6893645493017497   0.005545376731042911   0.0023156164061605353
-0.6893645493017497   0.005545376731042911   0.0023156164061605353
-0.6893645493017497   0.005545376731042911   0.0023156164061605353
-0.6893645493017497   0.005545376731042911   0.0023156164061605353
-0.47814758480038866   0.05743713710385953   0.02997162993579007
-0.47814758480038866   0.05743713710385953   0.02997162993579007
-0.47814758480038866   0.05743713710385953   0.02997162993579007
-0.47814758480038866   0.05743713710385953   0.02997162993579007
-0.9404220160951567   -0.06712426792463405   -0.02407863860708552
-0.9404220160951567   -0.06712426792463405   -0.02407863860708552
-0.9404220160951567   -0.06712426792463405   -0.02407863860708552
-0.9404220160951567   -0.06712426792463405   -0.02407863860708552
-0.9511691501424111   -0.053510347140105   0.008381347353900552
-0.9511691501424111   -0.053510347140105   0.008381347353900552
-0.9511691501424111   -0.053510347140105   0.008381347353900552
-0.9511691501424111   -0.053510347140105   0.008381347353900552
-0.5120662866619365   0.010431416645769437   0.0018198987557420665
-0.5120662866619365   0.010431416645769437   0.0018198987557420665
-0.5120662866619365   0.010431416645769437   0.0018198987557420665
-0.5120662866619365   0.010431416645769437   0.0018198987557420665
-0.7167011744726117   -0.010238150231113324   -0.005195535243726596
-0.7167011744726117   -0.010238150231113324   -0.005195535243726596
-0.7167011744726117   -0.010238150231113324   -0.005195535243726596
-0.7167011744726117   -0.010238150231113324   -0.005195535243726596
-0.8590352121612622   0.07589313292155903   0.031412087169071554
-0.8590352121612622   0.07589313292155903   0.031412087169071554
-0.8590352121612622   0.07589313292155903   0.031412087169071554
-0.8590352121612622   0.07589313292155903   0.031412087169071554
-1.2998498199901538   -0.06000550777188593   -0.030575627803097617
-1.2998498199901538   -0.06000550777188593   -0.030575627803097617
-1.2998498199901538   -0.06000550777188593   -0.030575627803097617
-1.2998498199901538   -0.06000550777188593   -0.030575627803097617
-1.3142323573388057   -0.013026144053837396   0.028934789119485715
-1.3142323573388057   -0.013026144053837396   0.028934789119485715
-1.3142323573388057   -0.013026144053837396   0.028934789119485715
-1.3142323573388057   -0.013026144053837396   0.028934789119485715
-0.8995895901827407   0.021609882162817007   -0.01785069346095567
-0.8995895901827407   0.021609882162817007   -0.01785069346095567
-0.8995895901827407   0.021609882162817007   -0.01785069346095567
-0.8995895901827407   0.021609882162817007   -0.01785069346095567
-1.0448017157342513   0.01701861216542455   0.025620602166838286
-1.0448017157342513   0.01701861216542455   0.025620602166838286
-1.0448017157342513   0.01701861216542455   0.025620602166838286
-1.0448017157342513   0.01701861216542455   0.025620602166838286
-0.8778033319311914   0.0758423326630909   0.036848147296513006
-0.8778033319311914   0.0758423326630909   0.036848147296513006
-0.8778033319311914   0.0758423326630909   0.036848147296513006
-0.8778033319311914   0.0758423326630909   0.036848147296513006
-1.3356538220088219   -0.06689380097258277   -0.02430487731184252
-1.3356538220088219   -0.06689380097258277   -0.02430487731184252
-1.3356538220088219   -0.06689380097258277   -0.02430487731184252
-1.3356538220088219   -0.06689380097258277   -0.02430487731184252
-1.3462379940213836   -0.02064668276293108   0.03619006045867264
-1.3462379940213836   -0.02064668276293108   0.03619006045867264
-1.3462379940213836   -0.02064668276293108   0.03619006045867264
-1.3462379940213836   -0.02064668276293108   0.03619006045867264
-0.9225667953974659   0.013363276694928677   -0.015290079738194094
-0.9225667953974659   0.013363276694928677   -0.015290079738194094
-0.9225667953974659   0.013363276694928677   -0.015290079738194094
-0.9225667953974659   0.013363276694928677   -0.015290079738194094
-1.0895810361105391   0.008519756244237925   0.015621595354107037
-1.0895810361105391   0.008519756244237925   0.015621595354107037
-1.0895810361105391   0.008519756244237925   0.015621595354107037
-1.0895810361105391   0.008519756244237925   0.015621595354107037
-0.899457107887564   0.0701631743944611   0.0434584601117832
-0.899457107887564   0.0701631743944611   0.0434584601117832
-0.899457107887564   0.0701631743944611   0.0434584601117832
-0.899457107887564   0.0701631743944611   0.0434584601117832
-1.3687423285046667   -0.07684122743583724   -0.020137067284822528
-1.3687423285046667   -0.07684122743583724   -0.020137067284822528
-1.3687423285046667   -0.07684122743583724   -0.020137067284822528
-1.3687423285046667   -0.07684122743583724   -0.020137067284822528
-1.3884814658046454   -0.04780110267847787   0.0355205935545104
-1.3884814658046454   -0.04780110267847787   0.0355205935545104
-1.3884814658046454   -0.04780110267847787   0.0355205935545104
-1.3884814658046454   -0.04780110267847787   0.0355205935545104
-0.9468366937318587   -0.009608330986619729   -0.013858386746823062
-0.9468366937318587   -0.009608330986619729   -0.013858386746823062
-0.9468366937318587   -0.009608330986619729   -0.013858386746823062
-0.9468366937318587   -0.009608330986619729   -0.013858386746823062
-1.101034696045311   -0.0020699809072973196   0.012302551384762037
-1.101034696045311   -0.0020699809072973196   0.012302551384762037
-1.101034696045311   -0.0020699809072973196   0.012302551384762037
-1.101034696045311   -0.0020699809072973196   0.012302551384762037
0.6062723124667457   0.034378383208356206   -0.040796473026254984
0.6062723124667457   0.034378383208356206   -0.040796473026254984
0.6062723124667457   0.034378383208356206   -0.040796473026254984
0.6062723124667457   0.034378383208356206   -0.040796473026254984
0.25895633477513263   0.016410393876712545   0.017479616553920732
0.25895633477513263   0.016410393876712545   0.017479616553920732
0.25895633477513263   0.016410393876712545   0.017479616553920732
0.25895633477513263   0.016410393876712545   0.017479616553920732
0.21692919227792715   -0.05970533395707421   -0.038050612066678334
0.21692919227792715   -0.05970533395707421   -0.038050612066678334
0.21692919227792715   -0.05970533395707421   -0.038050612066678334
0.21692919227792715   -0.05970533395707421   -0.038050612066678334
0.5921255492731352   0.06878259370888459   0.021240966619755226
0.5921255492731352   0.06878259370888459   0.021240966619755226
0.5921255492731352   0.06878259370888459   0.021240966619755226
0.5921255492731352   0.06878259370888459   0.021240966619755226
0.39640687889001724   0.008782484770160026   -0.010828087417587298
0.39640687889001724   0.008782484770160026   -0.010828087417587298
0.39640687889001724   0.008782484770160026   -0.010828087417587298
0.39640687889001724   0.008782484770160026   -0.010828087417587298
0.568633394607109   0.010631821934832197   -0.03806903493632812
0.568633394607109   0.010631821934832197   -0.03806903493632812
0.568633394607109   0.010631821934832197   -0.03806903493632812
0.568633394607109   0.010631821934832197   -0.03806903493632812
0.23997975059699167   -0.0019961585299835896   0.01949300410155782
0.23997975059699167   -0.0019961585299835896   0.01949300410155782
0.23997975059699167   -0.0019961585299835896   0.01949300410155782
0.23997975059699167   -0.0019961585299835896   0.01949300410155782
0.1990355678299166   -0.06662307240539593   -0.03239725493053015
0.1990355678299166   -0.06662307240539593   -0.03239725493053015
0.1990355678299166   -0.06662307240539593   -0.03239725493053015
0.1990355678299166   -0.06662307240539593   -0.03239725493053015
0.5626807180419466   0.05896524390536098   0.02739241215100223
0.5626807180419466   0.05896524390536098   0.02739241215100223
0.5626807180419466   0.05896524390536098   0.02739241215100223
0.5626807180419466   0.05896524390536098   0.02739241215100223
0.3779426330756043   -0.0026365279719965107   -0.01759961255343244
0.3779426330756043   -0.0026365279719965107   -0.01759961255343244
0.3779426330756043   -0.0026365279719965107   -0.01759961255343244
0.3779426330756043   -0.0026365279719965107   -0.01759961255343244
0.5395697421923265   0.0017698073457029229   -0.030967030537445695
0.5395697421923265   0.0017698073457029229   -0.030967030537445695
0.5395697421923265   0.0017698073457029229   -0.030967030537445695
0.5395697421923265   0.0017698073457029229   -0.030967030537445695
0.22149314090456446   -0.010081038620710775   0.023348576658025713
0.22149314090456446   -0.010081038620710775   0.023348576658025713
0.22149314090456446   -0.010081038620710775   0.023348576658025713
0.22149314090456446   -0.010081038620710775   0.023348576658025713
0.1830458465066618   -0.07287848866902333   -0.027004492577953936
0.1830458465066618   -0.07287848866902333   -0.027004492577953936
0.1830458465066618   -0.07287848866902333   -0.027004492577953936
0.1830458465066618   -0.07287848866902333   -0.027004492577953936
0.5282985314695351   0.046078235605880674   0.031278068886898984
0.5282985314695351   0.046078235605880674   0.031278068886898984
0.5282985314695351   0.046078235605880674   0.031278068886898984
0.5282985314695351   0.046078235605880674   0.031278068886898984
0.34660283499055666   -0.011994629588439346   -0.026915317488682037
0.34660283499055666   -0.011994629588439346   -0.026915317488682037
0.34660283499055666   -0.011994629588439346   -0.026915317488682037
0.34660283499055666   -0.011994629588439346   -0.026915317488682037
0.2607576930559546   0.050200539128663846   -0.007303737293925035
0.2607576930559546   0.050200539128663846   -0.007303737293925035
0.2607576930559546   0.050200539128663846   -0.007303737293925035
0.2607576930559546   0.050200539128663846   -0.007303737293925035
-0.07989554228759832   0.004251784427808325   0.002340845943077401
-0.07989554228759832   0.004251784427808325   0.002340845943077401
-0.07989554228759832   0.004251784427808325   0.002340845943077401
-0.07989554228759832   0.004251784427808325   0.002340845943077401
-0.10862770475178456   -0.04147293287653543   -0.023453001729337366
-0.10862770475178456   -0.04147293287653543   -0.023453001729337366
-0.10862770475178456   -0.04147293287653543   -0.023453001729337366
-0.10862770475178456   -0.04147293287653543   -0.023453001729337366
0.2535856866144295   0.0603359312602714   0.025190594398491868
0.2535856866144295   0.0603359312602714   0.025190594398491868
0.2535856866144295   0.0603359312602714   0.025190594398491868
0.2535856866144295   0.0603359312602714   0.025190594398491868
0.0796699005200715   0.017436758612664003   0.0030595866089143673
0.0796699005200715   0.017436758612664003   0.0030595866089143673
0.0796699005200715   0.017436758612664003   0.0030595866089143673
0.0796699005200715   0.017436758612664003   0.0030595866089143673
0.24221805009304728   0.03260373920722873   -0.003915396155379086
0.24221805009304728   0.03260373920722873   -0.003915396155379086
0.24221805009304728   0.03260373920722873   -0.003915396155379086
0.24221805009304728   0.03260373920722873   -0.003915396155379086
-0.09742974559705625   -0.013910418190146781   0.0049742793579173805
-0.09742974559705625   -0.013910418190146781   0.0049742793579173805
-0.09742974559705625   -0.013910418190146781   0.0049742793579173805
-0.09742974559705625   -0.013910418190146781   0.0049742793579173805
-0.12526852256417617   -0.05537491264321354   -0.018984152170205354
-0.12526852256417617   -0.05537491264321354   -0.018984152170205354
-0.12526852256417617   -0.05537491264321354   -0.018984152170205354
-0.12526852256417617   -0.05537491264321354   -0.018984152170205354
0.2331738378299695   0.044283307841825104   0.027387714822515133
0.2331738378299695   0.044283307841825104   0.027387714822515133
0.2331738378299695   0.044283307841825104   0.027387714822515133
0.2331738378299695   0.044283307841825104   0.027387714822515133
0.059137809086923905   0.001700348231153016   -0.00449953301399466
0.059137809086923905   0.001700348231153016   -0.00449953301399466
0.059137809086923905   0.001700348231153016   -0.00449953301399466
0.059137809086923905   0.001700348231153016   -0.00449953301399466
0.2221656087073844   0.01769559954617974   -0.0010657224947688074
0.2221656087073844   0.01769559954617974   -0.0010657224947688074
0.2221656087073844   0.01769559954617974   -0.0010657224947688074
0.2221656087073844   0.01769559954617974   -0.0010657224947688074
-0.1146877020253816   -0.02921461293135937   0.007759650811913221
-0.1146877020253816   -0.02921461293135937   0.007759650811913221
-0.1146877020253816   -0.02921461293135937   0.007759650811913221
-0.1146877020253816   -0.02921461293135937   0.007759650811913221
-0.14168673493815037   -0.068435495844247   -0.014855289141359978
-0.14168673493815037   -0.068435495844247   -0.014855289141359978
-0.14168673493815037   -0.068435495844247   -0.014855289141359978
-0.14168673493815037   -0.068435495844247   -0.014855289141359978
0.21475406116662712   0.02886760301522807   0.029790489037626017
0.21475406116662712   0.02886760301522807   0.029790489037626017
0.21475406116662712   0.02886760301522807   0.029790489037626017
0.21475406116662712   0.02886760301522807   0.029790489037626017
0.04266939925270274   -0.011347446688373578   -0.011172109415568721
0.04266939925270274   -0.011347446688373578   -0.011172109415568721
0.04266939925270274   -0.011347446688373578   -0.011172109415568721
0.04266939925270274   -0.011347446688373578   -0.011172109415568721
-0.0673337603349198   0.06358430533744641   0.005817234796831952
-0.0673337603349198   0.06358430533744641   0.005817234796831952
-0.0673337603349198   0.06358430533744641   0.005817234796831952
-0.0673337603349198   0.06358430533744641   0.005817234796831952
-0.41370527171348254   -0.010533516725917014   -0.012588615623374693
-0.41370527171348254   -0.010533516725917014   -0.012588615623374693
-0.41370527171348254   -0.010533516725917014   -0.012588615623374693
-0.41370527171348254   -0.010533516725917014   -0.012588615623374693
-0.4301302215475994   -0.02477624751276311   -0.009273035699626331
-0.4301302215475994   -0.02477624751276311   -0.009273035699626331
-0.4301302215475994   -0.02477624751276311   -0.009273035699626331
-0.4301302215475994   -0.02477624751276311   -0.009273035699626331
-0.08448785115196898   0.04600108842380289   0.009772244969402183
-0.08448785115196898   0.04600108842380289   0.009772244969402183
-0.08448785115196898   0.04600108842380289   0.009772244969402183
-0.08448785115196898   0.04600108842380289   0.009772244969402183
-0.24830654904990018   0.018276007781475333   0.004917562050541811
-0.24830654904990018   0.018276007781475333   0.004917562050541811
-0.24830654904990018   0.018276007781475333   0.004917562050541811
-0.24830654904990018   0.018276007781475333   0.004917562050541811
-0.08397809236513652   0.04831100910760171   0.010011118219765625
-0.08397809236513652   0.04831100910760171   0.010011118219765625
-0.08397809236513652   0.04831100910760171   0.010011118219765625
-0.08397809236513652   0.04831100910760171   0.010011118219765625
-0.4306888925824655   -0.027135080444595616   -0.00970755794212452
-0.4306888925824655   -0.027135080444595616   -0.00970755794212452
-0.4306888925824655   -0.027135080444595616   -0.00970755794212452
-0.4306888925824655   -0.027135080444595616   -0.00970755794212452
-0.4469441513558707   -0.0399230335842885   -0.005295204019629879
-0.4469441513558707   -0.0399230335842885   -0.005295204019629879
-0.4469441513558707   -0.0399230335842885   -0.005295204019629879
-0.4469441513558707   -0.0399230335842885   -0.005295204019629879
-0.101950782736663   0.029481232296766368   0.01274840202737866
-0.101950782736663   0.029481232296766368   0.01274840202737866
-0.101950782736663   0.029481232296766368   0.01274840202737866
-0.101950782736663   0.029481232296766368   0.01274840202737866
-0.2655927195310839   0.0035234098829593774   -0.0015782336718588585
-0.2655927195310839   0.0035234098829593774   -0.0015782336718588585
-0.2655927195310839   0.0035234098829593774   -0.0015782336718588585
-0.2655927195310839   0.0035234098829593774   -0.0015782336718588585
-0.10108134552778834   0.03301994371579832   0.013556876652721879
-0.10108134552778834   0.03301994371579832   0.013556876652721879
-0.10108134552778834   0.03301994371579832   0.013556876652721879
-0.10108134552778834   0.03301994371579832   0.013556876652721879
-0.448085103644323   -0.04373326008290294   -0.00718973896327719
-0.448085103644323   -0.04373326008290294   -0.00718973896327719
-0.448085103644323   -0.04373326008290294   -0.00718973896327719
-0.448085103644323   -0.04373326008290294   -0.00718973896327719
-0.46347228966630427   -0.05439046596605097   -0.0014256783674951468
-0.46347228966630427   -0.05439046596605097   -0.0014256783674951468
-0.46347228966630427   -0.05439046596605097   -0.0014256783674951468
-0.46347228966630427   -0.05439046596605097   -0.0014256783674951468
-0.11926810391640355   0.013429897585955461   0.015372472537171802
-0.11926810391640355   0.013429897585955461   0.015372472537171802
-0.11926810391640355   0.013429897585955461   0.015372472537171802
-0.11926810391640355   0.013429897585955461   0.015372472537171802
-0.28359320536072385   -0.01124470435901357   -0.008620680829417552
-0.28359320536072385   -0.01124470435901357   -0.008620680829417552
-0.28359320536072385   -0.01124470435901357   -0.008620680829417552
-0.28359320536072385   -0.01124470435901357   -0.008620680829417552
-0.3903343812621347   0.07507578170619   0.018656538201257226
-0.3903343812621347   0.07507578170619   0.018656538201257226
-0.3903343812621347   0.07507578170619   0.018656538201257226
-0.3903343812621347   0.07507578170619   0.018656538201257226
-0.7417023378565415   -0.02525288239729731   -0.025592902869857055
-0.7417023378565415   -0.02525288239729731   -0.025592902869857055
-0.7417023378565415   -0.02525288239729731   -0.025592902869857055
-0.7417023378565415   -0.02525288239729731   -0.025592902869857055
-0.7478678011116318   -0.011204678722518097   0.005930752176199101
-0.7478678011116318   -0.011204678722518097   0.005930752176199101
-0.7478678011116318   -0.011204678722518097   0.005930752176199101
-0.7478678011116318   -0.011204678722518097   0.005930752176199101
-0.41840796404959213   0.029987045852543567   -0.0054250415749045044
-0.41840796404959213   0.029987045852543567   -0.0054250415749045044
-0.41840796404959213   0.029987045852543567   -0.0054250415749045044
-0.41840796404959213   0.029987045852543567   -0.0054250415749045044
-0.5711613268645391   0.017316069222802627   0.007134315527637339
-0.5711613268645391   0.017316069222802627   0.007134315527637339
-0.5711613268645391   0.017316069222802627   0.007134315527637339
-0.5711613268645391   0.017316069222802627   0.007134315527637339
-0.4066723598854211   0.06041355342265384   0.022826471675848108
-0.4066723598854211   0.06041355342265384   0.022826471675848108
-0.4066723598854211   0.06041355342265384   0.022826471675848108
-0.4066723598854211   0.06041355342265384   0.022826471675848108
-0.7601193640137828   -0.04214714503060832   -0.02438459602647325
-0.7601193640137828   -0.04214714503060832   -0.02438459602647325
-0.7601193640137828   -0.04214714503060832   -0.02438459602647325
-0.7601193640137828   -0.04214714503060832   -0.02438459602647325
-0.7676919947392128   -0.026208428042847898   0.007770539445901212
-0.7676919947392128   -0.026208428042847898   0.007770539445901212
-0.7676919947392128   -0.026208428042847898   0.007770539445901212
-0.7676919947392128   -0.026208428042847898   0.007770539445901212
-0.4354025730291704   0.014760776643434989   -0.002271122613859755
-0.4354025730291704   0.014760776643434989   -0.002271122613859755
-0.4354025730291704   0.014760776643434989   -0.002271122613859755
-0.4354025730291704   0.014760776643434989   -0.002271122613859755
-0.5856994948916325   0.003947135268563551   0.0006241694030067677
-0.5856994948916325   0.003947135268563551   0.0006241694030067677
-0.5856994948916325   0.003947135268563551   0.0006241694030067677
-0.5856994948916325   0.003947135268563551   0.0006241694030067677
-0.4232442443237661   0.04648606138531837   0.026795236171285958
-0.4232442443237661   0.04648606138531837   0.026795236171285958
-0.4232442443237661   0.04648606138531837   0.026795236171285958
-0.4232442443237661   0.04648606138531837   0.026795236171285958
-0.7798970506735234   -0.057980440013632464   -0.021482728254874742
-0.7798970506735234   -0.057980440013632464   -0.021482728254874742
-0.7798970506735234   -0.057980440013632464   -0.021482728254874742
-0.7798970506735234   -0.057980440013632464   -0.021482728254874742
-0.785337127360551   -0.0422021798959889   0.011922756745564672
-0.785337127360551   -0.0422021798959889   0.011922756745564672
-0.785337127360551   -0.0422021798959889   0.011922756745564672
-0.785337127360551   -0.0422021798959889   0.011922756745564672
-0.4526954943362948   -0.002139168832012761   0.00020700114850629933
-0.4526954943362948   -0.002139168832012761   0.00020700114850629933
-0.4526954943362948   -0.002139168832012761   0.00020700114850629933
-0.4526954943362948   -0.002139168832012761   0.00020700114850629933
-0.6075624694483222   -0.011590661410884051   -0.006940093856254957
-0.6075624694483222   -0.011590661410884051   -0.006940093856254957
-0.6075624694483222   -0.011590661410884051   -0.006940093856254957
-0.6075624694483222   -0.011590661410884051   -0.006940093856254957
-0.7117521925785119   0.06959177624638904   0.029313164876604493
-0.7117521925785119   0.06959177624638904   0.029313164876604493
-0.7117521925785119   0.06959177624638904   0.029313164876604493
-0.7117521925785119   0.06959177624638904   0.029313164876604493
-1.0504728994979244   -0.04840691988450427   -0.03316794613894548
-1.0504728994979244   -0.04840691988450427   -0.03316794613894548
-1.0504728994979244   -0.04840691988450427   -0.03316794613894548
-1.0504728994979244   -0.04840691988450427   -0.03316794613894548
-1.0605582949314247   -0.0012051711897120565   0.029042744525083007
-1.0605582949314247   -0.0012051711897120565   0.029042744525083007
-1.0605582949314247   -0.0012051711897120565   0.029042744525083007
-1.0605582949314247   -0.0012051711897120565   0.029042744525083007
-0.7487283095307469   0.010309210069443714   -0.01988567871134992
-0.7487283095307469   0.010309210069443714   -0.01988567871134992
-0.7487283095307469   0.010309210069443714   -0.01988567871134992
-0.7487283095307469   0.010309210069443714   -0.01988567871134992
-0.8535740119560059   0.016096289076160397   0.02164136815568607
-0.8535740119560059   0.016096289076160397   0.02164136815568607
-0.8535740119560059   0.016096289076160397   0.02164136815568607
-0.8535740119560059   0.016096289076160397   0.02164136815568607
-0.7265565278654441   0.06670260104615869   0.034579838638456255
-0.7265565278654441   0.06670260104615869   0.034579838638456255
-0.7265565278654441   0.06670260104615869   0.034579838638456255
-0.7265565278654441   0.06670260104615869   0.034579838638456255
-1.0831716388066455   -0.05804012437634268   -0.02718902166438323
-1.0831716388066455   -0.05804012437634268   -0.02718902166438323
-1.0831716388066455   -0.05804012437634268   -0.02718902166438323
-1.0831716388066455   -0.05804012437634268   -0.02718902166438323
-1.0885768766627357   -0.009461322104279496   0.03659700753103499
-1.0885768766627357   -0.009461322104279496   0.03659700753103499
-1.0885768766627357   -0.009461322104279496   0.03659700753103499
-1.0885768766627357   -0.009461322104279496   0.03659700753103499
-0.7670001952046802   0.0019603686118599417   -0.016939259536159254
-0.7670001952046802   0.0019603686118599417   -0.016939259536159254
-0.7670001952046802   0.0019603686118599417   -0.016939259536159254
-0.7670001952046802   0.0019603686118599417   -0.016939259536159254
-0.8914215547752723   0.006612282916824391   0.011380246382118354
-0.8914215547752723   0.006612282916824391   0.011380246382118354
-0.8914215547752723   0.006612282916824391   0.011380246382118354
-0.8914215547752723   0.006612282916824391   0.011380246382118354
-0.7437923328223224   0.06032355779591439   0.04073686319159104
-0.7437923328223224   0.06032355779591439   0.04073686319159104
-0.7437923328223224   0.06032355779591439   0.04073686319159104
-0.7437923328223224   0.06032355779591439   0.04073686319159104
-1.112103207924805   -0.06814298016804288   -0.022352990715548457
-1.112103207924805   -0.06814298016804288   -0.022352990715548457
-1.112103207924805   -0.06814298016804288   -0.022352990715548457
-1.112103207924805   -0.06814298016804288   -0.022352990715548457
-1.126059516931775   -0.03534132309776433   0.036699475897370396
-1.126059516931775   -0.03534132309776433   0.036699475897370396
-1.126059516931775   -0.03534132309776433   0.036699475897370396
-1.126059516931775   -0.03534132309776433   0.036699475897370396
-0.7861241038517486   -0.019235212265525437   -0.014979093340898364
-0.7861241038517486   -0.019235212265525437   -0.014979093340898364
-0.7861241038517486   -0.019235212265525437   -0.014979093340898364
-0.7861241038517486   -0.019235212265525437   -0.014979093340898364
-0.9020459132295763   -0.004224439711450784   0.006514786182127433
-0.9020459132295763   -0.004224439711450784   0.006514786182127433
-0.9020459132295763   -0.004224439711450784   0.006514786182127433
-0.9020459132295763   -0.004224439711450784   0.006514786182127433
0.33473674554402166   0.02007488556889303   -0.03997833575406581
0.33473674554402166   0.02007488556889303   -0.03997833575406581
0.33473674554402166   0.02007488556889303   -0.03997833575406581
0.33473674554402166   0.02007488556889303   -0.03997833575406581
0.09769043706581322   0.023966817457817518   0.019093377615919505
0.09769043706581322   0.023966817457817518   0.019093377615919505
0.09769043706581322   0.023966817457817518   0.019093377615919505
0.09769043706581322   0.023966817457817518   0.019093377615919505
0.060493916691397434   -0.04884470343651449   -0.035263886525471716
0.060493916691397434   -0.04884470343651449   -0.035263886525471716
0.060493916691397434   -0.04884470343651449   -0.035263886525471716
0.060493916691397434   -0.04884470343651449   -0.035263886525471716
0.3255928389757452   0.05685674893006697   0.022971604092490973
0.3255928389757452   0.05685674893006697   0.022971604092490973
0.3255928389757452   0.05685674893006697   0.022971604092490973
0.3255928389757452   0.05685674893006697   0.022971604092490973
0.19269164093672375   0.00948975417088816   -0.004446297505874688
0.19269164093672375   0.00948975417088816   -0.004446297505874688
0.19269164093672375   0.00948975417088816   -0.004446297505874688
0.19269164093672375   0.00948975417088816   -0.004446297505874688
0.30213366216021775   -0.0007979027072220132   -0.036669628347860354
0.30213366216021775   -0.0007979027072220132   -0.036669628347860354
0.30213366216021775   -0.0007979027072220132   -0.036669628347860354
0.30213366216021775   -0.0007979027072220132   -0.036669628347860354
0.083221193132111   0.008078047825965303   0.021449744415616822
0.083221193132111   0.008078047825965303   0.021449744415616822
0.083221193132111   0.008078047825965303   0.021449744415616822
0.083221193132111   0.008078047825965303   0.021449744415616822
0.04645605197536677   -0.05575070054323915   -0.02996264402541846
0.04645605197536677   -0.05575070054323915   -0.02996264402541846
0.04645605197536677   -0.05575070054323915   -0.02996264402541846
0.04645605197536677   -0.05575070054323915   -0.02996264402541846
0.30035849828145567   0.047328803649212395   0.029527786121627018
0.30035849828145567   0.047328803649212395   0.029527786121627018
0.30035849828145567   0.047328803649212395   0.029527786121627018
0.30035849828145567   0.047328803649212395   0.029527786121627018
0.1751092699549498   -0.00130467940423009   -0.011439079091921826
0.1751092699549498   -0.00130467940423009   -0.011439079091921826
0.1751092699549498   -0.00130467940423009   -0.011439079091921826
0.1751092699549498   -0.00130467940423009   -0.011439079091921826
0.27702834851326097   -0.009668786870503182   -0.03012537219963282
0.27702834851326097   -0.009668786870503182   -0.03012537219963282
0.27702834851326097   -0.009668786870503182   -0.03012537219963282
0.27702834851326097   -0.009668786870503182   -0.03012537219963282
0.0688045988400221   0.0002652870729369858   0.02576410268168351
0.0688045988400221   0.0002652870729369858   0.02576410268168351
0.0688045988400221   0.0002652870729369858   0.02576410268168351
0.0688045988400221   0.0002652870729369858   0.02576410268168351
0.03390789281304293   -0.06404787390626948   -0.02496184001739033
0.03390789281304293   -0.06404787390626948   -0.02496184001739033
0.03390789281304293   -0.06404787390626948   -0.02496184001739033
0.03390789281304293   -0.06404787390626948   -0.02496184001739033
0.2691013221803601   0.032108985456737495   0.032797514827018745
0.2691013221803601   0.032108985456737495   0.032797514827018745
0.2691013221803601   0.032108985456737495   0.032797514827018745
0.2691013221803601   0.032108985456737495   0.032797514827018745
0.15071833569250298   -0.010903757016589063   -0.020003966693253758
0.15071833569250298   -0.010903757016589063   -0.020003966693253758
0.15071833569250298   -0.010903757016589063   -0.020003966693253758
0.15071833569250298   -0.010903757016589063   -0.020003966693253758
0.09402294075681329   0.036259878794852124   -0.011537165266115222
0.09402294075681329   0.036259878794852124   -0.011537165266115222
0.09402294075681329   0.036259878794852124   -0.011537165266115222
0.09402294075681329   0.036259878794852124   -0.011537165266115222
-0.13502797659614763   0.01158737641325435   0.004612069885711674
-0.13502797659614763   0.01158737641325435   0.004612069885711674
-0.13502797659614763   0.01158737641325435   0.004612069885711674
-0.13502797659614763   0.01158737641325435   0.004612069885711674
-0.15899232453503226   -0.03133704513303493   -0.02059627641857804
-0.15899232453503226   -0.03133704513303493   -0.02059627641857804
-0.15899232453503226   -0.03133704513303493   -0.02059627641857804
-0.15899232453503226   -0.03133704513303493   -0.02059627641857804
0.09069346367759956   0.044990437935259184   0.021898707033765778
0.09069346367759956   0.044990437935259184   0.021898707033765778
0.09069346367759956   0.044990437935259184   0.021898707033765778
0.09069346367759956   0.044990437935259184   0.021898707033765778
-0.028129409617068807   0.014724367778922616   0.0037593649933179837
-0.028129409617068807   0.014724367778922616   0.0037593649933179837
-0.028129409617068807   0.014724367778922616   0.0037593649933179837
-0.028129409617068807   0.014724367778922616   0.0037593649933179837
0.07937208318917108   0.018759616834076346   -0.008477374307194304
0.07937208318917108   0.018759616834076346   -0.008477374307194304
0.07937208318917108   0.018759616834076346   -0.008477374307194304
0.07937208318917108   0.018759616834076346   -0.008477374307194304
-0.14829673204866772   -0.005732012033916111   0.007276652914125894
-0.14829673204866772   -0.005732012033916111   0.007276652914125894
-0.14829673204866772   -0.005732012033916111   0.007276652914125894
-0.14829673204866772   -0.005732012033916111   0.007276652914125894
-0.17154876566849916   -0.045366920860451965   -0.01614082519043224
-0.17154876566849916   -0.045366920860451965   -0.01614082519043224
-0.17154876566849916   -0.045366920860451965   -0.01614082519043224
-0.17154876566849916   -0.045366920860451965   -0.01614082519043224
0.07421935634945706   0.029224508173251368   0.023878669128543924
0.07421935634945706   0.029224508173251368   0.023878669128543924
0.07421935634945706   0.029224508173251368   0.023878669128543924
0.07421935634945706   0.029224508173251368   0.023878669128543924
-0.04365167304210924   -0.0004237272285580202   -0.0035011250969015596
-0.04365167304210924   -0.0004237272285580202   -0.0035011250969015596
-0.04365167304210924   -0.0004237272285580202   -0.0035011250969015596
-0.04365167304210924   -0.0004237272285580202   -0.0035011250969015596
0.06323112140805069   0.003708018426580695   -0.005546015831818746
0.06323112140805069   0.003708018426580695   -0.005546015831818746
0.06323112140805069   0.003708018426580695   -0.005546015831818746
0.06323112140805069   0.003708018426580695   -0.005546015831818746
-0.16137076467317313   -0.020660665059861548   0.010042923985609532
-0.16137076467317313   -0.020660665059861548   0.010042923985609532
-0.16137076467317313   -0.020660665059861548   0.010042923985609532
-0.16137076467317313   -0.020660665059861548   0.010042923985609532
-0.18400829051306283   -0.05926591040427641   -0.012114726380206428
-0.18400829051306283   -0.05926591040427641   -0.012114726380206428
-0.18400829051306283   -0.05926591040427641   -0.012114726380206428
-0.18400829051306283   -0.05926591040427641   -0.012114726380206428
0.05979497044645005   0.013763795545828263   0.026661878697548023
0.05979497044645005   0.013763795545828263   0.026661878697548023
0.05979497044645005   0.013763795545828263   0.026661878697548023
0.05979497044645005   0.013763795545828263   0.026661878697548023
-0.05706992376357372   -0.013966484777346348   -0.010351747853896608
-0.05706992376357372   -0.013966484777346348   -0.010351747853896608
-0.05706992376357372   -0.013966484777346348   -0.010351747853896608
-0.05706992376357372   -0.013966484777346348   -0.010351747853896608
-0.12802127921313153   0.049472992951364515   0.0017599402626819957
-0.12802127921313153   0.049472992951364515   0.0017599402626819957
-0.12802127921313153   0.049472992951364515   0.0017599402626819957
-0.12802127921313153   0.049472992951364515   0.0017599402626819957
-0.364606714035983   -0.004445499019785276   -0.01004516261327
-0.364606714035983   -0.004445499019785276   -0.01004516261327
-0.364606714035983   -0.004445499019785276   -0.01004516261327
-0.364606714035983   -0.004445499019785276   -0.01004516261327
-0.37592303022493206   -0.015443217896631667   -0.006014107559807535
-0.37592303022493206   -0.015443217896631667   -0.006014107559807535
-0.37592303022493206   -0.015443217896631667   -0.006014107559807535
-0.37592303022493206   -0.015443217896631667   -0.006014107559807535
-0.14128767680611118   0.02962271877660047   0.006967198316388191
-0.14128767680611118   0.02962271877660047   0.006967198316388191
-0.14128767680611118   0.02962271877660047   0.006967198316388191
-0.14128767680611118   0.02962271877660047   0.006967198316388191
-0.2518582758312619   0.014485136568018857   0.0038899691455652995
-0.2518582758312619   0.014485136568018857   0.0038899691455652995
-0.2518582758312619   0.014485136568018857   0.0038899691455652995
-0.2518582758312619   0.014485136568018857   0.0038899691455652995
-0.14062114420087896   0.03400374736997597   0.0059188327491775765
-0.14062114420087896   0.03400374736997597   0.0059188327491775765
-0.14062114420087896   0.03400374736997597   0.0059188327491775765
-0.14062114420087896   0.03400374736997597   0.0059188327491775765
-0.3771382743922365   -0.02037295805208454   -0.007160588240880859
-0.3771382743922365   -0.02037295805208454   -0.007160588240880859
-0.3771382743922365   -0.02037295805208454   -0.007160588240880859
-0.3771382743922365   -0.02037295805208454   -0.007160588240880859
-0.38842625034318884   -0.030759525324052787   -0.0019799184701606107
-0.38842625034318884   -0.030759525324052787   -0.0019799184701606107
-0.38842625034318884   -0.030759525324052787   -0.0019799184701606107
-0.38842625034318884   -0.030759525324052787   -0.0019799184701606107
-0.1545404517980748   0.013632926608506887   0.009900896692728887
-0.1545404517980748   0.013632926608506887   0.009900896692728887
-0.1545404517980748   0.013632926608506887   0.009900896692728887
-0.1545404517980748   0.013632926608506887   0.009900896692728887
-0.26490170611655167   -6.580285275837455e-05   -0.0026165856073752953
-0.26490170611655167   -6.580285275837455e-05   -0.0026165856073752953
-0.26490170611655167   -6.580285275837455e-05   -0.0026165856073752953
-0.26490170611655167   -6.580285275837455e-05   -0.0026165856073752953
-0.15364640099761454   0.0184943697498353   0.009509707553705572
-0.15364640099761454   0.0184943697498353   0.009509707553705572
-0.15364640099761454   0.0184943697498353   0.009509707553705572
-0.15364640099761454   0.0184943697498353   0.009509707553705572
-0.39010005980340473   -0.03640072712513692   -0.004707763970160213
-0.39010005980340473   -0.03640072712513692   -0.004707763970160213
-0.39010005980340473   -0.03640072712513692   -0.004707763970160213
-0.39010005980340473   -0.03640072712513692   -0.004707763970160213
-0.4006870396836697   -0.0455427905269222   0.001927967740049618
-0.4006870396836697   -0.0455427905269222   0.001927967740049618
-0.4006870396836697   -0.0455427905269222   0.001927967740049618
-0.4006870396836697   -0.0455427905269222   0.001927967740049618
-0.16756931276486514   -0.0017675795189494997   0.012581831475453345
-0.16756931276486514   -0.0017675795189494997   0.012581831475453345
-0.16756931276486514   -0.0017675795189494997   0.012581831475453345
-0.16756931276486514   -0.0017675795189494997   0.012581831475453345
-0.2786276995003674   -0.01465011838687244   -0.009682212978521369
-0.2786276995003674   -0.01465011838687244   -0.009682212978521369
-0.2786276995003674   -0.01465011838687244   -0.009682212978521369
-0.2786276995003674   -0.01465011838687244   -0.009682212978521369
-0.3462136163958335   0.062048673151961886   0.015426153415730899
-0.3462136163958335   0.062048673151961886   0.015426153415730899
-0.3462136163958335   0.062048673151961886   0.015426153415730899
-0.3462136163958335   0.062048673151961886   0.015426153415730899
-0.5892621490411325   -0.01763453483829658   -0.022883512906094923
-0.5892621490411325   -0.01763453483829658   -0.022883512906094923
-0.5892621490411325   -0.01763453483829658   -0.022883512906094923
-0.5892621490411325   -0.01763453483829658   -0.022883512906094923
-0.5903785939282603   -0.0014349868012055733   0.00943542503501793
-0.5903785939282603   -0.0014349868012055733   0.00943542503501793
-0.5903785939282603   -0.0014349868012055733   0.00943542503501793
-0.5903785939282603   -0.0014349868012055733   0.00943542503501793
-0.3700214010901999   0.015241517031142238   -0.007190696813928053
-0.3700214010901999   0.015241517031142238   -0.007190696813928053
-0.3700214010901999   0.015241517031142238   -0.007190696813928053
-0.3700214010901999   0.015241517031142238   -0.007190696813928053
-0.47154222582040084   0.01452241476513877   0.005107769146397434
-0.47154222582040084   0.01452241476513877   0.005107769146397434
-0.47154222582040084   0.01452241476513877   0.005107769146397434
-0.47154222582040084   0.01452241476513877   0.005107769146397434
-0.3583098269149573   0.047011183177615296   0.01959750791581931
-0.3583098269149573   0.047011183177615296   0.01959750791581931
-0.3583098269149573   0.047011183177615296   0.01959750791581931
-0.3583098269149573   0.047011183177615296   0.01959750791581931
-0.6031424469655587   -0.03425693180973449   -0.02156189514295275
-0.6031424469655587   -0.03425693180973449   -0.02156189514295275
-0.6031424469655587   -0.03425693180973449   -0.02156189514295275
-0.6031424469655587   -0.03425693180973449   -0.02156189514295275
-0.6057739954236725   -0.016538022888707704   0.011606302119928927
-0.6057739954236725   -0.016538022888707704   0.011606302119928927
-0.6057739954236725   -0.016538022888707704   0.011606302119928927
-0.6057739954236725   -0.016538022888707704   0.011606302119928927
-0.38259033420367844   0.0005137879134024387   -0.004073651010071847
-0.38259033420367844   0.0005137879134024387   -0.004073651010071847
-0.38259033420367844   0.0005137879134024387   -0.004073651010071847
-0.38259033420367844   0.0005137879134024387   -0.004073651010071847
-0.48261529928555724   0.0009682958904788791   -0.001711771273266497
-0.48261529928555724   0.0009682958904788791   -0.001711771273266497
-0.48261529928555724   0.0009682958904788791   -0.001711771273266497
-0.48261529928555724   0.0009682958904788791   -0.001711771273266497
-0.37056777688421455   0.03291045424610743   0.023642469254546578
-0.37056777688421455   0.03291045424610743   0.023642469254546578
-0.37056777688421455   0.03291045424610743   0.023642469254546578
-0.37056777688421455   0.03291045424610743   0.023642469254546578
-0.6184529807952827   -0.04959111727356087   -0.018735530353284156
-0.6184529807952827   -0.04959111727356087   -0.018735530353284156
-0.6184529807952827   -0.04959111727356087   -0.018735530353284156
-0.6184529807952827   -0.04959111727356087   -0.018735530353284156
-0.6190667136178366   -0.032290549464817145   0.01582131726602606
-0.6190667136178366   -0.032290549464817145   0.01582131726602606
-0.6190667136178366   -0.032290549464817145   0.01582131726602606
-0.6190667136178366   -0.032290549464817145   0.01582131726602606
-0.39531804913190133   -0.015248878014338246   -0.0015209920136999774
-0.39531804913190133   -0.015248878014338246   -0.0015209920136999774
-0.39531804913190133   -0.015248878014338246   -0.0015209920136999774
-0.39531804913190133   -0.015248878014338246   -0.0015209920136999774
-0.499119600054743   -0.013820141535550001   -0.009151889406177213
-0.499119600054743   -0.013820141535550001   -0.009151889406177213
-0.499119600054743   -0.013820141535550001   -0.009151889406177213
-0.499119600054743   -0.013820141535550001   -0.009151889406177213
-0.5634763243181246   0.06109016629447486   0.02732090957618117
-0.5634763243181246   0.06109016629447486   0.02732090957618117
-0.5634763243181246   0.06109016629447486   0.02732090957618117
-0.5634763243181246   0.06109016629447486   0.02732090957618117
-0.7935822699403825   -0.03658009968617551   -0.03465270270828212
-0.7935822699403825   -0.03658009968617551   -0.03465270270828212
-0.7935822699403825   -0.03658009968617551   -0.03465270270828212
-0.7935822699403825   -0.03658009968617551   -0.03465270270828212
-0.7993617833571258   0.009902899228813516   0.02871624091187782
-0.7993617833571258   0.009902899228813516   0.02871624091187782
-0.7993617833571258   0.009902899228813516   0.02871624091187782
-0.7993617833571258   0.009902899228813516   0.02871624091187782
-0.5965477365389115   -0.0016929594845497276   -0.021152315334901355
-0.5965477365389115   -0.0016929594845497276   -0.021152315334901355
-0.5965477365389115   -0.0016929594845497276   -0.021152315334901355
-0.5965477365389115   -0.0016929594845497276   -0.021152315334901355
-0.6586409564339503   0.01459027831232354   0.015995678484597785
-0.6586409564339503   0.01459027831232354   0.015995678484597785
-0.6586409564339503   0.01459027831232354   0.015995678484597785
-0.6586409564339503   0.01459027831232354   0.015995678484597785
-0.5743927813332825   0.05561612641078778   0.03231337479790602
-0.5743927813332825   0.05561612641078778   0.03231337479790602
-0.5743927813332825   0.05561612641078778   0.03231337479790602
-0.5743927813332825   0.05561612641078778   0.03231337479790602
-0.822637734148304   -0.04852718225206559   -0.02923343156311898
-0.822637734148304   -0.04852718225206559   -0.02923343156311898
-0.822637734148304   -0.04852718225206559   -0.02923343156311898
-0.822637734148304   -0.04852718225206559   -0.02923343156311898
-0.8233506099273261   0.0014112285124086854   0.03666545468923037
-0.8233506099273261   0.0014112285124086854   0.03666545468923037
-0.8233506099273261   0.0014112285124086854   0.03666545468923037
-0.8233506099273261   0.0014112285124086854   0.03666545468923037
-0.6103985684408393   -0.009910710648805027   -0.01814387520582316
-0.6103985684408393   -0.009910710648805027   -0.01814387520582316
-0.6103985684408393   -0.009910710648805027   -0.01814387520582316
-0.6103985684408393   -0.009910710648805027   -0.01814387520582316
-0.6893505963401639   0.0045545187487223415   0.005828806536649099
-0.6893505963401639   0.0045545187487223415   0.005828806536649099
-0.6893505963401639   0.0045545187487223415   0.005828806536649099
-0.6893505963401639   0.0045545187487223415   0.005828806536649099
-0.5873082154547433   0.0489717102368758   0.03842546883898308
-0.5873082154547433   0.0489717102368758   0.03842546883898308
-0.5873082154547433   0.0489717102368758   0.03842546883898308
-0.5873082154547433   0.0489717102368758   0.03842546883898308
-0.8474997714756841   -0.0585300009355304   -0.02413912360460512
-0.8474997714756841   -0.0585300009355304   -0.02413912360460512
-0.8474997714756841   -0.0585300009355304   -0.02413912360460512
-0.8474997714756841   -0.0585300009355304   -0.02413912360460512
-0.856514673030095   -0.022748796847515268   0.03784355292749908
-0.856514673030095   -0.022748796847515268   0.03784355292749908
-0.856514673030095   -0.022748796847515268   0.03784355292749908
-0.856514673030095   -0.022748796847515268   0.03784355292749908
-0.624694825781005   -0.028786764265777018   -0.015823028748871853
-0.624694825781005   -0.028786764265777018   -0.015823028748871853
-0.624694825781005   -0.028786764265777018   -0.015823028748871853
-0.624694825781005   -0.028786764265777018   -0.015823028748871853
-0.6992893526252749   -0.0061342491933289445   -0.0002025537208464323
-0.6992893526252749   -0.0061342491933289445   -0.0002025537208464323
-0.6992893526252749   -0.0061342491933289445   -0.0002025537208464323
-0.6992893526252749   -0.0061342491933289445   -0.0002025537208464323
0.06264656963837976   0.005147467225987325   -0.039959506115798
0.06264656963837976   0.005147467225987325   -0.039959506115798
0.06264656963837976   0.005147467225987325   -0.039959506115798
0.06264656963837976   0.005147467225987325   -0.039959506115798
-0.06369689104042309   0.029905343389522873   0.020401476504768284
-0.06369689104042309   0.029905343389522873   0.020401476504768284
-0.06369689104042309   0.029905343389522873   0.020401476504768284
-0.06369689104042309   0.029905343389522873   0.020401476504768284
-0.09626553670383226   -0.038549461614855396   -0.0322010729525434
-0.09626553670383226   -0.038549461614855396   -0.0322010729525434
-0.09626553670383226   -0.038549461614855396   -0.0322010729525434
-0.09626553670383226   -0.038549461614855396   -0.0322010729525434
0.05771238457451176   0.04254895724410631   0.02503054876654623
0.05771238457451176   0.04254895724410631   0.02503054876654623
0.05771238457451176   0.04254895724410631   0.02503054876654623
0.05771238457451176   0.04254895724410631   0.02503054876654623
-0.011363162523686729   0.00934134680990047   0.0034581395438373474
-0.011363162523686729   0.00934134680990047   0.0034581395438373474
-0.011363162523686729   0.00934134680990047   0.0034581395438373474
-0.011363162523686729   0.00934134680990047   0.0034581395438373474
0.034422255428177236   -0.013121597118457356   -0.03574954260256271
0.034422255428177236   -0.013121597118457356   -0.03574954260256271
0.034422255428177236   -0.013121597118457356   -0.03574954260256271
0.034422255428177236   -0.013121597118457356   -0.03574954260256271
-0.07434674294858973   0.01574975735661628   0.023093676852197573
-0.07434674294858973   0.01574975735661628   0.023093676852197573
-0.07434674294858973   0.01574975735661628   0.023093676852197573
-0.07434674294858973   0.01574975735661628   0.023093676852197573
-0.10700920423084377   -0.04551321146042312   -0.027314586914251142
-0.10700920423084377   -0.04551321146042312   -0.027314586914251142
-0.10700920423084377   -0.04551321146042312   -0.027314586914251142
-0.10700920423084377   -0.04551321146042312   -0.027314586914251142
0.03562375548989707   0.03309901907475278   0.034353050069204104
0.03562375548989707   0.03309901907475278   0.034353050069204104
0.03562375548989707   0.03309901907475278   0.034353050069204104
0.03562375548989707   0.03309901907475278   0.034353050069204104
-0.028750979475714717   -0.001094973542029077   -0.004575091620919753
-0.028750979475714717   -0.001094973542029077   -0.004575091620919753
-0.028750979475714717   -0.001094973542029077   -0.004575091620919753
-0.028750979475714717   -0.001094973542029077   -0.004575091620919753
0.011788990753504903   -0.02219583832358662   -0.029525916214417313
0.011788990753504903   -0.02219583832358662   -0.029525916214417313
0.011788990753504903   -0.02219583832358662   -0.029525916214417313
0.011788990753504903   -0.02219583832358662   -0.029525916214417313
-0.08507987535282872   0.007876210079539009   0.028942635935861043
-0.08507987535282872   0.007876210079539009   0.028942635935861043
-0.08507987535282872   0.007876210079539009   0.028942635935861043
-0.08507987535282872   0.007876210079539009   0.028942635935861043
-0.11684801927297657   -0.05617112653169587   -0.022653703661842127
-0.11684801927297657   -0.05617112653169587   -0.022653703661842127
-0.11684801927297657   -0.05617112653169587   -0.022653703661842127
-0.11684801927297657   -0.05617112653169587   -0.022653703661842127
0.004946304807702887   0.013321469658637185   0.039187322213840685
0.004946304807702887   0.013321469658637185   0.039187322213840685
0.004946304807702887   0.013321469658637185   0.039187322213840685
0.004946304807702887   0.013321469658637185   0.039187322213840685
-0.047522360369215644   -0.011583258264554704   -0.013856809289204148
-0.047522360369215644   -0.011583258264554704   -0.013856809289204148
-0.047522360369215644   -0.011583258264554704   -0.013856809289204148
-0.047522360369215644   -0.011583258264554704   -0.013856809289204148
-0.07294459322516378   0.019912750753688604   -0.015844441783100908
-0.07294459322516378   0.019912750753688604   -0.015844441783100908
-0.07294459322516378   0.019912750753688604   -0.015844441783100908
-0.07294459322516378   0.019912750753688604   -0.015844441783100908
-0.19105018431505164   0.008046427344331294   0.005303534464631525
-0.19105018431505164   0.008046427344331294   0.005303534464631525
-0.19105018431505164   0.008046427344331294   0.005303534464631525
-0.19105018431505164   0.008046427344331294   0.005303534464631525
-0.20787669340868414   -0.022456629834000014   -0.016766474726246504
-0.20787669340868414   -0.022456629834000014   -0.016766474726246504
-0.20787669340868414   -0.022456629834000014   -0.016766474726246504
-0.20787669340868414   -0.022456629834000014   -0.016766474726246504
-0.07503515799840793   0.01937383710371341   0.016027521856009423
-0.07503515799840793   0.01937383710371341   0.016027521856009423
-0.07503515799840793   0.01937383710371341   0.016027521856009423
-0.07503515799840793   0.01937383710371341   0.016027521856009423
-0.13645651219511765   0.005823799043634538   0.003119661697785877
-0.13645651219511765   0.005823799043634538   0.003119661697785877
-0.13645651219511765   0.005823799043634538   0.003119661697785877
-0.13645651219511765   0.005823799043634538   0.003119661697785877
-0.08411106087345058   0.003045133779331695   -0.01302328919482154
-0.08411106087345058   0.003045133779331695   -0.01302328919482154
-0.08411106087345058   0.003045133779331695   -0.01302328919482154
-0.08411106087345058   0.003045133779331695   -0.01302328919482154
-0.19993040496990372   -0.007257540945880721   0.007765878579534535
-0.19993040496990372   -0.007257540945880721   0.007765878579534535
-0.19993040496990372   -0.007257540945880721   0.007765878579534535
-0.19993040496990372   -0.007257540945880721   0.007765878579534535
-0.21624660205196644   -0.036122709446554414   -0.012391460569061508
-0.21624660205196644   -0.036122709446554414   -0.012391460569061508
-0.21624660205196644   -0.036122709446554414   -0.012391460569061508
-0.21624660205196644   -0.036122709446554414   -0.012391460569061508
-0.08797531815367332   0.004269684726099562   0.01807194728507751
-0.08797531815367332   0.004269684726099562   0.01807194728507751
-0.08797531815367332   0.004269684726099562   0.01807194728507751
-0.08797531815367332   0.004269684726099562   0.01807194728507751
-0.14702860156138178   -0.00790502224449605   -0.0037738264183655628
-0.14702860156138178   -0.00790502224449605   -0.0037738264183655628
-0.14702860156138178   -0.00790502224449605   -0.0037738264183655628
-0.14702860156138178   -0.00790502224449605   -0.0037738264183655628
-0.09672765267969226   -0.011687196318392186   -0.00973284430052453
-0.09672765267969226   -0.011687196318392186   -0.00973284430052453
-0.09672765267969226   -0.011687196318392186   -0.00973284430052453
-0.09672765267969226   -0.011687196318392186   -0.00973284430052453
-0.20870767767994472   -0.02137923855605976   0.010559690400552303
-0.20870767767994472   -0.02137923855605976   0.010559690400552303
-0.20870767767994472   -0.02137923855605976   0.010559690400552303
-0.20870767767994472   -0.02137923855605976   0.010559690400552303
-0.2246716553764359   -0.05016555165299237   -0.008518231473669195
-0.2246716553764359   -0.05016555165299237   -0.008518231473669195
-0.2246716553764359   -0.05016555165299237   -0.008518231473669195
-0.2246716553764359   -0.05016555165299237   -0.008518231473669195
-0.09880084362894528   -0.011010126865093237   0.02242117489171128
-0.09880084362894528   -0.011010126865093237   0.02242117489171128
-0.09880084362894528   -0.011010126865093237   0.02242117489171128
-0.09880084362894528   -0.011010126865093237   0.02242117489171128
-0.15757421698293944   -0.021458924400779074   -0.010777868211128335
-0.15757421698293944   -0.021458924400779074   -0.010777868211128335
-0.15757421698293944   -0.021458924400779074   -0.010777868211128335
-0.15757421698293944   -0.021458924400779074   -0.010777868211128335
-0.1875265667986183   0.032644310690467575   -0.0016762612993398082
-0.1875265667986183   0.032644310690467575   -0.0016762612993398082
-0.1875265667986183   0.032644310690467575   -0.0016762612993398082
-0.1875265667986183   0.032644310690467575   -0.0016762612993398082
-0.3171580449308611   -0.010918725985873713   -0.008994716486149032
-0.3171580449308611   -0.010918725985873713   -0.008994716486149032
-0.3171580449308611   -0.010918725985873713   -0.008994716486149032
-0.3171580449308611   -0.010918725985873713   -0.008994716486149032
-0.3205116855942887   -0.00800305632136833   -0.0019376683852475526
-0.3205116855942887   -0.00800305632136833   -0.0019376683852475526
-0.3205116855942887   -0.00800305632136833   -0.0019376683852475526
-0.3205116855942887   -0.00800305632136833   -0.0019376683852475526
-0.19913646485833658   0.002000871086984296   0.0024771671045051343
-0.19913646485833658   0.002000871086984296   0.0024771671045051343
-0.19913646485833658   0.002000871086984296   0.0024771671045051343
-0.19913646485833658   0.002000871086984296   0.0024771671045051343
-0.25554443938628263   0.0036756662263367004   0.0010923102014638638
-0.25554443938628263   0.0036756662263367004   0.0010923102014638638
-0.25554443938628263   0.0036756662263367004   0.0010923102014638638
-0.25554443938628263   0.0036756662263367004   0.0010923102014638638
-0.19598863160593236   0.017777107536712147   0.0024400969167984246
-0.19598863160593236   0.017777107536712147   0.0024400969167984246
-0.19598863160593236   0.017777107536712147   0.0024400969167984246
-0.19598863160593236   0.017777107536712147   0.0024400969167984246
-0.32474747472588283   -0.024867248650285993   -0.006252421714300087
-0.32474747472588283   -0.024867248650285993   -0.006252421714300087
-0.32474747472588283   -0.024867248650285993   -0.006252421714300087
-0.32474747472588283   -0.024867248650285993   -0.006252421714300087
-0.32836275268409026   -0.022685303505217636   0.0021320470101217695
-0.32836275268409026   -0.022685303505217636   0.0021320470101217695
-0.32836275268409026   -0.022685303505217636   0.0021320470101217695
-0.32836275268409026   -0.022685303505217636   0.0021320470101217695
-0.2080079802857476   -0.012435777408386396   0.005114716223864623
-0.2080079802857476   -0.012435777408386396   0.005114716223864623
-0.2080079802857476   -0.012435777408386396   0.005114716223864623
-0.2080079802857476   -0.012435777408386396   0.005114716223864623
-0.26405104984468714   -0.009677633882029461   -0.00523799249443173
-0.26405104984468714   -0.009677633882029461   -0.00523799249443173
-0.26405104984468714   -0.009677633882029461   -0.00523799249443173
-0.26405104984468714   -0.009677633882029461   -0.00523799249443173
-0.2047680623982168   0.0028191090004659747   0.006059419252666301
-0.2047680623982168   0.0028191090004659747   0.006059419252666301
-0.2047680623982168   0.0028191090004659747   0.006059419252666301
-0.2047680623982168   0.0028191090004659747   0.006059419252666301
-0.3329147175088883   -0.03925223685133786   -0.004060843767751957
-0.3329147175088883   -0.03925223685133786   -0.004060843767751957
-0.3329147175088883   -0.03925223685133786   -0.004060843767751957
-0.3329147175088883   -0.03925223685133786   -0.004060843767751957
-0.3360077211373859   -0.036764018386385516   0.006038045510794038
-0.3360077211373859   -0.036764018386385516   0.006038045510794038
-0.3360077211373859   -0.036764018386385516   0.006038045510794038
-0.3360077211373859   -0.036764018386385516   0.006038045510794038
-0.21653245970143956   -0.0260486553826225   0.008060850630940789
-0.21653245970143956   -0.0260486553826225   0.008060850630940789
-0.21653245970143956   -0.0260486553826225   0.008060850630940789
-0.21653245970143956   -0.0260486553826225   0.008060850630940789
-0.27320473903510645   -0.023111013599500782   -0.012117090763092435
-0.27320473903510645   -0.023111013599500782   -0.012117090763092435
-0.27320473903510645   -0.023111013599500782   -0.012117090763092435
-0.27320473903510645   -0.023111013599500782   -0.012117090763092435
-0.3011504300546657   0.047157864935006163   0.012966766973951958
-0.3011504300546657   0.047157864935006163   0.012966766973951958
-0.3011504300546657   0.047157864935006163   0.012966766973951958
-0.3011504300546657   0.047157864935006163   0.012966766973951958
-0.4383828121325644   -0.018210381112958376   -0.020157583548597247
-0.4383828121325644   -0.018210381112958376   -0.020157583548597247
-0.4383828121325644   -0.018210381112958376   -0.020157583548597247
-0.4383828121325644   -0.018210381112958376   -0.020157583548597247
-0.4325475976547351   0.006845497863322503   0.013355403911508558
-0.4325475976547351   0.006845497863322503   0.013355403911508558
-0.4325475976547351   0.006845497863322503   0.013355403911508558
-0.4325475976547351   0.006845497863322503   0.013355403911508558
-0.3215636887150315   -0.006257200220434397   -0.008943540089895258
-0.3215636887150315   -0.006257200220434397   -0.008943540089895258
-0.3215636887150315   -0.006257200220434397   -0.008943540089895258
-0.3215636887150315   -0.006257200220434397   -0.008943540089895258
-0.3721035818017555   0.0074305604782072265   0.0018254180772077806
-0.3721035818017555   0.0074305604782072265   0.0018254180772077806
-0.3721035818017555   0.0074305604782072265   0.0018254180772077806
-0.3721035818017555   0.0074305604782072265   0.0018254180772077806
-0.3086301577088642   0.03237607334524696   0.01709084137525991
-0.3086301577088642   0.03237607334524696   0.01709084137525991
-0.3086301577088642   0.03237607334524696   0.01709084137525991
-0.3086301577088642   0.03237607334524696   0.01709084137525991
-0.4470703144071402   -0.03337696144859792   -0.019035720538604167
-0.4470703144071402   -0.03337696144859792   -0.019035720538604167
-0.4470703144071402   -0.03337696144859792   -0.019035720538604167
-0.4470703144071402   -0.03337696144859792   -0.019035720538604167
-0.4430641820800076   -0.007609606896487611   0.015783222816807035
-0.4430641820800076   -0.007609606896487611   0.015783222816807035
-0.4430641820800076   -0.007609606896487611   0.015783222816807035
-0.4430641820800076   -0.007609606896487611   0.015783222816807035
-0.3293463101335513   -0.019393587230520287   -0.006077456511880651
-0.3293463101335513   -0.019393587230520287   -0.006077456511880651
-0.3293463101335513   -0.019393587230520287   -0.006077456511880651
-0.3293463101335513   -0.019393587230520287   -0.006077456511880651
-0.3792435534847914   -0.005435013988757259   -0.005036225496023009
-0.3792435534847914   -0.005435013988757259   -0.005036225496023009
-0.3792435534847914   -0.005435013988757259   -0.005036225496023009
-0.3792435534847914   -0.005435013988757259   -0.005036225496023009
-0.31626928532460746   0.01881295329307313   0.021101127009241258
-0.31626928532460746   0.01881295329307313   0.021101127009241258
-0.31626928532460746   0.01881295329307313   0.021101127009241258
-0.31626928532460746   0.01881295329307313   0.021101127009241258
-0.4573961452738015   -0.04707108580493688   -0.01641511424371337
-0.4573961452738015   -0.04707108580493688   -0.01641511424371337
-0.4573961452738015   -0.04707108580493688   -0.01641511424371337
-0.4573961452738015   -0.04707108580493688   -0.01641511424371337
-0.4516114936527021   -0.022180385843509898   0.020114913361242527
-0.4516114936527021   -0.022180385843509898   0.020114913361242527
-0.4516114936527021   -0.022180385843509898   0.020114913361242527
-0.4516114936527021   -0.022180385843509898   0.020114913361242527
-0.3371593741536732   -0.03285409185882551   -0.0036301460982064715
-0.3371593741536732   -0.03285409185882551   -0.0036301460982064715
-0.3371593741536732   -0.03285409185882551   -0.0036301460982064715
-0.3371593741536732   -0.03285409185882551   -0.0036301460982064715
-0.3900043249964785   -0.018573711828578976   -0.012075008459053353
-0.3900043249964785   -0.018573711828578976   -0.012075008459053353
-0.3900043249964785   -0.018573711828578976   -0.012075008459053353
-0.3900043249964785   -0.018573711828578976   -0.012075008459053353
-0.41535393280212907   0.051126162234379796   0.02565026975624103
-0.41535393280212907   0.051126162234379796   0.02565026975624103
-0.41535393280212907   0.051126162234379796   0.02565026975624103
-0.41535393280212907   0.051126162234379796   0.02565026975624103
-0.5354014737336729   -0.026844577958949206   -0.033635137415681166
-0.5354014737336729   -0.026844577958949206   -0.033635137415681166
-0.5354014737336729   -0.026844577958949206   -0.033635137415681166
-0.5354014737336729   -0.026844577958949206   -0.033635137415681166
-0.5358482610909711   0.020332731741443344   0.028276665347123565
-0.5358482610909711   0.020332731741443344   0.028276665347123565
-0.5358482610909711   0.020332731741443344   0.028276665347123565
-0.5358482610909711   0.020332731741443344   0.028276665347123565
-0.44369744168471986   -0.014974904282213222   -0.020573414092879497
-0.44369744168471986   -0.014974904282213222   -0.020573414092879497
-0.44369744168471986   -0.014974904282213222   -0.020573414092879497
-0.44369744168471986   -0.014974904282213222   -0.020573414092879497
-0.46302353995836576   0.012067367452862368   0.009018093403045591
-0.46302353995836576   0.012067367452862368   0.009018093403045591
-0.46302353995836576   0.012067367452862368   0.009018093403045591
-0.46302353995836576   0.012067367452862368   0.009018093403045591
-0.4218294668156873   0.0435328906009117   0.030258665369150776
-0.4218294668156873   0.0435328906009117   0.030258665369150776
-0.4218294668156873   0.0435328906009117   0.030258665369150776
-0.4218294668156873   0.0435328906009117   0.030258665369150776
-0.559369356992061   -0.039828184173731115   -0.029167898243143264
-0.559369356992061   -0.039828184173731115   -0.029167898243143264
-0.559369356992061   -0.039828184173731115   -0.029167898243143264
-0.559369356992061   -0.039828184173731115   -0.029167898243143264
-0.5549736521427768   0.01208751240588743   0.03642232376957683
-0.5549736521427768   0.01208751240588743   0.03642232376957683
-0.5549736521427768   0.01208751240588743   0.03642232376957683
-0.5549736521427768   0.01208751240588743   0.03642232376957683
-0.4528072816438734   -0.022528466835648617   -0.018013415063361054
-0.4528072816438734   -0.022528466835648617   -0.018013415063361054
-0.4528072816438734   -0.022528466835648617   -0.018013415063361054
-0.4528072816438734   -0.022528466835648617   -0.018013415063361054
-0.4858163102083965   0.0020497039753506335   -0.0005196112001705951
-0.4858163102083965   0.0020497039753506335   -0.0005196112001705951
-0.4858163102083965   0.0020497039753506335   -0.0005196112001705951
-0.4858163102083965   0.0020497039753506335   -0.0005196112001705951
-0.43003459825424273   0.03704597119958973   0.036275563849554125
-0.43003459825424273   0.03704597119958973   0.036275563849554125
-0.43003459825424273   0.03704597119958973   0.036275563849554125
-0.43003459825424273   0.03704597119958973   0.036275563849554125
-0.579427895467623   -0.049168485564565004   -0.02459289488419347
-0.579427895467623   -0.049168485564565004   -0.02459289488419347
-0.579427895467623   -0.049168485564565004   -0.02459289488419347
-0.579427895467623   -0.049168485564565004   -0.02459289488419347
-0.5832067805901864   -0.00962443179783222   0.038500588400033495
-0.5832067805901864   -0.00962443179783222   0.038500588400033495
-0.5832067805901864   -0.00962443179783222   0.038500588400033495
-0.5832067805901864   -0.00962443179783222   0.038500588400033495
-0.4619563591536261   -0.038230716773503357   -0.01555908321339158
-0.4619563591536261   -0.038230716773503357   -0.01555908321339158
-0.4619563591536261   -0.038230716773503357   -0.01555908321339158
-0.4619563591536261   -0.038230716773503357   -0.01555908321339158
-0.4945258586857139   -0.007888170891555593   -0.007275903752399924
-0.4945258586857139   -0.007888170891555593   -0.007275903752399924
-0.4945258586857139   -0.007888170891555593   -0.007275903752399924
-0.4945258586857139   -0.007888170891555593   -0.007275903752399924
-0.22287800901101118   -0.014511083109817004   -0.04249953802134303
-0.22287800901101118   -0.014511083109817004   -0.04249953802134303
-0.22287800901101118   -0.014511083109817004   -0.04249953802134303
-0.22287800901101118   -0.014511083109817004   -0.04249953802134303
-0.22216223412701755   0.03244473130945144   0.019093606785971377
-0.22216223412701755   0.03244473130945144   0.019093606785971377
-0.22216223412701755   0.03244473130945144   0.019093606785971377
-0.22216223412701755   0.03244473130945144   0.019093606785971377
-0.2502433501848115   -0.029818829439031642   -0.028852649889820295
-0.2502433501848115   -0.029818829439031642   -0.028852649889820295
-0.2502433501848115   -0.029818829439031642   -0.028852649889820295
-0.2502433501848115   -0.029818829439031642   -0.028852649889820295
-0.22760010667397051   0.017238833954585614   0.0286215096124403
-0.22760010667397051   0.017238833954585614   0.0286215096124403
-0.22760010667397051   0.017238833954585614   0.0286215096124403
-0.22760010667397051   0.017238833954585614   0.0286215096124403
-0.21913162005888537   0.0055338552417465575   0.019481262078298582
-0.21913162005888537   0.0055338552417465575   0.019481262078298582
-0.21913162005888537   0.0055338552417465575   0.019481262078298582
-0.21913162005888537   0.0055338552417465575   0.019481262078298582
-0.25013328772703675   -0.03115616609097521   -0.035649395607328216
-0.25013328772703675   -0.03115616609097521   -0.035649395607328216
-0.25013328772703675   -0.03115616609097521   -0.035649395607328216
-0.25013328772703675   -0.03115616609097521   -0.035649395607328216
-0.23049226533792422   0.01579407440035309   0.024289870505231338
-0.23049226533792422   0.01579407440035309   0.024289870505231338
-0.23049226533792422   0.01579407440035309   0.024289870505231338
-0.23049226533792422   0.01579407440035309   0.024289870505231338
-0.25873974281516293   -0.03753256824852928   -0.024441388242146183
-0.25873974281516293   -0.03753256824852928   -0.024441388242146183
-0.25873974281516293   -0.03753256824852928   -0.024441388242146183
-0.25873974281516293   -0.03753256824852928   -0.024441388242146183
-0.24938139697895076   0.006754979785844516   0.053283654606182576
-0.24938139697895076   0.006754979785844516   0.053283654606182576
-0.24938139697895076   0.006754979785844516   0.053283654606182576
-0.24938139697895076   0.006754979785844516   0.053283654606182576
-0.23916313709387563   -0.007711392306406342   0.007818135990547113
-0.23916313709387563   -0.007711392306406342   0.007818135990547113
-0.23916313709387563   -0.007711392306406342   0.007818135990547113
-0.23916313709387563   -0.007711392306406342   0.007818135990547113
-0.27525529726275605   -0.04151131241251495   -0.027819554614481466
-0.27525529726275605   -0.04151131241251495   -0.027819554614481466
-0.27525529726275605   -0.04151131241251495   -0.027819554614481466
-0.27525529726275605   -0.04151131241251495   -0.027819554614481466
-0.23947511789785966   0.004124448583328673   0.030224719512512294
-0.23947511789785966   0.004124448583328673   0.030224719512512294
-0.23947511789785966   0.004124448583328673   0.030224719512512294
-0.23947511789785966   0.004124448583328673   0.030224719512512294
-0.2657051434861865   -0.05249772540025982   -0.019257204786770284
-0.2657051434861865   -0.05249772540025982   -0.019257204786770284
-0.2657051434861865   -0.05249772540025982   -0.019257204786770284
-0.2657051434861865   -0.05249772540025982   -0.019257204786770284
-0.2832160854463475   -0.027891781713970613   0.04985248248926684
-0.2832160854463475   -0.027891781713970613   0.04985248248926684
-0.2832160854463475   -0.027891781713970613   0.04985248248926684
-0.2832160854463475   -0.027891781713970613   0.04985248248926684
-0.2566183574855155   -0.023360224908723637   -0.010699370267946883
-0.2566183574855155   -0.023360224908723637   -0.010699370267946883
-0.2566183574855155   -0.023360224908723637   -0.010699370267946883
-0.2566183574855155   -0.023360224908723637   -0.010699370267946883
-0.23820112878751204   -0.006813079570414507   -0.02184305563663707
-0.23820112878751204   -0.006813079570414507   -0.02184305563663707
-0.23820112878751204   -0.006813079570414507   -0.02184305563663707
-0.23820112878751204   -0.006813079570414507   -0.02184305563663707
-0.24260215174634167   -0.029854481865409285   -0.0012782414653060388
-0.24260215174634167   -0.029854481865409285   -0.0012782414653060388
-0.24260215174634167   -0.029854481865409285   -0.0012782414653060388
-0.24260215174634167   -0.029854481865409285   -0.0012782414653060388
-0.24444996835592356   -0.019908094689034816   -0.010967326750216083
-0.24444996835592356   -0.019908094689034816   -0.010967326750216083
-0.24444996835592356   -0.019908094689034816   -0.010967326750216083
-0.24444996835592356   -0.019908094689034816   -0.010967326750216083
-0.2466566745601396   -0.04036989470245768   -0.00036820650303485535
-0.2466566745601396   -0.04036989470245768   -0.00036820650303485535
-0.2466566745601396   -0.04036989470245768   -0.00036820650303485535
-0.2466566745601396   -0.04036989470245768   -0.00036820650303485535
-0.24091599353255222   -0.02529122137399456   -0.0007897762043100141
-0.24091599353255222   -0.02529122137399456   -0.0007897762043100141
-0.24091599353255222   -0.02529122137399456   -0.0007897762043100141
-0.24091599353255222   -0.02529122137399456   -0.0007897762043100141
-0.2466799386037162   -0.021942923061021163   -0.01891149836235516
-0.2466799386037162   -0.021942923061021163   -0.01891149836235516
-0.2466799386037162   -0.021942923061021163   -0.01891149836235516
-0.2466799386037162   -0.021942923061021163   -0.01891149836235516
-0.24598463768643555   -0.03989299970456041   0.0013442316127474695
-0.24598463768643555   -0.03989299970456041   0.0013442316127474695
-0.24598463768643555   -0.03989299970456041   0.0013442316127474695
-0.24598463768643555   -0.03989299970456041   0.0013442316127474695
-0.24862042228634765   -0.03289359260038488   -0.007099335214655081
-0.24862042228634765   -0.03289359260038488   -0.007099335214655081
-0.24862042228634765   -0.03289359260038488   -0.007099335214655081
-0.24862042228634765   -0.03289359260038488   -0.007099335214655081
-0.25570707679235   -0.05241559975907179   0.005604973382461205
-0.25570707679235   -0.05241559975907179   0.005604973382461205
-0.25570707679235   -0.05241559975907179   0.005604973382461205
-0.25570707679235   -0.05241559975907179   0.005604973382461205
-0.24654324825399393   -0.03579407017014122   -0.006820076981188413
-0.24654324825399393   -0.03579407017014122   -0.006820076981188413
-0.24654324825399393   -0.03579407017014122   -0.006820076981188413
-0.24654324825399393   -0.03579407017014122   -0.006820076981188413
-0.25631835504938244   -0.035822263035346164   -0.014044754626426684
-0.25631835504938244   -0.035822263035346164   -0.014044754626426684
-0.25631835504938244   -0.035822263035346164   -0.014044754626426684
-0.25631835504938244   -0.035822263035346164   -0.014044754626426684
-0.25000050173940663   -0.051478287034205227   0.004584961953866094
-0.25000050173940663   -0.051478287034205227   0.004584961953866094
-0.25000050173940663   -0.051478287034205227   0.004584961953866094
-0.25000050173940663   -0.051478287034205227   0.004584961953866094
-0.252374328722219   -0.04686314300148783   -0.0032704206969879726
-0.252374328722219   -0.04686314300148783   -0.0032704206969879726
-0.252374328722219   -0.04686314300148783   -0.0032704206969879726
-0.252374328722219   -0.04686314300148783   -0.0032704206969879726
-0.2626434573119619   -0.06767721769077858   0.011230718374870384
-0.2626434573119619   -0.06767721769077858   0.011230718374870384
-0.2626434573119619   -0.06767721769077858   0.011230718374870384
-0.2626434573119619   -0.06767721769077858   0.011230718374870384
-0.25424429293522316   -0.04844740922554744   -0.014475397606680058
-0.25424429293522316   -0.04844740922554744   -0.014475397606680058
-0.25424429293522316   -0.04844740922554744   -0.014475397606680058
-0.25424429293522316   -0.04844740922554744   -0.014475397606680058
-0.2359128656012482   0.006326662213524882   -0.00401295481876897
-0.2359128656012482   0.006326662213524882   -0.00401295481876897
-0.2359128656012482   0.006326662213524882   -0.00401295481876897
-0.2359128656012482   0.006326662213524882   -0.00401295481876897
-0.26789814464235207   -0.05087260334156631   -0.012866521887544821
-0.26789814464235207   -0.05087260334156631   -0.012866521887544821
-0.26789814464235207   -0.05087260334156631   -0.012866521887544821
-0.26789814464235207   -0.05087260334156631   -0.012866521887544821
-0.2570345224514551   -0.009407736678290653   0.0033321858712488783
-0.2570345224514551   -0.009407736678290653   0.0033321858712488783
-0.2570345224514551   -0.009407736678290653   0.0033321858712488783
-0.2570345224514551   -0.009407736678290653   0.0033321858712488783
-0.250815654362416   -0.05479483821356332   -0.007909013258151711
-0.250815654362416   -0.05479483821356332   -0.007909013258151711
-0.250815654362416   -0.05479483821356332   -0.007909013258151711
-0.250815654362416   -0.05479483821356332   -0.007909013258151711
-0.2527378847042485   -0.028051015776509924   -0.0056792582926341005
-0.2527378847042485   -0.028051015776509924   -0.0056792582926341005
-0.2527378847042485   -0.028051015776509924   -0.0056792582926341005
-0.2527378847042485   -0.028051015776509924   -0.0056792582926341005
-0.23960092718662498   -0.006594581598438669   -3.5633994321307774e-05
-0.23960092718662498   -0.006594581598438669   -3.5633994321307774e-05
-0.23960092718662498   -0.006594581598438669   -3.5633994321307774e-05
-0.23960092718662498   -0.006594581598438669   -3.5633994321307774e-05
-0.26966529594404276   -0.0590240396102133   -0.01020537865977476
-0.26966529594404276   -0.0590240396102133   -0.01020537865977476
-0.26966529594404276   -0.0590240396102133   -0.01020537865977476
-0.26966529594404276   -0.0590240396102133   -0.01020537865977476
-0.2600518355384903   -0.02243277138860493   0.0071736015755147035
-0.2600518355384903   -0.02243277138860493   0.0071736015755147035
-0.2600518355384903   -0.02243277138860493   0.0071736015755147035
-0.2600518355384903   -0.02243277138860493   0.0071736015755147035
-0.2547197514519723   -0.06505448536976276   -0.005435088273400361
-0.2547197514519723   -0.06505448536976276   -0.005435088273400361
-0.2547197514519723   -0.06505448536976276   -0.005435088273400361
-0.2547197514519723   -0.06505448536976276   -0.005435088273400361
-0.25593520345837273   -0.037966708192628505   -0.010850743896919781
-0.25593520345837273   -0.037966708192628505   -0.010850743896919781
-0.25593520345837273   -0.037966708192628505   -0.010850743896919781
-0.25593520345837273   -0.037966708192628505   -0.010850743896919781
-0.24382427717822636   -0.01985368373878485   0.003841481464351145
-0.24382427717822636   -0.01985368373878485   0.003841481464351145
-0.24382427717822636   -0.01985368373878485   0.003841481464351145
-0.24382427717822636   -0.01985368373878485   0.003841481464351145
-0.27252922919796857   -0.06921549240531266   -0.008430645705168889
-0.27252922919796857   -0.06921549240531266   -0.008430645705168889
-0.27252922919796857   -0.06921549240531266   -0.008430645705168889
-0.27252922919796857   -0.06921549240531266   -0.008430645705168889
-0.26252082211604627   -0.03467168901616161   0.010934044877851901
-0.26252082211604627   -0.03467168901616161   0.010934044877851901
-0.26252082211604627   -0.03467168901616161   0.010934044877851901
-0.26252082211604627   -0.03467168901616161   0.010934044877851901
-0.25764865775582496   -0.07488016418660769   -0.0016250446798979842
-0.25764865775582496   -0.07488016418660769   -0.0016250446798979842
-0.25764865775582496   -0.07488016418660769   -0.0016250446798979842
-0.25764865775582496   -0.07488016418660769   -0.0016250446798979842
-0.259736280008338   -0.04833367673097645   -0.01653180780890226
-0.259736280008338   -0.04833367673097645   -0.01653180780890226
-0.259736280008338   -0.04833367673097645   -0.01653180780890226
-0.259736280008338   -0.04833367673097645   -0.01653180780890226
-0.24735637296267984   0.026516975053823305   0.012452758115426617
-0.24735637296267984   0.026516975053823305   0.012452758115426617
-0.24735637296267984   0.026516975053823305   0.012452758115426617
-0.24735637296267984   0.026516975053823305   0.012452758115426617
-0.29322398028073415   -0.03806745889182283   -0.01796855413058558
-0.29322398028073415   -0.03806745889182283   -0.01796855413058558
-0.29322398028073415   -0.03806745889182283   -0.01796855413058558
-0.29322398028073415   -0.03806745889182283   -0.01796855413058558
-0.2775280228137992   0.007780969880563149   0.017211644513860105
-0.2775280228137992   0.007780969880563149   0.017211644513860105
-0.2775280228137992   0.007780969880563149   0.017211644513860105
-0.2775280228137992   0.007780969880563149   0.017211644513860105
-0.26644472469741737   -0.04227103733884049   -0.010855524698012823
-0.26644472469741737   -0.04227103733884049   -0.010855524698012823
-0.26644472469741737   -0.04227103733884049   -0.010855524698012823
-0.26644472469741737   -0.04227103733884049   -0.010855524698012823
-0.2711007966328597   -0.011229073270877223   -0.003390758739241412
-0.2711007966328597   -0.011229073270877223   -0.003390758739241412
-0.2711007966328597   -0.011229073270877223   -0.003390758739241412
-0.2711007966328597   -0.011229073270877223   -0.003390758739241412
-0.2499341335163062   0.013118914675858545   0.016307479192844143
-0.2499341335163062   0.013118914675858545   0.016307479192844143
-0.2499341335163062   0.013118914675858545   0.016307479192844143
-0.2499341335163062   0.013118914675858545   0.016307479192844143
-0.29592105066979874   -0.04949141880902426   -0.017481106076550363
-0.29592105066979874   -0.04949141880902426   -0.017481106076550363
-0.29592105066979874   -0.04949141880902426   -0.017481106076550363
-0.29592105066979874   -0.04949141880902426   -0.017481106076550363
-0.28271297474031837   -0.004947084283959999   0.019521722827687875
-0.28271297474031837   -0.004947084283959999   0.019521722827687875
-0.28271297474031837   -0.004947084283959999   0.019521722827687875
-0.28271297474031837   -0.004947084283959999   0.019521722827687875
-0.26907946939772287   -0.05176161140065409   -0.0086357277085989
-0.26907946939772287   -0.05176161140065409   -0.0086357277085989
-0.26907946939772287   -0.05176161140065409   -0.0086357277085989
-0.26907946939772287   -0.05176161140065409   -0.0086357277085989
-0.2737412308643247   -0.021983017562870973   -0.009458020458732196
-0.2737412308643247   -0.021983017562870973   -0.009458020458732196
-0.2737412308643247   -0.021983017562870973   -0.009458020458732196
-0.2737412308643247   -0.021983017562870973   -0.009458020458732196
-0.25276008141684075   0.0011492249785271316   0.02005037581663055
-0.25276008141684075   0.0011492249785271316   0.02005037581663055
-0.25276008141684075   0.0011492249785271316   0.02005037581663055
-0.25276008141684075   0.0011492249785271316   0.02005037581663055
-0.3006631506329833   -0.05948870857492148   -0.015687532344675358
-0.3006631506329833   -0.05948870857492148   -0.015687532344675358
-0.3006631506329833   -0.05948870857492148   -0.015687532344675358
-0.3006631506329833   -0.05948870857492148   -0.015687532344675358
-0.2861600156648229   -0.01716554705583353   0.023813219427903126
-0.2861600156648229   -0.01716554705583353   0.023813219427903126
-0.2861600156648229   -0.01716554705583353   0.023813219427903126
-0.2861600156648229   -0.01716554705583353   0.023813219427903126
-0.27135539858059643   -0.061298121133694004   -0.0066124053273707295
-0.27135539858059643   -0.061298121133694004   -0.0066124053273707295
-0.27135539858059643   -0.061298121133694004   -0.0066124053273707295
-0.27135539858059643   -0.061298121133694004   -0.0066124053273707295
-0.2783336064848728   -0.03213293141350032   -0.015341896594178075
-0.2783336064848728   -0.03213293141350032   -0.015341896594178075
-0.2783336064848728   -0.03213293141350032   -0.015341896594178075
-0.2783336064848728   -0.03213293141350032   -0.015341896594178075
-0.26942869759266136   0.038054237363317006   0.024886163054638432
-0.26942869759266136   0.038054237363317006   0.024886163054638432
-0.26942869759266136   0.038054237363317006   0.024886163054638432
-0.26942869759266136   0.038054237363317006   0.024886163054638432
-0.28900961060750124   -0.023085325659348982   -0.02600516303155071
-0.28900961060750124   -0.023085325659348982   -0.02600516303155071
-0.28900961060750124   -0.023085325659348982   -0.02600516303155071
-0.28900961060750124   -0.023085325659348982   -0.02600516303155071
-0.2826423153304487   0.026883256019341217   0.027662261060621553
-0.2826423153304487   0.026883256019341217   0.027662261060621553
-0.2826423153304487   0.026883256019341217   0.027662261060621553
-0.2826423153304487   0.026883256019341217   0.027662261060621553
-0.2915780098669813   -0.029359543835014233   -0.0158977770364733
-0.2915780098669813   -0.029359543835014233   -0.0158977770364733
-0.2915780098669813   -0.029359543835014233   -0.0158977770364733
-0.2915780098669813   -0.029359543835014233   -0.0158977770364733
-0.2735012391400309   0.006739465820816706   0.0011447185123838605
-0.2735012391400309   0.006739465820816706   0.0011447185123838605
-0.2735012391400309   0.006739465820816706   0.0011447185123838605
-0.2735012391400309   0.006739465820816706   0.0011447185123838605
-0.2708814392402442   0.029456737898079927   0.0287687943641106
-0.2708814392402442   0.029456737898079927   0.0287687943641106
-0.2708814392402442   0.029456737898079927   0.0287687943641106
-0.2708814392402442   0.029456737898079927   0.0287687943641106
-0.3048775323952333   -0.03347167215180038   -0.02315889609215202
-0.3048775323952333   -0.03347167215180038   -0.02315889609215202
-0.3048775323952333   -0.03347167215180038   -0.02315889609215202
-0.3048775323952333   -0.03347167215180038   -0.02315889609215202
-0.29508755518554564   0.01973852214507648   0.03560180338192132
-0.29508755518554564   0.01973852214507648   0.03560180338192132
-0.29508755518554564   0.01973852214507648   0.03560180338192132
-0.29508755518554564   0.01973852214507648   0.03560180338192132
-0.2955168199320797   -0.03495217603989727   -0.014492411375181247
-0.2955168199320797   -0.03495217603989727   -0.014492411375181247
-0.2955168199320797   -0.03495217603989727   -0.014492411375181247
-0.2955168199320797   -0.03495217603989727   -0.014492411375181247
-0.2869185649883257   -0.0019101476561329406   -0.006038232941150447
-0.2869185649883257   -0.0019101476561329406   -0.006038232941150447
-0.2869185649883257   -0.0019101476561329406   -0.006038232941150447
-0.2869185649883257   -0.0019101476561329406   -0.006038232941150447
-0.27399933481067146   0.023720310985045824   0.03442252720690918
-0.27399933481067146   0.023720310985045824   0.03442252720690918
-0.27399933481067146   0.023720310985045824   0.03442252720690918
-0.27399933481067146   0.023720310985045824   0.03442252720690918
-0.3186038563520429   -0.04093278092495824   -0.021308399380522845
-0.3186038563520429   -0.04093278092495824   -0.021308399380522845
-0.3186038563520429   -0.04093278092495824   -0.021308399380522845
-0.3186038563520429   -0.04093278092495824   -0.021308399380522845
-0.31695250007767595   0.00148859161011438   0.038033599628731624
-0.31695250007767595   0.00148859161011438   0.038033599628731624
-0.31695250007767595   0.00148859161011438   0.038033599628731624
-0.31695250007767595   0.00148859161011438   0.038033599628731624
-0.2991178537761421   -0.04555065577182972   -0.012590862412688749
-0.2991178537761421   -0.04555065577182972   -0.012590862412688749
-0.2991178537761421   -0.04555065577182972   -0.012590862412688749
-0.2991178537761421   -0.04555065577182972   -0.012590862412688749
-0.29327534714438913   -0.00988252717837982   -0.012501934157971345
-0.29327534714438913   -0.00988252717837982   -0.012501934157971345
-0.29327534714438913   -0.00988252717837982   -0.012501934157971345
-0.29327534714438913   -0.00988252717837982   -0.012501934157971345
-0.5729878954860481   -0.05241654719554942   -0.05438712438000227
-0.5729878954860481   -0.05241654719554942   -0.05438712438000227
-0.5729878954860481   -0.05241654719554942   -0.05438712438000227
-0.5729878954860481   -0.05241654719554942   -0.05438712438000227
-0.3641780391493794   0.03082688452412255   0.012799503109667574
-0.3641780391493794   0.03082688452412255   0.012799503109667574
-0.3641780391493794   0.03082688452412255   0.012799503109667574
-0.3641780391493794   0.03082688452412255   0.012799503109667574
-0.3824896007917833   -0.024328676409624383   -0.024326548090796925
-0.3824896007917833   -0.024328676409624383   -0.024326548090796925
-0.3824896007917833   -0.024328676409624383   -0.024326548090796925
-0.3824896007917833   -0.024328676409624383   -0.024326548090796925
-0.6095346649156714   -0.06902275306252786   0.06079662142671672
-0.6095346649156714   -0.06902275306252786   0.06079662142671672
-0.6095346649156714   -0.06902275306252786   0.06079662142671672
-0.6095346649156714   -0.06902275306252786   0.06079662142671672
-0.4432970160395823   -0.01699342361323783   0.05904066085269957
-0.4432970160395823   -0.01699342361323783   0.05904066085269957
-0.4432970160395823   -0.01699342361323783   0.05904066085269957
-0.4432970160395823   -0.01699342361323783   0.05904066085269957
-0.6313095174839852   -0.07720619085448334   -0.0398942036228898
-0.6313095174839852   -0.07720619085448334   -0.0398942036228898
-0.6313095174839852   -0.07720619085448334   -0.0398942036228898
-0.6313095174839852   -0.07720619085448334   -0.0398942036228898
-0.37603869195986134   -0.03146918235405957   0.015068502013248088
-0.37603869195986134   -0.03146918235405957   0.015068502013248088
-0.37603869195986134   -0.03146918235405957   0.015068502013248088
-0.37603869195986134   -0.03146918235405957   0.015068502013248088
-0.38847489079875613   -0.0352224414507856   -0.01750995775716266
-0.38847489079875613   -0.0352224414507856   -0.01750995775716266
-0.38847489079875613   -0.0352224414507856   -0.01750995775716266
-0.38847489079875613   -0.0352224414507856   -0.01750995775716266
-0.6291037466733622   -0.09639815503559862   0.0014089784043372494
-0.6291037466733622   -0.09639815503559862   0.0014089784043372494
-0.6291037466733622   -0.09639815503559862   0.0014089784043372494
-0.6291037466733622   -0.09639815503559862   0.0014089784043372494
-0.49104204440227406   -0.05816321300996723   0.01367459857531262
-0.49104204440227406   -0.05816321300996723   0.01367459857531262
-0.49104204440227406   -0.05816321300996723   0.01367459857531262
-0.49104204440227406   -0.05816321300996723   0.01367459857531262
-0.6339930725574211   -0.08725937288449667   -0.03217643316705303
-0.6339930725574211   -0.08725937288449667   -0.03217643316705303
-0.6339930725574211   -0.08725937288449667   -0.03217643316705303
-0.6339930725574211   -0.08725937288449667   -0.03217643316705303
-0.38821618179113443   -0.04899184047832425   -0.0024470136915186874
-0.38821618179113443   -0.04899184047832425   -0.0024470136915186874
-0.38821618179113443   -0.04899184047832425   -0.0024470136915186874
-0.38821618179113443   -0.04899184047832425   -0.0024470136915186874
-0.3888431763640252   -0.061544221640455005   -0.012782626225477406
-0.3888431763640252   -0.061544221640455005   -0.012782626225477406
-0.3888431763640252   -0.061544221640455005   -0.012782626225477406
-0.3888431763640252   -0.061544221640455005   -0.012782626225477406
-0.6443650437848454   -0.14713910253541237   0.00952259824635219
-0.6443650437848454   -0.14713910253541237   0.00952259824635219
-0.6443650437848454   -0.14713910253541237   0.00952259824635219
-0.6443650437848454   -0.14713910253541237   0.00952259824635219
-0.49064351529765193   -0.07992572359100819   0.001066691902443016
-0.49064351529765193   -0.07992572359100819   0.001066691902443016
-0.49064351529765193   -0.07992572359100819   0.001066691902443016
-0.49064351529765193   -0.07992572359100819   0.001066691902443016
-0.3932373784939299   -0.06671661728304791   -0.034953691805910854
-0.3932373784939299   -0.06671661728304791   -0.034953691805910854
-0.3932373784939299   -0.06671661728304791   -0.034953691805910854
-0.3932373784939299   -0.06671661728304791   -0.034953691805910854
-0.2707548826751667   -0.17564520036500056   -0.032898884273289894
-0.2707548826751667   -0.17564520036500056   -0.032898884273289894
-0.2707548826751667   -0.17564520036500056   -0.032898884273289894
-0.2707548826751667   -0.17564520036500056   -0.032898884273289894
-0.23778189107172276   -0.0389478700996119   -0.0021328669772227816
-0.23778189107172276   -0.0389478700996119   -0.0021328669772227816
-0.23778189107172276   -0.0389478700996119   -0.0021328669772227816
-0.23778189107172276   -0.0389478700996119   -0.0021328669772227816
-0.418264767656383   -0.1861231994390519   -0.04140785938436803
-0.418264767656383   -0.1861231994390519   -0.04140785938436803
-0.418264767656383   -0.1861231994390519   -0.04140785938436803
-0.418264767656383   -0.1861231994390519   -0.04140785938436803
-0.32619482692610435   -0.12398838548344865   -0.00952578172948362
-0.32619482692610435   -0.12398838548344865   -0.00952578172948362
-0.32619482692610435   -0.12398838548344865   -0.00952578172948362
-0.32619482692610435   -0.12398838548344865   -0.00952578172948362
-0.39299156482329833   -0.07483020032173464   -0.026334844336260915
-0.39299156482329833   -0.07483020032173464   -0.026334844336260915
-0.39299156482329833   -0.07483020032173464   -0.026334844336260915
-0.39299156482329833   -0.07483020032173464   -0.026334844336260915
-0.2646452568585851   -0.15183103217070698   -0.023566533840441425
-0.2646452568585851   -0.15183103217070698   -0.023566533840441425
-0.2646452568585851   -0.15183103217070698   -0.023566533840441425
-0.2646452568585851   -0.15183103217070698   -0.023566533840441425
-0.24057341671072033   -0.050446715905705826   0.00031573256766140756
-0.24057341671072033   -0.050446715905705826   0.00031573256766140756
-0.24057341671072033   -0.050446715905705826   0.00031573256766140756
-0.24057341671072033   -0.050446715905705826   0.00031573256766140756
-0.41984353947187736   -0.18514750962934523   -0.024428132944212252
-0.41984353947187736   -0.18514750962934523   -0.024428132944212252
-0.41984353947187736   -0.18514750962934523   -0.024428132944212252
-0.41984353947187736   -0.18514750962934523   -0.024428132944212252
-0.3226315142136352   -0.1162190755567997   -0.010121550518460268
-0.3226315142136352   -0.1162190755567997   -0.010121550518460268
-0.3226315142136352   -0.1162190755567997   -0.010121550518460268
-0.3226315142136352   -0.1162190755567997   -0.010121550518460268
-0.3991149915362059   -0.08617063163614555   -0.01976227125905165
-0.3991149915362059   -0.08617063163614555   -0.01976227125905165
-0.3991149915362059   -0.08617063163614555   -0.01976227125905165
-0.3991149915362059   -0.08617063163614555   -0.01976227125905165
-0.26460419573806987   -0.15272582499058313   -0.017559053484209133
-0.26460419573806987   -0.15272582499058313   -0.017559053484209133
-0.26460419573806987   -0.15272582499058313   -0.017559053484209133
-0.26460419573806987   -0.15272582499058313   -0.017559053484209133
-0.24057884072819244   -0.06474734139209246   0.0038154832845315716
-0.24057884072819244   -0.06474734139209246   0.0038154832845315716
-0.24057884072819244   -0.06474734139209246   0.0038154832845315716
-0.24057884072819244   -0.06474734139209246   0.0038154832845315716
-0.4188877668818339   -0.1881390315341555   -0.03641076892082483
-0.4188877668818339   -0.1881390315341555   -0.03641076892082483
-0.4188877668818339   -0.1881390315341555   -0.03641076892082483
-0.4188877668818339   -0.1881390315341555   -0.03641076892082483
-0.3275923961036399   -0.12498931682906361   -0.018811791115933407
-0.3275923961036399   -0.12498931682906361   -0.018811791115933407
-0.3275923961036399   -0.12498931682906361   -0.018811791115933407
-0.3275923961036399   -0.12498931682906361   -0.018811791115933407
-0.2382474577134936   -0.04297546128689224   -0.0030314985430329178
-0.2382474577134936   -0.04297546128689224   -0.0030314985430329178
-0.2382474577134936   -0.04297546128689224   -0.0030314985430329178
-0.2382474577134936   -0.04297546128689224   -0.0030314985430329178
-0.20039177409210415   -0.13450279335991577   -0.0232174954926052
-0.20039177409210415   -0.13450279335991577   -0.0232174954926052
-0.20039177409210415   -0.13450279335991577   -0.0232174954926052
-0.20039177409210415   -0.13450279335991577   -0.0232174954926052
-0.1727202208464909   -0.0357554501570415   0.009192493508532368
-0.1727202208464909   -0.0357554501570415   0.009192493508532368
-0.1727202208464909   -0.0357554501570415   0.009192493508532368
-0.1727202208464909   -0.0357554501570415   0.009192493508532368
-0.26390489961245245   -0.14607994349394826   -0.02561583628653674
-0.26390489961245245   -0.14607994349394826   -0.02561583628653674
-0.26390489961245245   -0.14607994349394826   -0.02561583628653674
-0.26390489961245245   -0.14607994349394826   -0.02561583628653674
-0.21785938531766533   -0.09106458407130608   -0.010701964065684869
-0.21785938531766533   -0.09106458407130608   -0.010701964065684869
-0.21785938531766533   -0.09106458407130608   -0.010701964065684869
-0.21785938531766533   -0.09106458407130608   -0.010701964065684869
-0.2396647556177569   -0.05090155647866887   0.00040649667166145747
-0.2396647556177569   -0.05090155647866887   0.00040649667166145747
-0.2396647556177569   -0.05090155647866887   0.00040649667166145747
-0.2396647556177569   -0.05090155647866887   0.00040649667166145747
-0.19837364888439796   -0.13234712121553371   -0.022482975622510667
-0.19837364888439796   -0.13234712121553371   -0.022482975622510667
-0.19837364888439796   -0.13234712121553371   -0.022482975622510667
-0.19837364888439796   -0.13234712121553371   -0.022482975622510667
-0.17285356127103846   -0.04521028587450222   0.011919719021968459
-0.17285356127103846   -0.04521028587450222   0.011919719021968459
-0.17285356127103846   -0.04521028587450222   0.011919719021968459
-0.17285356127103846   -0.04521028587450222   0.011919719021968459
-0.2648083591824467   -0.14839395652133652   -0.022911739175339726
-0.2648083591824467   -0.14839395652133652   -0.022911739175339726
-0.2648083591824467   -0.14839395652133652   -0.022911739175339726
-0.2648083591824467   -0.14839395652133652   -0.022911739175339726
-0.2175317432057005   -0.09461072030051951   -0.013889574166914637
-0.2175317432057005   -0.09461072030051951   -0.013889574166914637
-0.2175317432057005   -0.09461072030051951   -0.013889574166914637
-0.2175317432057005   -0.09461072030051951   -0.013889574166914637
-0.24175879941348402   -0.06048904723146209   0.004431150379599326
-0.24175879941348402   -0.06048904723146209   0.004431150379599326
-0.24175879941348402   -0.06048904723146209   0.004431150379599326
-0.24175879941348402   -0.06048904723146209   0.004431150379599326
-0.1966814881088476   -0.1338935622332199   -0.01853663880835579
-0.1966814881088476   -0.1338935622332199   -0.01853663880835579
-0.1966814881088476   -0.1338935622332199   -0.01853663880835579
-0.1966814881088476   -0.1338935622332199   -0.01853663880835579
-0.17089972147393453   -0.0542267678438645   0.014893000751927551
-0.17089972147393453   -0.0542267678438645   0.014893000751927551
-0.17089972147393453   -0.0542267678438645   0.014893000751927551
-0.17089972147393453   -0.0542267678438645   0.014893000751927551
-0.26174204045244154   -0.15025533274986774   -0.016492523978940417
-0.26174204045244154   -0.15025533274986774   -0.016492523978940417
-0.26174204045244154   -0.15025533274986774   -0.016492523978940417
-0.26174204045244154   -0.15025533274986774   -0.016492523978940417
-0.21696126143780964   -0.09929547571618555   -0.01611348962039332
-0.21696126143780964   -0.09929547571618555   -0.01611348962039332
-0.21696126143780964   -0.09929547571618555   -0.01611348962039332
-0.21696126143780964   -0.09929547571618555   -0.01611348962039332
-0.1667589415518675   -0.005909971291835809   0.016353845140498195
-0.1667589415518675   -0.005909971291835809   0.016353845140498195
-0.1667589415518675   -0.005909971291835809   0.016353845140498195
-0.1667589415518675   -0.005909971291835809   0.016353845140498195
-0.1582269881477491   -0.07130964610870691   -0.0139491204781043
-0.1582269881477491   -0.07130964610870691   -0.0139491204781043
-0.1582269881477491   -0.07130964610870691   -0.0139491204781043
-0.1582269881477491   -0.07130964610870691   -0.0139491204781043
-0.13650238786405808   -0.010326681048274187   0.01892391992145936
-0.13650238786405808   -0.010326681048274187   0.01892391992145936
-0.13650238786405808   -0.010326681048274187   0.01892391992145936
-0.13650238786405808   -0.010326681048274187   0.01892391992145936
-0.1858339034099879   -0.08227167231816265   -0.009859697147831472
-0.1858339034099879   -0.08227167231816265   -0.009859697147831472
-0.1858339034099879   -0.08227167231816265   -0.009859697147831472
-0.1858339034099879   -0.08227167231816265   -0.009859697147831472
-0.16236629820187246   -0.0420532423757634   -0.005810692494429467
-0.16236629820187246   -0.0420532423757634   -0.005810692494429467
-0.16236629820187246   -0.0420532423757634   -0.005810692494429467
-0.16236629820187246   -0.0420532423757634   -0.005810692494429467
-0.166919171409954   -0.016421969695758452   0.018864260229933965
-0.166919171409954   -0.016421969695758452   0.018864260229933965
-0.166919171409954   -0.016421969695758452   0.018864260229933965
-0.166919171409954   -0.016421969695758452   0.018864260229933965
-0.1569264304028532   -0.07768569420943958   -0.015837279611350855
-0.1569264304028532   -0.07768569420943958   -0.015837279611350855
-0.1569264304028532   -0.07768569420943958   -0.015837279611350855
-0.1569264304028532   -0.07768569420943958   -0.015837279611350855
-0.13676856127392875   -0.019502863668010198   0.020347102830826445
-0.13676856127392875   -0.019502863668010198   0.020347102830826445
-0.13676856127392875   -0.019502863668010198   0.020347102830826445
-0.13676856127392875   -0.019502863668010198   0.020347102830826445
-0.18584712381723356   -0.087291777681285   -0.010966601902228142
-0.18584712381723356   -0.087291777681285   -0.010966601902228142
-0.18584712381723356   -0.087291777681285   -0.010966601902228142
-0.18584712381723356   -0.087291777681285   -0.010966601902228142
-0.16171928584813614   -0.049414736696290255   -0.009870347857557802
-0.16171928584813614   -0.049414736696290255   -0.009870347857557802
-0.16171928584813614   -0.049414736696290255   -0.009870347857557802
-0.16171928584813614   -0.049414736696290255   -0.009870347857557802
-0.16696724026834145   -0.025319843667389805   0.02146088182834111
-0.16696724026834145   -0.025319843667389805   0.02146088182834111
-0.16696724026834145   -0.025319843667389805   0.02146088182834111
-0.16696724026834145   -0.025319843667389805   0.02146088182834111
-0.15656280582578272   -0.0823891586848666   -0.015737824911586994
-0.15656280582578272   -0.0823891586848666   -0.015737824911586994
-0.15656280582578272   -0.0823891586848666   -0.015737824911586994
-0.15656280582578272   -0.0823891586848666   -0.015737824911586994
-0.13567346630512145   -0.028122525381193253   0.02358364115964267
-0.13567346630512145   -0.028122525381193253   0.02358364115964267
-0.13567346630512145   -0.028122525381193253   0.02358364115964267
-0.13567346630512145   -0.028122525381193253   0.02358364115964267
-0.18299017017096234   -0.0923052898357841   -0.007480720741291703
-0.18299017017096234   -0.0923052898357841   -0.007480720741291703
-0.18299017017096234   -0.0923052898357841   -0.007480720741291703
-0.18299017017096234   -0.0923052898357841   -0.007480720741291703
-0.1613115352726178   -0.05576076473178544   -0.012703853154882983
-0.1613115352726178   -0.05576076473178544   -0.012703853154882983
-0.1613115352726178   -0.05576076473178544   -0.012703853154882983
-0.1613115352726178   -0.05576076473178544   -0.012703853154882983
-0.13235932681921117   0.01855139309649572   0.02552814695938272
-0.13235932681921117   0.01855139309649572   0.02552814695938272
-0.13235932681921117   0.01855139309649572   0.02552814695938272
-0.13235932681921117   0.01855139309649572   0.02552814695938272
-0.08869497469568474   -0.02353366872173365   -0.008616205821125973
-0.08869497469568474   -0.02353366872173365   -0.008616205821125973
-0.08869497469568474   -0.02353366872173365   -0.008616205821125973
-0.08869497469568474   -0.02353366872173365   -0.008616205821125973
-0.07762462893123345   0.021654653590150546   0.025219829153602755
-0.07762462893123345   0.021654653590150546   0.025219829153602755
-0.07762462893123345   0.021654653590150546   0.025219829153602755
-0.07762462893123345   0.021654653590150546   0.025219829153602755
-0.14628575046144637   -0.03585052532887821   -0.004469048784878107
-0.14628575046144637   -0.03585052532887821   -0.004469048784878107
-0.14628575046144637   -0.03585052532887821   -0.004469048784878107
-0.14628575046144637   -0.03585052532887821   -0.004469048784878107
-0.10968338844044612   -0.0023164548067632212   -0.004568352991198008
-0.10968338844044612   -0.0023164548067632212   -0.004568352991198008
-0.10968338844044612   -0.0023164548067632212   -0.004568352991198008
-0.10968338844044612   -0.0023164548067632212   -0.004568352991198008
-0.13031953921941375   0.011645001767562745   0.027866480328844034
-0.13031953921941375   0.011645001767562745   0.027866480328844034
-0.13031953921941375   0.011645001767562745   0.027866480328844034
-0.13031953921941375   0.011645001767562745   0.027866480328844034
-0.09375084708027452   -0.02600088041329756   -0.007755727588154408
-0.09375084708027452   -0.02600088041329756   -0.007755727588154408
-0.09375084708027452   -0.02600088041329756   -0.007755727588154408
-0.09375084708027452   -0.02600088041329756   -0.007755727588154408
-0.08111732340289306   0.01717052246699117   0.03172158463007434
-0.08111732340289306   0.01717052246699117   0.03172158463007434
-0.08111732340289306   0.01717052246699117   0.03172158463007434
-0.08111732340289306   0.01717052246699117   0.03172158463007434
-0.1457112466428545   -0.03817673638695768   -0.005692451294854839
-0.1457112466428545   -0.03817673638695768   -0.005692451294854839
-0.1457112466428545   -0.03817673638695768   -0.005692451294854839
-0.1457112466428545   -0.03817673638695768   -0.005692451294854839
-0.11304158618607309   -0.007210937008914547   -0.006506901413369617
-0.11304158618607309   -0.007210937008914547   -0.006506901413369617
-0.11304158618607309   -0.007210937008914547   -0.006506901413369617
-0.11304158618607309   -0.007210937008914547   -0.006506901413369617
-0.12898809075208628   0.007667808687950271   0.03207878308407841
-0.12898809075208628   0.007667808687950271   0.03207878308407841
-0.12898809075208628   0.007667808687950271   0.03207878308407841
-0.12898809075208628   0.007667808687950271   0.03207878308407841
-0.09898550310576079   -0.029819046420018834   -0.010629744997262026
-0.09898550310576079   -0.029819046420018834   -0.010629744997262026
-0.09898550310576079   -0.029819046420018834   -0.010629744997262026
-0.09898550310576079   -0.029819046420018834   -0.010629744997262026
-0.09277850377914479   0.004837533514497052   0.03301073402194784
-0.09277850377914479   0.004837533514497052   0.03301073402194784
-0.09277850377914479   0.004837533514497052   0.03301073402194784
-0.09277850377914479   0.004837533514497052   0.03301073402194784
-0.1437770618467572   -0.04029501462576727   -0.0047618473039621675
-0.1437770618467572   -0.04029501462576727   -0.0047618473039621675
-0.1437770618467572   -0.04029501462576727   -0.0047618473039621675
-0.1437770618467572   -0.04029501462576727   -0.0047618473039621675
-0.11469492304407974   -0.010770772235816174   -0.009610578692132705
-0.11469492304407974   -0.010770772235816174   -0.009610578692132705
-0.11469492304407974   -0.010770772235816174   -0.009610578692132705
-0.11469492304407974   -0.010770772235816174   -0.009610578692132705
-1.356064187624644   -0.19276165863893402   -0.11325706423035835
-1.356064187624644   -0.19276165863893402   -0.11325706423035835
-1.356064187624644   -0.19276165863893402   -0.11325706423035835
-1.356064187624644   -0.19276165863893402   -0.11325706423035835
-0.47144585406030015   -0.7483885614937906   -0.08852096491574028
-0.47144585406030015   -0.7483885614937906   -0.08852096491574028
-0.47144585406030015   -0.7483885614937906   -0.08852096491574028
-0.47144585406030015   -0.7483885614937906   -0.08852096491574028
-0.3634222993725061   -0.03187765563249437   0.0004097430337189137
-0.3634222993725061   -0.03187765563249437   0.0004097430337189137
-0.3634222993725061   -0.03187765563249437   0.0004097430337189137
-0.3634222993725061   -0.03187765563249437   0.0004097430337189137
-1.449722377966812   -0.8782537206692178   -0.46559521972720597
-1.449722377966812   -0.8782537206692178   -0.46559521972720597
-1.449722377966812   -0.8782537206692178   -0.46559521972720597
-1.449722377966812   -0.8782537206692178   -0.46559521972720597
-0.8873797789924402   -0.43671400485926704   -0.06366156106834624
-0.8873797789924402   -0.43671400485926704   -0.06366156106834624
-0.8873797789924402   -0.43671400485926704   -0.06366156106834624
-0.8873797789924402   -0.43671400485926704   -0.06366156106834624
-1.2601600403246411   -0.24209550238898422   -0.1539417497965954
-1.2601600403246411   -0.24209550238898422   -0.1539417497965954
-1.2601600403246411   -0.24209550238898422   -0.1539417497965954
-1.2601600403246411   -0.24209550238898422   -0.1539417497965954
-0.5093865911385747   -0.6244378280366268   -0.1368515433924883
-0.5093865911385747   -0.6244378280366268   -0.1368515433924883
-0.5093865911385747   -0.6244378280366268   -0.1368515433924883
-0.5093865911385747   -0.6244378280366268   -0.1368515433924883
-0.3709933226596432   -0.04227456608843909   0.01391649912641589
-0.3709933226596432   -0.04227456608843909   0.01391649912641589
-0.3709933226596432   -0.04227456608843909   0.01391649912641589
-0.3709933226596432   -0.04227456608843909   0.01391649912641589
-1.3567703038887338   -0.7842170731053539   -0.42819747539881753
-1.3567703038887338   -0.7842170731053539   -0.42819747539881753
-1.3567703038887338   -0.7842170731053539   -0.42819747539881753
-1.3567703038887338   -0.7842170731053539   -0.42819747539881753
-0.835933536094263   -0.39405705347069986   0.03363556036598392
-0.835933536094263   -0.39405705347069986   0.03363556036598392
-0.835933536094263   -0.39405705347069986   0.03363556036598392
-0.835933536094263   -0.39405705347069986   0.03363556036598392
-1.1833848196174945   -0.2305279922790745   -0.11495913486890975
-1.1833848196174945   -0.2305279922790745   -0.11495913486890975
-1.1833848196174945   -0.2305279922790745   -0.11495913486890975
-1.1833848196174945   -0.2305279922790745   -0.11495913486890975
-0.4959083377062639   -0.5474931776901009   -0.10543996450502209
-0.4959083377062639   -0.5474931776901009   -0.10543996450502209
-0.4959083377062639   -0.5474931776901009   -0.10543996450502209
-0.4959083377062639   -0.5474931776901009   -0.10543996450502209
-0.42689254392163717   -0.11002698522545004   -0.022389315067044287
-0.42689254392163717   -0.11002698522545004   -0.022389315067044287
-0.42689254392163717   -0.11002698522545004   -0.022389315067044287
-0.42689254392163717   -0.11002698522545004   -0.022389315067044287
-1.2366924698051494   -0.6601282689333504   -0.3793641477477
-1.2366924698051494   -0.6601282689333504   -0.3793641477477
-1.2366924698051494   -0.6601282689333504   -0.3793641477477
-1.2366924698051494   -0.6601282689333504   -0.3793641477477
-0.774476920233116   -0.3418290706545516   0.14361932470575423
-0.774476920233116   -0.3418290706545516   0.14361932470575423
-0.774476920233116   -0.3418290706545516   0.14361932470575423
-0.774476920233116   -0.3418290706545516   0.14361932470575423
-0.3476945855706008   -0.19007000073469754   -0.028083183226340666
-0.3476945855706008   -0.19007000073469754   -0.028083183226340666
-0.3476945855706008   -0.19007000073469754   -0.028083183226340666
-0.3476945855706008   -0.19007000073469754   -0.028083183226340666
-0.16152374042386416   -0.2385856261788839   -0.03994593455701542
-0.16152374042386416   -0.2385856261788839   -0.03994593455701542
-0.16152374042386416   -0.2385856261788839   -0.03994593455701542
-0.16152374042386416   -0.2385856261788839   -0.03994593455701542
-0.141999042640933   -0.12186689353935096   0.0036079450986866574
-0.141999042640933   -0.12186689353935096   0.0036079450986866574
-0.141999042640933   -0.12186689353935096   0.0036079450986866574
-0.141999042640933   -0.12186689353935096   0.0036079450986866574
-0.4265409392976581   -0.34766570213339887   0.0006045899088664708
-0.4265409392976581   -0.34766570213339887   0.0006045899088664708
-0.4265409392976581   -0.34766570213339887   0.0006045899088664708
-0.4265409392976581   -0.34766570213339887   0.0006045899088664708
-0.22876307181049543   -0.1684061733950084   0.07356723199008319
-0.22876307181049543   -0.1684061733950084   0.07356723199008319
-0.22876307181049543   -0.1684061733950084   0.07356723199008319
-0.22876307181049543   -0.1684061733950084   0.07356723199008319
-0.39614818460163126   -0.17703148225009033   -0.01806585649431197
-0.39614818460163126   -0.17703148225009033   -0.01806585649431197
-0.39614818460163126   -0.17703148225009033   -0.01806585649431197
-0.39614818460163126   -0.17703148225009033   -0.01806585649431197
-0.18451505636113064   -0.304624372446831   -0.02621464459482152
-0.18451505636113064   -0.304624372446831   -0.02621464459482152
-0.18451505636113064   -0.304624372446831   -0.02621464459482152
-0.18451505636113064   -0.304624372446831   -0.02621464459482152
-0.1535932529532086   -0.12626021985605784   0.0037580294035636785
-0.1535932529532086   -0.12626021985605784   0.0037580294035636785
-0.1535932529532086   -0.12626021985605784   0.0037580294035636785
-0.1535932529532086   -0.12626021985605784   0.0037580294035636785
-0.4476842093445858   -0.3434908324669726   -0.0683216679197596
-0.4476842093445858   -0.3434908324669726   -0.0683216679197596
-0.4476842093445858   -0.3434908324669726   -0.0683216679197596
-0.4476842093445858   -0.3434908324669726   -0.0683216679197596
-0.2732058383338828   -0.21577654253545847   0.033382738613806785
-0.2732058383338828   -0.21577654253545847   0.033382738613806785
-0.2732058383338828   -0.21577654253545847   0.033382738613806785
-0.2732058383338828   -0.21577654253545847   0.033382738613806785
-0.4090515059590861   -0.18486106085816134   -0.03378792260107633
-0.4090515059590861   -0.18486106085816134   -0.03378792260107633
-0.4090515059590861   -0.18486106085816134   -0.03378792260107633
-0.4090515059590861   -0.18486106085816134   -0.03378792260107633
-0.19110649502053612   -0.2837705301466969   -0.026297870642430873
-0.19110649502053612   -0.2837705301466969   -0.026297870642430873
-0.19110649502053612   -0.2837705301466969   -0.026297870642430873
-0.19110649502053612   -0.2837705301466969   -0.026297870642430873
-0.17154282645649666   -0.1302793881154986   0.005542507747122543
-0.17154282645649666   -0.1302793881154986   0.005542507747122543
-0.17154282645649666   -0.1302793881154986   0.005542507747122543
-0.17154282645649666   -0.1302793881154986   0.005542507747122543
-0.4790740063477581   -0.33395762477316404   -0.05936598764993338
-0.4790740063477581   -0.33395762477316404   -0.05936598764993338
-0.4790740063477581   -0.33395762477316404   -0.05936598764993338
-0.4790740063477581   -0.33395762477316404   -0.05936598764993338
-0.28615572369488185   -0.2034170952352845   0.03527968137435178
-0.28615572369488185   -0.2034170952352845   0.03527968137435178
-0.28615572369488185   -0.2034170952352845   0.03527968137435178
-0.28615572369488185   -0.2034170952352845   0.03527968137435178
-0.12685264450415767   -0.11348890380939901   0.008312822672032216
-0.12685264450415767   -0.11348890380939901   0.008312822672032216
-0.12685264450415767   -0.11348890380939901   0.008312822672032216
-0.12685264450415767   -0.11348890380939901   0.008312822672032216
-0.07811249161805467   -0.07550421406609428   -0.01955601337666977
-0.07811249161805467   -0.07550421406609428   -0.01955601337666977
-0.07811249161805467   -0.07550421406609428   -0.01955601337666977
-0.07811249161805467   -0.07550421406609428   -0.01955601337666977
-0.07553733324359013   -0.10161715905526444   0.008330519538027773
-0.07553733324359013   -0.10161715905526444   0.008330519538027773
-0.07553733324359013   -0.10161715905526444   0.008330519538027773
-0.07553733324359013   -0.10161715905526444   0.008330519538027773
-0.14066347422286535   -0.1029369585577393   -0.008644147792586668
-0.14066347422286535   -0.1029369585577393   -0.008644147792586668
-0.14066347422286535   -0.1029369585577393   -0.008644147792586668
-0.14066347422286535   -0.1029369585577393   -0.008644147792586668
-0.08884751735596169   -0.08293663995031965   0.03693936571902512
-0.08884751735596169   -0.08293663995031965   0.03693936571902512
-0.08884751735596169   -0.08293663995031965   0.03693936571902512
-0.08884751735596169   -0.08293663995031965   0.03693936571902512
-0.13939891226664788   -0.11425603173444174   0.008997735165199066
-0.13939891226664788   -0.11425603173444174   0.008997735165199066
-0.13939891226664788   -0.11425603173444174   0.008997735165199066
-0.13939891226664788   -0.11425603173444174   0.008997735165199066
-0.0780653552593994   -0.09156154593815384   -0.014365203658125332
-0.0780653552593994   -0.09156154593815384   -0.014365203658125332
-0.0780653552593994   -0.09156154593815384   -0.014365203658125332
-0.0780653552593994   -0.09156154593815384   -0.014365203658125332
-0.07650672096466254   -0.10466595229354492   0.007426643745834172
-0.07650672096466254   -0.10466595229354492   0.007426643745834172
-0.07650672096466254   -0.10466595229354492   0.007426643745834172
-0.07650672096466254   -0.10466595229354492   0.007426643745834172
-0.14954961458892924   -0.11998943073339875   0.017705432102305334
-0.14954961458892924   -0.11998943073339875   0.017705432102305334
-0.14954961458892924   -0.11998943073339875   0.017705432102305334
-0.14954961458892924   -0.11998943073339875   0.017705432102305334
-0.09681433545487565   -0.09245350089608244   0.031168401802824514
-0.09681433545487565   -0.09245350089608244   0.031168401802824514
-0.09681433545487565   -0.09245350089608244   0.031168401802824514
-0.09681433545487565   -0.09245350089608244   0.031168401802824514
-0.15036506823308243   -0.11849600322230701   0.012134736370443582
-0.15036506823308243   -0.11849600322230701   0.012134736370443582
-0.15036506823308243   -0.11849600322230701   0.012134736370443582
-0.15036506823308243   -0.11849600322230701   0.012134736370443582
-0.08221523300725048   -0.11268334549137847   -0.013098523269271974
-0.08221523300725048   -0.11268334549137847   -0.013098523269271974
-0.08221523300725048   -0.11268334549137847   -0.013098523269271974
-0.08221523300725048   -0.11268334549137847   -0.013098523269271974
-0.0775929028411455   -0.10803650238901696   0.010452490214025178
-0.0775929028411455   -0.10803650238901696   0.010452490214025178
-0.0775929028411455   -0.10803650238901696   0.010452490214025178
-0.0775929028411455   -0.10803650238901696   0.010452490214025178
-0.17523273122384295   -0.14734782695946225   0.004161422754354813
-0.17523273122384295   -0.14734782695946225   0.004161422754354813
-0.17523273122384295   -0.14734782695946225   0.004161422754354813
-0.17523273122384295   -0.14734782695946225   0.004161422754354813
-0.10831949619538092   -0.10530214589010609   0.014554502419783205
-0.10831949619538092   -0.10530214589010609   0.014554502419783205
-0.10831949619538092   -0.10530214589010609   0.014554502419783205
-0.10831949619538092   -0.10530214589010609   0.014554502419783205
-0.06375410858437318   -0.04523242379606719   0.021964111521710614
-0.06375410858437318   -0.04523242379606719   0.021964111521710614
-0.06375410858437318   -0.04523242379606719   0.021964111521710614
-0.06375410858437318   -0.04523242379606719   0.021964111521710614
-0.04511270345308085   -0.0009272557984563133   -0.004416852421450448
-0.04511270345308085   -0.0009272557984563133   -0.004416852421450448
-0.04511270345308085   -0.0009272557984563133   -0.004416852421450448
-0.04511270345308085   -0.0009272557984563133   -0.004416852421450448
-0.04278340111646927   -0.0489680491665771   0.013607916316577628
-0.04278340111646927   -0.0489680491665771   0.013607916316577628
-0.04278340111646927   -0.0489680491665771   0.013607916316577628
-0.04278340111646927   -0.0489680491665771   0.013607916316577628
-0.059321275314869394   -0.009591185475679477   -0.0026151643979497262
-0.059321275314869394   -0.009591185475679477   -0.0026151643979497262
-0.059321275314869394   -0.009591185475679477   -0.0026151643979497262
-0.059321275314869394   -0.009591185475679477   -0.0026151643979497262
-0.04874787606142991   -0.025092064810076024   0.01089263146408792
-0.04874787606142991   -0.025092064810076024   0.01089263146408792
-0.04874787606142991   -0.025092064810076024   0.01089263146408792
-0.04874787606142991   -0.025092064810076024   0.01089263146408792
-0.06305327643602704   -0.05159739882473971   0.020731043345322317
-0.06305327643602704   -0.05159739882473971   0.020731043345322317
-0.06305327643602704   -0.05159739882473971   0.020731043345322317
-0.06305327643602704   -0.05159739882473971   0.020731043345322317
-0.03796124671473304   -0.005871682536938275   -0.005377678304380068
-0.03796124671473304   -0.005871682536938275   -0.005377678304380068
-0.03796124671473304   -0.005871682536938275   -0.005377678304380068
-0.03796124671473304   -0.005871682536938275   -0.005377678304380068
-0.03931329078826   -0.05327832631703493   0.012566821890048662
-0.03931329078826   -0.05327832631703493   0.012566821890048662
-0.03931329078826   -0.05327832631703493   0.012566821890048662
-0.03931329078826   -0.05327832631703493   0.012566821890048662
-0.05989304469511097   -0.018127079035263362   0.0039561518353104725
-0.05989304469511097   -0.018127079035263362   0.0039561518353104725
-0.05989304469511097   -0.018127079035263362   0.0039561518353104725
-0.05989304469511097   -0.018127079035263362   0.0039561518353104725
-0.04485876628111065   -0.028791124788738402   0.012892917329460837
-0.04485876628111065   -0.028791124788738402   0.012892917329460837
-0.04485876628111065   -0.028791124788738402   0.012892917329460837
-0.04485876628111065   -0.028791124788738402   0.012892917329460837
-0.06349613841606101   -0.0558879494846206   0.023701553679921303
-0.06349613841606101   -0.0558879494846206   0.023701553679921303
-0.06349613841606101   -0.0558879494846206   0.023701553679921303
-0.06349613841606101   -0.0558879494846206   0.023701553679921303
-0.03607902607799014   -0.015886284878357245   -0.008653895997279759
-0.03607902607799014   -0.015886284878357245   -0.008653895997279759
-0.03607902607799014   -0.015886284878357245   -0.008653895997279759
-0.03607902607799014   -0.015886284878357245   -0.008653895997279759
-0.0330564636567697   -0.058056405555049914   0.013829994148178853
-0.0330564636567697   -0.058056405555049914   0.013829994148178853
-0.0330564636567697   -0.058056405555049914   0.013829994148178853
-0.0330564636567697   -0.058056405555049914   0.013829994148178853
-0.0647992955597323   -0.03878109090536092   0.005165115137435179
-0.0647992955597323   -0.03878109090536092   0.005165115137435179
-0.0647992955597323   -0.03878109090536092   0.005165115137435179
-0.0647992955597323   -0.03878109090536092   0.005165115137435179
-0.04331695948838496   -0.03628182643403281   0.011039246139724273
-0.04331695948838496   -0.03628182643403281   0.011039246139724273
-0.04331695948838496   -0.03628182643403281   0.011039246139724273
-0.04331695948838496   -0.03628182643403281   0.011039246139724273
-0.04119132041155072   -0.007880946085944064   0.022143753073687947
-0.04119132041155072   -0.007880946085944064   0.022143753073687947
-0.04119132041155072   -0.007880946085944064   0.022143753073687947
-0.04119132041155072   -0.007880946085944064   0.022143753073687947
-0.0075175011588600625   0.004647274301350507   -0.00044741066788791584
-0.0075175011588600625   0.004647274301350507   -0.00044741066788791584
-0.0075175011588600625   0.004647274301350507   -0.00044741066788791584
-0.0075175011588600625   0.004647274301350507   -0.00044741066788791584
0.0020569605400502272   -0.002541656643260122   0.013732583641715725
0.0020569605400502272   -0.002541656643260122   0.013732583641715725
0.0020569605400502272   -0.002541656643260122   0.013732583641715725
0.0020569605400502272   -0.002541656643260122   0.013732583641715725
-0.03535685999752288   0.003377337762816736   -0.0016047650180842448
-0.03535685999752288   0.003377337762816736   -0.0016047650180842448
-0.03535685999752288   0.003377337762816736   -0.0016047650180842448
-0.03535685999752288   0.003377337762816736   -0.0016047650180842448
-0.020832142614226935   -0.0015981341970852945   -0.001684766362448901
-0.020832142614226935   -0.0015981341970852945   -0.001684766362448901
-0.020832142614226935   -0.0015981341970852945   -0.001684766362448901
-0.020832142614226935   -0.0015981341970852945   -0.001684766362448901
-0.032627755098439765   -0.00761791420939305   0.023036011449541084
-0.032627755098439765   -0.00761791420939305   0.023036011449541084
-0.032627755098439765   -0.00761791420939305   0.023036011449541084
-0.032627755098439765   -0.00761791420939305   0.023036011449541084
0.0005511400808661973   0.009676879768850021   -0.006015055066306896
0.0005511400808661973   0.009676879768850021   -0.006015055066306896
0.0005511400808661973   0.009676879768850021   -0.006015055066306896
0.0005511400808661973   0.009676879768850021   -0.006015055066306896
0.00682537405015455   -0.003144774422152826   0.01693073783616035
0.00682537405015455   -0.003144774422152826   0.01693073783616035
0.00682537405015455   -0.003144774422152826   0.01693073783616035
0.00682537405015455   -0.003144774422152826   0.01693073783616035
-0.031152814125515543   0.0024437784715707605   -0.0023528995848347617
-0.031152814125515543   0.0024437784715707605   -0.0023528995848347617
-0.031152814125515543   0.0024437784715707605   -0.0023528995848347617
-0.031152814125515543   0.0024437784715707605   -0.0023528995848347617
-0.013808389526736471   -0.00043977644190689195   0.0021535677979063307
-0.013808389526736471   -0.00043977644190689195   0.0021535677979063307
-0.013808389526736471   -0.00043977644190689195   0.0021535677979063307
-0.013808389526736471   -0.00043977644190689195   0.0021535677979063307
-0.027924274561201102   -0.00852844697499532   0.024762023683303536
-0.027924274561201102   -0.00852844697499532   0.024762023683303536
-0.027924274561201102   -0.00852844697499532   0.024762023683303536
-0.027924274561201102   -0.00852844697499532   0.024762023683303536
0.004685324107198225   0.008915940645771373   -0.005830226946545473
0.004685324107198225   0.008915940645771373   -0.005830226946545473
0.004685324107198225   0.008915940645771373   -0.005830226946545473
0.004685324107198225   0.008915940645771373   -0.005830226946545473
0.011633269663520603   -0.004967724057084605   0.016464274029181002
0.011633269663520603   -0.004967724057084605   0.016464274029181002
0.011633269663520603   -0.004967724057084605   0.016464274029181002
0.011633269663520603   -0.004967724057084605   0.016464274029181002
-0.024280347914281346   0.002309225578697693   -0.0026550582731270115
-0.024280347914281346   0.002309225578697693   -0.0026550582731270115
-0.024280347914281346   0.002309225578697693   -0.0026550582731270115
-0.024280347914281346   0.002309225578697693   -0.0026550582731270115
-0.007559456589658165   0.00023698352385083767   0.00549798769691808
-0.007559456589658165   0.00023698352385083767   0.00549798769691808
-0.007559456589658165   0.00023698352385083767   0.00549798769691808
-0.007559456589658165   0.00023698352385083767   0.00549798769691808
              </DataArray>   
             <DataArray type="Float64" NumberOfComponents="3" Name="Displacements" format="ascii">   
0.0   0.0   0.0
-0.0037798758972987312   -0.0024833625100026103   -0.0012664316147622077
0.0   0.0   0.0
0.0   0.0   0.0
-0.0037798758972987312   -0.0024833625100026103   -0.0012664316147622077
-0.0024049487773936283   -0.002232328699145564   -0.0009304939640054391
0.0   0.0   0.0
-0.00235721404633665   -0.0023441497855905507   -0.0007796162269431473
0.0   0.0   0.0
0.0   0.0   0.0
-0.00235721404633665   -0.0023441497855905507   -0.0007796162269431473
0.0   0.0   0.0
0.0   0.0   0.0
-0.00235721404633665   -0.0023441497855905507   -0.0007796162269431473
-0.003955605543195987   -0.002645502789677089   -0.001016860044378588
-0.0037798758972987312   -0.0024833625100026103   -0.0012664316147622077
0.0   0.0   0.0
-0.00235721404633665   -0.0023441497855905507   -0.0007796162269431473
-0.0037798758972987312   -0.0024833625100026103   -0.0012664316147622077
0.0   0.0   0.0
0.0   0.0   0.0
-0.003955605543195987   -0.002645502789677089   -0.001016860044378588
0.0   0.0   0.0
0.0   0.0   0.0
-0.003955605543195987   -0.002645502789677089   -0.001016860044378588
-0.00235721404633665   -0.0023441497855905507   -0.0007796162269431473
0.0   0.0   0.0
-0.002363675140608184   -0.0024014760923830097   -0.0006289771087945469
0.0   0.0   0.0
0.0   0.0   0.0
-0.002363675140608184   -0.0024014760923830097   -0.0006289771087945469
0.0   0.0   0.0
0.0   0.0   0.0
-0.002363675140608184   -0.0024014760923830097   -0.0006289771087945469
-0.004078933056799205   -0.002724357546541308   -0.0007777720709804211
-0.003955605543195987   -0.002645502789677089   -0.001016860044378588
0.0   0.0   0.0
-0.002363675140608184   -0.0024014760923830097   -0.0006289771087945469
-0.003955605543195987   -0.002645502789677089   -0.001016860044378588
0.0   0.0   0.0
0.0   0.0   0.0
-0.004078933056799205   -0.002724357546541308   -0.0007777720709804211
0.0   0.0   0.0
0.0   0.0   0.0
-0.004078933056799205   -0.002724357546541308   -0.0007777720709804211
-0.002363675140608184   -0.0024014760923830097   -0.0006289771087945469
0.0   0.0   0.0
-0.0023622223155124506   -0.0024162361022446385   -0.0004732408052082714
0.0   0.0   0.0
0.0   0.0   0.0
-0.0023622223155124506   -0.0024162361022446385   -0.0004732408052082714
0.0   0.0   0.0
0.0   0.0   0.0
-0.0023622223155124506   -0.0024162361022446385   -0.0004732408052082714
-0.00434479974299628   -0.0027841489714486396   -0.0005004222911997502
-0.004078933056799205   -0.002724357546541308   -0.0007777720709804211
0.0   0.0   0.0
-0.0023622223155124506   -0.0024162361022446385   -0.0004732408052082714
-0.004078933056799205   -0.002724357546541308   -0.0007777720709804211
0.0   0.0   0.0
0.0   0.0   0.0
-0.0024049487773936283   -0.002232328699145564   -0.0009304939640054391
0.0   0.0   0.0
0.0   0.0   0.0
-0.0024049487773936283   -0.002232328699145564   -0.0009304939640054391
-0.0010954425443420667   -0.0021402996641440098   -0.0007078329525138644
0.0   0.0   0.0
-0.0010533992093594924   -0.0022130601471177028   -0.0006365825703824972
0.0   0.0   0.0
0.0   0.0   0.0
-0.0010533992093594924   -0.0022130601471177028   -0.0006365825703824972
0.0   0.0   0.0
0.0   0.0   0.0
-0.0010533992093594924   -0.0022130601471177028   -0.0006365825703824972
-0.00235721404633665   -0.0023441497855905507   -0.0007796162269431473
-0.0024049487773936283   -0.002232328699145564   -0.0009304939640054391
0.0   0.0   0.0
-0.0010533992093594924   -0.0022130601471177028   -0.0006365825703824972
-0.0024049487773936283   -0.002232328699145564   -0.0009304939640054391
0.0   0.0   0.0
0.0   0.0   0.0
-0.00235721404633665   -0.0023441497855905507   -0.0007796162269431473
0.0   0.0   0.0
0.0   0.0   0.0
-0.00235721404633665   -0.0023441497855905507   -0.0007796162269431473
-0.0010533992093594924   -0.0022130601471177028   -0.0006365825703824972
0.0   0.0   0.0
-0.0010297100733796564   -0.002240801419563437   -0.0005672138194891915
0.0   0.0   0.0
0.0   0.0   0.0
-0.0010297100733796564   -0.002240801419563437   -0.0005672138194891915
0.0   0.0   0.0
0.0   0.0   0.0
-0.0010297100733796564   -0.002240801419563437   -0.0005672138194891915
-0.002363675140608184   -0.0024014760923830097   -0.0006289771087945469
-0.00235721404633665   -0.0023441497855905507   -0.0007796162269431473
0.0   0.0   0.0
-0.0010297100733796564   -0.002240801419563437   -0.0005672138194891915
-0.00235721404633665   -0.0023441497855905507   -0.0007796162269431473
0.0   0.0   0.0
0.0   0.0   0.0
-0.002363675140608184   -0.0024014760923830097   -0.0006289771087945469
0.0   0.0   0.0
0.0   0.0   0.0
-0.002363675140608184   -0.0024014760923830097   -0.0006289771087945469
-0.0010297100733796564   -0.002240801419563437   -0.0005672138194891915
0.0   0.0   0.0
-0.0010081084232931201   -0.002229245801775667   -0.0004955209859681812
0.0   0.0   0.0
0.0   0.0   0.0
-0.0010081084232931201   -0.002229245801775667   -0.0004955209859681812
0.0   0.0   0.0
0.0   0.0   0.0
-0.0010081084232931201   -0.002229245801775667   -0.0004955209859681812
-0.0023622223155124506   -0.0024162361022446385   -0.0004732408052082714
-0.002363675140608184   -0.0024014760923830097   -0.0006289771087945469
0.0   0.0   0.0
-0.0010081084232931201   -0.002229245801775667   -0.0004955209859681812
-0.002363675140608184   -0.0024014760923830097   -0.0006289771087945469
0.0   0.0   0.0
0.0   0.0   0.0
-0.0010954425443420667   -0.0021402996641440098   -0.0007078329525138644
0.0   0.0   0.0
0.0   0.0   0.0
-0.0010954425443420667   -0.0021402996641440098   -0.0007078329525138644
0.00014163531636426612   -0.0021521202643884777   -0.0005660089706788738
0.0   0.0   0.0
0.0001685580380940758   -0.002189806510957105   -0.0005758139847742566
0.0   0.0   0.0
0.0   0.0   0.0
0.0001685580380940758   -0.002189806510957105   -0.0005758139847742566
0.0   0.0   0.0
0.0   0.0   0.0
0.0001685580380940758   -0.002189806510957105   -0.0005758139847742566
-0.0010533992093594924   -0.0022130601471177028   -0.0006365825703824972
-0.0010954425443420667   -0.0021402996641440098   -0.0007078329525138644
0.0   0.0   0.0
0.0001685580380940758   -0.002189806510957105   -0.0005758139847742566
-0.0010954425443420667   -0.0021402996641440098   -0.0007078329525138644
0.0   0.0   0.0
0.0   0.0   0.0
-0.0010533992093594924   -0.0022130601471177028   -0.0006365825703824972
0.0   0.0   0.0
0.0   0.0   0.0
-0.0010533992093594924   -0.0022130601471177028   -0.0006365825703824972
0.0001685580380940758   -0.002189806510957105   -0.0005758139847742566
0.0   0.0   0.0
0.00018983182917953388   -0.0021866593277172787   -0.0005846888651156568
0.0   0.0   0.0
0.0   0.0   0.0
0.00018983182917953388   -0.0021866593277172787   -0.0005846888651156568
0.0   0.0   0.0
0.0   0.0   0.0
0.00018983182917953388   -0.0021866593277172787   -0.0005846888651156568
-0.0010297100733796564   -0.002240801419563437   -0.0005672138194891915
-0.0010533992093594924   -0.0022130601471177028   -0.0006365825703824972
0.0   0.0   0.0
0.00018983182917953388   -0.0021866593277172787   -0.0005846888651156568
-0.0010533992093594924   -0.0022130601471177028   -0.0006365825703824972
0.0   0.0   0.0
0.0   0.0   0.0
-0.0010297100733796564   -0.002240801419563437   -0.0005672138194891915
0.0   0.0   0.0
0.0   0.0   0.0
-0.0010297100733796564   -0.002240801419563437   -0.0005672138194891915
0.00018983182917953388   -0.0021866593277172787   -0.0005846888651156568
0.0   0.0   0.0
0.00021839385165466817   -0.0021393336651018137   -0.0005938321020109872
0.0   0.0   0.0
0.0   0.0   0.0
0.00021839385165466817   -0.0021393336651018137   -0.0005938321020109872
0.0   0.0   0.0
0.0   0.0   0.0
0.00021839385165466817   -0.0021393336651018137   -0.0005938321020109872
-0.0010081084232931201   -0.002229245801775667   -0.0004955209859681812
-0.0010297100733796564   -0.002240801419563437   -0.0005672138194891915
0.0   0.0   0.0
0.00021839385165466817   -0.0021393336651018137   -0.0005938321020109872
-0.0010297100733796564   -0.002240801419563437   -0.0005672138194891915
0.0   0.0   0.0
0.0   0.0   0.0
0.00014163531636426612   -0.0021521202643884777   -0.0005660089706788738
0.0   0.0   0.0
0.0   0.0   0.0
0.00014163531636426612   -0.0021521202643884777   -0.0005660089706788738
0.0014846234274070544   -0.0022565995528972117   -0.000495954592471304
0.0   0.0   0.0
0.0014874751376260005   -0.0022685384989996433   -0.0005910497334553489
0.0   0.0   0.0
0.0   0.0   0.0
0.0014874751376260005   -0.0022685384989996433   -0.0005910497334553489
0.0   0.0   0.0
0.0   0.0   0.0
0.0014874751376260005   -0.0022685384989996433   -0.0005910497334553489
0.0001685580380940758   -0.002189806510957105   -0.0005758139847742566
0.00014163531636426612   -0.0021521202643884777   -0.0005660089706788738
0.0   0.0   0.0
0.0014874751376260005   -0.0022685384989996433   -0.0005910497334553489
0.00014163531636426612   -0.0021521202643884777   -0.0005660089706788738
0.0   0.0   0.0
0.0   0.0   0.0
0.0001685580380940758   -0.002189806510957105   -0.0005758139847742566
0.0   0.0   0.0
0.0   0.0   0.0
0.0001685580380940758   -0.002189806510957105   -0.0005758139847742566
0.0014874751376260005   -0.0022685384989996433   -0.0005910497334553489
0.0   0.0   0.0
0.0014812870225404209   -0.0022361461431227077   -0.0006823059015554538
0.0   0.0   0.0
0.0   0.0   0.0
0.0014812870225404209   -0.0022361461431227077   -0.0006823059015554538
0.0   0.0   0.0
0.0   0.0   0.0
0.0014812870225404209   -0.0022361461431227077   -0.0006823059015554538
0.00018983182917953388   -0.0021866593277172787   -0.0005846888651156568
0.0001685580380940758   -0.002189806510957105   -0.0005758139847742566
0.0   0.0   0.0
0.0014812870225404209   -0.0022361461431227077   -0.0006823059015554538
0.0001685580380940758   -0.002189806510957105   -0.0005758139847742566
0.0   0.0   0.0
0.0   0.0   0.0
0.00018983182917953388   -0.0021866593277172787   -0.0005846888651156568
0.0   0.0   0.0
0.0   0.0   0.0
0.00018983182917953388   -0.0021866593277172787   -0.0005846888651156568
0.0014812870225404209   -0.0022361461431227077   -0.0006823059015554538
0.0   0.0   0.0
0.0015101504773996207   -0.0021495281720598685   -0.0007718477824496193
0.0   0.0   0.0
0.0   0.0   0.0
0.0015101504773996207   -0.0021495281720598685   -0.0007718477824496193
0.0   0.0   0.0
0.0   0.0   0.0
0.0015101504773996207   -0.0021495281720598685   -0.0007718477824496193
0.00021839385165466817   -0.0021393336651018137   -0.0005938321020109872
0.00018983182917953388   -0.0021866593277172787   -0.0005846888651156568
0.0   0.0   0.0
0.0015101504773996207   -0.0021495281720598685   -0.0007718477824496193
0.00018983182917953388   -0.0021866593277172787   -0.0005846888651156568
0.0   0.0   0.0
0.0   0.0   0.0
0.0014846234274070544   -0.0022565995528972117   -0.000495954592471304
0.0   0.0   0.0
0.0   0.0   0.0
0.0014846234274070544   -0.0022565995528972117   -0.000495954592471304
0.0033528692568300465   -0.0025215395585806897   -0.00046817651210432135
0.0   0.0   0.0
0.0031491604261578666   -0.0024938931644135904   -0.0006838576372667518
0.0   0.0   0.0
0.0   0.0   0.0
0.0031491604261578666   -0.0024938931644135904   -0.0006838576372667518
0.0   0.0   0.0
0.0   0.0   0.0
0.0031491604261578666   -0.0024938931644135904   -0.0006838576372667518
0.0014874751376260005   -0.0022685384989996433   -0.0005910497334553489
0.0014846234274070544   -0.0022565995528972117   -0.000495954592471304
0.0   0.0   0.0
0.0031491604261578666   -0.0024938931644135904   -0.0006838576372667518
0.0014846234274070544   -0.0022565995528972117   -0.000495954592471304
0.0   0.0   0.0
0.0   0.0   0.0
0.0014874751376260005   -0.0022685384989996433   -0.0005910497334553489
0.0   0.0   0.0
0.0   0.0   0.0
0.0014874751376260005   -0.0022685384989996433   -0.0005910497334553489
0.0031491604261578666   -0.0024938931644135904   -0.0006838576372667518
0.0   0.0   0.0
0.003055304583922132   -0.002442045761559085   -0.0008662671540808052
0.0   0.0   0.0
0.0   0.0   0.0
0.003055304583922132   -0.002442045761559085   -0.0008662671540808052
0.0   0.0   0.0
0.0   0.0   0.0
0.003055304583922132   -0.002442045761559085   -0.0008662671540808052
0.0014812870225404209   -0.0022361461431227077   -0.0006823059015554538
0.0014874751376260005   -0.0022685384989996433   -0.0005910497334553489
0.0   0.0   0.0
0.003055304583922132   -0.002442045761559085   -0.0008662671540808052
0.0014874751376260005   -0.0022685384989996433   -0.0005910497334553489
0.0   0.0   0.0
0.0   0.0   0.0
0.0014812870225404209   -0.0022361461431227077   -0.0006823059015554538
0.0   0.0   0.0
0.0   0.0   0.0
0.0014812870225404209   -0.0022361461431227077   -0.0006823059015554538
0.003055304583922132   -0.002442045761559085   -0.0008662671540808052
0.0   0.0   0.0
0.0029154520598214015   -0.002309479424323256   -0.0010593480205538246
0.0   0.0   0.0
0.0   0.0   0.0
0.0029154520598214015   -0.002309479424323256   -0.0010593480205538246
0.0   0.0   0.0
0.0   0.0   0.0
0.0029154520598214015   -0.002309479424323256   -0.0010593480205538246
0.0015101504773996207   -0.0021495281720598685   -0.0007718477824496193
0.0014812870225404209   -0.0022361461431227077   -0.0006823059015554538
0.0   0.0   0.0
0.0029154520598214015   -0.002309479424323256   -0.0010593480205538246
0.0014812870225404209   -0.0022361461431227077   -0.0006823059015554538
0.0   0.0   0.0
-0.0037798758972987312   -0.0024833625100026103   -0.0012664316147622077
-0.007057513419005057   -0.006927205920462042   -0.0017063377310403127
-0.0024049487773936283   -0.002232328699145564   -0.0009304939640054391
-0.003955605543195987   -0.002645502789677089   -0.001016860044378588
-0.007057513419005057   -0.006927205920462042   -0.0017063377310403127
-0.004504423487143287   -0.006701526067467633   -0.0014047718508630705
-0.0024049487773936283   -0.002232328699145564   -0.0009304939640054391
-0.0045094192447149226   -0.0068158859904833835   -0.001265291528354656
-0.003955605543195987   -0.002645502789677089   -0.001016860044378588
-0.00235721404633665   -0.0023441497855905507   -0.0007796162269431473
-0.0045094192447149226   -0.0068158859904833835   -0.001265291528354656
-0.0024049487773936283   -0.002232328699145564   -0.0009304939640054391
-0.003955605543195987   -0.002645502789677089   -0.001016860044378588
-0.0045094192447149226   -0.0068158859904833835   -0.001265291528354656
-0.00726852868196756   -0.007086817308508103   -0.0014798931605888837
-0.007057513419005057   -0.006927205920462042   -0.0017063377310403127
-0.003955605543195987   -0.002645502789677089   -0.001016860044378588
-0.0045094192447149226   -0.0068158859904833835   -0.001265291528354656
-0.007057513419005057   -0.006927205920462042   -0.0017063377310403127
-0.0024049487773936283   -0.002232328699145564   -0.0009304939640054391
-0.003955605543195987   -0.002645502789677089   -0.001016860044378588
-0.00726852868196756   -0.007086817308508103   -0.0014798931605888837
-0.00235721404633665   -0.0023441497855905507   -0.0007796162269431473
-0.004078933056799205   -0.002724357546541308   -0.0007777720709804211
-0.00726852868196756   -0.007086817308508103   -0.0014798931605888837
-0.0045094192447149226   -0.0068158859904833835   -0.001265291528354656
-0.00235721404633665   -0.0023441497855905507   -0.0007796162269431473
-0.004526828929084564   -0.006885630939354402   -0.001131277980644697
-0.004078933056799205   -0.002724357546541308   -0.0007777720709804211
-0.002363675140608184   -0.0024014760923830097   -0.0006289771087945469
-0.004526828929084564   -0.006885630939354402   -0.001131277980644697
-0.00235721404633665   -0.0023441497855905507   -0.0007796162269431473
-0.004078933056799205   -0.002724357546541308   -0.0007777720709804211
-0.004526828929084564   -0.006885630939354402   -0.001131277980644697
-0.007415002937055483   -0.007176987968509781   -0.0012581947075002548
-0.00726852868196756   -0.007086817308508103   -0.0014798931605888837
-0.004078933056799205   -0.002724357546541308   -0.0007777720709804211
-0.004526828929084564   -0.006885630939354402   -0.001131277980644697
-0.00726852868196756   -0.007086817308508103   -0.0014798931605888837
-0.00235721404633665   -0.0023441497855905507   -0.0007796162269431473
-0.004078933056799205   -0.002724357546541308   -0.0007777720709804211
-0.007415002937055483   -0.007176987968509781   -0.0012581947075002548
-0.002363675140608184   -0.0024014760923830097   -0.0006289771087945469
-0.00434479974299628   -0.0027841489714486396   -0.0005004222911997502
-0.007415002937055483   -0.007176987968509781   -0.0012581947075002548
-0.004526828929084564   -0.006885630939354402   -0.001131277980644697
-0.002363675140608184   -0.0024014760923830097   -0.0006289771087945469
-0.00451297896612868   -0.00692187414859366   -0.001005858035180699
-0.00434479974299628   -0.0027841489714486396   -0.0005004222911997502
-0.0023622223155124506   -0.0024162361022446385   -0.0004732408052082714
-0.00451297896612868   -0.00692187414859366   -0.001005858035180699
-0.002363675140608184   -0.0024014760923830097   -0.0006289771087945469
-0.00434479974299628   -0.0027841489714486396   -0.0005004222911997502
-0.00451297896612868   -0.00692187414859366   -0.001005858035180699
-0.00758811474274442   -0.007229507562461988   -0.001056537663314689
-0.007415002937055483   -0.007176987968509781   -0.0012581947075002548
-0.00434479974299628   -0.0027841489714486396   -0.0005004222911997502
-0.00451297896612868   -0.00692187414859366   -0.001005858035180699
-0.007415002937055483   -0.007176987968509781   -0.0012581947075002548
-0.002363675140608184   -0.0024014760923830097   -0.0006289771087945469
-0.0024049487773936283   -0.002232328699145564   -0.0009304939640054391
-0.004504423487143287   -0.006701526067467633   -0.0014047718508630705
-0.0010954425443420667   -0.0021402996641440098   -0.0007078329525138644
-0.00235721404633665   -0.0023441497855905507   -0.0007796162269431473
-0.004504423487143287   -0.006701526067467633   -0.0014047718508630705
-0.0020906043215512867   -0.006596511541946559   -0.0011989452964633648
-0.0010954425443420667   -0.0021402996641440098   -0.0007078329525138644
-0.0020722380401008204   -0.006669261314133705   -0.0011274383035488177
-0.00235721404633665   -0.0023441497855905507   -0.0007796162269431473
-0.0010533992093594924   -0.0022130601471177028   -0.0006365825703824972
-0.0020722380401008204   -0.006669261314133705   -0.0011274383035488177
-0.0010954425443420667   -0.0021402996641440098   -0.0007078329525138644
-0.00235721404633665   -0.0023441497855905507   -0.0007796162269431473
-0.0020722380401008204   -0.006669261314133705   -0.0011274383035488177
-0.0045094192447149226   -0.0068158859904833835   -0.001265291528354656
-0.004504423487143287   -0.006701526067467633   -0.0014047718508630705
-0.00235721404633665   -0.0023441497855905507   -0.0007796162269431473
-0.0020722380401008204   -0.006669261314133705   -0.0011274383035488177
-0.004504423487143287   -0.006701526067467633   -0.0014047718508630705
-0.0010954425443420667   -0.0021402996641440098   -0.0007078329525138644
-0.00235721404633665   -0.0023441497855905507   -0.0007796162269431473
-0.0045094192447149226   -0.0068158859904833835   -0.001265291528354656
-0.0010533992093594924   -0.0022130601471177028   -0.0006365825703824972
-0.002363675140608184   -0.0024014760923830097   -0.0006289771087945469
-0.0045094192447149226   -0.0068158859904833835   -0.001265291528354656
-0.0020722380401008204   -0.006669261314133705   -0.0011274383035488177
-0.0010533992093594924   -0.0022130601471177028   -0.0006365825703824972
-0.002055925385618281   -0.006704556559101374   -0.0010626301851211493
-0.002363675140608184   -0.0024014760923830097   -0.0006289771087945469
-0.0010297100733796564   -0.002240801419563437   -0.0005672138194891915
-0.002055925385618281   -0.006704556559101374   -0.0010626301851211493
-0.0010533992093594924   -0.0022130601471177028   -0.0006365825703824972
-0.002363675140608184   -0.0024014760923830097   -0.0006289771087945469
-0.002055925385618281   -0.006704556559101374   -0.0010626301851211493
-0.004526828929084564   -0.006885630939354402   -0.001131277980644697
-0.0045094192447149226   -0.0068158859904833835   -0.001265291528354656
-0.002363675140608184   -0.0024014760923830097   -0.0006289771087945469
-0.002055925385618281   -0.006704556559101374   -0.0010626301851211493
-0.0045094192447149226   -0.0068158859904833835   -0.001265291528354656
-0.0010533992093594924   -0.0022130601471177028   -0.0006365825703824972
-0.002363675140608184   -0.0024014760923830097   -0.0006289771087945469
-0.004526828929084564   -0.006885630939354402   -0.001131277980644697
-0.0010297100733796564   -0.002240801419563437   -0.0005672138194891915
-0.0023622223155124506   -0.0024162361022446385   -0.0004732408052082714
-0.004526828929084564   -0.006885630939354402   -0.001131277980644697
-0.002055925385618281   -0.006704556559101374   -0.0010626301851211493
-0.0010297100733796564   -0.002240801419563437   -0.0005672138194891915
-0.002031735948410036   -0.006703726873099708   -0.0010062241182080456
-0.0023622223155124506   -0.0024162361022446385   -0.0004732408052082714
-0.0010081084232931201   -0.002229245801775667   -0.0004955209859681812
-0.002031735948410036   -0.006703726873099708   -0.0010062241182080456
-0.0010297100733796564   -0.002240801419563437   -0.0005672138194891915
-0.0023622223155124506   -0.0024162361022446385   -0.0004732408052082714
-0.002031735948410036   -0.006703726873099708   -0.0010062241182080456
-0.00451297896612868   -0.00692187414859366   -0.001005858035180699
-0.004526828929084564   -0.006885630939354402   -0.001131277980644697
-0.0023622223155124506   -0.0024162361022446385   -0.0004732408052082714
-0.002031735948410036   -0.006703726873099708   -0.0010062241182080456
-0.004526828929084564   -0.006885630939354402   -0.001131277980644697
-0.0010297100733796564   -0.002240801419563437   -0.0005672138194891915
-0.0010954425443420667   -0.0021402996641440098   -0.0007078329525138644
-0.0020906043215512867   -0.006596511541946559   -0.0011989452964633648
0.00014163531636426612   -0.0021521202643884777   -0.0005660089706788738
-0.0010533992093594924   -0.0022130601471177028   -0.0006365825703824972
-0.0020906043215512867   -0.006596511541946559   -0.0011989452964633648
0.00023683933462379037   -0.006599658018145194   -0.001068902254121516
0.00014163531636426612   -0.0021521202643884777   -0.0005660089706788738
0.00025935669333193904   -0.006634066501642059   -0.0010641064102929834
-0.0010533992093594924   -0.0022130601471177028   -0.0006365825703824972
0.0001685580380940758   -0.002189806510957105   -0.0005758139847742566
0.00025935669333193904   -0.006634066501642059   -0.0010641064102929834
0.00014163531636426612   -0.0021521202643884777   -0.0005660089706788738
-0.0010533992093594924   -0.0022130601471177028   -0.0006365825703824972
0.00025935669333193904   -0.006634066501642059   -0.0010641064102929834
-0.0020722380401008204   -0.006669261314133705   -0.0011274383035488177
-0.0020906043215512867   -0.006596511541946559   -0.0011989452964633648
-0.0010533992093594924   -0.0022130601471177028   -0.0006365825703824972
0.00025935669333193904   -0.006634066501642059   -0.0010641064102929834
-0.0020906043215512867   -0.006596511541946559   -0.0011989452964633648
0.00014163531636426612   -0.0021521202643884777   -0.0005660089706788738
-0.0010533992093594924   -0.0022130601471177028   -0.0006365825703824972
-0.0020722380401008204   -0.006669261314133705   -0.0011274383035488177
0.0001685580380940758   -0.002189806510957105   -0.0005758139847742566
-0.0010297100733796564   -0.002240801419563437   -0.0005672138194891915
-0.0020722380401008204   -0.006669261314133705   -0.0011274383035488177
0.00025935669333193904   -0.006634066501642059   -0.0010641064102929834
0.0001685580380940758   -0.002189806510957105   -0.0005758139847742566
0.0002746123339152149   -0.006631897309045345   -0.0010669124251545688
-0.0010297100733796564   -0.002240801419563437   -0.0005672138194891915
0.00018983182917953388   -0.0021866593277172787   -0.0005846888651156568
0.0002746123339152149   -0.006631897309045345   -0.0010669124251545688
0.0001685580380940758   -0.002189806510957105   -0.0005758139847742566
-0.0010297100733796564   -0.002240801419563437   -0.0005672138194891915
0.0002746123339152149   -0.006631897309045345   -0.0010669124251545688
-0.002055925385618281   -0.006704556559101374   -0.0010626301851211493
-0.0020722380401008204   -0.006669261314133705   -0.0011274383035488177
-0.0010297100733796564   -0.002240801419563437   -0.0005672138194891915
0.0002746123339152149   -0.006631897309045345   -0.0010669124251545688
-0.0020722380401008204   -0.006669261314133705   -0.0011274383035488177
0.0001685580380940758   -0.002189806510957105   -0.0005758139847742566
-0.0010297100733796564   -0.002240801419563437   -0.0005672138194891915
-0.002055925385618281   -0.006704556559101374   -0.0010626301851211493
0.00018983182917953388   -0.0021866593277172787   -0.0005846888651156568
-0.0010081084232931201   -0.002229245801775667   -0.0004955209859681812
-0.002055925385618281   -0.006704556559101374   -0.0010626301851211493
0.0002746123339152149   -0.006631897309045345   -0.0010669124251545688
0.00018983182917953388   -0.0021866593277172787   -0.0005846888651156568
0.0002909547776459757   -0.006592035871228133   -0.0010774400849740526
-0.0010081084232931201   -0.002229245801775667   -0.0004955209859681812
0.00021839385165466817   -0.0021393336651018137   -0.0005938321020109872
0.0002909547776459757   -0.006592035871228133   -0.0010774400849740526
0.00018983182917953388   -0.0021866593277172787   -0.0005846888651156568
-0.0010081084232931201   -0.002229245801775667   -0.0004955209859681812
0.0002909547776459757   -0.006592035871228133   -0.0010774400849740526
-0.002031735948410036   -0.006703726873099708   -0.0010062241182080456
-0.002055925385618281   -0.006704556559101374   -0.0010626301851211493
-0.0010081084232931201   -0.002229245801775667   -0.0004955209859681812
0.0002909547776459757   -0.006592035871228133   -0.0010774400849740526
-0.002055925385618281   -0.006704556559101374   -0.0010626301851211493
0.00018983182917953388   -0.0021866593277172787   -0.0005846888651156568
0.00014163531636426612   -0.0021521202643884777   -0.0005660089706788738
0.00023683933462379037   -0.006599658018145194   -0.001068902254121516
0.0014846234274070544   -0.0022565995528972117   -0.000495954592471304
0.0001685580380940758   -0.002189806510957105   -0.0005758139847742566
0.00023683933462379037   -0.006599658018145194   -0.001068902254121516
0.0027034613445135014   -0.006707067783947784   -0.0010083798778216394
0.0014846234274070544   -0.0022565995528972117   -0.000495954592471304
0.0027164015643058297   -0.00670662590549269   -0.0010724562170412253
0.0001685580380940758   -0.002189806510957105   -0.0005758139847742566
0.0014874751376260005   -0.0022685384989996433   -0.0005910497334553489
0.0027164015643058297   -0.00670662590549269   -0.0010724562170412253
0.0014846234274070544   -0.0022565995528972117   -0.000495954592471304
0.0001685580380940758   -0.002189806510957105   -0.0005758139847742566
0.0027164015643058297   -0.00670662590549269   -0.0010724562170412253
0.00025935669333193904   -0.006634066501642059   -0.0010641064102929834
0.00023683933462379037   -0.006599658018145194   -0.001068902254121516
0.0001685580380940758   -0.002189806510957105   -0.0005758139847742566
0.0027164015643058297   -0.00670662590549269   -0.0010724562170412253
0.00023683933462379037   -0.006599658018145194   -0.001068902254121516
0.0014846234274070544   -0.0022565995528972117   -0.000495954592471304
0.0001685580380940758   -0.002189806510957105   -0.0005758139847742566
0.00025935669333193904   -0.006634066501642059   -0.0010641064102929834
0.0014874751376260005   -0.0022685384989996433   -0.0005910497334553489
0.00018983182917953388   -0.0021866593277172787   -0.0005846888651156568
0.00025935669333193904   -0.006634066501642059   -0.0010641064102929834
0.0027164015643058297   -0.00670662590549269   -0.0010724562170412253
0.0014874751376260005   -0.0022685384989996433   -0.0005910497334553489
0.0027042410412426816   -0.006670327507941405   -0.0011451329389527498
0.00018983182917953388   -0.0021866593277172787   -0.0005846888651156568
0.0014812870225404209   -0.0022361461431227077   -0.0006823059015554538
0.0027042410412426816   -0.006670327507941405   -0.0011451329389527498
0.0014874751376260005   -0.0022685384989996433   -0.0005910497334553489
0.00018983182917953388   -0.0021866593277172787   -0.0005846888651156568
0.0027042410412426816   -0.006670327507941405   -0.0011451329389527498
0.0002746123339152149   -0.006631897309045345   -0.0010669124251545688
0.00025935669333193904   -0.006634066501642059   -0.0010641064102929834
0.00018983182917953388   -0.0021866593277172787   -0.0005846888651156568
0.0027042410412426816   -0.006670327507941405   -0.0011451329389527498
0.00025935669333193904   -0.006634066501642059   -0.0010641064102929834
0.0014874751376260005   -0.0022685384989996433   -0.0005910497334553489
0.00018983182917953388   -0.0021866593277172787   -0.0005846888651156568
0.0002746123339152149   -0.006631897309045345   -0.0010669124251545688
0.0014812870225404209   -0.0022361461431227077   -0.0006823059015554538
0.00021839385165466817   -0.0021393336651018137   -0.0005938321020109872
0.0002746123339152149   -0.006631897309045345   -0.0010669124251545688
0.0027042410412426816   -0.006670327507941405   -0.0011451329389527498
0.0014812870225404209   -0.0022361461431227077   -0.0006823059015554538
0.002697414464276252   -0.006588262992074739   -0.0012237197825569026
0.00021839385165466817   -0.0021393336651018137   -0.0005938321020109872
0.0015101504773996207   -0.0021495281720598685   -0.0007718477824496193
0.002697414464276252   -0.006588262992074739   -0.0012237197825569026
0.0014812870225404209   -0.0022361461431227077   -0.0006823059015554538
0.00021839385165466817   -0.0021393336651018137   -0.0005938321020109872
0.002697414464276252   -0.006588262992074739   -0.0012237197825569026
0.0002909547776459757   -0.006592035871228133   -0.0010774400849740526
0.0002746123339152149   -0.006631897309045345   -0.0010669124251545688
0.00021839385165466817   -0.0021393336651018137   -0.0005938321020109872
0.002697414464276252   -0.006588262992074739   -0.0012237197825569026
0.0002746123339152149   -0.006631897309045345   -0.0010669124251545688
0.0014812870225404209   -0.0022361461431227077   -0.0006823059015554538
0.0014846234274070544   -0.0022565995528972117   -0.000495954592471304
0.0027034613445135014   -0.006707067783947784   -0.0010083798778216394
0.0033528692568300465   -0.0025215395585806897   -0.00046817651210432135
0.0014874751376260005   -0.0022685384989996433   -0.0005910497334553489
0.0027034613445135014   -0.006707067783947784   -0.0010083798778216394
0.005680479807617392   -0.006906646417442731   -0.0009923927261945786
0.0033528692568300465   -0.0025215395585806897   -0.00046817651210432135
0.00556550222072   -0.006887624191709809   -0.0011366016069919796
0.0014874751376260005   -0.0022685384989996433   -0.0005910497334553489
0.0031491604261578666   -0.0024938931644135904   -0.0006838576372667518
0.00556550222072   -0.006887624191709809   -0.0011366016069919796
0.0033528692568300465   -0.0025215395585806897   -0.00046817651210432135
0.0014874751376260005   -0.0022685384989996433   -0.0005910497334553489
0.00556550222072   -0.006887624191709809   -0.0011366016069919796
0.0027164015643058297   -0.00670662590549269   -0.0010724562170412253
0.0027034613445135014   -0.006707067783947784   -0.0010083798778216394
0.0014874751376260005   -0.0022685384989996433   -0.0005910497334553489
0.00556550222072   -0.006887624191709809   -0.0011366016069919796
0.0027034613445135014   -0.006707067783947784   -0.0010083798778216394
0.0033528692568300465   -0.0025215395585806897   -0.00046817651210432135
0.0014874751376260005   -0.0022685384989996433   -0.0005910497334553489
0.0027164015643058297   -0.00670662590549269   -0.0010724562170412253
0.0031491604261578666   -0.0024938931644135904   -0.0006838576372667518
0.0014812870225404209   -0.0022361461431227077   -0.0006823059015554538
0.0027164015643058297   -0.00670662590549269   -0.0010724562170412253
0.00556550222072   -0.006887624191709809   -0.0011366016069919796
0.0031491604261578666   -0.0024938931644135904   -0.0006838576372667518
0.005462698434641939   -0.006831686931587987   -0.0012989015183905526
0.0014812870225404209   -0.0022361461431227077   -0.0006823059015554538
0.003055304583922132   -0.002442045761559085   -0.0008662671540808052
0.005462698434641939   -0.006831686931587987   -0.0012989015183905526
0.0031491604261578666   -0.0024938931644135904   -0.0006838576372667518
0.0014812870225404209   -0.0022361461431227077   -0.0006823059015554538
0.005462698434641939   -0.006831686931587987   -0.0012989015183905526
0.0027042410412426816   -0.006670327507941405   -0.0011451329389527498
0.0027164015643058297   -0.00670662590549269   -0.0010724562170412253
0.0014812870225404209   -0.0022361461431227077   -0.0006823059015554538
0.005462698434641939   -0.006831686931587987   -0.0012989015183905526
0.0027164015643058297   -0.00670662590549269   -0.0010724562170412253
0.0031491604261578666   -0.0024938931644135904   -0.0006838576372667518
0.0014812870225404209   -0.0022361461431227077   -0.0006823059015554538
0.0027042410412426816   -0.006670327507941405   -0.0011451329389527498
0.003055304583922132   -0.002442045761559085   -0.0008662671540808052
0.0015101504773996207   -0.0021495281720598685   -0.0007718477824496193
0.0027042410412426816   -0.006670327507941405   -0.0011451329389527498
0.005462698434641939   -0.006831686931587987   -0.0012989015183905526
0.003055304583922132   -0.002442045761559085   -0.0008662671540808052
0.0053083997417858915   -0.006707365719409463   -0.0014678911324070962
0.0015101504773996207   -0.0021495281720598685   -0.0007718477824496193
0.0029154520598214015   -0.002309479424323256   -0.0010593480205538246
0.0053083997417858915   -0.006707365719409463   -0.0014678911324070962
0.003055304583922132   -0.002442045761559085   -0.0008662671540808052
0.0015101504773996207   -0.0021495281720598685   -0.0007718477824496193
0.0053083997417858915   -0.006707365719409463   -0.0014678911324070962
0.002697414464276252   -0.006588262992074739   -0.0012237197825569026
0.0027042410412426816   -0.006670327507941405   -0.0011451329389527498
0.0015101504773996207   -0.0021495281720598685   -0.0007718477824496193
0.0053083997417858915   -0.006707365719409463   -0.0014678911324070962
0.0027042410412426816   -0.006670327507941405   -0.0011451329389527498
0.003055304583922132   -0.002442045761559085   -0.0008662671540808052
-0.007057513419005057   -0.006927205920462042   -0.0017063377310403127
-0.009666851153792795   -0.012984610765050773   -0.0019438876430775843
-0.004504423487143287   -0.006701526067467633   -0.0014047718508630705
-0.00726852868196756   -0.007086817308508103   -0.0014798931605888837
-0.009666851153792795   -0.012984610765050773   -0.0019438876430775843
-0.0062154685908337465   -0.012812251993396756   -0.0016994962745163484
-0.004504423487143287   -0.006701526067467633   -0.0014047718508630705
-0.006228687637097735   -0.012910890293042767   -0.0015913455511356754
-0.00726852868196756   -0.007086817308508103   -0.0014798931605888837
-0.0045094192447149226   -0.0068158859904833835   -0.001265291528354656
-0.006228687637097735   -0.012910890293042767   -0.0015913455511356754
-0.004504423487143287   -0.006701526067467633   -0.0014047718508630705
-0.00726852868196756   -0.007086817308508103   -0.0014798931605888837
-0.006228687637097735   -0.012910890293042767   -0.0015913455511356754
-0.009838185944560322   -0.01311944018564316   -0.0017751577972796896
-0.009666851153792795   -0.012984610765050773   -0.0019438876430775843
-0.00726852868196756   -0.007086817308508103   -0.0014798931605888837
-0.006228687637097735   -0.012910890293042767   -0.0015913455511356754
-0.009666851153792795   -0.012984610765050773   -0.0019438876430775843
-0.004504423487143287   -0.006701526067467633   -0.0014047718508630705
-0.00726852868196756   -0.007086817308508103   -0.0014798931605888837
-0.009838185944560322   -0.01311944018564316   -0.0017751577972796896
-0.0045094192447149226   -0.0068158859904833835   -0.001265291528354656
-0.007415002937055483   -0.007176987968509781   -0.0012581947075002548
-0.009838185944560322   -0.01311944018564316   -0.0017751577972796896
-0.006228687637097735   -0.012910890293042767   -0.0015913455511356754
-0.0045094192447149226   -0.0068158859904833835   -0.001265291528354656
-0.0062443039611855215   -0.012979571326757285   -0.0014910367682296215
-0.007415002937055483   -0.007176987968509781   -0.0012581947075002548
-0.004526828929084564   -0.006885630939354402   -0.001131277980644697
-0.0062443039611855215   -0.012979571326757285   -0.0014910367682296215
-0.0045094192447149226   -0.0068158859904833835   -0.001265291528354656
-0.007415002937055483   -0.007176987968509781   -0.0012581947075002548
-0.0062443039611855215   -0.012979571326757285   -0.0014910367682296215
-0.009946009922522016   -0.013204030044106458   -0.0016179216575970547
-0.009838185944560322   -0.01311944018564316   -0.0017751577972796896
-0.007415002937055483   -0.007176987968509781   -0.0012581947075002548
-0.0062443039611855215   -0.012979571326757285   -0.0014910367682296215
-0.009838185944560322   -0.01311944018564316   -0.0017751577972796896
-0.0045094192447149226   -0.0068158859904833835   -0.001265291528354656
-0.007415002937055483   -0.007176987968509781   -0.0012581947075002548
-0.009946009922522016   -0.013204030044106458   -0.0016179216575970547
-0.004526828929084564   -0.006885630939354402   -0.001131277980644697
-0.00758811474274442   -0.007229507562461988   -0.001056537663314689
-0.009946009922522016   -0.013204030044106458   -0.0016179216575970547
-0.0062443039611855215   -0.012979571326757285   -0.0014910367682296215
-0.004526828929084564   -0.006885630939354402   -0.001131277980644697
-0.006232166278527393   -0.013024814522644784   -0.0013968982112956222
-0.00758811474274442   -0.007229507562461988   -0.001056537663314689
-0.00451297896612868   -0.00692187414859366   -0.001005858035180699
-0.006232166278527393   -0.013024814522644784   -0.0013968982112956222
-0.004526828929084564   -0.006885630939354402   -0.001131277980644697
-0.00758811474274442   -0.007229507562461988   -0.001056537663314689
-0.006232166278527393   -0.013024814522644784   -0.0013968982112956222
-0.010068691429450504   -0.013264958564427382   -0.0014732544609054328
-0.009946009922522016   -0.013204030044106458   -0.0016179216575970547
-0.00758811474274442   -0.007229507562461988   -0.001056537663314689
-0.006232166278527393   -0.013024814522644784   -0.0013968982112956222
-0.009946009922522016   -0.013204030044106458   -0.0016179216575970547
-0.004526828929084564   -0.006885630939354402   -0.001131277980644697
-0.004504423487143287   -0.006701526067467633   -0.0014047718508630705
-0.0062154685908337465   -0.012812251993396756   -0.0016994962745163484
-0.0020906043215512867   -0.006596511541946559   -0.0011989452964633648
-0.0045094192447149226   -0.0068158859904833835   -0.001265291528354656
-0.0062154685908337465   -0.012812251993396756   -0.0016994962745163484
-0.0029618842273287714   -0.012726277011739234   -0.0015297238130576039
-0.0020906043215512867   -0.006596511541946559   -0.0011989452964633648
-0.0029540623830565183   -0.012789314898438663   -0.0014685603988056973
-0.0045094192447149226   -0.0068158859904833835   -0.001265291528354656
-0.0020722380401008204   -0.006669261314133705   -0.0011274383035488177
-0.0029540623830565183   -0.012789314898438663   -0.0014685603988056973
-0.0020906043215512867   -0.006596511541946559   -0.0011989452964633648
-0.0045094192447149226   -0.0068158859904833835   -0.001265291528354656
-0.0029540623830565183   -0.012789314898438663   -0.0014685603988056973
-0.006228687637097735   -0.012910890293042767   -0.0015913455511356754
-0.0062154685908337465   -0.012812251993396756   -0.0016994962745163484
-0.0045094192447149226   -0.0068158859904833835   -0.001265291528354656
-0.0029540623830565183   -0.012789314898438663   -0.0014685603988056973
-0.0062154685908337465   -0.012812251993396756   -0.0016994962745163484
-0.0020906043215512867   -0.006596511541946559   -0.0011989452964633648
-0.0045094192447149226   -0.0068158859904833835   -0.001265291528354656
-0.006228687637097735   -0.012910890293042767   -0.0015913455511356754
-0.0020722380401008204   -0.006669261314133705   -0.0011274383035488177
-0.004526828929084564   -0.006885630939354402   -0.001131277980644697
-0.006228687637097735   -0.012910890293042767   -0.0015913455511356754
-0.0029540623830565183   -0.012789314898438663   -0.0014685603988056973
-0.0020722380401008204   -0.006669261314133705   -0.0011274383035488177
-0.0029445745135788363   -0.012826357775239312   -0.00141486170634413
-0.004526828929084564   -0.006885630939354402   -0.001131277980644697
-0.002055925385618281   -0.006704556559101374   -0.0010626301851211493
-0.0029445745135788363   -0.012826357775239312   -0.00141486170634413
-0.0020722380401008204   -0.006669261314133705   -0.0011274383035488177
-0.004526828929084564   -0.006885630939354402   -0.001131277980644697
-0.0029445745135788363   -0.012826357775239312   -0.00141486170634413
-0.0062443039611855215   -0.012979571326757285   -0.0014910367682296215
-0.006228687637097735   -0.012910890293042767   -0.0015913455511356754
-0.004526828929084564   -0.006885630939354402   -0.001131277980644697
-0.0029445745135788363   -0.012826357775239312   -0.00141486170634413
-0.006228687637097735   -0.012910890293042767   -0.0015913455511356754
-0.0020722380401008204   -0.006669261314133705   -0.0011274383035488177
-0.004526828929084564   -0.006885630939354402   -0.001131277980644697
-0.0062443039611855215   -0.012979571326757285   -0.0014910367682296215
-0.002055925385618281   -0.006704556559101374   -0.0010626301851211493
-0.00451297896612868   -0.00692187414859366   -0.001005858035180699
-0.0062443039611855215   -0.012979571326757285   -0.0014910367682296215
-0.0029445745135788363   -0.012826357775239312   -0.00141486170634413
-0.002055925385618281   -0.006704556559101374   -0.0010626301851211493
-0.0029292303308391127   -0.012837935115905206   -0.001368606718354142
-0.00451297896612868   -0.00692187414859366   -0.001005858035180699
-0.002031735948410036   -0.006703726873099708   -0.0010062241182080456
-0.0029292303308391127   -0.012837935115905206   -0.001368606718354142
-0.002055925385618281   -0.006704556559101374   -0.0010626301851211493
-0.00451297896612868   -0.00692187414859366   -0.001005858035180699
-0.0029292303308391127   -0.012837935115905206   -0.001368606718354142
-0.006232166278527393   -0.013024814522644784   -0.0013968982112956222
-0.0062443039611855215   -0.012979571326757285   -0.0014910367682296215
-0.00451297896612868   -0.00692187414859366   -0.001005858035180699
-0.0029292303308391127   -0.012837935115905206   -0.001368606718354142
-0.0062443039611855215   -0.012979571326757285   -0.0014910367682296215
-0.002055925385618281   -0.006704556559101374   -0.0010626301851211493
-0.0020906043215512867   -0.006596511541946559   -0.0011989452964633648
-0.0029618842273287714   -0.012726277011739234   -0.0015297238130576039
0.00023683933462379037   -0.006599658018145194   -0.001068902254121516
-0.0020722380401008204   -0.006669261314133705   -0.0011274383035488177
-0.0029618842273287714   -0.012726277011739234   -0.0015297238130576039
0.00019597098150242733   -0.012721693497565585   -0.0014245572322602906
0.00023683933462379037   -0.006599658018145194   -0.001068902254121516
0.00021003262318956215   -0.0127496786028082   -0.0014101320741274697
-0.0020722380401008204   -0.006669261314133705   -0.0011274383035488177
0.00025935669333193904   -0.006634066501642059   -0.0010641064102929834
0.00021003262318956215   -0.0127496786028082   -0.0014101320741274697
0.00023683933462379037   -0.006599658018145194   -0.001068902254121516
-0.0020722380401008204   -0.006669261314133705   -0.0011274383035488177
0.00021003262318956215   -0.0127496786028082   -0.0014101320741274697
-0.0029540623830565183   -0.012789314898438663   -0.0014685603988056973
-0.0029618842273287714   -0.012726277011739234   -0.0015297238130576039
-0.0020722380401008204   -0.006669261314133705   -0.0011274383035488177
0.00021003262318956215   -0.0127496786028082   -0.0014101320741274697
-0.0029618842273287714   -0.012726277011739234   -0.0015297238130576039
0.00023683933462379037   -0.006599658018145194   -0.001068902254121516
-0.0020722380401008204   -0.006669261314133705   -0.0011274383035488177
-0.0029540623830565183   -0.012789314898438663   -0.0014685603988056973
0.00025935669333193904   -0.006634066501642059   -0.0010641064102929834
-0.002055925385618281   -0.006704556559101374   -0.0010626301851211493
-0.0029540623830565183   -0.012789314898438663   -0.0014685603988056973
0.00021003262318956215   -0.0127496786028082   -0.0014101320741274697
0.00025935669333193904   -0.006634066501642059   -0.0010641064102929834
0.00021919147739338788   -0.012751772203807058   -0.001402978061938121
-0.002055925385618281   -0.006704556559101374   -0.0010626301851211493
0.0002746123339152149   -0.006631897309045345   -0.0010669124251545688
0.00021919147739338788   -0.012751772203807058   -0.001402978061938121
0.00025935669333193904   -0.006634066501642059   -0.0010641064102929834
-0.002055925385618281   -0.006704556559101374   -0.0010626301851211493
0.00021919147739338788   -0.012751772203807058   -0.001402978061938121
-0.0029445745135788363   -0.012826357775239312   -0.00141486170634413
-0.0029540623830565183   -0.012789314898438663   -0.0014685603988056973
-0.002055925385618281   -0.006704556559101374   -0.0010626301851211493
0.00021919147739338788   -0.012751772203807058   -0.001402978061938121
-0.0029540623830565183   -0.012789314898438663   -0.0014685603988056973
0.00025935669333193904   -0.006634066501642059   -0.0010641064102929834
-0.002055925385618281   -0.006704556559101374   -0.0010626301851211493
-0.0029445745135788363   -0.012826357775239312   -0.00141486170634413
0.0002746123339152149   -0.006631897309045345   -0.0010669124251545688
-0.002031735948410036   -0.006703726873099708   -0.0010062241182080456
-0.0029445745135788363   -0.012826357775239312   -0.00141486170634413
0.00021919147739338788   -0.012751772203807058   -0.001402978061938121
0.0002746123339152149   -0.006631897309045345   -0.0010669124251545688
0.00022593304171394701   -0.012727588849158263   -0.0014035354886403153
-0.002031735948410036   -0.006703726873099708   -0.0010062241182080456
0.0002909547776459757   -0.006592035871228133   -0.0010774400849740526
0.00022593304171394701   -0.012727588849158263   -0.0014035354886403153
0.0002746123339152149   -0.006631897309045345   -0.0010669124251545688
-0.002031735948410036   -0.006703726873099708   -0.0010062241182080456
0.00022593304171394701   -0.012727588849158263   -0.0014035354886403153
-0.0029292303308391127   -0.012837935115905206   -0.001368606718354142
-0.0029445745135788363   -0.012826357775239312   -0.00141486170634413
-0.002031735948410036   -0.006703726873099708   -0.0010062241182080456
0.00022593304171394701   -0.012727588849158263   -0.0014035354886403153
-0.0029445745135788363   -0.012826357775239312   -0.00141486170634413
0.0002746123339152149   -0.006631897309045345   -0.0010669124251545688
0.00023683933462379037   -0.006599658018145194   -0.001068902254121516
0.00019597098150242733   -0.012721693497565585   -0.0014245572322602906
0.0027034613445135014   -0.006707067783947784   -0.0010083798778216394
0.00025935669333193904   -0.006634066501642059   -0.0010641064102929834
0.00019597098150242733   -0.012721693497565585   -0.0014245572322602906
0.003488721683164507   -0.01279365964368412   -0.0013822119516389286
0.0027034613445135014   -0.006707067783947784   -0.0010083798778216394
0.0035010970590961857   -0.012789500894575954   -0.0014154922837465568
0.00025935669333193904   -0.006634066501642059   -0.0010641064102929834
0.0027164015643058297   -0.00670662590549269   -0.0010724562170412253
0.0035010970590961857   -0.012789500894575954   -0.0014154922837465568
0.0027034613445135014   -0.006707067783947784   -0.0010083798778216394
0.00025935669333193904   -0.006634066501642059   -0.0010641064102929834
0.0035010970590961857   -0.012789500894575954   -0.0014154922837465568
0.00021003262318956215   -0.0127496786028082   -0.0014101320741274697
0.00019597098150242733   -0.012721693497565585   -0.0014245572322602906
0.00025935669333193904   -0.006634066501642059   -0.0010641064102929834
0.0035010970590961857   -0.012789500894575954   -0.0014154922837465568
0.00019597098150242733   -0.012721693497565585   -0.0014245572322602906
0.0027034613445135014   -0.006707067783947784   -0.0010083798778216394
0.00025935669333193904   -0.006634066501642059   -0.0010641064102929834
0.00021003262318956215   -0.0127496786028082   -0.0014101320741274697
0.0027164015643058297   -0.00670662590549269   -0.0010724562170412253
0.0002746123339152149   -0.006631897309045345   -0.0010669124251545688
0.00021003262318956215   -0.0127496786028082   -0.0014101320741274697
0.0035010970590961857   -0.012789500894575954   -0.0014154922837465568
0.0027164015643058297   -0.00670662590549269   -0.0010724562170412253
0.0034927055785130942   -0.012760020651108307   -0.0014555094879834375
0.0002746123339152149   -0.006631897309045345   -0.0010669124251545688
0.0027042410412426816   -0.006670327507941405   -0.0011451329389527498
0.0034927055785130942   -0.012760020651108307   -0.0014555094879834375
0.0027164015643058297   -0.00670662590549269   -0.0010724562170412253
0.0002746123339152149   -0.006631897309045345   -0.0010669124251545688
0.0034927055785130942   -0.012760020651108307   -0.0014555094879834375
0.00021919147739338788   -0.012751772203807058   -0.001402978061938121
0.00021003262318956215   -0.0127496786028082   -0.0014101320741274697
0.0002746123339152149   -0.006631897309045345   -0.0010669124251545688
0.0034927055785130942   -0.012760020651108307   -0.0014555094879834375
0.00021003262318956215   -0.0127496786028082   -0.0014101320741274697
0.0027164015643058297   -0.00670662590549269   -0.0010724562170412253
0.0002746123339152149   -0.006631897309045345   -0.0010669124251545688
0.00021919147739338788   -0.012751772203807058   -0.001402978061938121
0.0027042410412426816   -0.006670327507941405   -0.0011451329389527498
0.0002909547776459757   -0.006592035871228133   -0.0010774400849740526
0.00021919147739338788   -0.012751772203807058   -0.001402978061938121
0.0034927055785130942   -0.012760020651108307   -0.0014555094879834375
0.0027042410412426816   -0.006670327507941405   -0.0011451329389527498
0.00347986892355896   -0.012698932480048235   -0.0015030630123212406
0.0002909547776459757   -0.006592035871228133   -0.0010774400849740526
0.002697414464276252   -0.006588262992074739   -0.0012237197825569026
0.00347986892355896   -0.012698932480048235   -0.0015030630123212406
0.0027042410412426816   -0.006670327507941405   -0.0011451329389527498
0.0002909547776459757   -0.006592035871228133   -0.0010774400849740526
0.00347986892355896   -0.012698932480048235   -0.0015030630123212406
0.00022593304171394701   -0.012727588849158263   -0.0014035354886403153
0.00021919147739338788   -0.012751772203807058   -0.001402978061938121
0.0002909547776459757   -0.006592035871228133   -0.0010774400849740526
0.00347986892355896   -0.012698932480048235   -0.0015030630123212406
0.00021919147739338788   -0.012751772203807058   -0.001402978061938121
0.0027042410412426816   -0.006670327507941405   -0.0011451329389527498
0.0027034613445135014   -0.006707067783947784   -0.0010083798778216394
0.003488721683164507   -0.01279365964368412   -0.0013822119516389286
0.005680479807617392   -0.006906646417442731   -0.0009923927261945786
0.0027164015643058297   -0.00670662590549269   -0.0010724562170412253
0.003488721683164507   -0.01279365964368412   -0.0013822119516389286
0.007238918687594657   -0.01292409504232997   -0.0013834282402441413
0.005680479807617392   -0.006906646417442731   -0.0009923927261945786
0.0071766633652383845   -0.012901391532668989   -0.00147050598270378
0.0027164015643058297   -0.00670662590549269   -0.0010724562170412253
0.00556550222072   -0.006887624191709809   -0.0011366016069919796
0.0071766633652383845   -0.012901391532668989   -0.00147050598270378
0.005680479807617392   -0.006906646417442731   -0.0009923927261945786
0.0027164015643058297   -0.00670662590549269   -0.0010724562170412253
0.0071766633652383845   -0.012901391532668989   -0.00147050598270378
0.0035010970590961857   -0.012789500894575954   -0.0014154922837465568
0.003488721683164507   -0.01279365964368412   -0.0013822119516389286
0.0027164015643058297   -0.00670662590549269   -0.0010724562170412253
0.0071766633652383845   -0.012901391532668989   -0.00147050598270378
0.003488721683164507   -0.01279365964368412   -0.0013822119516389286
0.005680479807617392   -0.006906646417442731   -0.0009923927261945786
0.0027164015643058297   -0.00670662590549269   -0.0010724562170412253
0.0035010970590961857   -0.012789500894575954   -0.0014154922837465568
0.00556550222072   -0.006887624191709809   -0.0011366016069919796
0.0027042410412426816   -0.006670327507941405   -0.0011451329389527498
0.0035010970590961857   -0.012789500894575954   -0.0014154922837465568
0.0071766633652383845   -0.012901391532668989   -0.00147050598270378
0.00556550222072   -0.006887624191709809   -0.0011366016069919796
0.00711441859740661   -0.012856031589736439   -0.001569732371825507
0.0027042410412426816   -0.006670327507941405   -0.0011451329389527498
0.005462698434641939   -0.006831686931587987   -0.0012989015183905526
0.00711441859740661   -0.012856031589736439   -0.001569732371825507
0.00556550222072   -0.006887624191709809   -0.0011366016069919796
0.0027042410412426816   -0.006670327507941405   -0.0011451329389527498
0.00711441859740661   -0.012856031589736439   -0.001569732371825507
0.0034927055785130942   -0.012760020651108307   -0.0014555094879834375
0.0035010970590961857   -0.012789500894575954   -0.0014154922837465568
0.0027042410412426816   -0.006670327507941405   -0.0011451329389527498
0.00711441859740661   -0.012856031589736439   -0.001569732371825507
0.0035010970590961857   -0.012789500894575954   -0.0014154922837465568
0.00556550222072   -0.006887624191709809   -0.0011366016069919796
0.0027042410412426816   -0.006670327507941405   -0.0011451329389527498
0.0034927055785130942   -0.012760020651108307   -0.0014555094879834375
0.005462698434641939   -0.006831686931587987   -0.0012989015183905526
0.002697414464276252   -0.006588262992074739   -0.0012237197825569026
0.0034927055785130942   -0.012760020651108307   -0.0014555094879834375
0.00711441859740661   -0.012856031589736439   -0.001569732371825507
0.005462698434641939   -0.006831686931587987   -0.0012989015183905526
0.007003371753306732   -0.012761042324503495   -0.0016811205064500752
0.002697414464276252   -0.006588262992074739   -0.0012237197825569026
0.0053083997417858915   -0.006707365719409463   -0.0014678911324070962
0.007003371753306732   -0.012761042324503495   -0.0016811205064500752
0.005462698434641939   -0.006831686931587987   -0.0012989015183905526
0.002697414464276252   -0.006588262992074739   -0.0012237197825569026
0.007003371753306732   -0.012761042324503495   -0.0016811205064500752
0.00347986892355896   -0.012698932480048235   -0.0015030630123212406
0.0034927055785130942   -0.012760020651108307   -0.0014555094879834375
0.002697414464276252   -0.006588262992074739   -0.0012237197825569026
0.007003371753306732   -0.012761042324503495   -0.0016811205064500752
0.0034927055785130942   -0.012760020651108307   -0.0014555094879834375
0.005462698434641939   -0.006831686931587987   -0.0012989015183905526
-0.009666851153792795   -0.012984610765050773   -0.0019438876430775843
-0.011540543188696697   -0.0201633329642762   -0.002073628665983321
-0.0062154685908337465   -0.012812251993396756   -0.0016994962745163484
-0.009838185944560322   -0.01311944018564316   -0.0017751577972796896
-0.011540543188696697   -0.0201633329642762   -0.002073628665983321
-0.007491821703089513   -0.020053770693175554   -0.0018745478799536616
-0.0062154685908337465   -0.012812251993396756   -0.0016994962745163484
-0.00750038369779687   -0.0201385486313001   -0.0017971877588938753
-0.009838185944560322   -0.01311944018564316   -0.0017751577972796896
-0.006228687637097735   -0.012910890293042767   -0.0015913455511356754
-0.00750038369779687   -0.0201385486313001   -0.0017971877588938753
-0.0062154685908337465   -0.012812251993396756   -0.0016994962745163484
-0.009838185944560322   -0.01311944018564316   -0.0017751577972796896
-0.00750038369779687   -0.0201385486313001   -0.0017971877588938753
-0.0116557021133051   -0.020278049038783164   -0.0019617113902660865
-0.011540543188696697   -0.0201633329642762   -0.002073628665983321
-0.009838185944560322   -0.01311944018564316   -0.0017751577972796896
-0.00750038369779687   -0.0201385486313001   -0.0017971877588938753
-0.011540543188696697   -0.0201633329642762   -0.002073628665983321
-0.0062154685908337465   -0.012812251993396756   -0.0016994962745163484
-0.009838185944560322   -0.01311944018564316   -0.0017751577972796896
-0.0116557021133051   -0.020278049038783164   -0.0019617113902660865
-0.006228687637097735   -0.012910890293042767   -0.0015913455511356754
-0.009946009922522016   -0.013204030044106458   -0.0016179216575970547
-0.0116557021133051   -0.020278049038783164   -0.0019617113902660865
-0.00750038369779687   -0.0201385486313001   -0.0017971877588938753
-0.006228687637097735   -0.012910890293042767   -0.0015913455511356754
-0.007506348303973011   -0.02020580042929915   -0.0017275445658729866
-0.009946009922522016   -0.013204030044106458   -0.0016179216575970547
-0.0062443039611855215   -0.012979571326757285   -0.0014910367682296215
-0.007506348303973011   -0.02020580042929915   -0.0017275445658729866
-0.006228687637097735   -0.012910890293042767   -0.0015913455511356754
-0.009946009922522016   -0.013204030044106458   -0.0016179216575970547
-0.007506348303973011   -0.02020580042929915   -0.0017275445658729866
-0.011721557072821902   -0.020359262020510357   -0.001860552795257317
-0.0116557021133051   -0.020278049038783164   -0.0019617113902660865
-0.009946009922522016   -0.013204030044106458   -0.0016179216575970547
-0.007506348303973011   -0.02020580042929915   -0.0017275445658729866
-0.0116557021133051   -0.020278049038783164   -0.0019617113902660865
-0.006228687637097735   -0.012910890293042767   -0.0015913455511356754
-0.009946009922522016   -0.013204030044106458   -0.0016179216575970547
-0.011721557072821902   -0.020359262020510357   -0.001860552795257317
-0.0062443039611855215   -0.012979571326757285   -0.0014910367682296215
-0.010068691429450504   -0.013264958564427382   -0.0014732544609054328
-0.011721557072821902   -0.020359262020510357   -0.001860552795257317
-0.007506348303973011   -0.02020580042929915   -0.0017275445658729866
-0.0062443039611855215   -0.012979571326757285   -0.0014910367682296215
-0.007490362650090427   -0.020261107699875956   -0.0016645896139318595
-0.010068691429450504   -0.013264958564427382   -0.0014732544609054328
-0.006232166278527393   -0.013024814522644784   -0.0013968982112956222
-0.007490362650090427   -0.020261107699875956   -0.0016645896139318595
-0.0062443039611855215   -0.012979571326757285   -0.0014910367682296215
-0.010068691429450504   -0.013264958564427382   -0.0014732544609054328
-0.007490362650090427   -0.020261107699875956   -0.0016645896139318595
-0.0117893534447506   -0.020432144040586304   -0.0017714343613854362
-0.011721557072821902   -0.020359262020510357   -0.001860552795257317
-0.010068691429450504   -0.013264958564427382   -0.0014732544609054328
-0.007490362650090427   -0.020261107699875956   -0.0016645896139318595
-0.011721557072821902   -0.020359262020510357   -0.001860552795257317
-0.0062443039611855215   -0.012979571326757285   -0.0014910367682296215
-0.0062154685908337465   -0.012812251993396756   -0.0016994962745163484
-0.007491821703089513   -0.020053770693175554   -0.0018745478799536616
-0.0029618842273287714   -0.012726277011739234   -0.0015297238130576039
-0.006228687637097735   -0.012910890293042767   -0.0015913455511356754
-0.007491821703089513   -0.020053770693175554   -0.0018745478799536616
-0.0036966298662824562   -0.0199970707842981   -0.001736710640708753
-0.0029618842273287714   -0.012726277011739234   -0.0015297238130576039
-0.0036891703609507162   -0.020050233781069026   -0.0016855824475822544
-0.006228687637097735   -0.012910890293042767   -0.0015913455511356754
-0.0029540623830565183   -0.012789314898438663   -0.0014685603988056973
-0.0036891703609507162   -0.020050233781069026   -0.0016855824475822544
-0.0029618842273287714   -0.012726277011739234   -0.0015297238130576039
-0.006228687637097735   -0.012910890293042767   -0.0015913455511356754
-0.0036891703609507162   -0.020050233781069026   -0.0016855824475822544
-0.00750038369779687   -0.0201385486313001   -0.0017971877588938753
-0.007491821703089513   -0.020053770693175554   -0.0018745478799536616
-0.006228687637097735   -0.012910890293042767   -0.0015913455511356754
-0.0036891703609507162   -0.020050233781069026   -0.0016855824475822544
-0.007491821703089513   -0.020053770693175554   -0.0018745478799536616
-0.0029618842273287714   -0.012726277011739234   -0.0015297238130576039
-0.006228687637097735   -0.012910890293042767   -0.0015913455511356754
-0.00750038369779687   -0.0201385486313001   -0.0017971877588938753
-0.0029540623830565183   -0.012789314898438663   -0.0014685603988056973
-0.0062443039611855215   -0.012979571326757285   -0.0014910367682296215
-0.00750038369779687   -0.0201385486313001   -0.0017971877588938753
-0.0036891703609507162   -0.020050233781069026   -0.0016855824475822544
-0.0029540623830565183   -0.012789314898438663   -0.0014685603988056973
-0.0036791462817533345   -0.020088705878081873   -0.0016420528793572294
-0.0062443039611855215   -0.012979571326757285   -0.0014910367682296215
-0.0029445745135788363   -0.012826357775239312   -0.00141486170634413
-0.0036791462817533345   -0.020088705878081873   -0.0016420528793572294
-0.0029540623830565183   -0.012789314898438663   -0.0014685603988056973
-0.0062443039611855215   -0.012979571326757285   -0.0014910367682296215
-0.0036791462817533345   -0.020088705878081873   -0.0016420528793572294
-0.007506348303973011   -0.02020580042929915   -0.0017275445658729866
-0.00750038369779687   -0.0201385486313001   -0.0017971877588938753
-0.0062443039611855215   -0.012979571326757285   -0.0014910367682296215
-0.0036791462817533345   -0.020088705878081873   -0.0016420528793572294
-0.00750038369779687   -0.0201385486313001   -0.0017971877588938753
-0.0029540623830565183   -0.012789314898438663   -0.0014685603988056973
-0.0062443039611855215   -0.012979571326757285   -0.0014910367682296215
-0.007506348303973011   -0.02020580042929915   -0.0017275445658729866
-0.0029445745135788363   -0.012826357775239312   -0.00141486170634413
-0.006232166278527393   -0.013024814522644784   -0.0013968982112956222
-0.007506348303973011   -0.02020580042929915   -0.0017275445658729866
-0.0036791462817533345   -0.020088705878081873   -0.0016420528793572294
-0.0029445745135788363   -0.012826357775239312   -0.00141486170634413
-0.0036644005790968047   -0.02011273974842115   -0.0016062495327420188
-0.006232166278527393   -0.013024814522644784   -0.0013968982112956222
-0.0029292303308391127   -0.012837935115905206   -0.001368606718354142
-0.0036644005790968047   -0.02011273974842115   -0.0016062495327420188
-0.0029445745135788363   -0.012826357775239312   -0.00141486170634413
-0.006232166278527393   -0.013024814522644784   -0.0013968982112956222
-0.0036644005790968047   -0.02011273974842115   -0.0016062495327420188
-0.007490362650090427   -0.020261107699875956   -0.0016645896139318595
-0.007506348303973011   -0.02020580042929915   -0.0017275445658729866
-0.006232166278527393   -0.013024814522644784   -0.0013968982112956222
-0.0036644005790968047   -0.02011273974842115   -0.0016062495327420188
-0.007506348303973011   -0.02020580042929915   -0.0017275445658729866
-0.0029445745135788363   -0.012826357775239312   -0.00141486170634413
-0.0029618842273287714   -0.012726277011739234   -0.0015297238130576039
-0.0036966298662824562   -0.0199970707842981   -0.001736710640708753
0.00019597098150242733   -0.012721693497565585   -0.0014245572322602906
-0.0029540623830565183   -0.012789314898438663   -0.0014685603988056973
-0.0036966298662824562   -0.0199970707842981   -0.001736710640708753
-4.60715692741611e-06   -0.01998727422952246   -0.0016565351197600667
0.00019597098150242733   -0.012721693497565585   -0.0014245572322602906
9.064514576770474e-06   -0.020008637959235954   -0.001631848199553757
-0.0029540623830565183   -0.012789314898438663   -0.0014685603988056973
0.00021003262318956215   -0.0127496786028082   -0.0014101320741274697
9.064514576770474e-06   -0.020008637959235954   -0.001631848199553757
0.00019597098150242733   -0.012721693497565585   -0.0014245572322602906
-0.0029540623830565183   -0.012789314898438663   -0.0014685603988056973
9.064514576770474e-06   -0.020008637959235954   -0.001631848199553757
-0.0036891703609507162   -0.020050233781069026   -0.0016855824475822544
-0.0036966298662824562   -0.0199970707842981   -0.001736710640708753
-0.0029540623830565183   -0.012789314898438663   -0.0014685603988056973
9.064514576770474e-06   -0.020008637959235954   -0.001631848199553757
-0.0036966298662824562   -0.0199970707842981   -0.001736710640708753
0.00019597098150242733   -0.012721693497565585   -0.0014245572322602906
-0.0029540623830565183   -0.012789314898438663   -0.0014685603988056973
-0.0036891703609507162   -0.020050233781069026   -0.0016855824475822544
0.00021003262318956215   -0.0127496786028082   -0.0014101320741274697
-0.0029445745135788363   -0.012826357775239312   -0.00141486170634413
-0.0036891703609507162   -0.020050233781069026   -0.0016855824475822544
9.064514576770474e-06   -0.020008637959235954   -0.001631848199553757
0.00021003262318956215   -0.0127496786028082   -0.0014101320741274697
1.8921286720667293e-05   -0.020015208930107265   -0.0016146652038168418
-0.0029445745135788363   -0.012826357775239312   -0.00141486170634413
0.00021919147739338788   -0.012751772203807058   -0.001402978061938121
1.8921286720667293e-05   -0.020015208930107265   -0.0016146652038168418
0.00021003262318956215   -0.0127496786028082   -0.0014101320741274697
-0.0029445745135788363   -0.012826357775239312   -0.00141486170634413
1.8921286720667293e-05   -0.020015208930107265   -0.0016146652038168418
-0.0036791462817533345   -0.020088705878081873   -0.0016420528793572294
-0.0036891703609507162   -0.020050233781069026   -0.0016855824475822544
-0.0029445745135788363   -0.012826357775239312   -0.00141486170634413
1.8921286720667293e-05   -0.020015208930107265   -0.0016146652038168418
-0.0036891703609507162   -0.020050233781069026   -0.0016855824475822544
0.00021003262318956215   -0.0127496786028082   -0.0014101320741274697
-0.0029445745135788363   -0.012826357775239312   -0.00141486170634413
-0.0036791462817533345   -0.020088705878081873   -0.0016420528793572294
0.00021919147739338788   -0.012751772203807058   -0.001402978061938121
-0.0029292303308391127   -0.012837935115905206   -0.001368606718354142
-0.0036791462817533345   -0.020088705878081873   -0.0016420528793572294
1.8921286720667293e-05   -0.020015208930107265   -0.0016146652038168418
0.00021919147739338788   -0.012751772203807058   -0.001402978061938121
2.5345551771318362e-05   -0.02000678392210504   -0.001605316841396779
-0.0029292303308391127   -0.012837935115905206   -0.001368606718354142
0.00022593304171394701   -0.012727588849158263   -0.0014035354886403153
2.5345551771318362e-05   -0.02000678392210504   -0.001605316841396779
0.00021919147739338788   -0.012751772203807058   -0.001402978061938121
-0.0029292303308391127   -0.012837935115905206   -0.001368606718354142
2.5345551771318362e-05   -0.02000678392210504   -0.001605316841396779
-0.0036644005790968047   -0.02011273974842115   -0.0016062495327420188
-0.0036791462817533345   -0.020088705878081873   -0.0016420528793572294
-0.0029292303308391127   -0.012837935115905206   -0.001368606718354142
2.5345551771318362e-05   -0.02000678392210504   -0.001605316841396779
-0.0036791462817533345   -0.020088705878081873   -0.0016420528793572294
0.00021919147739338788   -0.012751772203807058   -0.001402978061938121
0.00019597098150242733   -0.012721693497565585   -0.0014245572322602906
-4.60715692741611e-06   -0.01998727422952246   -0.0016565351197600667
0.003488721683164507   -0.01279365964368412   -0.0013822119516389286
0.00021003262318956215   -0.0127496786028082   -0.0014101320741274697
-4.60715692741611e-06   -0.01998727422952246   -0.0016565351197600667
0.003814402676245442   -0.020020363131355155   -0.0016337145793176768
0.003488721683164507   -0.01279365964368412   -0.0013822119516389286
0.0038310700979113242   -0.020011762258496376   -0.0016360226987630429
0.00021003262318956215   -0.0127496786028082   -0.0014101320741274697
0.0035010970590961857   -0.012789500894575954   -0.0014154922837465568
0.0038310700979113242   -0.020011762258496376   -0.0016360226987630429
0.003488721683164507   -0.01279365964368412   -0.0013822119516389286
0.00021003262318956215   -0.0127496786028082   -0.0014101320741274697
0.0038310700979113242   -0.020011762258496376   -0.0016360226987630429
9.064514576770474e-06   -0.020008637959235954   -0.001631848199553757
-4.60715692741611e-06   -0.01998727422952246   -0.0016565351197600667
0.00021003262318956215   -0.0127496786028082   -0.0014101320741274697
0.0038310700979113242   -0.020011762258496376   -0.0016360226987630429
-4.60715692741611e-06   -0.01998727422952246   -0.0016565351197600667
0.003488721683164507   -0.01279365964368412   -0.0013822119516389286
0.00021003262318956215   -0.0127496786028082   -0.0014101320741274697
9.064514576770474e-06   -0.020008637959235954   -0.001631848199553757
0.0035010970590961857   -0.012789500894575954   -0.0014154922837465568
0.00021919147739338788   -0.012751772203807058   -0.001402978061938121
9.064514576770474e-06   -0.020008637959235954   -0.001631848199553757
0.0038310700979113242   -0.020011762258496376   -0.0016360226987630429
0.0035010970590961857   -0.012789500894575954   -0.0014154922837465568
0.003832828413828455   -0.019989518136923037   -0.0016454295897428825
0.00021919147739338788   -0.012751772203807058   -0.001402978061938121
0.0034927055785130942   -0.012760020651108307   -0.0014555094879834375
0.003832828413828455   -0.019989518136923037   -0.0016454295897428825
0.0035010970590961857   -0.012789500894575954   -0.0014154922837465568
0.00021919147739338788   -0.012751772203807058   -0.001402978061938121
0.003832828413828455   -0.019989518136923037   -0.0016454295897428825
1.8921286720667293e-05   -0.020015208930107265   -0.0016146652038168418
9.064514576770474e-06   -0.020008637959235954   -0.001631848199553757
0.00021919147739338788   -0.012751772203807058   -0.001402978061938121
0.003832828413828455   -0.019989518136923037   -0.0016454295897428825
9.064514576770474e-06   -0.020008637959235954   -0.001631848199553757
0.0035010970590961857   -0.012789500894575954   -0.0014154922837465568
0.00021919147739338788   -0.012751772203807058   -0.001402978061938121
1.8921286720667293e-05   -0.020015208930107265   -0.0016146652038168418
0.0034927055785130942   -0.012760020651108307   -0.0014555094879834375
0.00022593304171394701   -0.012727588849158263   -0.0014035354886403153
1.8921286720667293e-05   -0.020015208930107265   -0.0016146652038168418
0.003832828413828455   -0.019989518136923037   -0.0016454295897428825
0.0034927055785130942   -0.012760020651108307   -0.0014555094879834375
0.0038249679389814363   -0.019948080320317668   -0.0016622071812773624
0.00022593304171394701   -0.012727588849158263   -0.0014035354886403153
0.00347986892355896   -0.012698932480048235   -0.0015030630123212406
0.0038249679389814363   -0.019948080320317668   -0.0016622071812773624
0.0034927055785130942   -0.012760020651108307   -0.0014555094879834375
0.00022593304171394701   -0.012727588849158263   -0.0014035354886403153
0.0038249679389814363   -0.019948080320317668   -0.0016622071812773624
2.5345551771318362e-05   -0.02000678392210504   -0.001605316841396779
1.8921286720667293e-05   -0.020015208930107265   -0.0016146652038168418
0.00022593304171394701   -0.012727588849158263   -0.0014035354886403153
0.0038249679389814363   -0.019948080320317668   -0.0016622071812773624
1.8921286720667293e-05   -0.020015208930107265   -0.0016146652038168418
0.0034927055785130942   -0.012760020651108307   -0.0014555094879834375
0.003488721683164507   -0.01279365964368412   -0.0013822119516389286
0.003814402676245442   -0.020020363131355155   -0.0016337145793176768
0.007238918687594657   -0.01292409504232997   -0.0013834282402441413
0.0035010970590961857   -0.012789500894575954   -0.0014154922837465568
0.003814402676245442   -0.020020363131355155   -0.0016337145793176768
0.008031482590850791   -0.020081092593736312   -0.0016558055305055162
0.007238918687594657   -0.01292409504232997   -0.0013834282402441413
0.008024863284342017   -0.020052179416487674   -0.0016871891334753917
0.0035010970590961857   -0.012789500894575954   -0.0014154922837465568
0.0071766633652383845   -0.012901391532668989   -0.00147050598270378
0.008024863284342017   -0.020052179416487674   -0.0016871891334753917
0.007238918687594657   -0.01292409504232997   -0.0013834282402441413
0.0035010970590961857   -0.012789500894575954   -0.0014154922837465568
0.008024863284342017   -0.020052179416487674   -0.0016871891334753917
0.0038310700979113242   -0.020011762258496376   -0.0016360226987630429
0.003814402676245442   -0.020020363131355155   -0.0016337145793176768
0.0035010970590961857   -0.012789500894575954   -0.0014154922837465568
0.008024863284342017   -0.020052179416487674   -0.0016871891334753917
0.003814402676245442   -0.020020363131355155   -0.0016337145793176768
0.007238918687594657   -0.01292409504232997   -0.0013834282402441413
0.0035010970590961857   -0.012789500894575954   -0.0014154922837465568
0.0038310700979113242   -0.020011762258496376   -0.0016360226987630429
0.0071766633652383845   -0.012901391532668989   -0.00147050598270378
0.0034927055785130942   -0.012760020651108307   -0.0014555094879834375
0.0038310700979113242   -0.020011762258496376   -0.0016360226987630429
0.008024863284342017   -0.020052179416487674   -0.0016871891334753917
0.0071766633652383845   -0.012901391532668989   -0.00147050598270378
0.008005465396997691   -0.020015927148785435   -0.0017300932576093519
0.0034927055785130942   -0.012760020651108307   -0.0014555094879834375
0.00711441859740661   -0.012856031589736439   -0.001569732371825507
0.008005465396997691   -0.020015927148785435   -0.0017300932576093519
0.0071766633652383845   -0.012901391532668989   -0.00147050598270378
0.0034927055785130942   -0.012760020651108307   -0.0014555094879834375
0.008005465396997691   -0.020015927148785435   -0.0017300932576093519
0.003832828413828455   -0.019989518136923037   -0.0016454295897428825
0.0038310700979113242   -0.020011762258496376   -0.0016360226987630429
0.0034927055785130942   -0.012760020651108307   -0.0014555094879834375
0.008005465396997691   -0.020015927148785435   -0.0017300932576093519
0.0038310700979113242   -0.020011762258496376   -0.0016360226987630429
0.0071766633652383845   -0.012901391532668989   -0.00147050598270378
0.0034927055785130942   -0.012760020651108307   -0.0014555094879834375
0.003832828413828455   -0.019989518136923037   -0.0016454295897428825
0.00711441859740661   -0.012856031589736439   -0.001569732371825507
0.00347986892355896   -0.012698932480048235   -0.0015030630123212406
0.003832828413828455   -0.019989518136923037   -0.0016454295897428825
0.008005465396997691   -0.020015927148785435   -0.0017300932576093519
0.00711441859740661   -0.012856031589736439   -0.001569732371825507
0.007951392285716253   -0.019946979491106385   -0.0017844342972413716
0.00347986892355896   -0.012698932480048235   -0.0015030630123212406
0.007003371753306732   -0.012761042324503495   -0.0016811205064500752
0.007951392285716253   -0.019946979491106385   -0.0017844342972413716
0.00711441859740661   -0.012856031589736439   -0.001569732371825507
0.00347986892355896   -0.012698932480048235   -0.0015030630123212406
0.007951392285716253   -0.019946979491106385   -0.0017844342972413716
0.0038249679389814363   -0.019948080320317668   -0.0016622071812773624
0.003832828413828455   -0.019989518136923037   -0.0016454295897428825
0.00347986892355896   -0.012698932480048235   -0.0015030630123212406
0.007951392285716253   -0.019946979491106385   -0.0017844342972413716
0.003832828413828455   -0.019989518136923037   -0.0016454295897428825
0.00711441859740661   -0.012856031589736439   -0.001569732371825507
-0.011540543188696697   -0.0201633329642762   -0.002073628665983321
-0.012673425991987333   -0.027973780679849174   -0.0021121790880386975
-0.007491821703089513   -0.020053770693175554   -0.0018745478799536616
-0.0116557021133051   -0.020278049038783164   -0.0019617113902660865
-0.012673425991987333   -0.027973780679849174   -0.0021121790880386975
-0.008329142989041596   -0.027929224035640573   -0.001953762679434323
-0.007491821703089513   -0.020053770693175554   -0.0018745478799536616
-0.008325435459768306   -0.028001470995997965   -0.0019063502161132501
-0.0116557021133051   -0.020278049038783164   -0.0019617113902660865
-0.00750038369779687   -0.0201385486313001   -0.0017971877588938753
-0.008325435459768306   -0.028001470995997965   -0.0019063502161132501
-0.007491821703089513   -0.020053770693175554   -0.0018745478799536616
-0.0116557021133051   -0.020278049038783164   -0.0019617113902660865
-0.008325435459768306   -0.028001470995997965   -0.0019063502161132501
-0.012726925621411467   -0.028070921570880876   -0.0020545799112130112
-0.012673425991987333   -0.027973780679849174   -0.0021121790880386975
-0.0116557021133051   -0.020278049038783164   -0.0019617113902660865
-0.008325435459768306   -0.028001470995997965   -0.0019063502161132501
-0.012673425991987333   -0.027973780679849174   -0.0021121790880386975
-0.007491821703089513   -0.020053770693175554   -0.0018745478799536616
-0.0116557021133051   -0.020278049038783164   -0.0019617113902660865
-0.012726925621411467   -0.028070921570880876   -0.0020545799112130112
-0.00750038369779687   -0.0201385486313001   -0.0017971877588938753
-0.011721557072821902   -0.020359262020510357   -0.001860552795257317
-0.012726925621411467   -0.028070921570880876   -0.0020545799112130112
-0.008325435459768306   -0.028001470995997965   -0.0019063502161132501
-0.00750038369779687   -0.0201385486313001   -0.0017971877588938753
-0.008313874512022782   -0.02806816901196775   -0.0018668119727749668
-0.011721557072821902   -0.020359262020510357   -0.001860552795257317
-0.007506348303973011   -0.02020580042929915   -0.0017275445658729866
-0.008313874512022782   -0.02806816901196775   -0.0018668119727749668
-0.00750038369779687   -0.0201385486313001   -0.0017971877588938753
-0.011721557072821902   -0.020359262020510357   -0.001860552795257317
-0.008313874512022782   -0.02806816901196775   -0.0018668119727749668
-0.012743638289537704   -0.02815021293962897   -0.002008312809136347
-0.012726925621411467   -0.028070921570880876   -0.0020545799112130112
-0.011721557072821902   -0.020359262020510357   -0.001860552795257317
-0.008313874512022782   -0.02806816901196775   -0.0018668119727749668
-0.012726925621411467   -0.028070921570880876   -0.0020545799112130112
-0.00750038369779687   -0.0201385486313001   -0.0017971877588938753
-0.011721557072821902   -0.020359262020510357   -0.001860552795257317
-0.012743638289537704   -0.02815021293962897   -0.002008312809136347
-0.007506348303973011   -0.02020580042929915   -0.0017275445658729866
-0.0117893534447506   -0.020432144040586304   -0.0017714343613854362
-0.012743638289537704   -0.02815021293962897   -0.002008312809136347
-0.008313874512022782   -0.02806816901196775   -0.0018668119727749668
-0.007506348303973011   -0.02020580042929915   -0.0017275445658729866
-0.008285985883491716   -0.028134406919514365   -0.0018345918980178914
-0.0117893534447506   -0.020432144040586304   -0.0017714343613854362
-0.007490362650090427   -0.020261107699875956   -0.0016645896139318595
-0.008285985883491716   -0.028134406919514365   -0.0018345918980178914
-0.007506348303973011   -0.02020580042929915   -0.0017275445658729866
-0.0117893534447506   -0.020432144040586304   -0.0017714343613854362
-0.008285985883491716   -0.028134406919514365   -0.0018345918980178914
-0.012748869040733397   -0.028236407006329324   -0.0019743559068050136
-0.012743638289537704   -0.02815021293962897   -0.002008312809136347
-0.0117893534447506   -0.020432144040586304   -0.0017714343613854362
-0.008285985883491716   -0.028134406919514365   -0.0018345918980178914
-0.012743638289537704   -0.02815021293962897   -0.002008312809136347
-0.007506348303973011   -0.02020580042929915   -0.0017275445658729866
-0.007491821703089513   -0.020053770693175554   -0.0018745478799536616
-0.008329142989041596   -0.027929224035640573   -0.001953762679434323
-0.0036966298662824562   -0.0199970707842981   -0.001736710640708753
-0.00750038369779687   -0.0201385486313001   -0.0017971877588938753
-0.008329142989041596   -0.027929224035640573   -0.001953762679434323
-0.004293701444550165   -0.02790355866377461   -0.0018459282202016461
-0.0036966298662824562   -0.0199970707842981   -0.001736710640708753
-0.004278240015227167   -0.027947252289886582   -0.0018045249624219267
-0.00750038369779687   -0.0201385486313001   -0.0017971877588938753
-0.0036891703609507162   -0.020050233781069026   -0.0016855824475822544
-0.004278240015227167   -0.027947252289886582   -0.0018045249624219267
-0.0036966298662824562   -0.0199970707842981   -0.001736710640708753
-0.00750038369779687   -0.0201385486313001   -0.0017971877588938753
-0.004278240015227167   -0.027947252289886582   -0.0018045249624219267
-0.008325435459768306   -0.028001470995997965   -0.0019063502161132501
-0.008329142989041596   -0.027929224035640573   -0.001953762679434323
-0.00750038369779687   -0.0201385486313001   -0.0017971877588938753
-0.004278240015227167   -0.027947252289886582   -0.0018045249624219267
-0.008329142989041596   -0.027929224035640573   -0.001953762679434323
-0.0036966298662824562   -0.0199970707842981   -0.001736710640708753
-0.00750038369779687   -0.0201385486313001   -0.0017971877588938753
-0.008325435459768306   -0.028001470995997965   -0.0019063502161132501
-0.0036891703609507162   -0.020050233781069026   -0.0016855824475822544
-0.007506348303973011   -0.02020580042929915   -0.0017275445658729866
-0.008325435459768306   -0.028001470995997965   -0.0019063502161132501
-0.004278240015227167   -0.027947252289886582   -0.0018045249624219267
-0.0036891703609507162   -0.020050233781069026   -0.0016855824475822544
-0.0042593742057666865   -0.027987387016896133   -0.0017710001666487907
-0.007506348303973011   -0.02020580042929915   -0.0017275445658729866
-0.0036791462817533345   -0.020088705878081873   -0.0016420528793572294
-0.0042593742057666865   -0.027987387016896133   -0.0017710001666487907
-0.0036891703609507162   -0.020050233781069026   -0.0016855824475822544
-0.007506348303973011   -0.02020580042929915   -0.0017275445658729866
-0.0042593742057666865   -0.027987387016896133   -0.0017710001666487907
-0.008313874512022782   -0.02806816901196775   -0.0018668119727749668
-0.008325435459768306   -0.028001470995997965   -0.0019063502161132501
-0.007506348303973011   -0.02020580042929915   -0.0017275445658729866
-0.0042593742057666865   -0.027987387016896133   -0.0017710001666487907
-0.008325435459768306   -0.028001470995997965   -0.0019063502161132501
-0.0036891703609507162   -0.020050233781069026   -0.0016855824475822544
-0.007506348303973011   -0.02020580042929915   -0.0017275445658729866
-0.008313874512022782   -0.02806816901196775   -0.0018668119727749668
-0.0036791462817533345   -0.020088705878081873   -0.0016420528793572294
-0.007490362650090427   -0.020261107699875956   -0.0016645896139318595
-0.008313874512022782   -0.02806816901196775   -0.0018668119727749668
-0.0042593742057666865   -0.027987387016896133   -0.0017710001666487907
-0.0036791462817533345   -0.020088705878081873   -0.0016420528793572294
-0.004236777758516157   -0.0280240956500668   -0.0017455453740056902
-0.007490362650090427   -0.020261107699875956   -0.0016645896139318595
-0.0036644005790968047   -0.02011273974842115   -0.0016062495327420188
-0.004236777758516157   -0.0280240956500668   -0.0017455453740056902
-0.0036791462817533345   -0.020088705878081873   -0.0016420528793572294
-0.007490362650090427   -0.020261107699875956   -0.0016645896139318595
-0.004236777758516157   -0.0280240956500668   -0.0017455453740056902
-0.008285985883491716   -0.028134406919514365   -0.0018345918980178914
-0.008313874512022782   -0.02806816901196775   -0.0018668119727749668
-0.007490362650090427   -0.020261107699875956   -0.0016645896139318595
-0.004236777758516157   -0.0280240956500668   -0.0017455453740056902
-0.008313874512022782   -0.02806816901196775   -0.0018668119727749668
-0.0036791462817533345   -0.020088705878081873   -0.0016420528793572294
-0.0036966298662824562   -0.0199970707842981   -0.001736710640708753
-0.004293701444550165   -0.02790355866377461   -0.0018459282202016461
-4.60715692741611e-06   -0.01998727422952246   -0.0016565351197600667
-0.0036891703609507162   -0.020050233781069026   -0.0016855824475822544
-0.004293701444550165   -0.02790355866377461   -0.0018459282202016461
-0.00036747987997912075   -0.02788879318690645   -0.0017902641636680261
-4.60715692741611e-06   -0.01998727422952246   -0.0016565351197600667
-0.0003460173655766625   -0.02790338993531316   -0.0017552888976613747
-0.0036891703609507162   -0.020050233781069026   -0.0016855824475822544
9.064514576770474e-06   -0.020008637959235954   -0.001631848199553757
-0.0003460173655766625   -0.02790338993531316   -0.0017552888976613747
-4.60715692741611e-06   -0.01998727422952246   -0.0016565351197600667
-0.0036891703609507162   -0.020050233781069026   -0.0016855824475822544
-0.0003460173655766625   -0.02790338993531316   -0.0017552888976613747
-0.004278240015227167   -0.027947252289886582   -0.0018045249624219267
-0.004293701444550165   -0.02790355866377461   -0.0018459282202016461
-0.0036891703609507162   -0.020050233781069026   -0.0016855824475822544
-0.0003460173655766625   -0.02790338993531316   -0.0017552888976613747
-0.004293701444550165   -0.02790355866377461   -0.0018459282202016461
-4.60715692741611e-06   -0.01998727422952246   -0.0016565351197600667
-0.0036891703609507162   -0.020050233781069026   -0.0016855824475822544
-0.004278240015227167   -0.027947252289886582   -0.0018045249624219267
9.064514576770474e-06   -0.020008637959235954   -0.001631848199553757
-0.0036791462817533345   -0.020088705878081873   -0.0016420528793572294
-0.004278240015227167   -0.027947252289886582   -0.0018045249624219267
-0.0003460173655766625   -0.02790338993531316   -0.0017552888976613747
9.064514576770474e-06   -0.020008637959235954   -0.001631848199553757
-0.0003273812730352831   -0.02791417355916321   -0.001728125970051567
-0.0036791462817533345   -0.020088705878081873   -0.0016420528793572294
1.8921286720667293e-05   -0.020015208930107265   -0.0016146652038168418
-0.0003273812730352831   -0.02791417355916321   -0.001728125970051567
9.064514576770474e-06   -0.020008637959235954   -0.001631848199553757
-0.0036791462817533345   -0.020088705878081873   -0.0016420528793572294
-0.0003273812730352831   -0.02791417355916321   -0.001728125970051567
-0.0042593742057666865   -0.027987387016896133   -0.0017710001666487907
-0.004278240015227167   -0.027947252289886582   -0.0018045249624219267
-0.0036791462817533345   -0.020088705878081873   -0.0016420528793572294
-0.0003273812730352831   -0.02791417355916321   -0.001728125970051567
-0.004278240015227167   -0.027947252289886582   -0.0018045249624219267
9.064514576770474e-06   -0.020008637959235954   -0.001631848199553757
-0.0036791462817533345   -0.020088705878081873   -0.0016420528793572294
-0.0042593742057666865   -0.027987387016896133   -0.0017710001666487907
1.8921286720667293e-05   -0.020015208930107265   -0.0016146652038168418
-0.0036644005790968047   -0.02011273974842115   -0.0016062495327420188
-0.0042593742057666865   -0.027987387016896133   -0.0017710001666487907
-0.0003273812730352831   -0.02791417355916321   -0.001728125970051567
1.8921286720667293e-05   -0.020015208930107265   -0.0016146652038168418
-0.0003130735041197502   -0.027921087349498924   -0.0017090590417873138
-0.0036644005790968047   -0.02011273974842115   -0.0016062495327420188
2.5345551771318362e-05   -0.02000678392210504   -0.001605316841396779
-0.0003130735041197502   -0.027921087349498924   -0.0017090590417873138
1.8921286720667293e-05   -0.020015208930107265   -0.0016146652038168418
-0.0036644005790968047   -0.02011273974842115   -0.0016062495327420188
-0.0003130735041197502   -0.027921087349498924   -0.0017090590417873138
-0.004236777758516157   -0.0280240956500668   -0.0017455453740056902
-0.0042593742057666865   -0.027987387016896133   -0.0017710001666487907
-0.0036644005790968047   -0.02011273974842115   -0.0016062495327420188
-0.0003130735041197502   -0.027921087349498924   -0.0017090590417873138
-0.0042593742057666865   -0.027987387016896133   -0.0017710001666487907
1.8921286720667293e-05   -0.020015208930107265   -0.0016146652038168418
-4.60715692741611e-06   -0.01998727422952246   -0.0016565351197600667
-0.00036747987997912075   -0.02788879318690645   -0.0017902641636680261
0.003814402676245442   -0.020020363131355155   -0.0016337145793176768
9.064514576770474e-06   -0.020008637959235954   -0.001631848199553757
-0.00036747987997912075   -0.02788879318690645   -0.0017902641636680261
0.0036784859211401386   -0.02788238067435615   -0.0017872777730254224
0.003814402676245442   -0.020020363131355155   -0.0016337145793176768
0.003706827666225603   -0.027868780909392956   -0.0017590507708734578
9.064514576770474e-06   -0.020008637959235954   -0.001631848199553757
0.0038310700979113242   -0.020011762258496376   -0.0016360226987630429
0.003706827666225603   -0.027868780909392956   -0.0017590507708734578
0.003814402676245442   -0.020020363131355155   -0.0016337145793176768
9.064514576770474e-06   -0.020008637959235954   -0.001631848199553757
0.003706827666225603   -0.027868780909392956   -0.0017590507708734578
-0.0003460173655766625   -0.02790338993531316   -0.0017552888976613747
-0.00036747987997912075   -0.02788879318690645   -0.0017902641636680261
9.064514576770474e-06   -0.020008637959235954   -0.001631848199553757
0.003706827666225603   -0.027868780909392956   -0.0017590507708734578
-0.00036747987997912075   -0.02788879318690645   -0.0017902641636680261
0.003814402676245442   -0.020020363131355155   -0.0016337145793176768
9.064514576770474e-06   -0.020008637959235954   -0.001631848199553757
-0.0003460173655766625   -0.02790338993531316   -0.0017552888976613747
0.0038310700979113242   -0.020011762258496376   -0.0016360226987630429
1.8921286720667293e-05   -0.020015208930107265   -0.0016146652038168418
-0.0003460173655766625   -0.02790338993531316   -0.0017552888976613747
0.003706827666225603   -0.027868780909392956   -0.0017590507708734578
0.0038310700979113242   -0.020011762258496376   -0.0016360226987630429
0.0037259738106850417   -0.027853004842581377   -0.0017384107606115806
1.8921286720667293e-05   -0.020015208930107265   -0.0016146652038168418
0.003832828413828455   -0.019989518136923037   -0.0016454295897428825
0.0037259738106850417   -0.027853004842581377   -0.0017384107606115806
0.0038310700979113242   -0.020011762258496376   -0.0016360226987630429
1.8921286720667293e-05   -0.020015208930107265   -0.0016146652038168418
0.0037259738106850417   -0.027853004842581377   -0.0017384107606115806
-0.0003273812730352831   -0.02791417355916321   -0.001728125970051567
-0.0003460173655766625   -0.02790338993531316   -0.0017552888976613747
1.8921286720667293e-05   -0.020015208930107265   -0.0016146652038168418
0.0037259738106850417   -0.027853004842581377   -0.0017384107606115806
-0.0003460173655766625   -0.02790338993531316   -0.0017552888976613747
0.0038310700979113242   -0.020011762258496376   -0.0016360226987630429
1.8921286720667293e-05   -0.020015208930107265   -0.0016146652038168418
-0.0003273812730352831   -0.02791417355916321   -0.001728125970051567
0.003832828413828455   -0.019989518136923037   -0.0016454295897428825
2.5345551771318362e-05   -0.02000678392210504   -0.001605316841396779
-0.0003273812730352831   -0.02791417355916321   -0.001728125970051567
0.0037259738106850417   -0.027853004842581377   -0.0017384107606115806
0.003832828413828455   -0.019989518136923037   -0.0016454295897428825
0.003730244191023351   -0.027829901069723665   -0.0017252032179383109
2.5345551771318362e-05   -0.02000678392210504   -0.001605316841396779
0.0038249679389814363   -0.019948080320317668   -0.0016622071812773624
0.003730244191023351   -0.027829901069723665   -0.0017252032179383109
0.003832828413828455   -0.019989518136923037   -0.0016454295897428825
2.5345551771318362e-05   -0.02000678392210504   -0.001605316841396779
0.003730244191023351   -0.027829901069723665   -0.0017252032179383109
-0.0003130735041197502   -0.027921087349498924   -0.0017090590417873138
-0.0003273812730352831   -0.02791417355916321   -0.001728125970051567
2.5345551771318362e-05   -0.02000678392210504   -0.001605316841396779
0.003730244191023351   -0.027829901069723665   -0.0017252032179383109
-0.0003273812730352831   -0.02791417355916321   -0.001728125970051567
0.003832828413828455   -0.019989518136923037   -0.0016454295897428825
0.003814402676245442   -0.020020363131355155   -0.0016337145793176768
0.0036784859211401386   -0.02788238067435615   -0.0017872777730254224
0.008031482590850791   -0.020081092593736312   -0.0016558055305055162
0.0038310700979113242   -0.020011762258496376   -0.0016360226987630429
0.0036784859211401386   -0.02788238067435615   -0.0017872777730254224
0.008062737565836095   -0.027873375577928836   -0.001831758244728153
0.008031482590850791   -0.020081092593736312   -0.0016558055305055162
0.008118073238650951   -0.027837475426655003   -0.0018084641231636256
0.0038310700979113242   -0.020011762258496376   -0.0016360226987630429
0.008024863284342017   -0.020052179416487674   -0.0016871891334753917
0.008118073238650951   -0.027837475426655003   -0.0018084641231636256
0.008031482590850791   -0.020081092593736312   -0.0016558055305055162
0.0038310700979113242   -0.020011762258496376   -0.0016360226987630429
0.008118073238650951   -0.027837475426655003   -0.0018084641231636256
0.003706827666225603   -0.027868780909392956   -0.0017590507708734578
0.0036784859211401386   -0.02788238067435615   -0.0017872777730254224
0.0038310700979113242   -0.020011762258496376   -0.0016360226987630429
0.008118073238650951   -0.027837475426655003   -0.0018084641231636256
0.0036784859211401386   -0.02788238067435615   -0.0017872777730254224
0.008031482590850791   -0.020081092593736312   -0.0016558055305055162
0.0038310700979113242   -0.020011762258496376   -0.0016360226987630429
0.003706827666225603   -0.027868780909392956   -0.0017590507708734578
0.008024863284342017   -0.020052179416487674   -0.0016871891334753917
0.003832828413828455   -0.019989518136923037   -0.0016454295897428825
0.003706827666225603   -0.027868780909392956   -0.0017590507708734578
0.008118073238650951   -0.027837475426655003   -0.0018084641231636256
0.008024863284342017   -0.020052179416487674   -0.0016871891334753917
0.008147603014016248   -0.027809164881451767   -0.0017967029373340037
0.003832828413828455   -0.019989518136923037   -0.0016454295897428825
0.008005465396997691   -0.020015927148785435   -0.0017300932576093519
0.008147603014016248   -0.027809164881451767   -0.0017967029373340037
0.008024863284342017   -0.020052179416487674   -0.0016871891334753917
0.003832828413828455   -0.019989518136923037   -0.0016454295897428825
0.008147603014016248   -0.027809164881451767   -0.0017967029373340037
0.0037259738106850417   -0.027853004842581377   -0.0017384107606115806
0.003706827666225603   -0.027868780909392956   -0.0017590507708734578
0.003832828413828455   -0.019989518136923037   -0.0016454295897428825
0.008147603014016248   -0.027809164881451767   -0.0017967029373340037
0.003706827666225603   -0.027868780909392956   -0.0017590507708734578
0.008024863284342017   -0.020052179416487674   -0.0016871891334753917
0.003832828413828455   -0.019989518136923037   -0.0016454295897428825
0.0037259738106850417   -0.027853004842581377   -0.0017384107606115806
0.008005465396997691   -0.020015927148785435   -0.0017300932576093519
0.0038249679389814363   -0.019948080320317668   -0.0016622071812773624
0.0037259738106850417   -0.027853004842581377   -0.0017384107606115806
0.008147603014016248   -0.027809164881451767   -0.0017967029373340037
0.008005465396997691   -0.020015927148785435   -0.0017300932576093519
0.008155316802010943   -0.027763866483229125   -0.0017966714233950169
0.0038249679389814363   -0.019948080320317668   -0.0016622071812773624
0.007951392285716253   -0.019946979491106385   -0.0017844342972413716
0.008155316802010943   -0.027763866483229125   -0.0017966714233950169
0.008005465396997691   -0.020015927148785435   -0.0017300932576093519
0.0038249679389814363   -0.019948080320317668   -0.0016622071812773624
0.008155316802010943   -0.027763866483229125   -0.0017966714233950169
0.003730244191023351   -0.027829901069723665   -0.0017252032179383109
0.0037259738106850417   -0.027853004842581377   -0.0017384107606115806
0.0038249679389814363   -0.019948080320317668   -0.0016622071812773624
0.008155316802010943   -0.027763866483229125   -0.0017966714233950169
0.0037259738106850417   -0.027853004842581377   -0.0017384107606115806
0.008005465396997691   -0.020015927148785435   -0.0017300932576093519
-0.012673425991987333   -0.027973780679849174   -0.0021121790880386975
-0.013066633919701955   -0.035921398768207304   -0.0020770564407929164
-0.008329142989041596   -0.027929224035640573   -0.001953762679434323
-0.012726925621411467   -0.028070921570880876   -0.0020545799112130112
-0.013066633919701955   -0.035921398768207304   -0.0020770564407929164
-0.008729048176218418   -0.0359422507195825   -0.0019600585574462465
-0.008329142989041596   -0.027929224035640573   -0.001953762679434323
-0.008705392251771625   -0.03600173820853643   -0.0019421016416956442
-0.012726925621411467   -0.028070921570880876   -0.0020545799112130112
-0.008325435459768306   -0.028001470995997965   -0.0019063502161132501
-0.008705392251771625   -0.03600173820853643   -0.0019421016416956442
-0.008329142989041596   -0.027929224035640573   -0.001953762679434323
-0.012726925621411467   -0.028070921570880876   -0.0020545799112130112
-0.008705392251771625   -0.03600173820853643   -0.0019421016416956442
-0.013051192893650799   -0.036001007812906716   -0.002073477166488472
-0.013066633919701955   -0.035921398768207304   -0.0020770564407929164
-0.012726925621411467   -0.028070921570880876   -0.0020545799112130112
-0.008705392251771625   -0.03600173820853643   -0.0019421016416956442
-0.013066633919701955   -0.035921398768207304   -0.0020770564407929164
-0.008329142989041596   -0.027929224035640573   -0.001953762679434323
-0.012726925621411467   -0.028070921570880876   -0.0020545799112130112
-0.013051192893650799   -0.036001007812906716   -0.002073477166488472
-0.008325435459768306   -0.028001470995997965   -0.0019063502161132501
-0.012743638289537704   -0.02815021293962897   -0.002008312809136347
-0.013051192893650799   -0.036001007812906716   -0.002073477166488472
-0.008705392251771625   -0.03600173820853643   -0.0019421016416956442
-0.008325435459768306   -0.028001470995997965   -0.0019063502161132501
-0.008668650482749929   -0.03606771044982452   -0.0019322481906053923
-0.012743638289537704   -0.02815021293962897   -0.002008312809136347
-0.008313874512022782   -0.02806816901196775   -0.0018668119727749668
-0.008668650482749929   -0.03606771044982452   -0.0019322481906053923
-0.008325435459768306   -0.028001470995997965   -0.0019063502161132501
-0.012743638289537704   -0.02815021293962897   -0.002008312809136347
-0.008668650482749929   -0.03606771044982452   -0.0019322481906053923
-0.013010943076313843   -0.03607838062729558   -0.002082006074259428
-0.013051192893650799   -0.036001007812906716   -0.002073477166488472
-0.012743638289537704   -0.02815021293962897   -0.002008312809136347
-0.008668650482749929   -0.03606771044982452   -0.0019322481906053923
-0.013051192893650799   -0.036001007812906716   -0.002073477166488472
-0.008325435459768306   -0.028001470995997965   -0.0019063502161132501
-0.012743638289537704   -0.02815021293962897   -0.002008312809136347
-0.013010943076313843   -0.03607838062729558   -0.002082006074259428
-0.008313874512022782   -0.02806816901196775   -0.0018668119727749668
-0.012748869040733397   -0.028236407006329324   -0.0019743559068050136
-0.013010943076313843   -0.03607838062729558   -0.002082006074259428
-0.008668650482749929   -0.03606771044982452   -0.0019322481906053923
-0.008313874512022782   -0.02806816901196775   -0.0018668119727749668
-0.008621161380245572   -0.03614471438330411   -0.0019303622544243567
-0.012748869040733397   -0.028236407006329324   -0.0019743559068050136
-0.008285985883491716   -0.028134406919514365   -0.0018345918980178914
-0.008621161380245572   -0.03614471438330411   -0.0019303622544243567
-0.008313874512022782   -0.02806816901196775   -0.0018668119727749668
-0.012748869040733397   -0.028236407006329324   -0.0019743559068050136
-0.008621161380245572   -0.03614471438330411   -0.0019303622544243567
-0.012945843388337775   -0.036178115986616285   -0.0021032610382755346
-0.013010943076313843   -0.03607838062729558   -0.002082006074259428
-0.012748869040733397   -0.028236407006329324   -0.0019743559068050136
-0.008621161380245572   -0.03614471438330411   -0.0019303622544243567
-0.013010943076313843   -0.03607838062729558   -0.002082006074259428
-0.008313874512022782   -0.02806816901196775   -0.0018668119727749668
-0.008329142989041596   -0.027929224035640573   -0.001953762679434323
-0.008729048176218418   -0.0359422507195825   -0.0019600585574462465
-0.004293701444550165   -0.02790355866377461   -0.0018459282202016461
-0.008325435459768306   -0.028001470995997965   -0.0019063502161132501
-0.008729048176218418   -0.0359422507195825   -0.0019600585574462465
-0.004755567408832639   -0.03594670874094072   -0.0018823110869107655
-0.004293701444550165   -0.02790355866377461   -0.0018459282202016461
-0.004724020049250607   -0.03598079616412988   -0.0018503385501612607
-0.008325435459768306   -0.028001470995997965   -0.0019063502161132501
-0.004278240015227167   -0.027947252289886582   -0.0018045249624219267
-0.004724020049250607   -0.03598079616412988   -0.0018503385501612607
-0.004293701444550165   -0.02790355866377461   -0.0018459282202016461
-0.008325435459768306   -0.028001470995997965   -0.0019063502161132501
-0.004724020049250607   -0.03598079616412988   -0.0018503385501612607
-0.008705392251771625   -0.03600173820853643   -0.0019421016416956442
-0.008729048176218418   -0.0359422507195825   -0.0019600585574462465
-0.008325435459768306   -0.028001470995997965   -0.0019063502161132501
-0.004724020049250607   -0.03598079616412988   -0.0018503385501612607
-0.008729048176218418   -0.0359422507195825   -0.0019600585574462465
-0.004293701444550165   -0.02790355866377461   -0.0018459282202016461
-0.008325435459768306   -0.028001470995997965   -0.0019063502161132501
-0.008705392251771625   -0.03600173820853643   -0.0019421016416956442
-0.004278240015227167   -0.027947252289886582   -0.0018045249624219267
-0.008313874512022782   -0.02806816901196775   -0.0018668119727749668
-0.008705392251771625   -0.03600173820853643   -0.0019421016416956442
-0.004724020049250607   -0.03598079616412988   -0.0018503385501612607
-0.004278240015227167   -0.027947252289886582   -0.0018045249624219267
-0.004688421322927982   -0.03602230189311464   -0.0018264983937063323
-0.008313874512022782   -0.02806816901196775   -0.0018668119727749668
-0.0042593742057666865   -0.027987387016896133   -0.0017710001666487907
-0.004688421322927982   -0.03602230189311464   -0.0018264983937063323
-0.004278240015227167   -0.027947252289886582   -0.0018045249624219267
-0.008313874512022782   -0.02806816901196775   -0.0018668119727749668
-0.004688421322927982   -0.03602230189311464   -0.0018264983937063323
-0.008668650482749929   -0.03606771044982452   -0.0019322481906053923
-0.008705392251771625   -0.03600173820853643   -0.0019421016416956442
-0.008313874512022782   -0.02806816901196775   -0.0018668119727749668
-0.004688421322927982   -0.03602230189311464   -0.0018264983937063323
-0.008705392251771625   -0.03600173820853643   -0.0019421016416956442
-0.004278240015227167   -0.027947252289886582   -0.0018045249624219267
-0.008313874512022782   -0.02806816901196775   -0.0018668119727749668
-0.008668650482749929   -0.03606771044982452   -0.0019322481906053923
-0.0042593742057666865   -0.027987387016896133   -0.0017710001666487907
-0.008285985883491716   -0.028134406919514365   -0.0018345918980178914
-0.008668650482749929   -0.03606771044982452   -0.0019322481906053923
-0.004688421322927982   -0.03602230189311464   -0.0018264983937063323
-0.0042593742057666865   -0.027987387016896133   -0.0017710001666487907
-0.004650076667585245   -0.03607135545950984   -0.0018110567518040154
-0.008285985883491716   -0.028134406919514365   -0.0018345918980178914
-0.004236777758516157   -0.0280240956500668   -0.0017455453740056902
-0.004650076667585245   -0.03607135545950984   -0.0018110567518040154
-0.0042593742057666865   -0.027987387016896133   -0.0017710001666487907
-0.008285985883491716   -0.028134406919514365   -0.0018345918980178914
-0.004650076667585245   -0.03607135545950984   -0.0018110567518040154
-0.008621161380245572   -0.03614471438330411   -0.0019303622544243567
-0.008668650482749929   -0.03606771044982452   -0.0019322481906053923
-0.008285985883491716   -0.028134406919514365   -0.0018345918980178914
-0.004650076667585245   -0.03607135545950984   -0.0018110567518040154
-0.008668650482749929   -0.03606771044982452   -0.0019322481906053923
-0.0042593742057666865   -0.027987387016896133   -0.0017710001666487907
-0.004293701444550165   -0.02790355866377461   -0.0018459282202016461
-0.004755567408832639   -0.03594670874094072   -0.0018823110869107655
-0.00036747987997912075   -0.02788879318690645   -0.0017902641636680261
-0.004278240015227167   -0.027947252289886582   -0.0018045249624219267
-0.004755567408832639   -0.03594670874094072   -0.0018823110869107655
-0.0008944417919017649   -0.03592556292711324   -0.0018506602060490238
-0.00036747987997912075   -0.02788879318690645   -0.0017902641636680261
-0.0008571782093222249   -0.03593338190296653   -0.001805370487270817
-0.004278240015227167   -0.027947252289886582   -0.0018045249624219267
-0.0003460173655766625   -0.02790338993531316   -0.0017552888976613747
-0.0008571782093222249   -0.03593338190296653   -0.001805370487270817
-0.00036747987997912075   -0.02788879318690645   -0.0017902641636680261
-0.004278240015227167   -0.027947252289886582   -0.0018045249624219267
-0.0008571782093222249   -0.03593338190296653   -0.001805370487270817
-0.004724020049250607   -0.03598079616412988   -0.0018503385501612607
-0.004755567408832639   -0.03594670874094072   -0.0018823110869107655
-0.004278240015227167   -0.027947252289886582   -0.0018045249624219267
-0.0008571782093222249   -0.03593338190296653   -0.001805370487270817
-0.004755567408832639   -0.03594670874094072   -0.0018823110869107655
-0.00036747987997912075   -0.02788879318690645   -0.0017902641636680261
-0.004278240015227167   -0.027947252289886582   -0.0018045249624219267
-0.004724020049250607   -0.03598079616412988   -0.0018503385501612607
-0.0003460173655766625   -0.02790338993531316   -0.0017552888976613747
-0.0042593742057666865   -0.027987387016896133   -0.0017710001666487907
-0.004724020049250607   -0.03598079616412988   -0.0018503385501612607
-0.0008571782093222249   -0.03593338190296653   -0.001805370487270817
-0.0003460173655766625   -0.02790338993531316   -0.0017552888976613747
-0.0008219114639110755   -0.03594804415945675   -0.0017681576482515013
-0.0042593742057666865   -0.027987387016896133   -0.0017710001666487907
-0.0003273812730352831   -0.02791417355916321   -0.001728125970051567
-0.0008219114639110755   -0.03594804415945675   -0.0017681576482515013
-0.0003460173655766625   -0.02790338993531316   -0.0017552888976613747
-0.0042593742057666865   -0.027987387016896133   -0.0017710001666487907
-0.0008219114639110755   -0.03594804415945675   -0.0017681576482515013
-0.004688421322927982   -0.03602230189311464   -0.0018264983937063323
-0.004724020049250607   -0.03598079616412988   -0.0018503385501612607
-0.0042593742057666865   -0.027987387016896133   -0.0017710001666487907
-0.0008219114639110755   -0.03594804415945675   -0.0017681576482515013
-0.004724020049250607   -0.03598079616412988   -0.0018503385501612607
-0.0003460173655766625   -0.02790338993531316   -0.0017552888976613747
-0.0042593742057666865   -0.027987387016896133   -0.0017710001666487907
-0.004688421322927982   -0.03602230189311464   -0.0018264983937063323
-0.0003273812730352831   -0.02791417355916321   -0.001728125970051567
-0.004236777758516157   -0.0280240956500668   -0.0017455453740056902
-0.004688421322927982   -0.03602230189311464   -0.0018264983937063323
-0.0008219114639110755   -0.03594804415945675   -0.0017681576482515013
-0.0003273812730352831   -0.02791417355916321   -0.001728125970051567
-0.0007919217345231819   -0.03596988156974449   -0.001739302683186945
-0.004236777758516157   -0.0280240956500668   -0.0017455453740056902
-0.0003130735041197502   -0.027921087349498924   -0.0017090590417873138
-0.0007919217345231819   -0.03596988156974449   -0.001739302683186945
-0.0003273812730352831   -0.02791417355916321   -0.001728125970051567
-0.004236777758516157   -0.0280240956500668   -0.0017455453740056902
-0.0007919217345231819   -0.03596988156974449   -0.001739302683186945
-0.004650076667585245   -0.03607135545950984   -0.0018110567518040154
-0.004688421322927982   -0.03602230189311464   -0.0018264983937063323
-0.004236777758516157   -0.0280240956500668   -0.0017455453740056902
-0.0007919217345231819   -0.03596988156974449   -0.001739302683186945
-0.004688421322927982   -0.03602230189311464   -0.0018264983937063323
-0.0003273812730352831   -0.02791417355916321   -0.001728125970051567
-0.00036747987997912075   -0.02788879318690645   -0.0017902641636680261
-0.0008944417919017649   -0.03592556292711324   -0.0018506602060490238
0.0036784859211401386   -0.02788238067435615   -0.0017872777730254224
-0.0003460173655766625   -0.02790338993531316   -0.0017552888976613747
-0.0008944417919017649   -0.03592556292711324   -0.0018506602060490238
0.0030826805877549814   -0.0358785966502668   -0.0018666384822983682
0.0036784859211401386   -0.02788238067435615   -0.0017872777730254224
0.0031301638889360893   -0.03586005036500287   -0.0018082596953446733
-0.0003460173655766625   -0.02790338993531316   -0.0017552888976613747
0.003706827666225603   -0.027868780909392956   -0.0017590507708734578
0.0031301638889360893   -0.03586005036500287   -0.0018082596953446733
0.0036784859211401386   -0.02788238067435615   -0.0017872777730254224
-0.0003460173655766625   -0.02790338993531316   -0.0017552888976613747
0.0031301638889360893   -0.03586005036500287   -0.0018082596953446733
-0.0008571782093222249   -0.03593338190296653   -0.001805370487270817
-0.0008944417919017649   -0.03592556292711324   -0.0018506602060490238
-0.0003460173655766625   -0.02790338993531316   -0.0017552888976613747
0.0031301638889360893   -0.03586005036500287   -0.0018082596953446733
-0.0008944417919017649   -0.03592556292711324   -0.0018506602060490238
0.0036784859211401386   -0.02788238067435615   -0.0017872777730254224
-0.0003460173655766625   -0.02790338993531316   -0.0017552888976613747
-0.0008571782093222249   -0.03593338190296653   -0.001805370487270817
0.003706827666225603   -0.027868780909392956   -0.0017590507708734578
-0.0003273812730352831   -0.02791417355916321   -0.001728125970051567
-0.0008571782093222249   -0.03593338190296653   -0.001805370487270817
0.0031301638889360893   -0.03586005036500287   -0.0018082596953446733
0.003706827666225603   -0.027868780909392956   -0.0017590507708734578
0.0031740987968951985   -0.03585040007468316   -0.0017579323260208451
-0.0003273812730352831   -0.02791417355916321   -0.001728125970051567
0.0037259738106850417   -0.027853004842581377   -0.0017384107606115806
0.0031740987968951985   -0.03585040007468316   -0.0017579323260208451
0.003706827666225603   -0.027868780909392956   -0.0017590507708734578
-0.0003273812730352831   -0.02791417355916321   -0.001728125970051567
0.0031740987968951985   -0.03585040007468316   -0.0017579323260208451
-0.0008219114639110755   -0.03594804415945675   -0.0017681576482515013
-0.0008571782093222249   -0.03593338190296653   -0.001805370487270817
-0.0003273812730352831   -0.02791417355916321   -0.001728125970051567
0.0031740987968951985   -0.03585040007468316   -0.0017579323260208451
-0.0008571782093222249   -0.03593338190296653   -0.001805370487270817
0.003706827666225603   -0.027868780909392956   -0.0017590507708734578
-0.0003273812730352831   -0.02791417355916321   -0.001728125970051567
-0.0008219114639110755   -0.03594804415945675   -0.0017681576482515013
0.0037259738106850417   -0.027853004842581377   -0.0017384107606115806
-0.0003130735041197502   -0.027921087349498924   -0.0017090590417873138
-0.0008219114639110755   -0.03594804415945675   -0.0017681576482515013
0.0031740987968951985   -0.03585040007468316   -0.0017579323260208451
0.0037259738106850417   -0.027853004842581377   -0.0017384107606115806
0.0031978298849432148   -0.03584500602706098   -0.0017151307130706848
-0.0003130735041197502   -0.027921087349498924   -0.0017090590417873138
0.003730244191023351   -0.027829901069723665   -0.0017252032179383109
0.0031978298849432148   -0.03584500602706098   -0.0017151307130706848
0.0037259738106850417   -0.027853004842581377   -0.0017384107606115806
-0.0003130735041197502   -0.027921087349498924   -0.0017090590417873138
0.0031978298849432148   -0.03584500602706098   -0.0017151307130706848
-0.0007919217345231819   -0.03596988156974449   -0.001739302683186945
-0.0008219114639110755   -0.03594804415945675   -0.0017681576482515013
-0.0003130735041197502   -0.027921087349498924   -0.0017090590417873138
0.0031978298849432148   -0.03584500602706098   -0.0017151307130706848
-0.0008219114639110755   -0.03594804415945675   -0.0017681576482515013
0.0037259738106850417   -0.027853004842581377   -0.0017384107606115806
0.0036784859211401386   -0.02788238067435615   -0.0017872777730254224
0.0030826805877549814   -0.0358785966502668   -0.0018666384822983682
0.008062737565836095   -0.027873375577928836   -0.001831758244728153
0.003706827666225603   -0.027868780909392956   -0.0017590507708734578
0.0030826805877549814   -0.0358785966502668   -0.0018666384822983682
0.007340185363713895   -0.035799612406659354   -0.0019327903599307664
0.008062737565836095   -0.027873375577928836   -0.001831758244728153
0.00746384108997807   -0.03575714990829476   -0.0018560857652351625
0.003706827666225603   -0.027868780909392956   -0.0017590507708734578
0.008118073238650951   -0.027837475426655003   -0.0018084641231636256
0.00746384108997807   -0.03575714990829476   -0.0018560857652351625
0.008062737565836095   -0.027873375577928836   -0.001831758244728153
0.003706827666225603   -0.027868780909392956   -0.0017590507708734578
0.00746384108997807   -0.03575714990829476   -0.0018560857652351625
0.0031301638889360893   -0.03586005036500287   -0.0018082596953446733
0.0030826805877549814   -0.0358785966502668   -0.0018666384822983682
0.003706827666225603   -0.027868780909392956   -0.0017590507708734578
0.00746384108997807   -0.03575714990829476   -0.0018560857652351625
0.0030826805877549814   -0.0358785966502668   -0.0018666384822983682
0.008062737565836095   -0.027873375577928836   -0.001831758244728153
0.003706827666225603   -0.027868780909392956   -0.0017590507708734578
0.0031301638889360893   -0.03586005036500287   -0.0018082596953446733
0.008118073238650951   -0.027837475426655003   -0.0018084641231636256
0.0037259738106850417   -0.027853004842581377   -0.0017384107606115806
0.0031301638889360893   -0.03586005036500287   -0.0018082596953446733
0.00746384108997807   -0.03575714990829476   -0.0018560857652351625
0.008118073238650951   -0.027837475426655003   -0.0018084641231636256
0.007548939634508889   -0.0357365503172022   -0.0017908529242199275
0.0037259738106850417   -0.027853004842581377   -0.0017384107606115806
0.008147603014016248   -0.027809164881451767   -0.0017967029373340037
0.007548939634508889   -0.0357365503172022   -0.0017908529242199275
0.008118073238650951   -0.027837475426655003   -0.0018084641231636256
0.0037259738106850417   -0.027853004842581377   -0.0017384107606115806
0.007548939634508889   -0.0357365503172022   -0.0017908529242199275
0.0031740987968951985   -0.03585040007468316   -0.0017579323260208451
0.0031301638889360893   -0.03586005036500287   -0.0018082596953446733
0.0037259738106850417   -0.027853004842581377   -0.0017384107606115806
0.007548939634508889   -0.0357365503172022   -0.0017908529242199275
0.0031301638889360893   -0.03586005036500287   -0.0018082596953446733
0.008118073238650951   -0.027837475426655003   -0.0018084641231636256
0.0037259738106850417   -0.027853004842581377   -0.0017384107606115806
0.0031740987968951985   -0.03585040007468316   -0.0017579323260208451
0.008147603014016248   -0.027809164881451767   -0.0017967029373340037
0.003730244191023351   -0.027829901069723665   -0.0017252032179383109
0.0031740987968951985   -0.03585040007468316   -0.0017579323260208451
0.007548939634508889   -0.0357365503172022   -0.0017908529242199275
0.008147603014016248   -0.027809164881451767   -0.0017967029373340037
0.007624673525516691   -0.035714227826570084   -0.0017375694189109081
0.003730244191023351   -0.027829901069723665   -0.0017252032179383109
0.008155316802010943   -0.027763866483229125   -0.0017966714233950169
0.007624673525516691   -0.035714227826570084   -0.0017375694189109081
0.008147603014016248   -0.027809164881451767   -0.0017967029373340037
0.003730244191023351   -0.027829901069723665   -0.0017252032179383109
0.007624673525516691   -0.035714227826570084   -0.0017375694189109081
0.0031978298849432148   -0.03584500602706098   -0.0017151307130706848
0.0031740987968951985   -0.03585040007468316   -0.0017579323260208451
0.003730244191023351   -0.027829901069723665   -0.0017252032179383109
0.007624673525516691   -0.035714227826570084   -0.0017375694189109081
0.0031740987968951985   -0.03585040007468316   -0.0017579323260208451
0.008147603014016248   -0.027809164881451767   -0.0017967029373340037
-0.013066633919701955   -0.035921398768207304   -0.0020770564407929164
-0.01271503874074599   -0.043507437253694076   -0.0019863258018566437
-0.008729048176218418   -0.0359422507195825   -0.0019600585574462465
-0.013051192893650799   -0.036001007812906716   -0.002073477166488472
-0.01271503874074599   -0.043507437253694076   -0.0019863258018566437
-0.008692712726635247   -0.043594785268059155   -0.001915960959423414
-0.008729048176218418   -0.0359422507195825   -0.0019600585574462465
-0.008641727681344177   -0.043639159355282044   -0.0019266462382643847
-0.013051192893650799   -0.036001007812906716   -0.002073477166488472
-0.008705392251771625   -0.03600173820853643   -0.0019421016416956442
-0.008641727681344177   -0.043639159355282044   -0.0019266462382643847
-0.008729048176218418   -0.0359422507195825   -0.0019600585574462465
-0.013051192893650799   -0.036001007812906716   -0.002073477166488472
-0.008641727681344177   -0.043639159355282044   -0.0019266462382643847
-0.012622982296043363   -0.043567357208364306   -0.002036812395364787
-0.01271503874074599   -0.043507437253694076   -0.0019863258018566437
-0.013051192893650799   -0.036001007812906716   -0.002073477166488472
-0.008641727681344177   -0.043639159355282044   -0.0019266462382643847
-0.01271503874074599   -0.043507437253694076   -0.0019863258018566437
-0.008729048176218418   -0.0359422507195825   -0.0019600585574462465
-0.013051192893650799   -0.036001007812906716   -0.002073477166488472
-0.012622982296043363   -0.043567357208364306   -0.002036812395364787
-0.008705392251771625   -0.03600173820853643   -0.0019421016416956442
-0.013010943076313843   -0.03607838062729558   -0.002082006074259428
-0.012622982296043363   -0.043567357208364306   -0.002036812395364787
-0.008641727681344177   -0.043639159355282044   -0.0019266462382643847
-0.008705392251771625   -0.03600173820853643   -0.0019421016416956442
-0.008572754194373543   -0.04370241052835546   -0.001945628734889448
-0.013010943076313843   -0.03607838062729558   -0.002082006074259428
-0.008668650482749929   -0.03606771044982452   -0.0019322481906053923
-0.008572754194373543   -0.04370241052835546   -0.001945628734889448
-0.008705392251771625   -0.03600173820853643   -0.0019421016416956442
-0.013010943076313843   -0.03607838062729558   -0.002082006074259428
-0.008572754194373543   -0.04370241052835546   -0.001945628734889448
-0.012518023383519322   -0.04364099333199917   -0.002100346205663565
-0.012622982296043363   -0.043567357208364306   -0.002036812395364787
-0.013010943076313843   -0.03607838062729558   -0.002082006074259428
-0.008572754194373543   -0.04370241052835546   -0.001945628734889448
-0.012622982296043363   -0.043567357208364306   -0.002036812395364787
-0.008705392251771625   -0.03600173820853643   -0.0019421016416956442
-0.013010943076313843   -0.03607838062729558   -0.002082006074259428
-0.012518023383519322   -0.04364099333199917   -0.002100346205663565
-0.008668650482749929   -0.03606771044982452   -0.0019322481906053923
-0.012945843388337775   -0.036178115986616285   -0.0021032610382755346
-0.012518023383519322   -0.04364099333199917   -0.002100346205663565
-0.008572754194373543   -0.04370241052835546   -0.001945628734889448
-0.008668650482749929   -0.03606771044982452   -0.0019322481906053923
-0.008498771313089844   -0.043788400902942046   -0.0019731492751344035
-0.012945843388337775   -0.036178115986616285   -0.0021032610382755346
-0.008621161380245572   -0.03614471438330411   -0.0019303622544243567
-0.008498771313089844   -0.043788400902942046   -0.0019731492751344035
-0.008668650482749929   -0.03606771044982452   -0.0019322481906053923
-0.012945843388337775   -0.036178115986616285   -0.0021032610382755346
-0.008498771313089844   -0.043788400902942046   -0.0019731492751344035
-0.012375187411194246   -0.04375313089143612   -0.002177173992011522
-0.012518023383519322   -0.04364099333199917   -0.002100346205663565
-0.012945843388337775   -0.036178115986616285   -0.0021032610382755346
-0.008498771313089844   -0.043788400902942046   -0.0019731492751344035
-0.012518023383519322   -0.04364099333199917   -0.002100346205663565
-0.008668650482749929   -0.03606771044982452   -0.0019322481906053923
-0.008729048176218418   -0.0359422507195825   -0.0019600585574462465
-0.008692712726635247   -0.043594785268059155   -0.001915960959423414
-0.004755567408832639   -0.03594670874094072   -0.0018823110869107655
-0.008705392251771625   -0.03600173820853643   -0.0019421016416956442
-0.008692712726635247   -0.043594785268059155   -0.001915960959423414
-0.0050864985719211095   -0.0436292502425488   -0.0018709483825917585
-0.004755567408832639   -0.03594670874094072   -0.0018823110869107655
-0.005031008451532813   -0.043652287869409535   -0.001847663403150891
-0.008705392251771625   -0.03600173820853643   -0.0019421016416956442
-0.004724020049250607   -0.03598079616412988   -0.0018503385501612607
-0.005031008451532813   -0.043652287869409535   -0.001847663403150891
-0.004755567408832639   -0.03594670874094072   -0.0018823110869107655
-0.008705392251771625   -0.03600173820853643   -0.0019421016416956442
-0.005031008451532813   -0.043652287869409535   -0.001847663403150891
-0.008641727681344177   -0.043639159355282044   -0.0019266462382643847
-0.008692712726635247   -0.043594785268059155   -0.001915960959423414
-0.008705392251771625   -0.03600173820853643   -0.0019421016416956442
-0.005031008451532813   -0.043652287869409535   -0.001847663403150891
-0.008692712726635247   -0.043594785268059155   -0.001915960959423414
-0.004755567408832639   -0.03594670874094072   -0.0018823110869107655
-0.008705392251771625   -0.03600173820853643   -0.0019421016416956442
-0.008641727681344177   -0.043639159355282044   -0.0019266462382643847
-0.004724020049250607   -0.03598079616412988   -0.0018503385501612607
-0.008668650482749929   -0.03606771044982452   -0.0019322481906053923
-0.008641727681344177   -0.043639159355282044   -0.0019266462382643847
-0.005031008451532813   -0.043652287869409535   -0.001847663403150891
-0.004724020049250607   -0.03598079616412988   -0.0018503385501612607
-0.004971329159915843   -0.04369346936105446   -0.0018325738172693172
-0.008668650482749929   -0.03606771044982452   -0.0019322481906053923
-0.004688421322927982   -0.03602230189311464   -0.0018264983937063323
-0.004971329159915843   -0.04369346936105446   -0.0018325738172693172
-0.004724020049250607   -0.03598079616412988   -0.0018503385501612607
-0.008668650482749929   -0.03606771044982452   -0.0019322481906053923
-0.004971329159915843   -0.04369346936105446   -0.0018325738172693172
-0.008572754194373543   -0.04370241052835546   -0.001945628734889448
-0.008641727681344177   -0.043639159355282044   -0.0019266462382643847
-0.008668650482749929   -0.03606771044982452   -0.0019322481906053923
-0.004971329159915843   -0.04369346936105446   -0.0018325738172693172
-0.008641727681344177   -0.043639159355282044   -0.0019266462382643847
-0.004724020049250607   -0.03598079616412988   -0.0018503385501612607
-0.008668650482749929   -0.03606771044982452   -0.0019322481906053923
-0.008572754194373543   -0.04370241052835546   -0.001945628734889448
-0.004688421322927982   -0.03602230189311464   -0.0018264983937063323
-0.008621161380245572   -0.03614471438330411   -0.0019303622544243567
-0.008572754194373543   -0.04370241052835546   -0.001945628734889448
-0.004971329159915843   -0.04369346936105446   -0.0018325738172693172
-0.004688421322927982   -0.03602230189311464   -0.0018264983937063323
-0.0049099865661431305   -0.043753312385202005   -0.0018260829288376766
-0.008621161380245572   -0.03614471438330411   -0.0019303622544243567
-0.004650076667585245   -0.03607135545950984   -0.0018110567518040154
-0.0049099865661431305   -0.043753312385202005   -0.0018260829288376766
-0.004688421322927982   -0.03602230189311464   -0.0018264983937063323
-0.008621161380245572   -0.03614471438330411   -0.0019303622544243567
-0.0049099865661431305   -0.043753312385202005   -0.0018260829288376766
-0.008498771313089844   -0.043788400902942046   -0.0019731492751344035
-0.008572754194373543   -0.04370241052835546   -0.001945628734889448
-0.008621161380245572   -0.03614471438330411   -0.0019303622544243567
-0.0049099865661431305   -0.043753312385202005   -0.0018260829288376766
-0.008572754194373543   -0.04370241052835546   -0.001945628734889448
-0.004688421322927982   -0.03602230189311464   -0.0018264983937063323
-0.004755567408832639   -0.03594670874094072   -0.0018823110869107655
-0.0050864985719211095   -0.0436292502425488   -0.0018709483825917585
-0.0008944417919017649   -0.03592556292711324   -0.0018506602060490238
-0.004724020049250607   -0.03598079616412988   -0.0018503385501612607
-0.0050864985719211095   -0.0436292502425488   -0.0018709483825917585
-0.001589395731371996   -0.04360259960489426   -0.001863666276177574
-0.0008944417919017649   -0.03592556292711324   -0.0018506602060490238
-0.0015280259753533648   -0.04360304818425672   -0.001807576242448099
-0.004724020049250607   -0.03598079616412988   -0.0018503385501612607
-0.0008571782093222249   -0.03593338190296653   -0.001805370487270817
-0.0015280259753533648   -0.04360304818425672   -0.001807576242448099
-0.0008944417919017649   -0.03592556292711324   -0.0018506602060490238
-0.004724020049250607   -0.03598079616412988   -0.0018503385501612607
-0.0015280259753533648   -0.04360304818425672   -0.001807576242448099
-0.005031008451532813   -0.043652287869409535   -0.001847663403150891
-0.0050864985719211095   -0.0436292502425488   -0.0018709483825917585
-0.004724020049250607   -0.03598079616412988   -0.0018503385501612607
-0.0015280259753533648   -0.04360304818425672   -0.001807576242448099
-0.0050864985719211095   -0.0436292502425488   -0.0018709483825917585
-0.0008944417919017649   -0.03592556292711324   -0.0018506602060490238
-0.004724020049250607   -0.03598079616412988   -0.0018503385501612607
-0.005031008451532813   -0.043652287869409535   -0.001847663403150891
-0.0008571782093222249   -0.03593338190296653   -0.001805370487270817
-0.004688421322927982   -0.03602230189311464   -0.0018264983937063323
-0.005031008451532813   -0.043652287869409535   -0.001847663403150891
-0.0015280259753533648   -0.04360304818425672   -0.001807576242448099
-0.0008571782093222249   -0.03593338190296653   -0.001805370487270817
-0.0014682561651844061   -0.0436203207746669   -0.0017597035688567762
-0.004688421322927982   -0.03602230189311464   -0.0018264983937063323
-0.0008219114639110755   -0.03594804415945675   -0.0017681576482515013
-0.0014682561651844061   -0.0436203207746669   -0.0017597035688567762
-0.0008571782093222249   -0.03593338190296653   -0.001805370487270817
-0.004688421322927982   -0.03602230189311464   -0.0018264983937063323
-0.0014682561651844061   -0.0436203207746669   -0.0017597035688567762
-0.004971329159915843   -0.04369346936105446   -0.0018325738172693172
-0.005031008451532813   -0.043652287869409535   -0.001847663403150891
-0.004688421322927982   -0.03602230189311464   -0.0018264983937063323
-0.0014682561651844061   -0.0436203207746669   -0.0017597035688567762
-0.005031008451532813   -0.043652287869409535   -0.001847663403150891
-0.0008571782093222249   -0.03593338190296653   -0.001805370487270817
-0.004688421322927982   -0.03602230189311464   -0.0018264983937063323
-0.004971329159915843   -0.04369346936105446   -0.0018325738172693172
-0.0008219114639110755   -0.03594804415945675   -0.0017681576482515013
-0.004650076667585245   -0.03607135545950984   -0.0018110567518040154
-0.004971329159915843   -0.04369346936105446   -0.0018325738172693172
-0.0014682561651844061   -0.0436203207746669   -0.0017597035688567762
-0.0008219114639110755   -0.03594804415945675   -0.0017681576482515013
-0.001414903128255795   -0.04365584089518039   -0.0017203331589852001
-0.004650076667585245   -0.03607135545950984   -0.0018110567518040154
-0.0007919217345231819   -0.03596988156974449   -0.001739302683186945
-0.001414903128255795   -0.04365584089518039   -0.0017203331589852001
-0.0008219114639110755   -0.03594804415945675   -0.0017681576482515013
-0.004650076667585245   -0.03607135545950984   -0.0018110567518040154
-0.001414903128255795   -0.04365584089518039   -0.0017203331589852001
-0.0049099865661431305   -0.043753312385202005   -0.0018260829288376766
-0.004971329159915843   -0.04369346936105446   -0.0018325738172693172
-0.004650076667585245   -0.03607135545950984   -0.0018110567518040154
-0.001414903128255795   -0.04365584089518039   -0.0017203331589852001
-0.004971329159915843   -0.04369346936105446   -0.0018325738172693172
-0.0008219114639110755   -0.03594804415945675   -0.0017681576482515013
-0.0008944417919017649   -0.03592556292711324   -0.0018506602060490238
-0.001589395731371996   -0.04360259960489426   -0.001863666276177574
0.0030826805877549814   -0.0358785966502668   -0.0018666384822983682
-0.0008571782093222249   -0.03593338190296653   -0.001805370487270817
-0.001589395731371996   -0.04360259960489426   -0.001863666276177574
0.002027822367819819   -0.04351659361402423   -0.0018970732801250234
0.0030826805877549814   -0.0358785966502668   -0.0018666384822983682
0.002102866229769564   -0.0434929294096162   -0.0018084787101672751
-0.0008571782093222249   -0.03593338190296653   -0.001805370487270817
0.0031301638889360893   -0.03586005036500287   -0.0018082596953446733
0.002102866229769564   -0.0434929294096162   -0.0018084787101672751
0.0030826805877549814   -0.0358785966502668   -0.0018666384822983682
-0.0008571782093222249   -0.03593338190296653   -0.001805370487270817
0.002102866229769564   -0.0434929294096162   -0.0018084787101672751
-0.0015280259753533648   -0.04360304818425672   -0.001807576242448099
-0.001589395731371996   -0.04360259960489426   -0.001863666276177574
-0.0008571782093222249   -0.03593338190296653   -0.001805370487270817
0.002102866229769564   -0.0434929294096162   -0.0018084787101672751
-0.001589395731371996   -0.04360259960489426   -0.001863666276177574
0.0030826805877549814   -0.0358785966502668   -0.0018666384822983682
-0.0008571782093222249   -0.03593338190296653   -0.001805370487270817
-0.0015280259753533648   -0.04360304818425672   -0.001807576242448099
0.0031301638889360893   -0.03586005036500287   -0.0018082596953446733
-0.0008219114639110755   -0.03594804415945675   -0.0017681576482515013
-0.0015280259753533648   -0.04360304818425672   -0.001807576242448099
0.002102866229769564   -0.0434929294096162   -0.0018084787101672751
0.0031301638889360893   -0.03586005036500287   -0.0018082596953446733
0.0021798468573571606   -0.043488490160642   -0.0017286255664206384
-0.0008219114639110755   -0.03594804415945675   -0.0017681576482515013
0.0031740987968951985   -0.03585040007468316   -0.0017579323260208451
0.0021798468573571606   -0.043488490160642   -0.0017286255664206384
0.0031301638889360893   -0.03586005036500287   -0.0018082596953446733
-0.0008219114639110755   -0.03594804415945675   -0.0017681576482515013
0.0021798468573571606   -0.043488490160642   -0.0017286255664206384
-0.0014682561651844061   -0.0436203207746669   -0.0017597035688567762
-0.0015280259753533648   -0.04360304818425672   -0.001807576242448099
-0.0008219114639110755   -0.03594804415945675   -0.0017681576482515013
0.0021798468573571606   -0.043488490160642   -0.0017286255664206384
-0.0015280259753533648   -0.04360304818425672   -0.001807576242448099
0.0031301638889360893   -0.03586005036500287   -0.0018082596953446733
-0.0008219114639110755   -0.03594804415945675   -0.0017681576482515013
-0.0014682561651844061   -0.0436203207746669   -0.0017597035688567762
0.0031740987968951985   -0.03585040007468316   -0.0017579323260208451
-0.0007919217345231819   -0.03596988156974449   -0.001739302683186945
-0.0014682561651844061   -0.0436203207746669   -0.0017597035688567762
0.0021798468573571606   -0.043488490160642   -0.0017286255664206384
0.0031740987968951985   -0.03585040007468316   -0.0017579323260208451
0.0022310970435070808   -0.043499735257181954   -0.0016563604028469825
-0.0007919217345231819   -0.03596988156974449   -0.001739302683186945
0.0031978298849432148   -0.03584500602706098   -0.0017151307130706848
0.0022310970435070808   -0.043499735257181954   -0.0016563604028469825
0.0031740987968951985   -0.03585040007468316   -0.0017579323260208451
-0.0007919217345231819   -0.03596988156974449   -0.001739302683186945
0.0022310970435070808   -0.043499735257181954   -0.0016563604028469825
-0.001414903128255795   -0.04365584089518039   -0.0017203331589852001
-0.0014682561651844061   -0.0436203207746669   -0.0017597035688567762
-0.0007919217345231819   -0.03596988156974449   -0.001739302683186945
0.0022310970435070808   -0.043499735257181954   -0.0016563604028469825
-0.0014682561651844061   -0.0436203207746669   -0.0017597035688567762
0.0031740987968951985   -0.03585040007468316   -0.0017579323260208451
0.0030826805877549814   -0.0358785966502668   -0.0018666384822983682
0.002027822367819819   -0.04351659361402423   -0.0018970732801250234
0.007340185363713895   -0.035799612406659354   -0.0019327903599307664
0.0031301638889360893   -0.03586005036500287   -0.0018082596953446733
0.002027822367819819   -0.04351659361402423   -0.0018970732801250234
0.005874911902530613   -0.043368703807530225   -0.0019830048865744987
0.007340185363713895   -0.035799612406659354   -0.0019327903599307664
0.006074603555355235   -0.04331999135896324   -0.0018540442909367528
0.0031301638889360893   -0.03586005036500287   -0.0018082596953446733
0.00746384108997807   -0.03575714990829476   -0.0018560857652351625
0.006074603555355235   -0.04331999135896324   -0.0018540442909367528
0.007340185363713895   -0.035799612406659354   -0.0019327903599307664
0.0031301638889360893   -0.03586005036500287   -0.0018082596953446733
0.006074603555355235   -0.04331999135896324   -0.0018540442909367528
0.002102866229769564   -0.0434929294096162   -0.0018084787101672751
0.002027822367819819   -0.04351659361402423   -0.0018970732801250234
0.0031301638889360893   -0.03586005036500287   -0.0018082596953446733
0.006074603555355235   -0.04331999135896324   -0.0018540442909367528
0.002027822367819819   -0.04351659361402423   -0.0018970732801250234
0.007340185363713895   -0.035799612406659354   -0.0019327903599307664
0.0031301638889360893   -0.03586005036500287   -0.0018082596953446733
0.002102866229769564   -0.0434929294096162   -0.0018084787101672751
0.00746384108997807   -0.03575714990829476   -0.0018560857652351625
0.0031740987968951985   -0.03585040007468316   -0.0017579323260208451
0.002102866229769564   -0.0434929294096162   -0.0018084787101672751
0.006074603555355235   -0.04331999135896324   -0.0018540442909367528
0.00746384108997807   -0.03575714990829476   -0.0018560857652351625
0.006222544494220221   -0.043306572419913605   -0.00173671339959097
0.0031740987968951985   -0.03585040007468316   -0.0017579323260208451
0.007548939634508889   -0.0357365503172022   -0.0017908529242199275
0.006222544494220221   -0.043306572419913605   -0.00173671339959097
0.00746384108997807   -0.03575714990829476   -0.0018560857652351625
0.0031740987968951985   -0.03585040007468316   -0.0017579323260208451
0.006222544494220221   -0.043306572419913605   -0.00173671339959097
0.0021798468573571606   -0.043488490160642   -0.0017286255664206384
0.002102866229769564   -0.0434929294096162   -0.0018084787101672751
0.0031740987968951985   -0.03585040007468316   -0.0017579323260208451
0.006222544494220221   -0.043306572419913605   -0.00173671339959097
0.002102866229769564   -0.0434929294096162   -0.0018084787101672751
0.00746384108997807   -0.03575714990829476   -0.0018560857652351625
0.0031740987968951985   -0.03585040007468316   -0.0017579323260208451
0.0021798468573571606   -0.043488490160642   -0.0017286255664206384
0.007548939634508889   -0.0357365503172022   -0.0017908529242199275
0.0031978298849432148   -0.03584500602706098   -0.0017151307130706848
0.0021798468573571606   -0.043488490160642   -0.0017286255664206384
0.006222544494220221   -0.043306572419913605   -0.00173671339959097
0.007548939634508889   -0.0357365503172022   -0.0017908529242199275
0.006372657156956752   -0.04330647033756676   -0.001631545664912939
0.0031978298849432148   -0.03584500602706098   -0.0017151307130706848
0.007624673525516691   -0.035714227826570084   -0.0017375694189109081
0.006372657156956752   -0.04330647033756676   -0.001631545664912939
0.007548939634508889   -0.0357365503172022   -0.0017908529242199275
0.0031978298849432148   -0.03584500602706098   -0.0017151307130706848
0.006372657156956752   -0.04330647033756676   -0.001631545664912939
0.0022310970435070808   -0.043499735257181954   -0.0016563604028469825
0.0021798468573571606   -0.043488490160642   -0.0017286255664206384
0.0031978298849432148   -0.03584500602706098   -0.0017151307130706848
0.006372657156956752   -0.04330647033756676   -0.001631545664912939
0.0021798468573571606   -0.043488490160642   -0.0017286255664206384
0.007548939634508889   -0.0357365503172022   -0.0017908529242199275
-0.01271503874074599   -0.043507437253694076   -0.0019863258018566437
-0.011604519579394587   -0.05021749360593007   -0.001852672034412953
-0.008692712726635247   -0.043594785268059155   -0.001915960959423414
-0.012622982296043363   -0.043567357208364306   -0.002036812395364787
-0.011604519579394587   -0.05021749360593007   -0.001852672034412953
-0.008219813324307029   -0.05037488256094059   -0.0018413979968024633
-0.008692712726635247   -0.043594785268059155   -0.001915960959423414
-0.008135509531356066   -0.0503976344418612   -0.0018786423261884613
-0.012622982296043363   -0.043567357208364306   -0.002036812395364787
-0.008641727681344177   -0.043639159355282044   -0.0019266462382643847
-0.008135509531356066   -0.0503976344418612   -0.0018786423261884613
-0.008692712726635247   -0.043594785268059155   -0.001915960959423414
-0.012622982296043363   -0.043567357208364306   -0.002036812395364787
-0.008135509531356066   -0.0503976344418612   -0.0018786423261884613
-0.011428785105897836   -0.05025124191047957   -0.0019570040314979883
-0.011604519579394587   -0.05021749360593007   -0.001852672034412953
-0.012622982296043363   -0.043567357208364306   -0.002036812395364787
-0.008135509531356066   -0.0503976344418612   -0.0018786423261884613
-0.011604519579394587   -0.05021749360593007   -0.001852672034412953
-0.008692712726635247   -0.043594785268059155   -0.001915960959423414
-0.012622982296043363   -0.043567357208364306   -0.002036812395364787
-0.011428785105897836   -0.05025124191047957   -0.0019570040314979883
-0.008641727681344177   -0.043639159355282044   -0.0019266462382643847
-0.012518023383519322   -0.04364099333199917   -0.002100346205663565
-0.011428785105897836   -0.05025124191047957   -0.0019570040314979883
-0.008135509531356066   -0.0503976344418612   -0.0018786423261884613
-0.008641727681344177   -0.043639159355282044   -0.0019266462382643847
-0.008029615813218075   -0.05045220663684838   -0.001924296289526468
-0.012518023383519322   -0.04364099333199917   -0.002100346205663565
-0.008572754194373543   -0.04370241052835546   -0.001945628734889448
-0.008029615813218075   -0.05045220663684838   -0.001924296289526468
-0.008641727681344177   -0.043639159355282044   -0.0019266462382643847
-0.012518023383519322   -0.04364099333199917   -0.002100346205663565
-0.008029615813218075   -0.05045220663684838   -0.001924296289526468
-0.01125357322138952   -0.05031528899547333   -0.0020750284597864555
-0.011428785105897836   -0.05025124191047957   -0.0019570040314979883
-0.012518023383519322   -0.04364099333199917   -0.002100346205663565
-0.008029615813218075   -0.05045220663684838   -0.001924296289526468
-0.011428785105897836   -0.05025124191047957   -0.0019570040314979883
-0.008641727681344177   -0.043639159355282044   -0.0019266462382643847
-0.012518023383519322   -0.04364099333199917   -0.002100346205663565
-0.01125357322138952   -0.05031528899547333   -0.0020750284597864555
-0.008572754194373543   -0.04370241052835546   -0.001945628734889448
-0.012375187411194246   -0.04375313089143612   -0.002177173992011522
-0.01125357322138952   -0.05031528899547333   -0.0020750284597864555
-0.008029615813218075   -0.05045220663684838   -0.001924296289526468
-0.008572754194373543   -0.04370241052835546   -0.001945628734889448
-0.007925146959425573   -0.050541700083645086   -0.0019782806988937348
-0.012375187411194246   -0.04375313089143612   -0.002177173992011522
-0.008498771313089844   -0.043788400902942046   -0.0019731492751344035
-0.007925146959425573   -0.050541700083645086   -0.0019782806988937348
-0.008572754194373543   -0.04370241052835546   -0.001945628734889448
-0.012375187411194246   -0.04375313089143612   -0.002177173992011522
-0.007925146959425573   -0.050541700083645086   -0.0019782806988937348
-0.011029159825365608   -0.050434718457944096   -0.002206499008939117
-0.01125357322138952   -0.05031528899547333   -0.0020750284597864555
-0.012375187411194246   -0.04375313089143612   -0.002177173992011522
-0.007925146959425573   -0.050541700083645086   -0.0019782806988937348
-0.01125357322138952   -0.05031528899547333   -0.0020750284597864555
-0.008572754194373543   -0.04370241052835546   -0.001945628734889448
-0.008692712726635247   -0.043594785268059155   -0.001915960959423414
-0.008219813324307029   -0.05037488256094059   -0.0018413979968024633
-0.0050864985719211095   -0.0436292502425488   -0.0018709483825917585
-0.008641727681344177   -0.043639159355282044   -0.0019266462382643847
-0.008219813324307029   -0.05037488256094059   -0.0018413979968024633
-0.005288141833476562   -0.050448462014935046   -0.0018369686774972116
-0.0050864985719211095   -0.0436292502425488   -0.0018709483825917585
-0.005201674381941126   -0.0504559006403831   -0.001820266587537649
-0.008641727681344177   -0.043639159355282044   -0.0019266462382643847
-0.005031008451532813   -0.043652287869409535   -0.001847663403150891
-0.005201674381941126   -0.0504559006403831   -0.001820266587537649
-0.0050864985719211095   -0.0436292502425488   -0.0018709483825917585
-0.008641727681344177   -0.043639159355282044   -0.0019266462382643847
-0.005201674381941126   -0.0504559006403831   -0.001820266587537649
-0.008135509531356066   -0.0503976344418612   -0.0018786423261884613
-0.008219813324307029   -0.05037488256094059   -0.0018413979968024633
-0.008641727681344177   -0.043639159355282044   -0.0019266462382643847
-0.005201674381941126   -0.0504559006403831   -0.001820266587537649
-0.008219813324307029   -0.05037488256094059   -0.0018413979968024633
-0.0050864985719211095   -0.0436292502425488   -0.0018709483825917585
-0.008641727681344177   -0.043639159355282044   -0.0019266462382643847
-0.008135509531356066   -0.0503976344418612   -0.0018786423261884613
-0.005031008451532813   -0.043652287869409535   -0.001847663403150891
-0.008572754194373543   -0.04370241052835546   -0.001945628734889448
-0.008135509531356066   -0.0503976344418612   -0.0018786423261884613
-0.005201674381941126   -0.0504559006403831   -0.001820266587537649
-0.005031008451532813   -0.043652287869409535   -0.001847663403150891
-0.005112418972517608   -0.05049175817934661   -0.0018117249942228616
-0.008572754194373543   -0.04370241052835546   -0.001945628734889448
-0.004971329159915843   -0.04369346936105446   -0.0018325738172693172
-0.005112418972517608   -0.05049175817934661   -0.0018117249942228616
-0.005031008451532813   -0.043652287869409535   -0.001847663403150891
-0.008572754194373543   -0.04370241052835546   -0.001945628734889448
-0.005112418972517608   -0.05049175817934661   -0.0018117249942228616
-0.008029615813218075   -0.05045220663684838   -0.001924296289526468
-0.008135509531356066   -0.0503976344418612   -0.0018786423261884613
-0.008572754194373543   -0.04370241052835546   -0.001945628734889448
-0.005112418972517608   -0.05049175817934661   -0.0018117249942228616
-0.008135509531356066   -0.0503976344418612   -0.0018786423261884613
-0.005031008451532813   -0.043652287869409535   -0.001847663403150891
-0.008572754194373543   -0.04370241052835546   -0.001945628734889448
-0.008029615813218075   -0.05045220663684838   -0.001924296289526468
-0.004971329159915843   -0.04369346936105446   -0.0018325738172693172
-0.008498771313089844   -0.043788400902942046   -0.0019731492751344035
-0.008029615813218075   -0.05045220663684838   -0.001924296289526468
-0.005112418972517608   -0.05049175817934661   -0.0018117249942228616
-0.004971329159915843   -0.04369346936105446   -0.0018325738172693172
-0.005023303861762748   -0.05055769575723197   -0.0018112436371026653
-0.008498771313089844   -0.043788400902942046   -0.0019731492751344035
-0.0049099865661431305   -0.043753312385202005   -0.0018260829288376766
-0.005023303861762748   -0.05055769575723197   -0.0018112436371026653
-0.004971329159915843   -0.04369346936105446   -0.0018325738172693172
-0.008498771313089844   -0.043788400902942046   -0.0019731492751344035
-0.005023303861762748   -0.05055769575723197   -0.0018112436371026653
-0.007925146959425573   -0.050541700083645086   -0.0019782806988937348
-0.008029615813218075   -0.05045220663684838   -0.001924296289526468
-0.008498771313089844   -0.043788400902942046   -0.0019731492751344035
-0.005023303861762748   -0.05055769575723197   -0.0018112436371026653
-0.008029615813218075   -0.05045220663684838   -0.001924296289526468
-0.004971329159915843   -0.04369346936105446   -0.0018325738172693172
-0.0050864985719211095   -0.0436292502425488   -0.0018709483825917585
-0.005288141833476562   -0.050448462014935046   -0.0018369686774972116
-0.001589395731371996   -0.04360259960489426   -0.001863666276177574
-0.005031008451532813   -0.043652287869409535   -0.001847663403150891
-0.005288141833476562   -0.050448462014935046   -0.0018369686774972116
-0.002453698764476345   -0.050434818804319215   -0.0018581134084480861
-0.001589395731371996   -0.04360259960489426   -0.001863666276177574
-0.002358989595244521   -0.050425048411408914   -0.0017893547612971715
-0.005031008451532813   -0.043652287869409535   -0.001847663403150891
-0.0015280259753533648   -0.04360304818425672   -0.001807576242448099
-0.002358989595244521   -0.050425048411408914   -0.0017893547612971715
-0.001589395731371996   -0.04360259960489426   -0.001863666276177574
-0.005031008451532813   -0.043652287869409535   -0.001847663403150891
-0.002358989595244521   -0.050425048411408914   -0.0017893547612971715
-0.005201674381941126   -0.0504559006403831   -0.001820266587537649
-0.005288141833476562   -0.050448462014935046   -0.0018369686774972116
-0.005031008451532813   -0.043652287869409535   -0.001847663403150891
-0.002358989595244521   -0.050425048411408914   -0.0017893547612971715
-0.005288141833476562   -0.050448462014935046   -0.0018369686774972116
-0.001589395731371996   -0.04360259960489426   -0.001863666276177574
-0.005031008451532813   -0.043652287869409535   -0.001847663403150891
-0.005201674381941126   -0.0504559006403831   -0.001820266587537649
-0.0015280259753533648   -0.04360304818425672   -0.001807576242448099
-0.004971329159915843   -0.04369346936105446   -0.0018325738172693172
-0.005201674381941126   -0.0504559006403831   -0.001820266587537649
-0.002358989595244521   -0.050425048411408914   -0.0017893547612971715
-0.0015280259753533648   -0.04360304818425672   -0.001807576242448099
-0.002267057687742339   -0.050440992052264835   -0.00172929544256989
-0.004971329159915843   -0.04369346936105446   -0.0018325738172693172
-0.0014682561651844061   -0.0436203207746669   -0.0017597035688567762
-0.002267057687742339   -0.050440992052264835   -0.00172929544256989
-0.0015280259753533648   -0.04360304818425672   -0.001807576242448099
-0.004971329159915843   -0.04369346936105446   -0.0018325738172693172
-0.002267057687742339   -0.050440992052264835   -0.00172929544256989
-0.005112418972517608   -0.05049175817934661   -0.0018117249942228616
-0.005201674381941126   -0.0504559006403831   -0.001820266587537649
-0.004971329159915843   -0.04369346936105446   -0.0018325738172693172
-0.002267057687742339   -0.050440992052264835   -0.00172929544256989
-0.005201674381941126   -0.0504559006403831   -0.001820266587537649
-0.0015280259753533648   -0.04360304818425672   -0.001807576242448099
-0.004971329159915843   -0.04369346936105446   -0.0018325738172693172
-0.005112418972517608   -0.05049175817934661   -0.0018117249942228616
-0.0014682561651844061   -0.0436203207746669   -0.0017597035688567762
-0.0049099865661431305   -0.043753312385202005   -0.0018260829288376766
-0.005112418972517608   -0.05049175817934661   -0.0018117249942228616
-0.002267057687742339   -0.050440992052264835   -0.00172929544256989
-0.0014682561651844061   -0.0436203207746669   -0.0017597035688567762
-0.00218398610710096   -0.05048635202025106   -0.0016771843929797615
-0.0049099865661431305   -0.043753312385202005   -0.0018260829288376766
-0.001414903128255795   -0.04365584089518039   -0.0017203331589852001
-0.00218398610710096   -0.05048635202025106   -0.0016771843929797615
-0.0014682561651844061   -0.0436203207746669   -0.0017597035688567762
-0.0049099865661431305   -0.043753312385202005   -0.0018260829288376766
-0.00218398610710096   -0.05048635202025106   -0.0016771843929797615
-0.005023303861762748   -0.05055769575723197   -0.0018112436371026653
-0.005112418972517608   -0.05049175817934661   -0.0018117249942228616
-0.0049099865661431305   -0.043753312385202005   -0.0018260829288376766
-0.00218398610710096   -0.05048635202025106   -0.0016771843929797615
-0.005112418972517608   -0.05049175817934661   -0.0018117249942228616
-0.0014682561651844061   -0.0436203207746669   -0.0017597035688567762
-0.001589395731371996   -0.04360259960489426   -0.001863666276177574
-0.002453698764476345   -0.050434818804319215   -0.0018581134084480861
0.002027822367819819   -0.04351659361402423   -0.0018970732801250234
-0.0015280259753533648   -0.04360304818425672   -0.001807576242448099
-0.002453698764476345   -0.050434818804319215   -0.0018581134084480861
0.0005128910204610315   -0.050330826933394905   -0.0019094296900653458
0.002027822367819819   -0.04351659361402423   -0.0018970732801250234
0.0006281347399321769   -0.050299221156251565   -0.001788784739204915
-0.0015280259753533648   -0.04360304818425672   -0.001807576242448099
0.002102866229769564   -0.0434929294096162   -0.0018084787101672751
0.0006281347399321769   -0.050299221156251565   -0.001788784739204915
0.002027822367819819   -0.04351659361402423   -0.0018970732801250234
-0.0015280259753533648   -0.04360304818425672   -0.001807576242448099
0.0006281347399321769   -0.050299221156251565   -0.001788784739204915
-0.002358989595244521   -0.050425048411408914   -0.0017893547612971715
-0.002453698764476345   -0.050434818804319215   -0.0018581134084480861
-0.0015280259753533648   -0.04360304818425672   -0.001807576242448099
0.0006281347399321769   -0.050299221156251565   -0.001788784739204915
-0.002453698764476345   -0.050434818804319215   -0.0018581134084480861
0.002027822367819819   -0.04351659361402423   -0.0018970732801250234
-0.0015280259753533648   -0.04360304818425672   -0.001807576242448099
-0.002358989595244521   -0.050425048411408914   -0.0017893547612971715
0.002102866229769564   -0.0434929294096162   -0.0018084787101672751
-0.0014682561651844061   -0.0436203207746669   -0.0017597035688567762
-0.002358989595244521   -0.050425048411408914   -0.0017893547612971715
0.0006281347399321769   -0.050299221156251565   -0.001788784739204915
0.002102866229769564   -0.0434929294096162   -0.0018084787101672751
0.0007496324319670713   -0.05029636294365979   -0.0016791632725815908
-0.0014682561651844061   -0.0436203207746669   -0.0017597035688567762
0.0021798468573571606   -0.043488490160642   -0.0017286255664206384
0.0007496324319670713   -0.05029636294365979   -0.0016791632725815908
0.002102866229769564   -0.0434929294096162   -0.0018084787101672751
-0.0014682561651844061   -0.0436203207746669   -0.0017597035688567762
0.0007496324319670713   -0.05029636294365979   -0.0016791632725815908
-0.002267057687742339   -0.050440992052264835   -0.00172929544256989
-0.002358989595244521   -0.050425048411408914   -0.0017893547612971715
-0.0014682561651844061   -0.0436203207746669   -0.0017597035688567762
0.0007496324319670713   -0.05029636294365979   -0.0016791632725815908
-0.002358989595244521   -0.050425048411408914   -0.0017893547612971715
0.002102866229769564   -0.0434929294096162   -0.0018084787101672751
-0.0014682561651844061   -0.0436203207746669   -0.0017597035688567762
-0.002267057687742339   -0.050440992052264835   -0.00172929544256989
0.0021798468573571606   -0.043488490160642   -0.0017286255664206384
-0.001414903128255795   -0.04365584089518039   -0.0017203331589852001
-0.002267057687742339   -0.050440992052264835   -0.00172929544256989
0.0007496324319670713   -0.05029636294365979   -0.0016791632725815908
0.0021798468573571606   -0.043488490160642   -0.0017286255664206384
0.0008384905067605646   -0.050320937133431394   -0.001577130191364925
-0.001414903128255795   -0.04365584089518039   -0.0017203331589852001
0.0022310970435070808   -0.043499735257181954   -0.0016563604028469825
0.0008384905067605646   -0.050320937133431394   -0.001577130191364925
0.0021798468573571606   -0.043488490160642   -0.0017286255664206384
-0.001414903128255795   -0.04365584089518039   -0.0017203331589852001
0.0008384905067605646   -0.050320937133431394   -0.001577130191364925
-0.00218398610710096   -0.05048635202025106   -0.0016771843929797615
-0.002267057687742339   -0.050440992052264835   -0.00172929544256989
-0.001414903128255795   -0.04365584089518039   -0.0017203331589852001
0.0008384905067605646   -0.050320937133431394   -0.001577130191364925
-0.002267057687742339   -0.050440992052264835   -0.00172929544256989
0.0021798468573571606   -0.043488490160642   -0.0017286255664206384
0.002027822367819819   -0.04351659361402423   -0.0018970732801250234
0.0005128910204610315   -0.050330826933394905   -0.0019094296900653458
0.005874911902530613   -0.043368703807530225   -0.0019830048865744987
0.002102866229769564   -0.0434929294096162   -0.0018084787101672751
0.0005128910204610315   -0.050330826933394905   -0.0019094296900653458
0.0036743287675038206   -0.05012664668742127   -0.0020189141869717602
0.005874911902530613   -0.043368703807530225   -0.0019830048865744987
0.003966593042988459   -0.05006602600356373   -0.0018342488973768114
0.002102866229769564   -0.0434929294096162   -0.0018084787101672751
0.006074603555355235   -0.04331999135896324   -0.0018540442909367528
0.003966593042988459   -0.05006602600356373   -0.0018342488973768114
0.005874911902530613   -0.043368703807530225   -0.0019830048865744987
0.002102866229769564   -0.0434929294096162   -0.0018084787101672751
0.003966593042988459   -0.05006602600356373   -0.0018342488973768114
0.0006281347399321769   -0.050299221156251565   -0.001788784739204915
0.0005128910204610315   -0.050330826933394905   -0.0019094296900653458
0.002102866229769564   -0.0434929294096162   -0.0018084787101672751
0.003966593042988459   -0.05006602600356373   -0.0018342488973768114
0.0005128910204610315   -0.050330826933394905   -0.0019094296900653458
0.005874911902530613   -0.043368703807530225   -0.0019830048865744987
0.002102866229769564   -0.0434929294096162   -0.0018084787101672751
0.0006281347399321769   -0.050299221156251565   -0.001788784739204915
0.006074603555355235   -0.04331999135896324   -0.0018540442909367528
0.0021798468573571606   -0.043488490160642   -0.0017286255664206384
0.0006281347399321769   -0.050299221156251565   -0.001788784739204915
0.003966593042988459   -0.05006602600356373   -0.0018342488973768114
0.006074603555355235   -0.04331999135896324   -0.0018540442909367528
0.004190706397828238   -0.05005552767148046   -0.0016632553242858484
0.0021798468573571606   -0.043488490160642   -0.0017286255664206384
0.006222544494220221   -0.043306572419913605   -0.00173671339959097
0.004190706397828238   -0.05005552767148046   -0.0016632553242858484
0.006074603555355235   -0.04331999135896324   -0.0018540442909367528
0.0021798468573571606   -0.043488490160642   -0.0017286255664206384
0.004190706397828238   -0.05005552767148046   -0.0016632553242858484
0.0007496324319670713   -0.05029636294365979   -0.0016791632725815908
0.0006281347399321769   -0.050299221156251565   -0.001788784739204915
0.0021798468573571606   -0.043488490160642   -0.0017286255664206384
0.004190706397828238   -0.05005552767148046   -0.0016632553242858484
0.0006281347399321769   -0.050299221156251565   -0.001788784739204915
0.006074603555355235   -0.04331999135896324   -0.0018540442909367528
0.0021798468573571606   -0.043488490160642   -0.0017286255664206384
0.0007496324319670713   -0.05029636294365979   -0.0016791632725815908
0.006222544494220221   -0.043306572419913605   -0.00173671339959097
0.0022310970435070808   -0.043499735257181954   -0.0016563604028469825
0.0007496324319670713   -0.05029636294365979   -0.0016791632725815908
0.004190706397828238   -0.05005552767148046   -0.0016632553242858484
0.006222544494220221   -0.043306572419913605   -0.00173671339959097
0.0044230569713678575   -0.05007356501097824   -0.0015073276564054815
0.0022310970435070808   -0.043499735257181954   -0.0016563604028469825
0.006372657156956752   -0.04330647033756676   -0.001631545664912939
0.0044230569713678575   -0.05007356501097824   -0.0015073276564054815
0.006222544494220221   -0.043306572419913605   -0.00173671339959097
0.0022310970435070808   -0.043499735257181954   -0.0016563604028469825
0.0044230569713678575   -0.05007356501097824   -0.0015073276564054815
0.0008384905067605646   -0.050320937133431394   -0.001577130191364925
0.0007496324319670713   -0.05029636294365979   -0.0016791632725815908
0.0022310970435070808   -0.043499735257181954   -0.0016563604028469825
0.0044230569713678575   -0.05007356501097824   -0.0015073276564054815
0.0007496324319670713   -0.05029636294365979   -0.0016791632725815908
0.006222544494220221   -0.043306572419913605   -0.00173671339959097
-0.011604519579394587   -0.05021749360593007   -0.001852672034412953
-0.009722452454935637   -0.055483415086641466   -0.00168118701398439
-0.008219813324307029   -0.05037488256094059   -0.0018413979968024633
-0.011428785105897836   -0.05025124191047957   -0.0019570040314979883
-0.009722452454935637   -0.055483415086641466   -0.00168118701398439
-0.007313292216575486   -0.05571626948548019   -0.0017509866196812188
-0.008219813324307029   -0.05037488256094059   -0.0018413979968024633
-0.00719207585985329   -0.05570434571253891   -0.0018082932755622786
-0.011428785105897836   -0.05025124191047957   -0.0019570040314979883
-0.008135509531356066   -0.0503976344418612   -0.0018786423261884613
-0.00719207585985329   -0.05570434571253891   -0.0018082932755622786
-0.008219813324307029   -0.05037488256094059   -0.0018413979968024633
-0.011428785105897836   -0.05025124191047957   -0.0019570040314979883
-0.00719207585985329   -0.05570434571253891   -0.0018082932755622786
-0.009460835835437605   -0.05547690663328489   -0.0018356863840264944
-0.009722452454935637   -0.055483415086641466   -0.00168118701398439
-0.011428785105897836   -0.05025124191047957   -0.0019570040314979883
-0.00719207585985329   -0.05570434571253891   -0.0018082932755622786
-0.009722452454935637   -0.055483415086641466   -0.00168118701398439
-0.008219813324307029   -0.05037488256094059   -0.0018413979968024633
-0.011428785105897836   -0.05025124191047957   -0.0019570040314979883
-0.009460835835437605   -0.05547690663328489   -0.0018356863840264944
-0.008135509531356066   -0.0503976344418612   -0.0018786423261884613
-0.01125357322138952   -0.05031528899547333   -0.0020750284597864555
-0.009460835835437605   -0.05547690663328489   -0.0018356863840264944
-0.00719207585985329   -0.05570434571253891   -0.0018082932755622786
-0.008135509531356066   -0.0503976344418612   -0.0018786423261884613
-0.00704945705059822   -0.05573798459824907   -0.0018741826448722923
-0.01125357322138952   -0.05031528899547333   -0.0020750284597864555
-0.008029615813218075   -0.05045220663684838   -0.001924296289526468
-0.00704945705059822   -0.05573798459824907   -0.0018741826448722923
-0.008135509531356066   -0.0503976344418612   -0.0018786423261884613
-0.01125357322138952   -0.05031528899547333   -0.0020750284597864555
-0.00704945705059822   -0.05573798459824907   -0.0018741826448722923
-0.009219731466623284   -0.055518449185949496   -0.002002276935260461
-0.009460835835437605   -0.05547690663328489   -0.0018356863840264944
-0.01125357322138952   -0.05031528899547333   -0.0020750284597864555
-0.00704945705059822   -0.05573798459824907   -0.0018741826448722923
-0.009460835835437605   -0.05547690663328489   -0.0018356863840264944
-0.008135509531356066   -0.0503976344418612   -0.0018786423261884613
-0.01125357322138952   -0.05031528899547333   -0.0020750284597864555
-0.009219731466623284   -0.055518449185949496   -0.002002276935260461
-0.008029615813218075   -0.05045220663684838   -0.001924296289526468
-0.011029159825365608   -0.050434718457944096   -0.002206499008939117
-0.009219731466623284   -0.055518449185949496   -0.002002276935260461
-0.00704945705059822   -0.05573798459824907   -0.0018741826448722923
-0.008029615813218075   -0.05045220663684838   -0.001924296289526468
-0.006920076540274356   -0.05581796007954683   -0.0019481068018133863
-0.011029159825365608   -0.050434718457944096   -0.002206499008939117
-0.007925146959425573   -0.050541700083645086   -0.0019782806988937348
-0.006920076540274356   -0.05581796007954683   -0.0019481068018133863
-0.008029615813218075   -0.05045220663684838   -0.001924296289526468
-0.011029159825365608   -0.050434718457944096   -0.002206499008939117
-0.006920076540274356   -0.05581796007954683   -0.0019481068018133863
-0.008925630485018134   -0.055629225017775404   -0.0021802520421125714
-0.009219731466623284   -0.055518449185949496   -0.002002276935260461
-0.011029159825365608   -0.050434718457944096   -0.002206499008939117
-0.006920076540274356   -0.05581796007954683   -0.0019481068018133863
-0.009219731466623284   -0.055518449185949496   -0.002002276935260461
-0.008029615813218075   -0.05045220663684838   -0.001924296289526468
-0.008219813324307029   -0.05037488256094059   -0.0018413979968024633
-0.007313292216575486   -0.05571626948548019   -0.0017509866196812188
-0.005288141833476562   -0.050448462014935046   -0.0018369686774972116
-0.008135509531356066   -0.0503976344418612   -0.0018786423261884613
-0.007313292216575486   -0.05571626948548019   -0.0017509866196812188
-0.005343840687253948   -0.05586687224192708   -0.0018056228548122316
-0.005288141833476562   -0.050448462014935046   -0.0018369686774972116
-0.005219500876735385   -0.05584769723624528   -0.0017881012679408699
-0.008135509531356066   -0.0503976344418612   -0.0018786423261884613
-0.005201674381941126   -0.0504559006403831   -0.001820266587537649
-0.005219500876735385   -0.05584769723624528   -0.0017881012679408699
-0.005288141833476562   -0.050448462014935046   -0.0018369686774972116
-0.008135509531356066   -0.0503976344418612   -0.0018786423261884613
-0.005219500876735385   -0.05584769723624528   -0.0017881012679408699
-0.00719207585985329   -0.05570434571253891   -0.0018082932755622786
-0.007313292216575486   -0.05571626948548019   -0.0017509866196812188
-0.008135509531356066   -0.0503976344418612   -0.0018786423261884613
-0.005219500876735385   -0.05584769723624528   -0.0017881012679408699
-0.007313292216575486   -0.05571626948548019   -0.0017509866196812188
-0.005288141833476562   -0.050448462014935046   -0.0018369686774972116
-0.008135509531356066   -0.0503976344418612   -0.0018786423261884613
-0.00719207585985329   -0.05570434571253891   -0.0018082932755622786
-0.005201674381941126   -0.0504559006403831   -0.001820266587537649
-0.008029615813218075   -0.05045220663684838   -0.001924296289526468
-0.00719207585985329   -0.05570434571253891   -0.0018082932755622786
-0.005219500876735385   -0.05584769723624528   -0.0017881012679408699
-0.005201674381941126   -0.0504559006403831   -0.001820266587537649
-0.005096881783840018   -0.055867866191912675   -0.0017789191818323616
-0.008029615813218075   -0.05045220663684838   -0.001924296289526468
-0.005112418972517608   -0.05049175817934661   -0.0018117249942228616
-0.005096881783840018   -0.055867866191912675   -0.0017789191818323616
-0.005201674381941126   -0.0504559006403831   -0.001820266587537649
-0.008029615813218075   -0.05045220663684838   -0.001924296289526468
-0.005096881783840018   -0.055867866191912675   -0.0017789191818323616
-0.00704945705059822   -0.05573798459824907   -0.0018741826448722923
-0.00719207585985329   -0.05570434571253891   -0.0018082932755622786
-0.008029615813218075   -0.05045220663684838   -0.001924296289526468
-0.005096881783840018   -0.055867866191912675   -0.0017789191818323616
-0.00719207585985329   -0.05570434571253891   -0.0018082932755622786
-0.005201674381941126   -0.0504559006403831   -0.001820266587537649
-0.008029615813218075   -0.05045220663684838   -0.001924296289526468
-0.00704945705059822   -0.05573798459824907   -0.0018741826448722923
-0.005112418972517608   -0.05049175817934661   -0.0018117249942228616
-0.007925146959425573   -0.050541700083645086   -0.0019782806988937348
-0.00704945705059822   -0.05573798459824907   -0.0018741826448722923
-0.005096881783840018   -0.055867866191912675   -0.0017789191818323616
-0.005112418972517608   -0.05049175817934661   -0.0018117249942228616
-0.0049840274609679255   -0.05592867465861503   -0.0017798186287435432
-0.007925146959425573   -0.050541700083645086   -0.0019782806988937348
-0.005023303861762748   -0.05055769575723197   -0.0018112436371026653
-0.0049840274609679255   -0.05592867465861503   -0.0017798186287435432
-0.005112418972517608   -0.05049175817934661   -0.0018117249942228616
-0.007925146959425573   -0.050541700083645086   -0.0019782806988937348
-0.0049840274609679255   -0.05592867465861503   -0.0017798186287435432
-0.006920076540274356   -0.05581796007954683   -0.0019481068018133863
-0.00704945705059822   -0.05573798459824907   -0.0018741826448722923
-0.007925146959425573   -0.050541700083645086   -0.0019782806988937348
-0.0049840274609679255   -0.05592867465861503   -0.0017798186287435432
-0.00704945705059822   -0.05573798459824907   -0.0018741826448722923
-0.005112418972517608   -0.05049175817934661   -0.0018117249942228616
-0.005288141833476562   -0.050448462014935046   -0.0018369686774972116
-0.005343840687253948   -0.05586687224192708   -0.0018056228548122316
-0.002453698764476345   -0.050434818804319215   -0.0018581134084480861
-0.005201674381941126   -0.0504559006403831   -0.001820266587537649
-0.005343840687253948   -0.05586687224192708   -0.0018056228548122316
-0.0034574057720622377   -0.055945495371965435   -0.0018702964834238843
-0.002453698764476345   -0.050434818804319215   -0.0018581134084480861
-0.0033172501807020587   -0.055917763692240795   -0.0017821876042762497
-0.005201674381941126   -0.0504559006403831   -0.001820266587537649
-0.002358989595244521   -0.050425048411408914   -0.0017893547612971715
-0.0033172501807020587   -0.055917763692240795   -0.0017821876042762497
-0.002453698764476345   -0.050434818804319215   -0.0018581134084480861
-0.005201674381941126   -0.0504559006403831   -0.001820266587537649
-0.0033172501807020587   -0.055917763692240795   -0.0017821876042762497
-0.005219500876735385   -0.05584769723624528   -0.0017881012679408699
-0.005343840687253948   -0.05586687224192708   -0.0018056228548122316
-0.005201674381941126   -0.0504559006403831   -0.001820266587537649
-0.0033172501807020587   -0.055917763692240795   -0.0017821876042762497
-0.005343840687253948   -0.05586687224192708   -0.0018056228548122316
-0.002453698764476345   -0.050434818804319215   -0.0018581134084480861
-0.005201674381941126   -0.0504559006403831   -0.001820266587537649
-0.005219500876735385   -0.05584769723624528   -0.0017881012679408699
-0.002358989595244521   -0.050425048411408914   -0.0017893547612971715
-0.005112418972517608   -0.05049175817934661   -0.0018117249942228616
-0.005219500876735385   -0.05584769723624528   -0.0017881012679408699
-0.0033172501807020587   -0.055917763692240795   -0.0017821876042762497
-0.002358989595244521   -0.050425048411408914   -0.0017893547612971715
-0.003183624315488184   -0.05592465551679199   -0.0017014619994339894
-0.005112418972517608   -0.05049175817934661   -0.0018117249942228616
-0.002267057687742339   -0.050440992052264835   -0.00172929544256989
-0.003183624315488184   -0.05592465551679199   -0.0017014619994339894
-0.002358989595244521   -0.050425048411408914   -0.0017893547612971715
-0.005112418972517608   -0.05049175817934661   -0.0018117249942228616
-0.003183624315488184   -0.05592465551679199   -0.0017014619994339894
-0.005096881783840018   -0.055867866191912675   -0.0017789191818323616
-0.005219500876735385   -0.05584769723624528   -0.0017881012679408699
-0.005112418972517608   -0.05049175817934661   -0.0018117249942228616
-0.003183624315488184   -0.05592465551679199   -0.0017014619994339894
-0.005219500876735385   -0.05584769723624528   -0.0017881012679408699
-0.002358989595244521   -0.050425048411408914   -0.0017893547612971715
-0.005112418972517608   -0.05049175817934661   -0.0018117249942228616
-0.005096881783840018   -0.055867866191912675   -0.0017789191818323616
-0.002267057687742339   -0.050440992052264835   -0.00172929544256989
-0.005023303861762748   -0.05055769575723197   -0.0018112436371026653
-0.005096881783840018   -0.055867866191912675   -0.0017789191818323616
-0.003183624315488184   -0.05592465551679199   -0.0017014619994339894
-0.002267057687742339   -0.050440992052264835   -0.00172929544256989
-0.003072446530546307   -0.0559728672483858   -0.0016327059913444095
-0.005023303861762748   -0.05055769575723197   -0.0018112436371026653
-0.00218398610710096   -0.05048635202025106   -0.0016771843929797615
-0.003072446530546307   -0.0559728672483858   -0.0016327059913444095
-0.002267057687742339   -0.050440992052264835   -0.00172929544256989
-0.005023303861762748   -0.05055769575723197   -0.0018112436371026653
-0.003072446530546307   -0.0559728672483858   -0.0016327059913444095
-0.0049840274609679255   -0.05592867465861503   -0.0017798186287435432
-0.005096881783840018   -0.055867866191912675   -0.0017789191818323616
-0.005023303861762748   -0.05055769575723197   -0.0018112436371026653
-0.003072446530546307   -0.0559728672483858   -0.0016327059913444095
-0.005096881783840018   -0.055867866191912675   -0.0017789191818323616
-0.002267057687742339   -0.050440992052264835   -0.00172929544256989
-0.002453698764476345   -0.050434818804319215   -0.0018581134084480861
-0.0034574057720622377   -0.055945495371965435   -0.0018702964834238843
0.0005128910204610315   -0.050330826933394905   -0.0019094296900653458
-0.002358989595244521   -0.050425048411408914   -0.0017893547612971715
-0.0034574057720622377   -0.055945495371965435   -0.0018702964834238843
-0.0014521432527182803   -0.05592455716519664   -0.0019465715074352872
0.0005128910204610315   -0.050330826933394905   -0.0019094296900653458
-0.0012721933199767272   -0.05588106390947317   -0.0017909063099386645
-0.002358989595244521   -0.050425048411408914   -0.0017893547612971715
0.0006281347399321769   -0.050299221156251565   -0.001788784739204915
-0.0012721933199767272   -0.05588106390947317   -0.0017909063099386645
0.0005128910204610315   -0.050330826933394905   -0.0019094296900653458
-0.002358989595244521   -0.050425048411408914   -0.0017893547612971715
-0.0012721933199767272   -0.05588106390947317   -0.0017909063099386645
-0.0033172501807020587   -0.055917763692240795   -0.0017821876042762497
-0.0034574057720622377   -0.055945495371965435   -0.0018702964834238843
-0.002358989595244521   -0.050425048411408914   -0.0017893547612971715
-0.0012721933199767272   -0.05588106390947317   -0.0017909063099386645
-0.0034574057720622377   -0.055945495371965435   -0.0018702964834238843
0.0005128910204610315   -0.050330826933394905   -0.0019094296900653458
-0.002358989595244521   -0.050425048411408914   -0.0017893547612971715
-0.0033172501807020587   -0.055917763692240795   -0.0017821876042762497
0.0006281347399321769   -0.050299221156251565   -0.001788784739204915
-0.002267057687742339   -0.050440992052264835   -0.00172929544256989
-0.0033172501807020587   -0.055917763692240795   -0.0017821876042762497
-0.0012721933199767272   -0.05588106390947317   -0.0017909063099386645
0.0006281347399321769   -0.050299221156251565   -0.001788784739204915
-0.0010881103260851224   -0.05587345251134096   -0.001643132558345319
-0.002267057687742339   -0.050440992052264835   -0.00172929544256989
0.0007496324319670713   -0.05029636294365979   -0.0016791632725815908
-0.0010881103260851224   -0.05587345251134096   -0.001643132558345319
0.0006281347399321769   -0.050299221156251565   -0.001788784739204915
-0.002267057687742339   -0.050440992052264835   -0.00172929544256989
-0.0010881103260851224   -0.05587345251134096   -0.001643132558345319
-0.003183624315488184   -0.05592465551679199   -0.0017014619994339894
-0.0033172501807020587   -0.055917763692240795   -0.0017821876042762497
-0.002267057687742339   -0.050440992052264835   -0.00172929544256989
-0.0010881103260851224   -0.05587345251134096   -0.001643132558345319
-0.0033172501807020587   -0.055917763692240795   -0.0017821876042762497
0.0006281347399321769   -0.050299221156251565   -0.001788784739204915
-0.002267057687742339   -0.050440992052264835   -0.00172929544256989
-0.003183624315488184   -0.05592465551679199   -0.0017014619994339894
0.0007496324319670713   -0.05029636294365979   -0.0016791632725815908
-0.00218398610710096   -0.05048635202025106   -0.0016771843929797615
-0.003183624315488184   -0.05592465551679199   -0.0017014619994339894
-0.0010881103260851224   -0.05587345251134096   -0.001643132558345319
0.0007496324319670713   -0.05029636294365979   -0.0016791632725815908
-0.0009518266121821272   -0.05590940954951404   -0.0015088689161075026
-0.00218398610710096   -0.05048635202025106   -0.0016771843929797615
0.0008384905067605646   -0.050320937133431394   -0.001577130191364925
-0.0009518266121821272   -0.05590940954951404   -0.0015088689161075026
0.0007496324319670713   -0.05029636294365979   -0.0016791632725815908
-0.00218398610710096   -0.05048635202025106   -0.0016771843929797615
-0.0009518266121821272   -0.05590940954951404   -0.0015088689161075026
-0.003072446530546307   -0.0559728672483858   -0.0016327059913444095
-0.003183624315488184   -0.05592465551679199   -0.0017014619994339894
-0.00218398610710096   -0.05048635202025106   -0.0016771843929797615
-0.0009518266121821272   -0.05590940954951404   -0.0015088689161075026
-0.003183624315488184   -0.05592465551679199   -0.0017014619994339894
0.0007496324319670713   -0.05029636294365979   -0.0016791632725815908
0.0005128910204610315   -0.050330826933394905   -0.0019094296900653458
-0.0014521432527182803   -0.05592455716519664   -0.0019465715074352872
0.0036743287675038206   -0.05012664668742127   -0.0020189141869717602
0.0006281347399321769   -0.050299221156251565   -0.001788784739204915
-0.0014521432527182803   -0.05592455716519664   -0.0019465715074352872
0.0007046168643111466   -0.055731604159570916   -0.002102558925720311
0.0036743287675038206   -0.05012664668742127   -0.0020189141869717602
0.0011248041202318014   -0.055637062163462425   -0.0018479783292339375
0.0006281347399321769   -0.050299221156251565   -0.001788784739204915
0.003966593042988459   -0.05006602600356373   -0.0018342488973768114
0.0011248041202318014   -0.055637062163462425   -0.0018479783292339375
0.0036743287675038206   -0.05012664668742127   -0.0020189141869717602
0.0006281347399321769   -0.050299221156251565   -0.001788784739204915
0.0011248041202318014   -0.055637062163462425   -0.0018479783292339375
-0.0012721933199767272   -0.05588106390947317   -0.0017909063099386645
-0.0014521432527182803   -0.05592455716519664   -0.0019465715074352872
0.0006281347399321769   -0.050299221156251565   -0.001788784739204915
0.0011248041202318014   -0.055637062163462425   -0.0018479783292339375
-0.0014521432527182803   -0.05592455716519664   -0.0019465715074352872
0.0036743287675038206   -0.05012664668742127   -0.0020189141869717602
0.0006281347399321769   -0.050299221156251565   -0.001788784739204915
-0.0012721933199767272   -0.05588106390947317   -0.0017909063099386645
0.003966593042988459   -0.05006602600356373   -0.0018342488973768114
0.0007496324319670713   -0.05029636294365979   -0.0016791632725815908
-0.0012721933199767272   -0.05588106390947317   -0.0017909063099386645
0.0011248041202318014   -0.055637062163462425   -0.0018479783292339375
0.003966593042988459   -0.05006602600356373   -0.0018342488973768114
0.0014549745521974656   -0.055617966162796496   -0.0016088767333968749
0.0007496324319670713   -0.05029636294365979   -0.0016791632725815908
0.004190706397828238   -0.05005552767148046   -0.0016632553242858484
0.0014549745521974656   -0.055617966162796496   -0.0016088767333968749
0.003966593042988459   -0.05006602600356373   -0.0018342488973768114
0.0007496324319670713   -0.05029636294365979   -0.0016791632725815908
0.0014549745521974656   -0.055617966162796496   -0.0016088767333968749
-0.0010881103260851224   -0.05587345251134096   -0.001643132558345319
-0.0012721933199767272   -0.05588106390947317   -0.0017909063099386645
0.0007496324319670713   -0.05029636294365979   -0.0016791632725815908
0.0014549745521974656   -0.055617966162796496   -0.0016088767333968749
-0.0012721933199767272   -0.05588106390947317   -0.0017909063099386645
0.003966593042988459   -0.05006602600356373   -0.0018342488973768114
0.0007496324319670713   -0.05029636294365979   -0.0016791632725815908
-0.0010881103260851224   -0.05587345251134096   -0.001643132558345319
0.004190706397828238   -0.05005552767148046   -0.0016632553242858484
0.0008384905067605646   -0.050320937133431394   -0.001577130191364925
-0.0010881103260851224   -0.05587345251134096   -0.001643132558345319
0.0014549745521974656   -0.055617966162796496   -0.0016088767333968749
0.004190706397828238   -0.05005552767148046   -0.0016632553242858484
0.0017982895786263528   -0.05563427795712503   -0.001390430931158491
0.0008384905067605646   -0.050320937133431394   -0.001577130191364925
0.0044230569713678575   -0.05007356501097824   -0.0015073276564054815
0.0017982895786263528   -0.05563427795712503   -0.001390430931158491
0.004190706397828238   -0.05005552767148046   -0.0016632553242858484
0.0008384905067605646   -0.050320937133431394   -0.001577130191364925
0.0017982895786263528   -0.05563427795712503   -0.001390430931158491
-0.0009518266121821272   -0.05590940954951404   -0.0015088689161075026
-0.0010881103260851224   -0.05587345251134096   -0.001643132558345319
0.0008384905067605646   -0.050320937133431394   -0.001577130191364925
0.0017982895786263528   -0.05563427795712503   -0.001390430931158491
-0.0010881103260851224   -0.05587345251134096   -0.001643132558345319
0.004190706397828238   -0.05005552767148046   -0.0016632553242858484
-0.009722452454935637   -0.055483415086641466   -0.00168118701398439
-0.007137020239970747   -0.058614989436365963   -0.0014796871250269334
-0.007313292216575486   -0.05571626948548019   -0.0017509866196812188
-0.009460835835437605   -0.05547690663328489   -0.0018356863840264944
-0.007137020239970747   -0.058614989436365963   -0.0014796871250269334
-0.00601420315808196   -0.05890932143241869   -0.0016563345049885607
-0.007313292216575486   -0.05571626948548019   -0.0017509866196812188
-0.005861413629253287   -0.0588513262157736   -0.0017173685837710596
-0.009460835835437605   -0.05547690663328489   -0.0018356863840264944
-0.00719207585985329   -0.05570434571253891   -0.0018082932755622786
-0.005861413629253287   -0.0588513262157736   -0.0017173685837710596
-0.007313292216575486   -0.05571626948548019   -0.0017509866196812188
-0.009460835835437605   -0.05547690663328489   -0.0018356863840264944
-0.005861413629253287   -0.0588513262157736   -0.0017173685837710596
-0.006811194782928853   -0.058549630161601356   -0.0016650041137694107
-0.007137020239970747   -0.058614989436365963   -0.0014796871250269334
-0.009460835835437605   -0.05547690663328489   -0.0018356863840264944
-0.005861413629253287   -0.0588513262157736   -0.0017173685837710596
-0.007137020239970747   -0.058614989436365963   -0.0014796871250269334
-0.007313292216575486   -0.05571626948548019   -0.0017509866196812188
-0.009460835835437605   -0.05547690663328489   -0.0018356863840264944
-0.006811194782928853   -0.058549630161601356   -0.0016650041137694107
-0.00719207585985329   -0.05570434571253891   -0.0018082932755622786
-0.009219731466623284   -0.055518449185949496   -0.002002276935260461
-0.006811194782928853   -0.058549630161601356   -0.0016650041137694107
-0.005861413629253287   -0.0588513262157736   -0.0017173685837710596
-0.00719207585985329   -0.05570434571253891   -0.0018082932755622786
-0.005692111632965299   -0.058854410413225026   -0.0017790250234295374
-0.009219731466623284   -0.055518449185949496   -0.002002276935260461
-0.00704945705059822   -0.05573798459824907   -0.0018741826448722923
-0.005692111632965299   -0.058854410413225026   -0.0017790250234295374
-0.00719207585985329   -0.05570434571253891   -0.0018082932755622786
-0.009219731466623284   -0.055518449185949496   -0.002002276935260461
-0.005692111632965299   -0.058854410413225026   -0.0017790250234295374
-0.006530091859560867   -0.058555467150009234   -0.00184962661882954
-0.006811194782928853   -0.058549630161601356   -0.0016650041137694107
-0.009219731466623284   -0.055518449185949496   -0.002002276935260461
-0.005692111632965299   -0.058854410413225026   -0.0017790250234295374
-0.006811194782928853   -0.058549630161601356   -0.0016650041137694107
-0.00719207585985329   -0.05570434571253891   -0.0018082932755622786
-0.009219731466623284   -0.055518449185949496   -0.002002276935260461
-0.006530091859560867   -0.058555467150009234   -0.00184962661882954
-0.00704945705059822   -0.05573798459824907   -0.0018741826448722923
-0.008925630485018134   -0.055629225017775404   -0.0021802520421125714
-0.006530091859560867   -0.058555467150009234   -0.00184962661882954
-0.005692111632965299   -0.058854410413225026   -0.0017790250234295374
-0.00704945705059822   -0.05573798459824907   -0.0018741826448722923
-0.005534877938134017   -0.058918867893014065   -0.0018415614641579096
-0.008925630485018134   -0.055629225017775404   -0.0021802520421125714
-0.006920076540274356   -0.05581796007954683   -0.0019481068018133863
-0.005534877938134017   -0.058918867893014065   -0.0018415614641579096
-0.00704945705059822   -0.05573798459824907   -0.0018741826448722923
-0.008925630485018134   -0.055629225017775404   -0.0021802520421125714
-0.005534877938134017   -0.058918867893014065   -0.0018415614641579096
-0.006196604061058508   -0.05863661207111119   -0.002038219714431568
-0.006530091859560867   -0.058555467150009234   -0.00184962661882954
-0.008925630485018134   -0.055629225017775404   -0.0021802520421125714
-0.005534877938134017   -0.058918867893014065   -0.0018415614641579096
-0.006530091859560867   -0.058555467150009234   -0.00184962661882954
-0.00704945705059822   -0.05573798459824907   -0.0018741826448722923
-0.007313292216575486   -0.05571626948548019   -0.0017509866196812188
-0.00601420315808196   -0.05890932143241869   -0.0016563345049885607
-0.005343840687253948   -0.05586687224192708   -0.0018056228548122316
-0.00719207585985329   -0.05570434571253891   -0.0018082932755622786
-0.00601420315808196   -0.05890932143241869   -0.0016563345049885607
-0.0051910436790517335   -0.05920390561059755   -0.0018123993225198421
-0.005343840687253948   -0.05586687224192708   -0.0018056228548122316
-0.005029921371647448   -0.05914435746662914   -0.0017698713425347505
-0.00719207585985329   -0.05570434571253891   -0.0018082932755622786
-0.005219500876735385   -0.05584769723624528   -0.0017881012679408699
-0.005029921371647448   -0.05914435746662914   -0.0017698713425347505
-0.005343840687253948   -0.05586687224192708   -0.0018056228548122316
-0.00719207585985329   -0.05570434571253891   -0.0018082932755622786
-0.005029921371647448   -0.05914435746662914   -0.0017698713425347505
-0.005861413629253287   -0.0588513262157736   -0.0017173685837710596
-0.00601420315808196   -0.05890932143241869   -0.0016563345049885607
-0.00719207585985329   -0.05570434571253891   -0.0018082932755622786
-0.005029921371647448   -0.05914435746662914   -0.0017698713425347505
-0.00601420315808196   -0.05890932143241869   -0.0016563345049885607
-0.005343840687253948   -0.05586687224192708   -0.0018056228548122316
-0.00719207585985329   -0.05570434571253891   -0.0018082932755622786
-0.005861413629253287   -0.0588513262157736   -0.0017173685837710596
-0.005219500876735385   -0.05584769723624528   -0.0017881012679408699
-0.00704945705059822   -0.05573798459824907   -0.0018741826448722923
-0.005861413629253287   -0.0588513262157736   -0.0017173685837710596
-0.005029921371647448   -0.05914435746662914   -0.0017698713425347505
-0.005219500876735385   -0.05584769723624528   -0.0017881012679408699
-0.004874102011975801   -0.05914345208312362   -0.0017268202421437775
-0.00704945705059822   -0.05573798459824907   -0.0018741826448722923
-0.005096881783840018   -0.055867866191912675   -0.0017789191818323616
-0.004874102011975801   -0.05914345208312362   -0.0017268202421437775
-0.005219500876735385   -0.05584769723624528   -0.0017881012679408699
-0.00704945705059822   -0.05573798459824907   -0.0018741826448722923
-0.004874102011975801   -0.05914345208312362   -0.0017268202421437775
-0.005692111632965299   -0.058854410413225026   -0.0017790250234295374
-0.005861413629253287   -0.0588513262157736   -0.0017173685837710596
-0.00704945705059822   -0.05573798459824907   -0.0018741826448722923
-0.004874102011975801   -0.05914345208312362   -0.0017268202421437775
-0.005861413629253287   -0.0588513262157736   -0.0017173685837710596
-0.005219500876735385   -0.05584769723624528   -0.0017881012679408699
-0.00704945705059822   -0.05573798459824907   -0.0018741826448722923
-0.005692111632965299   -0.058854410413225026   -0.0017790250234295374
-0.005096881783840018   -0.055867866191912675   -0.0017789191818323616
-0.006920076540274356   -0.05581796007954683   -0.0019481068018133863
-0.005692111632965299   -0.058854410413225026   -0.0017790250234295374
-0.004874102011975801   -0.05914345208312362   -0.0017268202421437775
-0.005096881783840018   -0.055867866191912675   -0.0017789191818323616
-0.0047116836899983566   -0.05919997542830402   -0.0016854833931977263
-0.006920076540274356   -0.05581796007954683   -0.0019481068018133863
-0.0049840274609679255   -0.05592867465861503   -0.0017798186287435432
-0.0047116836899983566   -0.05919997542830402   -0.0016854833931977263
-0.005096881783840018   -0.055867866191912675   -0.0017789191818323616
-0.006920076540274356   -0.05581796007954683   -0.0019481068018133863
-0.0047116836899983566   -0.05919997542830402   -0.0016854833931977263
-0.005534877938134017   -0.058918867893014065   -0.0018415614641579096
-0.005692111632965299   -0.058854410413225026   -0.0017790250234295374
-0.006920076540274356   -0.05581796007954683   -0.0019481068018133863
-0.0047116836899983566   -0.05919997542830402   -0.0016854833931977263
-0.005692111632965299   -0.058854410413225026   -0.0017790250234295374
-0.005096881783840018   -0.055867866191912675   -0.0017789191818323616
-0.005343840687253948   -0.05586687224192708   -0.0018056228548122316
-0.0051910436790517335   -0.05920390561059755   -0.0018123993225198421
-0.0034574057720622377   -0.055945495371965435   -0.0018702964834238843
-0.005219500876735385   -0.05584769723624528   -0.0017881012679408699
-0.0051910436790517335   -0.05920390561059755   -0.0018123993225198421
-0.004438992412947619   -0.05955854140721388   -0.0019843781820468244
-0.0034574057720622377   -0.055945495371965435   -0.0018702964834238843
-0.004241526421718296   -0.05950677387445363   -0.0018324963562177331
-0.005219500876735385   -0.05584769723624528   -0.0017881012679408699
-0.0033172501807020587   -0.055917763692240795   -0.0017821876042762497
-0.004241526421718296   -0.05950677387445363   -0.0018324963562177331
-0.0034574057720622377   -0.055945495371965435   -0.0018702964834238843
-0.005219500876735385   -0.05584769723624528   -0.0017881012679408699
-0.004241526421718296   -0.05950677387445363   -0.0018324963562177331
-0.005029921371647448   -0.05914435746662914   -0.0017698713425347505
-0.0051910436790517335   -0.05920390561059755   -0.0018123993225198421
-0.005219500876735385   -0.05584769723624528   -0.0017881012679408699
-0.004241526421718296   -0.05950677387445363   -0.0018324963562177331
-0.0051910436790517335   -0.05920390561059755   -0.0018123993225198421
-0.0034574057720622377   -0.055945495371965435   -0.0018702964834238843
-0.005219500876735385   -0.05584769723624528   -0.0017881012679408699
-0.005029921371647448   -0.05914435746662914   -0.0017698713425347505
-0.0033172501807020587   -0.055917763692240795   -0.0017821876042762497
-0.005096881783840018   -0.055867866191912675   -0.0017789191818323616
-0.005029921371647448   -0.05914435746662914   -0.0017698713425347505
-0.004241526421718296   -0.05950677387445363   -0.0018324963562177331
-0.0033172501807020587   -0.055917763692240795   -0.0017821876042762497
-0.0040584981262049985   -0.059504097920592865   -0.0016810927877494216
-0.005096881783840018   -0.055867866191912675   -0.0017789191818323616
-0.003183624315488184   -0.05592465551679199   -0.0017014619994339894
-0.0040584981262049985   -0.059504097920592865   -0.0016810927877494216
-0.0033172501807020587   -0.055917763692240795   -0.0017821876042762497
-0.005096881783840018   -0.055867866191912675   -0.0017789191818323616
-0.0040584981262049985   -0.059504097920592865   -0.0016810927877494216
-0.004874102011975801   -0.05914345208312362   -0.0017268202421437775
-0.005029921371647448   -0.05914435746662914   -0.0017698713425347505
-0.005096881783840018   -0.055867866191912675   -0.0017789191818323616
-0.0040584981262049985   -0.059504097920592865   -0.0016810927877494216
-0.005029921371647448   -0.05914435746662914   -0.0017698713425347505
-0.0033172501807020587   -0.055917763692240795   -0.0017821876042762497
-0.005096881783840018   -0.055867866191912675   -0.0017789191818323616
-0.004874102011975801   -0.05914345208312362   -0.0017268202421437775
-0.003183624315488184   -0.05592465551679199   -0.0017014619994339894
-0.0049840274609679255   -0.05592867465861503   -0.0017798186287435432
-0.004874102011975801   -0.05914345208312362   -0.0017268202421437775
-0.0040584981262049985   -0.059504097920592865   -0.0016810927877494216
-0.003183624315488184   -0.05592465551679199   -0.0017014619994339894
-0.003862072515354761   -0.05954788712593851   -0.0015294112691169044
-0.0049840274609679255   -0.05592867465861503   -0.0017798186287435432
-0.003072446530546307   -0.0559728672483858   -0.0016327059913444095
-0.003862072515354761   -0.05954788712593851   -0.0015294112691169044
-0.003183624315488184   -0.05592465551679199   -0.0017014619994339894
-0.0049840274609679255   -0.05592867465861503   -0.0017798186287435432
-0.003862072515354761   -0.05954788712593851   -0.0015294112691169044
-0.0047116836899983566   -0.05919997542830402   -0.0016854833931977263
-0.004874102011975801   -0.05914345208312362   -0.0017268202421437775
-0.0049840274609679255   -0.05592867465861503   -0.0017798186287435432
-0.003862072515354761   -0.05954788712593851   -0.0015294112691169044
-0.004874102011975801   -0.05914345208312362   -0.0017268202421437775
-0.003183624315488184   -0.05592465551679199   -0.0017014619994339894
-0.0034574057720622377   -0.055945495371965435   -0.0018702964834238843
-0.004438992412947619   -0.05955854140721388   -0.0019843781820468244
-0.0014521432527182803   -0.05592455716519664   -0.0019465715074352872
-0.0033172501807020587   -0.055917763692240795   -0.0017821876042762497
-0.004438992412947619   -0.05955854140721388   -0.0019843781820468244
-0.003698839823765794   -0.06   -0.002116948315212583
-0.0014521432527182803   -0.05592455716519664   -0.0019465715074352872
-0.00345035165788851   -0.06   -0.0018859127276220431
-0.0033172501807020587   -0.055917763692240795   -0.0017821876042762497
-0.0012721933199767272   -0.05588106390947317   -0.0017909063099386645
-0.00345035165788851   -0.06   -0.0018859127276220431
-0.0014521432527182803   -0.05592455716519664   -0.0019465715074352872
-0.0033172501807020587   -0.055917763692240795   -0.0017821876042762497
-0.00345035165788851   -0.06   -0.0018859127276220431
-0.004241526421718296   -0.05950677387445363   -0.0018324963562177331
-0.004438992412947619   -0.05955854140721388   -0.0019843781820468244
-0.0033172501807020587   -0.055917763692240795   -0.0017821876042762497
-0.00345035165788851   -0.06   -0.0018859127276220431
-0.004438992412947619   -0.05955854140721388   -0.0019843781820468244
-0.0014521432527182803   -0.05592455716519664   -0.0019465715074352872
-0.0033172501807020587   -0.055917763692240795   -0.0017821876042762497
-0.004241526421718296   -0.05950677387445363   -0.0018324963562177331
-0.0012721933199767272   -0.05588106390947317   -0.0017909063099386645
-0.003183624315488184   -0.05592465551679199   -0.0017014619994339894
-0.004241526421718296   -0.05950677387445363   -0.0018324963562177331
-0.00345035165788851   -0.06   -0.0018859127276220431
-0.0012721933199767272   -0.05588106390947317   -0.0017909063099386645
-0.0032005791164245465   -0.06   -0.0016521407570602269
-0.003183624315488184   -0.05592465551679199   -0.0017014619994339894
-0.0010881103260851224   -0.05587345251134096   -0.001643132558345319
-0.0032005791164245465   -0.06   -0.0016521407570602269
-0.0012721933199767272   -0.05588106390947317   -0.0017909063099386645
-0.003183624315488184   -0.05592465551679199   -0.0017014619994339894
-0.0032005791164245465   -0.06   -0.0016521407570602269
-0.0040584981262049985   -0.059504097920592865   -0.0016810927877494216
-0.004241526421718296   -0.05950677387445363   -0.0018324963562177331
-0.003183624315488184   -0.05592465551679199   -0.0017014619994339894
-0.0032005791164245465   -0.06   -0.0016521407570602269
-0.004241526421718296   -0.05950677387445363   -0.0018324963562177331
-0.0012721933199767272   -0.05588106390947317   -0.0017909063099386645
-0.003183624315488184   -0.05592465551679199   -0.0017014619994339894
-0.0040584981262049985   -0.059504097920592865   -0.0016810927877494216
-0.0010881103260851224   -0.05587345251134096   -0.001643132558345319
-0.003072446530546307   -0.0559728672483858   -0.0016327059913444095
-0.0040584981262049985   -0.059504097920592865   -0.0016810927877494216
-0.0032005791164245465   -0.06   -0.0016521407570602269
-0.0010881103260851224   -0.05587345251134096   -0.001643132558345319
-0.0029565500887473515   -0.06   -0.001421468234092599
-0.003072446530546307   -0.0559728672483858   -0.0016327059913444095
-0.0009518266121821272   -0.05590940954951404   -0.0015088689161075026
-0.0029565500887473515   -0.06   -0.001421468234092599
-0.0010881103260851224   -0.05587345251134096   -0.001643132558345319
-0.003072446530546307   -0.0559728672483858   -0.0016327059913444095
-0.0029565500887473515   -0.06   -0.001421468234092599
-0.003862072515354761   -0.05954788712593851   -0.0015294112691169044
-0.0040584981262049985   -0.059504097920592865   -0.0016810927877494216
-0.003072446530546307   -0.0559728672483858   -0.0016327059913444095
-0.0029565500887473515   -0.06   -0.001421468234092599
-0.0040584981262049985   -0.059504097920592865   -0.0016810927877494216
-0.0010881103260851224   -0.05587345251134096   -0.001643132558345319
-0.0014521432527182803   -0.05592455716519664   -0.0019465715074352872
-0.003698839823765794   -0.06   -0.002116948315212583
0.0007046168643111466   -0.055731604159570916   -0.002102558925720311
-0.0012721933199767272   -0.05588106390947317   -0.0017909063099386645
-0.003698839823765794   -0.06   -0.002116948315212583
-0.0031608176723997997   -0.06   -0.002277500648868008
0.0007046168643111466   -0.055731604159570916   -0.002102558925720311
-0.0026404364168490756   -0.06   -0.0019430764752729468
-0.0012721933199767272   -0.05588106390947317   -0.0017909063099386645
0.0011248041202318014   -0.055637062163462425   -0.0018479783292339375
-0.0026404364168490756   -0.06   -0.0019430764752729468
0.0007046168643111466   -0.055731604159570916   -0.002102558925720311
-0.0012721933199767272   -0.05588106390947317   -0.0017909063099386645
-0.0026404364168490756   -0.06   -0.0019430764752729468
-0.00345035165788851   -0.06   -0.0018859127276220431
-0.003698839823765794   -0.06   -0.002116948315212583
-0.0012721933199767272   -0.05588106390947317   -0.0017909063099386645
-0.0026404364168490756   -0.06   -0.0019430764752729468
-0.003698839823765794   -0.06   -0.002116948315212583
0.0007046168643111466   -0.055731604159570916   -0.002102558925720311
-0.0012721933199767272   -0.05588106390947317   -0.0017909063099386645
-0.00345035165788851   -0.06   -0.0018859127276220431
0.0011248041202318014   -0.055637062163462425   -0.0018479783292339375
-0.0010881103260851224   -0.05587345251134096   -0.001643132558345319
-0.00345035165788851   -0.06   -0.0018859127276220431
-0.0026404364168490756   -0.06   -0.0019430764752729468
0.0011248041202318014   -0.055637062163462425   -0.0018479783292339375
-0.00222544843244762   -0.06   -0.0016231684439535934
-0.0010881103260851224   -0.05587345251134096   -0.001643132558345319
0.0014549745521974656   -0.055617966162796496   -0.0016088767333968749
-0.00222544843244762   -0.06   -0.0016231684439535934
0.0011248041202318014   -0.055637062163462425   -0.0018479783292339375
-0.0010881103260851224   -0.05587345251134096   -0.001643132558345319
-0.00222544843244762   -0.06   -0.0016231684439535934
-0.0032005791164245465   -0.06   -0.0016521407570602269
-0.00345035165788851   -0.06   -0.0018859127276220431
-0.0010881103260851224   -0.05587345251134096   -0.001643132558345319
-0.00222544843244762   -0.06   -0.0016231684439535934
-0.00345035165788851   -0.06   -0.0018859127276220431
0.0011248041202318014   -0.055637062163462425   -0.0018479783292339375
-0.0010881103260851224   -0.05587345251134096   -0.001643132558345319
-0.0032005791164245465   -0.06   -0.0016521407570602269
0.0014549745521974656   -0.055617966162796496   -0.0016088767333968749
-0.0009518266121821272   -0.05590940954951404   -0.0015088689161075026
-0.0032005791164245465   -0.06   -0.0016521407570602269
-0.00222544843244762   -0.06   -0.0016231684439535934
0.0014549745521974656   -0.055617966162796496   -0.0016088767333968749
-0.0017128454833750216   -0.06   -0.00129105892409738
-0.0009518266121821272   -0.05590940954951404   -0.0015088689161075026
0.0017982895786263528   -0.05563427795712503   -0.001390430931158491
-0.0017128454833750216   -0.06   -0.00129105892409738
0.0014549745521974656   -0.055617966162796496   -0.0016088767333968749
-0.0009518266121821272   -0.05590940954951404   -0.0015088689161075026
-0.0017128454833750216   -0.06   -0.00129105892409738
-0.0029565500887473515   -0.06   -0.001421468234092599
-0.0032005791164245465   -0.06   -0.0016521407570602269
-0.0009518266121821272   -0.05590940954951404   -0.0015088689161075026
-0.0017128454833750216   -0.06   -0.00129105892409738
-0.0032005791164245465   -0.06   -0.0016521407570602269
0.0014549745521974656   -0.055617966162796496   -0.0016088767333968749
-0.007137020239970747   -0.058614989436365963   -0.0014796871250269334
-0.004276698075416603   -0.05878007316786829   -0.0012666369372550624
-0.00601420315808196   -0.05890932143241869   -0.0016563345049885607
-0.006811194782928853   -0.058549630161601356   -0.0016650041137694107
-0.004276698075416603   -0.05878007316786829   -0.0012666369372550624
-0.004530871507735987   -0.05900720577945308   -0.0014941069690166385
-0.00601420315808196   -0.05890932143241869   -0.0016563345049885607
-0.004415255957155727   -0.058927969657539554   -0.0015772720686350649
-0.006811194782928853   -0.058549630161601356   -0.0016650041137694107
-0.005861413629253287   -0.0588513262157736   -0.0017173685837710596
-0.004415255957155727   -0.058927969657539554   -0.0015772720686350649
-0.00601420315808196   -0.05890932143241869   -0.0016563345049885607
-0.006811194782928853   -0.058549630161601356   -0.0016650041137694107
-0.004415255957155727   -0.058927969657539554   -0.0015772720686350649
-0.003981266516813709   -0.05867830675430456   -0.0014613667752247609
-0.004276698075416603   -0.05878007316786829   -0.0012666369372550624
-0.006811194782928853   -0.058549630161601356   -0.0016650041137694107
-0.004415255957155727   -0.058927969657539554   -0.0015772720686350649
-0.004276698075416603   -0.05878007316786829   -0.0012666369372550624
-0.00601420315808196   -0.05890932143241869   -0.0016563345049885607
-0.006811194782928853   -0.058549630161601356   -0.0016650041137694107
-0.003981266516813709   -0.05867830675430456   -0.0014613667752247609
-0.005861413629253287   -0.0588513262157736   -0.0017173685837710596
-0.006530091859560867   -0.058555467150009234   -0.00184962661882954
-0.003981266516813709   -0.05867830675430456   -0.0014613667752247609
-0.004415255957155727   -0.058927969657539554   -0.0015772720686350649
-0.005861413629253287   -0.0588513262157736   -0.0017173685837710596
-0.0042795959183543385   -0.05889893929780801   -0.0016540345465557045
-0.006530091859560867   -0.058555467150009234   -0.00184962661882954
-0.005692111632965299   -0.058854410413225026   -0.0017790250234295374
-0.0042795959183543385   -0.05889893929780801   -0.0016540345465557045
-0.005861413629253287   -0.0588513262157736   -0.0017173685837710596
-0.006530091859560867   -0.058555467150009234   -0.00184962661882954
-0.0042795959183543385   -0.05889893929780801   -0.0016540345465557045
-0.003735366822688905   -0.05864722841514946   -0.0016481532859084387
-0.003981266516813709   -0.05867830675430456   -0.0014613667752247609
-0.006530091859560867   -0.058555467150009234   -0.00184962661882954
-0.0042795959183543385   -0.05889893929780801   -0.0016540345465557045
-0.003981266516813709   -0.05867830675430456   -0.0014613667752247609
-0.005861413629253287   -0.0588513262157736   -0.0017173685837710596
-0.006530091859560867   -0.058555467150009234   -0.00184962661882954
-0.003735366822688905   -0.05864722841514946   -0.0016481532859084387
-0.005692111632965299   -0.058854410413225026   -0.0017790250234295374
-0.006196604061058508   -0.05863661207111119   -0.002038219714431568
-0.003735366822688905   -0.05864722841514946   -0.0016481532859084387
-0.0042795959183543385   -0.05889893929780801   -0.0016540345465557045
-0.005692111632965299   -0.058854410413225026   -0.0017790250234295374
-0.004163413598740558   -0.058920544308023716   -0.0017239964774634507
-0.006196604061058508   -0.05863661207111119   -0.002038219714431568
-0.005534877938134017   -0.058918867893014065   -0.0018415614641579096
-0.004163413598740558   -0.058920544308023716   -0.0017239964774634507
-0.005692111632965299   -0.058854410413225026   -0.0017790250234295374
-0.006196604061058508   -0.05863661207111119   -0.002038219714431568
-0.004163413598740558   -0.058920544308023716   -0.0017239964774634507
-0.0034570410286126484   -0.05867417123609946   -0.0018261738623738812
-0.003735366822688905   -0.05864722841514946   -0.0016481532859084387
-0.006196604061058508   -0.05863661207111119   -0.002038219714431568
-0.004163413598740558   -0.058920544308023716   -0.0017239964774634507
-0.003735366822688905   -0.05864722841514946   -0.0016481532859084387
-0.005692111632965299   -0.058854410413225026   -0.0017790250234295374
-0.00601420315808196   -0.05890932143241869   -0.0016563345049885607
-0.004530871507735987   -0.05900720577945308   -0.0014941069690166385
-0.0051910436790517335   -0.05920390561059755   -0.0018123993225198421
-0.005861413629253287   -0.0588513262157736   -0.0017173685837710596
-0.004530871507735987   -0.05900720577945308   -0.0014941069690166385
-0.004877073590227237   -0.05914727220595004   -0.0016759272230940747
-0.0051910436790517335   -0.05920390561059755   -0.0018123993225198421
-0.00477478096434266   -0.05907650360132067   -0.0016780548307722247
-0.005861413629253287   -0.0588513262157736   -0.0017173685837710596
-0.005029921371647448   -0.05914435746662914   -0.0017698713425347505
-0.00477478096434266   -0.05907650360132067   -0.0016780548307722247
-0.0051910436790517335   -0.05920390561059755   -0.0018123993225198421
-0.005861413629253287   -0.0588513262157736   -0.0017173685837710596
-0.00477478096434266   -0.05907650360132067   -0.0016780548307722247
-0.004415255957155727   -0.058927969657539554   -0.0015772720686350649
-0.004530871507735987   -0.05900720577945308   -0.0014941069690166385
-0.005861413629253287   -0.0588513262157736   -0.0017173685837710596
-0.00477478096434266   -0.05907650360132067   -0.0016780548307722247
-0.004530871507735987   -0.05900720577945308   -0.0014941069690166385
-0.0051910436790517335   -0.05920390561059755   -0.0018123993225198421
-0.005861413629253287   -0.0588513262157736   -0.0017173685837710596
-0.004415255957155727   -0.058927969657539554   -0.0015772720686350649
-0.005029921371647448   -0.05914435746662914   -0.0017698713425347505
-0.005692111632965299   -0.058854410413225026   -0.0017790250234295374
-0.004415255957155727   -0.058927969657539554   -0.0015772720686350649
-0.00477478096434266   -0.05907650360132067   -0.0016780548307722247
-0.005029921371647448   -0.05914435746662914   -0.0017698713425347505
-0.004660935666911042   -0.05905120449041512   -0.0016718820556804992
-0.005692111632965299   -0.058854410413225026   -0.0017790250234295374
-0.004874102011975801   -0.05914345208312362   -0.0017268202421437775
-0.004660935666911042   -0.05905120449041512   -0.0016718820556804992
-0.005029921371647448   -0.05914435746662914   -0.0017698713425347505
-0.005692111632965299   -0.058854410413225026   -0.0017790250234295374
-0.004660935666911042   -0.05905120449041512   -0.0016718820556804992
-0.0042795959183543385   -0.05889893929780801   -0.0016540345465557045
-0.004415255957155727   -0.058927969657539554   -0.0015772720686350649
-0.005692111632965299   -0.058854410413225026   -0.0017790250234295374
-0.004660935666911042   -0.05905120449041512   -0.0016718820556804992
-0.004415255957155727   -0.058927969657539554   -0.0015772720686350649
-0.005029921371647448   -0.05914435746662914   -0.0017698713425347505
-0.005692111632965299   -0.058854410413225026   -0.0017790250234295374
-0.0042795959183543385   -0.05889893929780801   -0.0016540345465557045
-0.004874102011975801   -0.05914345208312362   -0.0017268202421437775
-0.005534877938134017   -0.058918867893014065   -0.0018415614641579096
-0.0042795959183543385   -0.05889893929780801   -0.0016540345465557045
-0.004660935666911042   -0.05905120449041512   -0.0016718820556804992
-0.004874102011975801   -0.05914345208312362   -0.0017268202421437775
-0.004545200391541259   -0.059069315642482495   -0.001659195245109023
-0.005534877938134017   -0.058918867893014065   -0.0018415614641579096
-0.0047116836899983566   -0.05919997542830402   -0.0016854833931977263
-0.004545200391541259   -0.059069315642482495   -0.001659195245109023
-0.004874102011975801   -0.05914345208312362   -0.0017268202421437775
-0.005534877938134017   -0.058918867893014065   -0.0018415614641579096
-0.004545200391541259   -0.059069315642482495   -0.001659195245109023
-0.004163413598740558   -0.058920544308023716   -0.0017239964774634507
-0.0042795959183543385   -0.05889893929780801   -0.0016540345465557045
-0.005534877938134017   -0.058918867893014065   -0.0018415614641579096
-0.004545200391541259   -0.059069315642482495   -0.001659195245109023
-0.0042795959183543385   -0.05889893929780801   -0.0016540345465557045
-0.004874102011975801   -0.05914345208312362   -0.0017268202421437775
-0.0051910436790517335   -0.05920390561059755   -0.0018123993225198421
-0.004877073590227237   -0.05914727220595004   -0.0016759272230940747
-0.004438992412947619   -0.05955854140721388   -0.0019843781820468244
-0.005029921371647448   -0.05914435746662914   -0.0017698713425347505
-0.004877073590227237   -0.05914727220595004   -0.0016759272230940747
-0.005248483940241754   -0.05920559185822946   -0.0018549375243790388
-0.004438992412947619   -0.05955854140721388   -0.0019843781820468244
-0.0051425178741270365   -0.05913806758942009   -0.0017791375794600718
-0.005029921371647448   -0.05914435746662914   -0.0017698713425347505
-0.004241526421718296   -0.05950677387445363   -0.0018324963562177331
-0.0051425178741270365   -0.05913806758942009   -0.0017791375794600718
-0.004438992412947619   -0.05955854140721388   -0.0019843781820468244
-0.005029921371647448   -0.05914435746662914   -0.0017698713425347505
-0.0051425178741270365   -0.05913806758942009   -0.0017791375794600718
-0.00477478096434266   -0.05907650360132067   -0.0016780548307722247
-0.004877073590227237   -0.05914727220595004   -0.0016759272230940747
-0.005029921371647448   -0.05914435746662914   -0.0017698713425347505
-0.0051425178741270365   -0.05913806758942009   -0.0017791375794600718
-0.004877073590227237   -0.05914727220595004   -0.0016759272230940747
-0.004438992412947619   -0.05955854140721388   -0.0019843781820468244
-0.005029921371647448   -0.05914435746662914   -0.0017698713425347505
-0.00477478096434266   -0.05907650360132067   -0.0016780548307722247
-0.004241526421718296   -0.05950677387445363   -0.0018324963562177331
-0.004874102011975801   -0.05914345208312362   -0.0017268202421437775
-0.00477478096434266   -0.05907650360132067   -0.0016780548307722247
-0.0051425178741270365   -0.05913806758942009   -0.0017791375794600718
-0.004241526421718296   -0.05950677387445363   -0.0018324963562177331
-0.005015451541300652   -0.05911675135967732   -0.0016932273159793647
-0.004874102011975801   -0.05914345208312362   -0.0017268202421437775
-0.0040584981262049985   -0.059504097920592865   -0.0016810927877494216
-0.005015451541300652   -0.05911675135967732   -0.0016932273159793647
-0.004241526421718296   -0.05950677387445363   -0.0018324963562177331
-0.004874102011975801   -0.05914345208312362   -0.0017268202421437775
-0.005015451541300652   -0.05911675135967732   -0.0016932273159793647
-0.004660935666911042   -0.05905120449041512   -0.0016718820556804992
-0.00477478096434266   -0.05907650360132067   -0.0016780548307722247
-0.004874102011975801   -0.05914345208312362   -0.0017268202421437775
-0.005015451541300652   -0.05911675135967732   -0.0016932273159793647
-0.00477478096434266   -0.05907650360132067   -0.0016780548307722247
-0.004241526421718296   -0.05950677387445363   -0.0018324963562177331
-0.004874102011975801   -0.05914345208312362   -0.0017268202421437775
-0.004660935666911042   -0.05905120449041512   -0.0016718820556804992
-0.0040584981262049985   -0.059504097920592865   -0.0016810927877494216
-0.0047116836899983566   -0.05919997542830402   -0.0016854833931977263
-0.004660935666911042   -0.05905120449041512   -0.0016718820556804992
-0.005015451541300652   -0.05911675135967732   -0.0016932273159793647
-0.0040584981262049985   -0.059504097920592865   -0.0016810927877494216
-0.004884801492472104   -0.0591344273200265   -0.0016017445967491308
-0.0047116836899983566   -0.05919997542830402   -0.0016854833931977263
-0.003862072515354761   -0.05954788712593851   -0.0015294112691169044
-0.004884801492472104   -0.0591344273200265   -0.0016017445967491308
-0.0040584981262049985   -0.059504097920592865   -0.0016810927877494216
-0.0047116836899983566   -0.05919997542830402   -0.0016854833931977263
-0.004884801492472104   -0.0591344273200265   -0.0016017445967491308
-0.004545200391541259   -0.059069315642482495   -0.001659195245109023
-0.004660935666911042   -0.05905120449041512   -0.0016718820556804992
-0.0047116836899983566   -0.05919997542830402   -0.0016854833931977263
-0.004884801492472104   -0.0591344273200265   -0.0016017445967491308
-0.004660935666911042   -0.05905120449041512   -0.0016718820556804992
-0.0040584981262049985   -0.059504097920592865   -0.0016810927877494216
-0.004438992412947619   -0.05955854140721388   -0.0019843781820468244
-0.005248483940241754   -0.05920559185822946   -0.0018549375243790388
-0.003698839823765794   -0.06   -0.002116948315212583
-0.004241526421718296   -0.05950677387445363   -0.0018324963562177331
-0.005248483940241754   -0.05920559185822946   -0.0018549375243790388
-0.005786567958716959   -0.05914122315820679   -0.0020251637122631954
-0.003698839823765794   -0.06   -0.002116948315212583
-0.005648170695830336   -0.059077391829084586   -0.0018751360886964325
-0.004241526421718296   -0.05950677387445363   -0.0018324963562177331
-0.00345035165788851   -0.06   -0.0018859127276220431
-0.005648170695830336   -0.059077391829084586   -0.0018751360886964325
-0.003698839823765794   -0.06   -0.002116948315212583
-0.004241526421718296   -0.05950677387445363   -0.0018324963562177331
-0.005648170695830336   -0.059077391829084586   -0.0018751360886964325
-0.0051425178741270365   -0.05913806758942009   -0.0017791375794600718
-0.005248483940241754   -0.05920559185822946   -0.0018549375243790388
-0.004241526421718296   -0.05950677387445363   -0.0018324963562177331
-0.005648170695830336   -0.059077391829084586   -0.0018751360886964325
-0.005248483940241754   -0.05920559185822946   -0.0018549375243790388
-0.003698839823765794   -0.06   -0.002116948315212583
-0.004241526421718296   -0.05950677387445363   -0.0018324963562177331
-0.0051425178741270365   -0.05913806758942009   -0.0017791375794600718
-0.00345035165788851   -0.06   -0.0018859127276220431
-0.0040584981262049985   -0.059504097920592865   -0.0016810927877494216
-0.0051425178741270365   -0.05913806758942009   -0.0017791375794600718
-0.005648170695830336   -0.059077391829084586   -0.0018751360886964325
-0.00345035165788851   -0.06   -0.0018859127276220431
-0.0054654725380846635   -0.059062987188584305   -0.0017138365232952032
-0.0040584981262049985   -0.059504097920592865   -0.0016810927877494216
-0.0032005791164245465   -0.06   -0.0016521407570602269
-0.0054654725380846635   -0.059062987188584305   -0.0017138365232952032
-0.00345035165788851   -0.06   -0.0018859127276220431
-0.0040584981262049985   -0.059504097920592865   -0.0016810927877494216
-0.0054654725380846635   -0.059062987188584305   -0.0017138365232952032
-0.005015451541300652   -0.05911675135967732   -0.0016932273159793647
-0.0051425178741270365   -0.05913806758942009   -0.0017791375794600718
-0.0040584981262049985   -0.059504097920592865   -0.0016810927877494216
-0.0054654725380846635   -0.059062987188584305   -0.0017138365232952032
-0.0051425178741270365   -0.05913806758942009   -0.0017791375794600718
-0.00345035165788851   -0.06   -0.0018859127276220431
-0.0040584981262049985   -0.059504097920592865   -0.0016810927877494216
-0.005015451541300652   -0.05911675135967732   -0.0016932273159793647
-0.0032005791164245465   -0.06   -0.0016521407570602269
-0.003862072515354761   -0.05954788712593851   -0.0015294112691169044
-0.005015451541300652   -0.05911675135967732   -0.0016932273159793647
-0.0054654725380846635   -0.059062987188584305   -0.0017138365232952032
-0.0032005791164245465   -0.06   -0.0016521407570602269
-0.00529374455515714   -0.059088502133460216   -0.0015463388839371621
-0.003862072515354761   -0.05954788712593851   -0.0015294112691169044
-0.0029565500887473515   -0.06   -0.001421468234092599
-0.00529374455515714   -0.059088502133460216   -0.0015463388839371621
-0.0032005791164245465   -0.06   -0.0016521407570602269
-0.003862072515354761   -0.05954788712593851   -0.0015294112691169044
-0.00529374455515714   -0.059088502133460216   -0.0015463388839371621
-0.004884801492472104   -0.0591344273200265   -0.0016017445967491308
-0.005015451541300652   -0.05911675135967732   -0.0016932273159793647
-0.003862072515354761   -0.05954788712593851   -0.0015294112691169044
-0.00529374455515714   -0.059088502133460216   -0.0015463388839371621
-0.005015451541300652   -0.05911675135967732   -0.0016932273159793647
-0.0032005791164245465   -0.06   -0.0016521407570602269
-0.003698839823765794   -0.06   -0.002116948315212583
-0.005786567958716959   -0.05914122315820679   -0.0020251637122631954
-0.0031608176723997997   -0.06   -0.002277500648868008
-0.00345035165788851   -0.06   -0.0018859127276220431
-0.005786567958716959   -0.05914122315820679   -0.0020251637122631954
-0.006834533522472074   -0.058851981780803246   -0.0022059455220643947
-0.0031608176723997997   -0.06   -0.002277500648868008
-0.006465721342830161   -0.058798041717978804   -0.0019598239843503576
-0.00345035165788851   -0.06   -0.0018859127276220431
-0.0026404364168490756   -0.06   -0.0019430764752729468
-0.006465721342830161   -0.058798041717978804   -0.0019598239843503576
-0.0031608176723997997   -0.06   -0.002277500648868008
-0.00345035165788851   -0.06   -0.0018859127276220431
-0.006465721342830161   -0.058798041717978804   -0.0019598239843503576
-0.005648170695830336   -0.059077391829084586   -0.0018751360886964325
-0.005786567958716959   -0.05914122315820679   -0.0020251637122631954
-0.00345035165788851   -0.06   -0.0018859127276220431
-0.006465721342830161   -0.058798041717978804   -0.0019598239843503576
-0.005786567958716959   -0.05914122315820679   -0.0020251637122631954
-0.0031608176723997997   -0.06   -0.002277500648868008
-0.00345035165788851   -0.06   -0.0018859127276220431
-0.005648170695830336   -0.059077391829084586   -0.0018751360886964325
-0.0026404364168490756   -0.06   -0.0019430764752729468
-0.0032005791164245465   -0.06   -0.0016521407570602269
-0.005648170695830336   -0.059077391829084586   -0.0018751360886964325
-0.006465721342830161   -0.058798041717978804   -0.0019598239843503576
-0.0026404364168490756   -0.06   -0.0019430764752729468
-0.006127036703987231   -0.05879073195108368   -0.0016971998858389922
-0.0032005791164245465   -0.06   -0.0016521407570602269
-0.00222544843244762   -0.06   -0.0016231684439535934
-0.006127036703987231   -0.05879073195108368   -0.0016971998858389922
-0.0026404364168490756   -0.06   -0.0019430764752729468
-0.0032005791164245465   -0.06   -0.0016521407570602269
-0.006127036703987231   -0.05879073195108368   -0.0016971998858389922
-0.0054654725380846635   -0.059062987188584305   -0.0017138365232952032
-0.005648170695830336   -0.059077391829084586   -0.0018751360886964325
-0.0032005791164245465   -0.06   -0.0016521407570602269
-0.006127036703987231   -0.05879073195108368   -0.0016971998858389922
-0.005648170695830336   -0.059077391829084586   -0.0018751360886964325
-0.0026404364168490756   -0.06   -0.0019430764752729468
-0.0032005791164245465   -0.06   -0.0016521407570602269
-0.0054654725380846635   -0.059062987188584305   -0.0017138365232952032
-0.00222544843244762   -0.06   -0.0016231684439535934
-0.0029565500887473515   -0.06   -0.001421468234092599
-0.0054654725380846635   -0.059062987188584305   -0.0017138365232952032
-0.006127036703987231   -0.05879073195108368   -0.0016971998858389922
-0.00222544843244762   -0.06   -0.0016231684439535934
-0.0056992809105098075   -0.058861484667905674   -0.0014226061277835631
-0.0029565500887473515   -0.06   -0.001421468234092599
-0.0017128454833750216   -0.06   -0.00129105892409738
-0.0056992809105098075   -0.058861484667905674   -0.0014226061277835631
-0.00222544843244762   -0.06   -0.0016231684439535934
-0.0029565500887473515   -0.06   -0.001421468234092599
-0.0056992809105098075   -0.058861484667905674   -0.0014226061277835631
-0.00529374455515714   -0.059088502133460216   -0.0015463388839371621
-0.0054654725380846635   -0.059062987188584305   -0.0017138365232952032
-0.0029565500887473515   -0.06   -0.001421468234092599
-0.0056992809105098075   -0.058861484667905674   -0.0014226061277835631
-0.0054654725380846635   -0.059062987188584305   -0.0017138365232952032
-0.00222544843244762   -0.06   -0.0016231684439535934
-0.004276698075416603   -0.05878007316786829   -0.0012666369372550624
-0.0017585200043273212   -0.05657073157362823   -0.001094064674846635
-0.004530871507735987   -0.05900720577945308   -0.0014941069690166385
-0.003981266516813709   -0.05867830675430456   -0.0014613667752247609
-0.0017585200043273212   -0.05657073157362823   -0.001094064674846635
-0.0032577751014729547   -0.05674230368748156   -0.001335738305010457
-0.004530871507735987   -0.05900720577945308   -0.0014941069690166385
-0.0031756178989583972   -0.05664640937857041   -0.0014099417150346047
-0.003981266516813709   -0.05867830675430456   -0.0014613667752247609
-0.004415255957155727   -0.058927969657539554   -0.0015772720686350649
-0.0031756178989583972   -0.05664640937857041   -0.0014099417150346047
-0.004530871507735987   -0.05900720577945308   -0.0014941069690166385
-0.003981266516813709   -0.05867830675430456   -0.0014613667752247609
-0.0031756178989583972   -0.05664640937857041   -0.0014099417150346047
-0.0015227630617506754   -0.05645202398091792   -0.0012625136581380296
-0.0017585200043273212   -0.05657073157362823   -0.001094064674846635
-0.003981266516813709   -0.05867830675430456   -0.0014613667752247609
-0.0031756178989583972   -0.05664640937857041   -0.0014099417150346047
-0.0017585200043273212   -0.05657073157362823   -0.001094064674846635
-0.004530871507735987   -0.05900720577945308   -0.0014941069690166385
-0.003981266516813709   -0.05867830675430456   -0.0014613667752247609
-0.0015227630617506754   -0.05645202398091792   -0.0012625136581380296
-0.004415255957155727   -0.058927969657539554   -0.0015772720686350649
-0.003735366822688905   -0.05864722841514946   -0.0016481532859084387
-0.0015227630617506754   -0.05645202398091792   -0.0012625136581380296
-0.0031756178989583972   -0.05664640937857041   -0.0014099417150346047
-0.004415255957155727   -0.058927969657539554   -0.0015772720686350649
-0.003083068269700774   -0.056593492232164054   -0.0014774858022460367
-0.003735366822688905   -0.05864722841514946   -0.0016481532859084387
-0.0042795959183543385   -0.05889893929780801   -0.0016540345465557045
-0.003083068269700774   -0.056593492232164054   -0.0014774858022460367
-0.004415255957155727   -0.058927969657539554   -0.0015772720686350649
-0.003735366822688905   -0.05864722841514946   -0.0016481532859084387
-0.003083068269700774   -0.056593492232164054   -0.0014774858022460367
-0.0013372446329219902   -0.056395732955041106   -0.001421093583326768
-0.0015227630617506754   -0.05645202398091792   -0.0012625136581380296
-0.003735366822688905   -0.05864722841514946   -0.0016481532859084387
-0.003083068269700774   -0.056593492232164054   -0.0014774858022460367
-0.0015227630617506754   -0.05645202398091792   -0.0012625136581380296
-0.004415255957155727   -0.058927969657539554   -0.0015772720686350649
-0.003735366822688905   -0.05864722841514946   -0.0016481532859084387
-0.0013372446329219902   -0.056395732955041106   -0.001421093583326768
-0.0042795959183543385   -0.05889893929780801   -0.0016540345465557045
-0.0034570410286126484   -0.05867417123609946   -0.0018261738623738812
-0.0013372446329219902   -0.056395732955041106   -0.001421093583326768
-0.003083068269700774   -0.056593492232164054   -0.0014774858022460367
-0.0042795959183543385   -0.05889893929780801   -0.0016540345465557045
-0.003012126909687581   -0.05658207122483824   -0.0015385852225506607
-0.0034570410286126484   -0.05867417123609946   -0.0018261738623738812
-0.004163413598740558   -0.058920544308023716   -0.0017239964774634507
-0.003012126909687581   -0.05658207122483824   -0.0015385852225506607
-0.0042795959183543385   -0.05889893929780801   -0.0016540345465557045
-0.0034570410286126484   -0.05867417123609946   -0.0018261738623738812
-0.003012126909687581   -0.05658207122483824   -0.0015385852225506607
-0.0011345119779123474   -0.05638563875455064   -0.0015693896771219642
-0.0013372446329219902   -0.056395732955041106   -0.001421093583326768
-0.0034570410286126484   -0.05867417123609946   -0.0018261738623738812
-0.003012126909687581   -0.05658207122483824   -0.0015385852225506607
-0.0013372446329219902   -0.056395732955041106   -0.001421093583326768
-0.0042795959183543385   -0.05889893929780801   -0.0016540345465557045
-0.004530871507735987   -0.05900720577945308   -0.0014941069690166385
-0.0032577751014729547   -0.05674230368748156   -0.001335738305010457
-0.004877073590227237   -0.05914727220595004   -0.0016759272230940747
-0.004415255957155727   -0.058927969657539554   -0.0015772720686350649
-0.0032577751014729547   -0.05674230368748156   -0.001335738305010457
-0.004738694304176581   -0.05680274806721904   -0.0015327707252204721
-0.004877073590227237   -0.05914727220595004   -0.0016759272230940747
-0.004669652774179714   -0.056719096076007884   -0.0015368059943432941
-0.004415255957155727   -0.058927969657539554   -0.0015772720686350649
-0.00477478096434266   -0.05907650360132067   -0.0016780548307722247
-0.004669652774179714   -0.056719096076007884   -0.0015368059943432941
-0.004877073590227237   -0.05914727220595004   -0.0016759272230940747
-0.004415255957155727   -0.058927969657539554   -0.0015772720686350649
-0.004669652774179714   -0.056719096076007884   -0.0015368059943432941
-0.0031756178989583972   -0.05664640937857041   -0.0014099417150346047
-0.0032577751014729547   -0.05674230368748156   -0.001335738305010457
-0.004415255957155727   -0.058927969657539554   -0.0015772720686350649
-0.004669652774179714   -0.056719096076007884   -0.0015368059943432941
-0.0032577751014729547   -0.05674230368748156   -0.001335738305010457
-0.004877073590227237   -0.05914727220595004   -0.0016759272230940747
-0.004415255957155727   -0.058927969657539554   -0.0015772720686350649
-0.0031756178989583972   -0.05664640937857041   -0.0014099417150346047
-0.00477478096434266   -0.05907650360132067   -0.0016780548307722247
-0.0042795959183543385   -0.05889893929780801   -0.0016540345465557045
-0.0031756178989583972   -0.05664640937857041   -0.0014099417150346047
-0.004669652774179714   -0.056719096076007884   -0.0015368059943432941
-0.00477478096434266   -0.05907650360132067   -0.0016780548307722247
-0.004598238417519356   -0.05667418337796982   -0.0015346731331794352
-0.0042795959183543385   -0.05889893929780801   -0.0016540345465557045
-0.004660935666911042   -0.05905120449041512   -0.0016718820556804992
-0.004598238417519356   -0.05667418337796982   -0.0015346731331794352
-0.00477478096434266   -0.05907650360132067   -0.0016780548307722247
-0.0042795959183543385   -0.05889893929780801   -0.0016540345465557045
-0.004598238417519356   -0.05667418337796982   -0.0015346731331794352
-0.003083068269700774   -0.056593492232164054   -0.0014774858022460367
-0.0031756178989583972   -0.05664640937857041   -0.0014099417150346047
-0.0042795959183543385   -0.05889893929780801   -0.0016540345465557045
-0.004598238417519356   -0.05667418337796982   -0.0015346731331794352
-0.0031756178989583972   -0.05664640937857041   -0.0014099417150346047
-0.00477478096434266   -0.05907650360132067   -0.0016780548307722247
-0.0042795959183543385   -0.05889893929780801   -0.0016540345465557045
-0.003083068269700774   -0.056593492232164054   -0.0014774858022460367
-0.004660935666911042   -0.05905120449041512   -0.0016718820556804992
-0.004163413598740558   -0.058920544308023716   -0.0017239964774634507
-0.003083068269700774   -0.056593492232164054   -0.0014774858022460367
-0.004598238417519356   -0.05667418337796982   -0.0015346731331794352
-0.004660935666911042   -0.05905120449041512   -0.0016718820556804992
-0.004529374327675496   -0.05666615756563906   -0.0015263180732824613
-0.004163413598740558   -0.058920544308023716   -0.0017239964774634507
-0.004545200391541259   -0.059069315642482495   -0.001659195245109023
-0.004529374327675496   -0.05666615756563906   -0.0015263180732824613
-0.004660935666911042   -0.05905120449041512   -0.0016718820556804992
-0.004163413598740558   -0.058920544308023716   -0.0017239964774634507
-0.004529374327675496   -0.05666615756563906   -0.0015263180732824613
-0.003012126909687581   -0.05658207122483824   -0.0015385852225506607
-0.003083068269700774   -0.056593492232164054   -0.0014774858022460367
-0.004163413598740558   -0.058920544308023716   -0.0017239964774634507
-0.004529374327675496   -0.05666615756563906   -0.0015263180732824613
-0.003083068269700774   -0.056593492232164054   -0.0014774858022460367
-0.004660935666911042   -0.05905120449041512   -0.0016718820556804992
-0.004877073590227237   -0.05914727220595004   -0.0016759272230940747
-0.004738694304176581   -0.05680274806721904   -0.0015327707252204721
-0.005248483940241754   -0.05920559185822946   -0.0018549375243790388
-0.00477478096434266   -0.05907650360132067   -0.0016780548307722247
-0.004738694304176581   -0.05680274806721904   -0.0015327707252204721
-0.006209513025246435   -0.05674882407283026   -0.0017171965708931425
-0.005248483940241754   -0.05920559185822946   -0.0018549375243790388
-0.006141017304219636   -0.05667451021296751   -0.0016539419548929617
-0.00477478096434266   -0.05907650360132067   -0.0016780548307722247
-0.0051425178741270365   -0.05913806758942009   -0.0017791375794600718
-0.006141017304219636   -0.05667451021296751   -0.0016539419548929617
-0.005248483940241754   -0.05920559185822946   -0.0018549375243790388
-0.00477478096434266   -0.05907650360132067   -0.0016780548307722247
-0.006141017304219636   -0.05667451021296751   -0.0016539419548929617
-0.004669652774179714   -0.056719096076007884   -0.0015368059943432941
-0.004738694304176581   -0.05680274806721904   -0.0015327707252204721
-0.00477478096434266   -0.05907650360132067   -0.0016780548307722247
-0.006141017304219636   -0.05667451021296751   -0.0016539419548929617
-0.004738694304176581   -0.05680274806721904   -0.0015327707252204721
-0.005248483940241754   -0.05920559185822946   -0.0018549375243790388
-0.00477478096434266   -0.05907650360132067   -0.0016780548307722247
-0.004669652774179714   -0.056719096076007884   -0.0015368059943432941
-0.0051425178741270365   -0.05913806758942009   -0.0017791375794600718
-0.004660935666911042   -0.05905120449041512   -0.0016718820556804992
-0.004669652774179714   -0.056719096076007884   -0.0015368059943432941
-0.006141017304219636   -0.05667451021296751   -0.0016539419548929617
-0.0051425178741270365   -0.05913806758942009   -0.0017791375794600718
-0.006064150892646446   -0.056638289986122664   -0.0015846122496813331
-0.004660935666911042   -0.05905120449041512   -0.0016718820556804992
-0.005015451541300652   -0.05911675135967732   -0.0016932273159793647
-0.006064150892646446   -0.056638289986122664   -0.0015846122496813331
-0.0051425178741270365   -0.05913806758942009   -0.0017791375794600718
-0.004660935666911042   -0.05905120449041512   -0.0016718820556804992
-0.006064150892646446   -0.056638289986122664   -0.0015846122496813331
-0.004598238417519356   -0.05667418337796982   -0.0015346731331794352
-0.004669652774179714   -0.056719096076007884   -0.0015368059943432941
-0.004660935666911042   -0.05905120449041512   -0.0016718820556804992
-0.006064150892646446   -0.056638289986122664   -0.0015846122496813331
-0.004669652774179714   -0.056719096076007884   -0.0015368059943432941
-0.0051425178741270365   -0.05913806758942009   -0.0017791375794600718
-0.004660935666911042   -0.05905120449041512   -0.0016718820556804992
-0.004598238417519356   -0.05667418337796982   -0.0015346731331794352
-0.005015451541300652   -0.05911675135967732   -0.0016932273159793647
-0.004545200391541259   -0.059069315642482495   -0.001659195245109023
-0.004598238417519356   -0.05667418337796982   -0.0015346731331794352
-0.006064150892646446   -0.056638289986122664   -0.0015846122496813331
-0.005015451541300652   -0.05911675135967732   -0.0016932273159793647
-0.005986984358117215   -0.05663651737710903   -0.0015084676018423046
-0.004545200391541259   -0.059069315642482495   -0.001659195245109023
-0.004884801492472104   -0.0591344273200265   -0.0016017445967491308
-0.005986984358117215   -0.05663651737710903   -0.0015084676018423046
-0.005015451541300652   -0.05911675135967732   -0.0016932273159793647
-0.004545200391541259   -0.059069315642482495   -0.001659195245109023
-0.005986984358117215   -0.05663651737710903   -0.0015084676018423046
-0.004529374327675496   -0.05666615756563906   -0.0015263180732824613
-0.004598238417519356   -0.05667418337796982   -0.0015346731331794352
-0.004545200391541259   -0.059069315642482495   -0.001659195245109023
-0.005986984358117215   -0.05663651737710903   -0.0015084676018423046
-0.004598238417519356   -0.05667418337796982   -0.0015346731331794352
-0.005015451541300652   -0.05911675135967732   -0.0016932273159793647
-0.005248483940241754   -0.05920559185822946   -0.0018549375243790388
-0.006209513025246435   -0.05674882407283026   -0.0017171965708931425
-0.005786567958716959   -0.05914122315820679   -0.0020251637122631954
-0.0051425178741270365   -0.05913806758942009   -0.0017791375794600718
-0.006209513025246435   -0.05674882407283026   -0.0017171965708931425
-0.007825057539895435   -0.05657342398141489   -0.0018866692454173085
-0.005786567958716959   -0.05914122315820679   -0.0020251637122631954
-0.007741158969575262   -0.05650845398124109   -0.0017576041840793146
-0.0051425178741270365   -0.05913806758942009   -0.0017791375794600718
-0.005648170695830336   -0.059077391829084586   -0.0018751360886964325
-0.007741158969575262   -0.05650845398124109   -0.0017576041840793146
-0.005786567958716959   -0.05914122315820679   -0.0020251637122631954
-0.0051425178741270365   -0.05913806758942009   -0.0017791375794600718
-0.007741158969575262   -0.05650845398124109   -0.0017576041840793146
-0.006141017304219636   -0.05667451021296751   -0.0016539419548929617
-0.006209513025246435   -0.05674882407283026   -0.0017171965708931425
-0.0051425178741270365   -0.05913806758942009   -0.0017791375794600718
-0.007741158969575262   -0.05650845398124109   -0.0017576041840793146
-0.006209513025246435   -0.05674882407283026   -0.0017171965708931425
-0.005786567958716959   -0.05914122315820679   -0.0020251637122631954
-0.0051425178741270365   -0.05913806758942009   -0.0017791375794600718
-0.006141017304219636   -0.05667451021296751   -0.0016539419548929617
-0.005648170695830336   -0.059077391829084586   -0.0018751360886964325
-0.005015451541300652   -0.05911675135967732   -0.0016932273159793647
-0.006141017304219636   -0.05667451021296751   -0.0016539419548929617
-0.007741158969575262   -0.05650845398124109   -0.0017576041840793146
-0.005648170695830336   -0.059077391829084586   -0.0018751360886964325
-0.0076252747369783686   -0.05648089171400595   -0.001622915030569034
-0.005015451541300652   -0.05911675135967732   -0.0016932273159793647
-0.0054654725380846635   -0.059062987188584305   -0.0017138365232952032
-0.0076252747369783686   -0.05648089171400595   -0.001622915030569034
-0.005648170695830336   -0.059077391829084586   -0.0018751360886964325
-0.005015451541300652   -0.05911675135967732   -0.0016932273159793647
-0.0076252747369783686   -0.05648089171400595   -0.001622915030569034
-0.006064150892646446   -0.056638289986122664   -0.0015846122496813331
-0.006141017304219636   -0.05667451021296751   -0.0016539419548929617
-0.005015451541300652   -0.05911675135967732   -0.0016932273159793647
-0.0076252747369783686   -0.05648089171400595   -0.001622915030569034
-0.006141017304219636   -0.05667451021296751   -0.0016539419548929617
-0.005648170695830336   -0.059077391829084586   -0.0018751360886964325
-0.005015451541300652   -0.05911675135967732   -0.0016932273159793647
-0.006064150892646446   -0.056638289986122664   -0.0015846122496813331
-0.0054654725380846635   -0.059062987188584305   -0.0017138365232952032
-0.004884801492472104   -0.0591344273200265   -0.0016017445967491308
-0.006064150892646446   -0.056638289986122664   -0.0015846122496813331
-0.0076252747369783686   -0.05648089171400595   -0.001622915030569034
-0.0054654725380846635   -0.059062987188584305   -0.0017138365232952032
-0.007524212765737405   -0.05649077667500331   -0.0014788623491495578
-0.004884801492472104   -0.0591344273200265   -0.0016017445967491308
-0.00529374455515714   -0.059088502133460216   -0.0015463388839371621
-0.007524212765737405   -0.05649077667500331   -0.0014788623491495578
-0.0054654725380846635   -0.059062987188584305   -0.0017138365232952032
-0.004884801492472104   -0.0591344273200265   -0.0016017445967491308
-0.007524212765737405   -0.05649077667500331   -0.0014788623491495578
-0.005986984358117215   -0.05663651737710903   -0.0015084676018423046
-0.006064150892646446   -0.056638289986122664   -0.0015846122496813331
-0.004884801492472104   -0.0591344273200265   -0.0016017445967491308
-0.007524212765737405   -0.05649077667500331   -0.0014788623491495578
-0.006064150892646446   -0.056638289986122664   -0.0015846122496813331
-0.0054654725380846635   -0.059062987188584305   -0.0017138365232952032
-0.005786567958716959   -0.05914122315820679   -0.0020251637122631954
-0.007825057539895435   -0.05657342398141489   -0.0018866692454173085
-0.006834533522472074   -0.058851981780803246   -0.0022059455220643947
-0.005648170695830336   -0.059077391829084586   -0.0018751360886964325
-0.007825057539895435   -0.05657342398141489   -0.0018866692454173085
-0.0099054126090632   -0.05628816580995702   -0.0020495376220669975
-0.006834533522472074   -0.058851981780803246   -0.0022059455220643947
-0.009634474514967774   -0.05621764126322725   -0.0018457438924293448
-0.005648170695830336   -0.059077391829084586   -0.0018751360886964325
-0.006465721342830161   -0.058798041717978804   -0.0019598239843503576
-0.009634474514967774   -0.05621764126322725   -0.0018457438924293448
-0.006834533522472074   -0.058851981780803246   -0.0022059455220643947
-0.005648170695830336   -0.059077391829084586   -0.0018751360886964325
-0.009634474514967774   -0.05621764126322725   -0.0018457438924293448
-0.007741158969575262   -0.05650845398124109   -0.0017576041840793146
-0.007825057539895435   -0.05657342398141489   -0.0018866692454173085
-0.005648170695830336   -0.059077391829084586   -0.0018751360886964325
-0.009634474514967774   -0.05621764126322725   -0.0018457438924293448
-0.007825057539895435   -0.05657342398141489   -0.0018866692454173085
-0.006834533522472074   -0.058851981780803246   -0.0022059455220643947
-0.005648170695830336   -0.059077391829084586   -0.0018751360886964325
-0.007741158969575262   -0.05650845398124109   -0.0017576041840793146
-0.006465721342830161   -0.058798041717978804   -0.0019598239843503576
-0.0054654725380846635   -0.059062987188584305   -0.0017138365232952032
-0.007741158969575262   -0.05650845398124109   -0.0017576041840793146
-0.009634474514967774   -0.05621764126322725   -0.0018457438924293448
-0.006465721342830161   -0.058798041717978804   -0.0019598239843503576
-0.009391767069921389   -0.056192147052845434   -0.0016301447667372453
-0.0054654725380846635   -0.059062987188584305   -0.0017138365232952032
-0.006127036703987231   -0.05879073195108368   -0.0016971998858389922
-0.009391767069921389   -0.056192147052845434   -0.0016301447667372453
-0.006465721342830161   -0.058798041717978804   -0.0019598239843503576
-0.0054654725380846635   -0.059062987188584305   -0.0017138365232952032
-0.009391767069921389   -0.056192147052845434   -0.0016301447667372453
-0.0076252747369783686   -0.05648089171400595   -0.001622915030569034
-0.007741158969575262   -0.05650845398124109   -0.0017576041840793146
-0.0054654725380846635   -0.059062987188584305   -0.0017138365232952032
-0.009391767069921389   -0.056192147052845434   -0.0016301447667372453
-0.007741158969575262   -0.05650845398124109   -0.0017576041840793146
-0.006465721342830161   -0.058798041717978804   -0.0019598239843503576
-0.0054654725380846635   -0.059062987188584305   -0.0017138365232952032
-0.0076252747369783686   -0.05648089171400595   -0.001622915030569034
-0.006127036703987231   -0.05879073195108368   -0.0016971998858389922
-0.00529374455515714   -0.059088502133460216   -0.0015463388839371621
-0.0076252747369783686   -0.05648089171400595   -0.001622915030569034
-0.009391767069921389   -0.056192147052845434   -0.0016301447667372453
-0.006127036703987231   -0.05879073195108368   -0.0016971998858389922
-0.009077225326383175   -0.05622488523522614   -0.0014047829932688617
-0.00529374455515714   -0.059088502133460216   -0.0015463388839371621
-0.0056992809105098075   -0.058861484667905674   -0.0014226061277835631
-0.009077225326383175   -0.05622488523522614   -0.0014047829932688617
-0.006127036703987231   -0.05879073195108368   -0.0016971998858389922
-0.00529374455515714   -0.059088502133460216   -0.0015463388839371621
-0.009077225326383175   -0.05622488523522614   -0.0014047829932688617
-0.007524212765737405   -0.05649077667500331   -0.0014788623491495578
-0.0076252747369783686   -0.05648089171400595   -0.001622915030569034
-0.00529374455515714   -0.059088502133460216   -0.0015463388839371621
-0.009077225326383175   -0.05622488523522614   -0.0014047829932688617
-0.0076252747369783686   -0.05648089171400595   -0.001622915030569034
-0.006127036703987231   -0.05879073195108368   -0.0016971998858389922
-0.0017585200043273212   -0.05657073157362823   -0.001094064674846635
0.00028638226622428335   -0.05249615312106379   -0.0009046800491769599
-0.0032577751014729547   -0.05674230368748156   -0.001335738305010457
-0.0015227630617506754   -0.05645202398091792   -0.0012625136581380296
0.00028638226622428335   -0.05249615312106379   -0.0009046800491769599
-0.0022457584944701025   -0.052622151798500987   -0.001141999025649467
-0.0032577751014729547   -0.05674230368748156   -0.001335738305010457
-0.002202149998212561   -0.0525216421898323   -0.0012009319808740369
-0.0015227630617506754   -0.05645202398091792   -0.0012625136581380296
-0.0031756178989583972   -0.05664640937857041   -0.0014099417150346047
-0.002202149998212561   -0.0525216421898323   -0.0012009319808740369
-0.0032577751014729547   -0.05674230368748156   -0.001335738305010457
-0.0015227630617506754   -0.05645202398091792   -0.0012625136581380296
-0.002202149998212561   -0.0525216421898323   -0.0012009319808740369
0.0004512629211670282   -0.052375512589174826   -0.001038973487460633
0.00028638226622428335   -0.05249615312106379   -0.0009046800491769599
-0.0015227630617506754   -0.05645202398091792   -0.0012625136581380296
-0.002202149998212561   -0.0525216421898323   -0.0012009319808740369
0.00028638226622428335   -0.05249615312106379   -0.0009046800491769599
-0.0032577751014729547   -0.05674230368748156   -0.001335738305010457
-0.0015227630617506754   -0.05645202398091792   -0.0012625136581380296
0.0004512629211670282   -0.052375512589174826   -0.001038973487460633
-0.0031756178989583972   -0.05664640937857041   -0.0014099417150346047
-0.0013372446329219902   -0.056395732955041106   -0.001421093583326768
0.0004512629211670282   -0.052375512589174826   -0.001038973487460633
-0.002202149998212561   -0.0525216421898323   -0.0012009319808740369
-0.0031756178989583972   -0.05664640937857041   -0.0014099417150346047
-0.0021524467922533087   -0.05245621871381557   -0.0012530321751640296
-0.0013372446329219902   -0.056395732955041106   -0.001421093583326768
-0.003083068269700774   -0.056593492232164054   -0.0014774858022460367
-0.0021524467922533087   -0.05245621871381557   -0.0012530321751640296
-0.0031756178989583972   -0.05664640937857041   -0.0014099417150346047
-0.0013372446329219902   -0.056395732955041106   -0.001421093583326768
-0.0021524467922533087   -0.05245621871381557   -0.0012530321751640296
0.0005725767305901153   -0.052306056307085146   -0.0011637030751492992
0.0004512629211670282   -0.052375512589174826   -0.001038973487460633
-0.0013372446329219902   -0.056395732955041106   -0.001421093583326768
-0.0021524467922533087   -0.05245621871381557   -0.0012530321751640296
0.0004512629211670282   -0.052375512589174826   -0.001038973487460633
-0.0031756178989583972   -0.05664640937857041   -0.0014099417150346047
-0.0013372446329219902   -0.056395732955041106   -0.001421093583326768
0.0005725767305901153   -0.052306056307085146   -0.0011637030751492992
-0.003083068269700774   -0.056593492232164054   -0.0014774858022460367
-0.0011345119779123474   -0.05638563875455064   -0.0015693896771219642
0.0005725767305901153   -0.052306056307085146   -0.0011637030751492992
-0.0021524467922533087   -0.05245621871381557   -0.0012530321751640296
-0.003083068269700774   -0.056593492232164054   -0.0014774858022460367
-0.002122725823591324   -0.05242393768770043   -0.0012989745384746098
-0.0011345119779123474   -0.05638563875455064   -0.0015693896771219642
-0.003012126909687581   -0.05658207122483824   -0.0015385852225506607
-0.002122725823591324   -0.05242393768770043   -0.0012989745384746098
-0.003083068269700774   -0.056593492232164054   -0.0014774858022460367
-0.0011345119779123474   -0.05638563875455064   -0.0015693896771219642
-0.002122725823591324   -0.05242393768770043   -0.0012989745384746098
0.0007025697722254459   -0.05227220329047976   -0.0012788240688976923
0.0005725767305901153   -0.052306056307085146   -0.0011637030751492992
-0.0011345119779123474   -0.05638563875455064   -0.0015693896771219642
-0.002122725823591324   -0.05242393768770043   -0.0012989745384746098
0.0005725767305901153   -0.052306056307085146   -0.0011637030751492992
-0.003083068269700774   -0.056593492232164054   -0.0014774858022460367
-0.0032577751014729547   -0.05674230368748156   -0.001335738305010457
-0.0022457584944701025   -0.052622151798500987   -0.001141999025649467
-0.004738694304176581   -0.05680274806721904   -0.0015327707252204721
-0.0031756178989583972   -0.05664640937857041   -0.0014099417150346047
-0.0022457584944701025   -0.052622151798500987   -0.001141999025649467
-0.0046962168914648494   -0.05264627438537918   -0.0013374122162566784
-0.004738694304176581   -0.05680274806721904   -0.0015327707252204721
-0.004664193100974653   -0.0525600247928575   -0.0013388908557449455
-0.0031756178989583972   -0.05664640937857041   -0.0014099417150346047
-0.004669652774179714   -0.056719096076007884   -0.0015368059943432941
-0.004664193100974653   -0.0525600247928575   -0.0013388908557449455
-0.004738694304176581   -0.05680274806721904   -0.0015327707252204721
-0.0031756178989583972   -0.05664640937857041   -0.0014099417150346047
-0.004664193100974653   -0.0525600247928575   -0.0013388908557449455
-0.002202149998212561   -0.0525216421898323   -0.0012009319808740369
-0.0022457584944701025   -0.052622151798500987   -0.001141999025649467
-0.0031756178989583972   -0.05664640937857041   -0.0014099417150346047
-0.004664193100974653   -0.0525600247928575   -0.0013388908557449455
-0.0022457584944701025   -0.052622151798500987   -0.001141999025649467
-0.004738694304176581   -0.05680274806721904   -0.0015327707252204721
-0.0031756178989583972   -0.05664640937857041   -0.0014099417150346047
-0.002202149998212561   -0.0525216421898323   -0.0012009319808740369
-0.004669652774179714   -0.056719096076007884   -0.0015368059943432941
-0.003083068269700774   -0.056593492232164054   -0.0014774858022460367
-0.002202149998212561   -0.0525216421898323   -0.0012009319808740369
-0.004664193100974653   -0.0525600247928575   -0.0013388908557449455
-0.004669652774179714   -0.056719096076007884   -0.0015368059943432941
-0.00463125722581644   -0.05250517585617585   -0.0013338213496617523
-0.003083068269700774   -0.056593492232164054   -0.0014774858022460367
-0.004598238417519356   -0.05667418337796982   -0.0015346731331794352
-0.00463125722581644   -0.05250517585617585   -0.0013338213496617523
-0.004669652774179714   -0.056719096076007884   -0.0015368059943432941
-0.003083068269700774   -0.056593492232164054   -0.0014774858022460367
-0.00463125722581644   -0.05250517585617585   -0.0013338213496617523
-0.0021524467922533087   -0.05245621871381557   -0.0012530321751640296
-0.002202149998212561   -0.0525216421898323   -0.0012009319808740369
-0.003083068269700774   -0.056593492232164054   -0.0014774858022460367
-0.00463125722581644   -0.05250517585617585   -0.0013338213496617523
-0.002202149998212561   -0.0525216421898323   -0.0012009319808740369
-0.004669652774179714   -0.056719096076007884   -0.0015368059943432941
-0.003083068269700774   -0.056593492232164054   -0.0014774858022460367
-0.0021524467922533087   -0.05245621871381557   -0.0012530321751640296
-0.004598238417519356   -0.05667418337796982   -0.0015346731331794352
-0.003012126909687581   -0.05658207122483824   -0.0015385852225506607
-0.0021524467922533087   -0.05245621871381557   -0.0012530321751640296
-0.00463125722581644   -0.05250517585617585   -0.0013338213496617523
-0.004598238417519356   -0.05667418337796982   -0.0015346731331794352
-0.004602452270889436   -0.05248121434721279   -0.0013226423347823917
-0.003012126909687581   -0.05658207122483824   -0.0015385852225506607
-0.004529374327675496   -0.05666615756563906   -0.0015263180732824613
-0.004602452270889436   -0.05248121434721279   -0.0013226423347823917
-0.004598238417519356   -0.05667418337796982   -0.0015346731331794352
-0.003012126909687581   -0.05658207122483824   -0.0015385852225506607
-0.004602452270889436   -0.05248121434721279   -0.0013226423347823917
-0.002122725823591324   -0.05242393768770043   -0.0012989745384746098
-0.0021524467922533087   -0.05245621871381557   -0.0012530321751640296
-0.003012126909687581   -0.05658207122483824   -0.0015385852225506607
-0.004602452270889436   -0.05248121434721279   -0.0013226423347823917
-0.0021524467922533087   -0.05245621871381557   -0.0012530321751640296
-0.004598238417519356   -0.05667418337796982   -0.0015346731331794352
-0.004738694304176581   -0.05680274806721904   -0.0015327707252204721
-0.0046962168914648494   -0.05264627438537918   -0.0013374122162566784
-0.006209513025246435   -0.05674882407283026   -0.0017171965708931425
-0.004669652774179714   -0.056719096076007884   -0.0015368059943432941
-0.0046962168914648494   -0.05264627438537918   -0.0013374122162566784
-0.007108340313166857   -0.05256815153545969   -0.0015137924509977965
-0.006209513025246435   -0.05674882407283026   -0.0017171965708931425
-0.007078529500363757   -0.052493746685476995   -0.0014592000140534534
-0.004669652774179714   -0.056719096076007884   -0.0015368059943432941
-0.006141017304219636   -0.05667451021296751   -0.0016539419548929617
-0.007078529500363757   -0.052493746685476995   -0.0014592000140534534
-0.006209513025246435   -0.05674882407283026   -0.0017171965708931425
-0.004669652774179714   -0.056719096076007884   -0.0015368059943432941
-0.007078529500363757   -0.052493746685476995   -0.0014592000140534534
-0.004664193100974653   -0.0525600247928575   -0.0013388908557449455
-0.0046962168914648494   -0.05264627438537918   -0.0013374122162566784
-0.004669652774179714   -0.056719096076007884   -0.0015368059943432941
-0.007078529500363757   -0.052493746685476995   -0.0014592000140534534
-0.0046962168914648494   -0.05264627438537918   -0.0013374122162566784
-0.006209513025246435   -0.05674882407283026   -0.0017171965708931425
-0.004669652774179714   -0.056719096076007884   -0.0015368059943432941
-0.004664193100974653   -0.0525600247928575   -0.0013388908557449455
-0.006141017304219636   -0.05667451021296751   -0.0016539419548929617
-0.004598238417519356   -0.05667418337796982   -0.0015346731331794352
-0.004664193100974653   -0.0525600247928575   -0.0013388908557449455
-0.007078529500363757   -0.052493746685476995   -0.0014592000140534534
-0.006141017304219636   -0.05667451021296751   -0.0016539419548929617
-0.007042503829536799   -0.05245039801739132   -0.001398202968912208
-0.004598238417519356   -0.05667418337796982   -0.0015346731331794352
-0.006064150892646446   -0.056638289986122664   -0.0015846122496813331
-0.007042503829536799   -0.05245039801739132   -0.001398202968912208
-0.006141017304219636   -0.05667451021296751   -0.0016539419548929617
-0.004598238417519356   -0.05667418337796982   -0.0015346731331794352
-0.007042503829536799   -0.05245039801739132   -0.001398202968912208
-0.00463125722581644   -0.05250517585617585   -0.0013338213496617523
-0.004664193100974653   -0.0525600247928575   -0.0013388908557449455
-0.004598238417519356   -0.05667418337796982   -0.0015346731331794352
-0.007042503829536799   -0.05245039801739132   -0.001398202968912208
-0.004664193100974653   -0.0525600247928575   -0.0013388908557449455
-0.006141017304219636   -0.05667451021296751   -0.0016539419548929617
-0.004598238417519356   -0.05667418337796982   -0.0015346731331794352
-0.00463125722581644   -0.05250517585617585   -0.0013338213496617523
-0.006064150892646446   -0.056638289986122664   -0.0015846122496813331
-0.004529374327675496   -0.05666615756563906   -0.0015263180732824613
-0.00463125722581644   -0.05250517585617585   -0.0013338213496617523
-0.007042503829536799   -0.05245039801739132   -0.001398202968912208
-0.006064150892646446   -0.056638289986122664   -0.0015846122496813331
-0.007007476081477863   -0.05243667177742126   -0.0013309981871247546
-0.004529374327675496   -0.05666615756563906   -0.0015263180732824613
-0.005986984358117215   -0.05663651737710903   -0.0015084676018423046
-0.007007476081477863   -0.05243667177742126   -0.0013309981871247546
-0.006064150892646446   -0.056638289986122664   -0.0015846122496813331
-0.004529374327675496   -0.05666615756563906   -0.0015263180732824613
-0.007007476081477863   -0.05243667177742126   -0.0013309981871247546
-0.004602452270889436   -0.05248121434721279   -0.0013226423347823917
-0.00463125722581644   -0.05250517585617585   -0.0013338213496617523
-0.004529374327675496   -0.05666615756563906   -0.0015263180732824613
-0.007007476081477863   -0.05243667177742126   -0.0013309981871247546
-0.00463125722581644   -0.05250517585617585   -0.0013338213496617523
-0.006064150892646446   -0.056638289986122664   -0.0015846122496813331
-0.006209513025246435   -0.05674882407283026   -0.0017171965708931425
-0.007108340313166857   -0.05256815153545969   -0.0015137924509977965
-0.007825057539895435   -0.05657342398141489   -0.0018866692454173085
-0.006141017304219636   -0.05667451021296751   -0.0016539419548929617
-0.007108340313166857   -0.05256815153545969   -0.0015137924509977965
-0.009635906019068715   -0.05239052633933982   -0.0016704955932778426
-0.007825057539895435   -0.05657342398141489   -0.0018866692454173085
-0.009596913374638543   -0.0523274134710643   -0.001559753247566999
-0.006141017304219636   -0.05667451021296751   -0.0016539419548929617
-0.007741158969575262   -0.05650845398124109   -0.0017576041840793146
-0.009596913374638543   -0.0523274134710643   -0.001559753247566999
-0.007825057539895435   -0.05657342398141489   -0.0018866692454173085
-0.006141017304219636   -0.05667451021296751   -0.0016539419548929617
-0.009596913374638543   -0.0523274134710643   -0.001559753247566999
-0.007078529500363757   -0.052493746685476995   -0.0014592000140534534
-0.007108340313166857   -0.05256815153545969   -0.0015137924509977965
-0.006141017304219636   -0.05667451021296751   -0.0016539419548929617
-0.009596913374638543   -0.0523274134710643   -0.001559753247566999
-0.007108340313166857   -0.05256815153545969   -0.0015137924509977965
-0.007825057539895435   -0.05657342398141489   -0.0018866692454173085
-0.006141017304219636   -0.05667451021296751   -0.0016539419548929617
-0.007078529500363757   -0.052493746685476995   -0.0014592000140534534
-0.007741158969575262   -0.05650845398124109   -0.0017576041840793146
-0.006064150892646446   -0.056638289986122664   -0.0015846122496813331
-0.007078529500363757   -0.052493746685476995   -0.0014592000140534534
-0.009596913374638543   -0.0523274134710643   -0.001559753247566999
-0.007741158969575262   -0.05650845398124109   -0.0017576041840793146
-0.009530781454176683   -0.05229449095582583   -0.0014435928546635047
-0.006064150892646446   -0.056638289986122664   -0.0015846122496813331
-0.0076252747369783686   -0.05648089171400595   -0.001622915030569034
-0.009530781454176683   -0.05229449095582583   -0.0014435928546635047
-0.007741158969575262   -0.05650845398124109   -0.0017576041840793146
-0.006064150892646446   -0.056638289986122664   -0.0015846122496813331
-0.009530781454176683   -0.05229449095582583   -0.0014435928546635047
-0.007042503829536799   -0.05245039801739132   -0.001398202968912208
-0.007078529500363757   -0.052493746685476995   -0.0014592000140534534
-0.006064150892646446   -0.056638289986122664   -0.0015846122496813331
-0.009530781454176683   -0.05229449095582583   -0.0014435928546635047
-0.007078529500363757   -0.052493746685476995   -0.0014592000140534534
-0.007741158969575262   -0.05650845398124109   -0.0017576041840793146
-0.006064150892646446   -0.056638289986122664   -0.0015846122496813331
-0.007042503829536799   -0.05245039801739132   -0.001398202968912208
-0.0076252747369783686   -0.05648089171400595   -0.001622915030569034
-0.005986984358117215   -0.05663651737710903   -0.0015084676018423046
-0.007042503829536799   -0.05245039801739132   -0.001398202968912208
-0.009530781454176683   -0.05229449095582583   -0.0014435928546635047
-0.0076252747369783686   -0.05648089171400595   -0.001622915030569034
-0.009477125060113872   -0.052293512187225936   -0.0013203200355761057
-0.005986984358117215   -0.05663651737710903   -0.0015084676018423046
-0.007524212765737405   -0.05649077667500331   -0.0014788623491495578
-0.009477125060113872   -0.052293512187225936   -0.0013203200355761057
-0.0076252747369783686   -0.05648089171400595   -0.001622915030569034
-0.005986984358117215   -0.05663651737710903   -0.0015084676018423046
-0.009477125060113872   -0.052293512187225936   -0.0013203200355761057
-0.007007476081477863   -0.05243667177742126   -0.0013309981871247546
-0.007042503829536799   -0.05245039801739132   -0.001398202968912208
-0.005986984358117215   -0.05663651737710903   -0.0015084676018423046
-0.009477125060113872   -0.052293512187225936   -0.0013203200355761057
-0.007042503829536799   -0.05245039801739132   -0.001398202968912208
-0.0076252747369783686   -0.05648089171400595   -0.001622915030569034
-0.007825057539895435   -0.05657342398141489   -0.0018866692454173085
-0.009635906019068715   -0.05239052633933982   -0.0016704955932778426
-0.0099054126090632   -0.05628816580995702   -0.0020495376220669975
-0.007741158969575262   -0.05650845398124109   -0.0017576041840793146
-0.009635906019068715   -0.05239052633933982   -0.0016704955932778426
-0.012583506219021006   -0.052134606454618974   -0.001816743584412376
-0.0099054126090632   -0.05628816580995702   -0.0020495376220669975
-0.012383292328424902   -0.05206872085312435   -0.0016433710936008242
-0.007741158969575262   -0.05650845398124109   -0.0017576041840793146
-0.009634474514967774   -0.05621764126322725   -0.0018457438924293448
-0.012383292328424902   -0.05206872085312435   -0.0016433710936008242
-0.0099054126090632   -0.05628816580995702   -0.0020495376220669975
-0.007741158969575262   -0.05650845398124109   -0.0017576041840793146
-0.012383292328424902   -0.05206872085312435   -0.0016433710936008242
-0.009596913374638543   -0.0523274134710643   -0.001559753247566999
-0.009635906019068715   -0.05239052633933982   -0.0016704955932778426
-0.007741158969575262   -0.05650845398124109   -0.0017576041840793146
-0.012383292328424902   -0.05206872085312435   -0.0016433710936008242
-0.009635906019068715   -0.05239052633933982   -0.0016704955932778426
-0.0099054126090632   -0.05628816580995702   -0.0020495376220669975
-0.007741158969575262   -0.05650845398124109   -0.0017576041840793146
-0.009596913374638543   -0.0523274134710643   -0.001559753247566999
-0.009634474514967774   -0.05621764126322725   -0.0018457438924293448
-0.0076252747369783686   -0.05648089171400595   -0.001622915030569034
-0.009596913374638543   -0.0523274134710643   -0.001559753247566999
-0.012383292328424902   -0.05206872085312435   -0.0016433710936008242
-0.009634474514967774   -0.05621764126322725   -0.0018457438924293448
-0.012209617148911412   -0.052038629220190195   -0.0014610583752171162
-0.0076252747369783686   -0.05648089171400595   -0.001622915030569034
-0.009391767069921389   -0.056192147052845434   -0.0016301447667372453
-0.012209617148911412   -0.052038629220190195   -0.0014610583752171162
-0.009634474514967774   -0.05621764126322725   -0.0018457438924293448
-0.0076252747369783686   -0.05648089171400595   -0.001622915030569034
-0.012209617148911412   -0.052038629220190195   -0.0014610583752171162
-0.009530781454176683   -0.05229449095582583   -0.0014435928546635047
-0.009596913374638543   -0.0523274134710643   -0.001559753247566999
-0.0076252747369783686   -0.05648089171400595   -0.001622915030569034
-0.012209617148911412   -0.052038629220190195   -0.0014610583752171162
-0.009596913374638543   -0.0523274134710643   -0.001559753247566999
-0.009634474514967774   -0.05621764126322725   -0.0018457438924293448
-0.0076252747369783686   -0.05648089171400595   -0.001622915030569034
-0.009530781454176683   -0.05229449095582583   -0.0014435928546635047
-0.009391767069921389   -0.056192147052845434   -0.0016301447667372453
-0.007524212765737405   -0.05649077667500331   -0.0014788623491495578
-0.009530781454176683   -0.05229449095582583   -0.0014435928546635047
-0.012209617148911412   -0.052038629220190195   -0.0014610583752171162
-0.009391767069921389   -0.056192147052845434   -0.0016301447667372453
-0.01197567033349337   -0.05205733790619602   -0.001270965850334233
-0.007524212765737405   -0.05649077667500331   -0.0014788623491495578
-0.009077225326383175   -0.05622488523522614   -0.0014047829932688617
-0.01197567033349337   -0.05205733790619602   -0.001270965850334233
-0.009391767069921389   -0.056192147052845434   -0.0016301447667372453
-0.007524212765737405   -0.05649077667500331   -0.0014788623491495578
-0.01197567033349337   -0.05205733790619602   -0.001270965850334233
-0.009477125060113872   -0.052293512187225936   -0.0013203200355761057
-0.009530781454176683   -0.05229449095582583   -0.0014435928546635047
-0.007524212765737405   -0.05649077667500331   -0.0014788623491495578
-0.01197567033349337   -0.05205733790619602   -0.001270965850334233
-0.009530781454176683   -0.05229449095582583   -0.0014435928546635047
-0.009391767069921389   -0.056192147052845434   -0.0016301447667372453
0.00028638226622428335   -0.05249615312106379   -0.0009046800491769599
0.0018411327660402409   -0.0469585228317622   -0.0006892889441989181
-0.0022457584944701025   -0.052622151798500987   -0.001141999025649467
0.0004512629211670282   -0.052375512589174826   -0.001038973487460633
0.0018411327660402409   -0.0469585228317622   -0.0006892889441989181
-0.001514032459525406   -0.04704196818654638   -0.0009158352748530386
-0.0022457584944701025   -0.052622151798500987   -0.001141999025649467
-0.0015048729961691985   -0.04694199418230087   -0.0009567630626803936
0.0004512629211670282   -0.052375512589174826   -0.001038973487460633
-0.002202149998212561   -0.0525216421898323   -0.0012009319808740369
-0.0015048729961691985   -0.04694199418230087   -0.0009567630626803936
-0.0022457584944701025   -0.052622151798500987   -0.001141999025649467
0.0004512629211670282   -0.052375512589174826   -0.001038973487460633
-0.0015048729961691985   -0.04694199418230087   -0.0009567630626803936
0.0019393457860642901   -0.0468407775215242   -0.0007887745815141569
0.0018411327660402409   -0.0469585228317622   -0.0006892889441989181
0.0004512629211670282   -0.052375512589174826   -0.001038973487460633
-0.0015048729961691985   -0.04694199418230087   -0.0009567630626803936
0.0018411327660402409   -0.0469585228317622   -0.0006892889441989181
-0.0022457584944701025   -0.052622151798500987   -0.001141999025649467
0.0004512629211670282   -0.052375512589174826   -0.001038973487460633
0.0019393457860642901   -0.0468407775215242   -0.0007887745815141569
-0.002202149998212561   -0.0525216421898323   -0.0012009319808740369
0.0005725767305901153   -0.052306056307085146   -0.0011637030751492992
0.0019393457860642901   -0.0468407775215242   -0.0007887745815141569
-0.0015048729961691985   -0.04694199418230087   -0.0009567630626803936
-0.002202149998212561   -0.0525216421898323   -0.0012009319808740369
-0.0014932082302367281   -0.04686973319912291   -0.000991439007330237
0.0005725767305901153   -0.052306056307085146   -0.0011637030751492992
-0.0021524467922533087   -0.05245621871381557   -0.0012530321751640296
-0.0014932082302367281   -0.04686973319912291   -0.000991439007330237
-0.002202149998212561   -0.0525216421898323   -0.0012009319808740369
0.0005725767305901153   -0.052306056307085146   -0.0011637030751492992
-0.0014932082302367281   -0.04686973319912291   -0.000991439007330237
0.0020022132872319722   -0.04676377835638234   -0.0008794236264168168
0.0019393457860642901   -0.0468407775215242   -0.0007887745815141569
0.0005725767305901153   -0.052306056307085146   -0.0011637030751492992
-0.0014932082302367281   -0.04686973319912291   -0.000991439007330237
0.0019393457860642901   -0.0468407775215242   -0.0007887745815141569
-0.002202149998212561   -0.0525216421898323   -0.0012009319808740369
0.0005725767305901153   -0.052306056307085146   -0.0011637030751492992
0.0020022132872319722   -0.04676377835638234   -0.0008794236264168168
-0.0021524467922533087   -0.05245621871381557   -0.0012530321751640296
0.0007025697722254459   -0.05227220329047976   -0.0012788240688976923
0.0020022132872319722   -0.04676377835638234   -0.0008794236264168168
-0.0014932082302367281   -0.04686973319912291   -0.000991439007330237
-0.0021524467922533087   -0.05245621871381557   -0.0012530321751640296
-0.0014986191586439435   -0.04682286089805471   -0.0010203188448717458
0.0007025697722254459   -0.05227220329047976   -0.0012788240688976923
-0.002122725823591324   -0.05242393768770043   -0.0012989745384746098
-0.0014986191586439435   -0.04682286089805471   -0.0010203188448717458
-0.0021524467922533087   -0.05245621871381557   -0.0012530321751640296
0.0007025697722254459   -0.05227220329047976   -0.0012788240688976923
-0.0014986191586439435   -0.04682286089805471   -0.0010203188448717458
0.002066876529804916   -0.04671252157707792   -0.0009614230024150804
0.0020022132872319722   -0.04676377835638234   -0.0008794236264168168
0.0007025697722254459   -0.05227220329047976   -0.0012788240688976923
-0.0014986191586439435   -0.04682286089805471   -0.0010203188448717458
0.0020022132872319722   -0.04676377835638234   -0.0008794236264168168
-0.0021524467922533087   -0.05245621871381557   -0.0012530321751640296
-0.0022457584944701025   -0.052622151798500987   -0.001141999025649467
-0.001514032459525406   -0.04704196818654638   -0.0009158352748530386
-0.0046962168914648494   -0.05264627438537918   -0.0013374122162566784
-0.002202149998212561   -0.0525216421898323   -0.0012009319808740369
-0.001514032459525406   -0.04704196818654638   -0.0009158352748530386
-0.004743378639887108   -0.047042487888338334   -0.0011025135703180877
-0.0046962168914648494   -0.05264627438537918   -0.0013374122162566784
-0.0047437501869670926   -0.046957955445460206   -0.001098646005067012
-0.002202149998212561   -0.0525216421898323   -0.0012009319808740369
-0.004664193100974653   -0.0525600247928575   -0.0013388908557449455
-0.0047437501869670926   -0.046957955445460206   -0.001098646005067012
-0.0046962168914648494   -0.05264627438537918   -0.0013374122162566784
-0.002202149998212561   -0.0525216421898323   -0.0012009319808740369
-0.0047437501869670926   -0.046957955445460206   -0.001098646005067012
-0.0015048729961691985   -0.04694199418230087   -0.0009567630626803936
-0.001514032459525406   -0.04704196818654638   -0.0009158352748530386
-0.002202149998212561   -0.0525216421898323   -0.0012009319808740369
-0.0047437501869670926   -0.046957955445460206   -0.001098646005067012
-0.001514032459525406   -0.04704196818654638   -0.0009158352748530386
-0.0046962168914648494   -0.05264627438537918   -0.0013374122162566784
-0.002202149998212561   -0.0525216421898323   -0.0012009319808740369
-0.0015048729961691985   -0.04694199418230087   -0.0009567630626803936
-0.004664193100974653   -0.0525600247928575   -0.0013388908557449455
-0.0021524467922533087   -0.05245621871381557   -0.0012530321751640296
-0.0015048729961691985   -0.04694199418230087   -0.0009567630626803936
-0.0047437501869670926   -0.046957955445460206   -0.001098646005067012
-0.004664193100974653   -0.0525600247928575   -0.0013388908557449455
-0.004743902346466076   -0.046897850913995356   -0.0010885491058495369
-0.0021524467922533087   -0.05245621871381557   -0.0012530321751640296
-0.00463125722581644   -0.05250517585617585   -0.0013338213496617523
-0.004743902346466076   -0.046897850913995356   -0.0010885491058495369
-0.004664193100974653   -0.0525600247928575   -0.0013388908557449455
-0.0021524467922533087   -0.05245621871381557   -0.0012530321751640296
-0.004743902346466076   -0.046897850913995356   -0.0010885491058495369
-0.0014932082302367281   -0.04686973319912291   -0.000991439007330237
-0.0015048729961691985   -0.04694199418230087   -0.0009567630626803936
-0.0021524467922533087   -0.05245621871381557   -0.0012530321751640296
-0.004743902346466076   -0.046897850913995356   -0.0010885491058495369
-0.0015048729961691985   -0.04694199418230087   -0.0009567630626803936
-0.004664193100974653   -0.0525600247928575   -0.0013388908557449455
-0.0021524467922533087   -0.05245621871381557   -0.0012530321751640296
-0.0014932082302367281   -0.04686973319912291   -0.000991439007330237
-0.00463125722581644   -0.05250517585617585   -0.0013338213496617523
-0.002122725823591324   -0.05242393768770043   -0.0012989745384746098
-0.0014932082302367281   -0.04686973319912291   -0.000991439007330237
-0.004743902346466076   -0.046897850913995356   -0.0010885491058495369
-0.00463125722581644   -0.05250517585617585   -0.0013338213496617523
-0.004748367045914084   -0.04686221823836744   -0.001072548424450762
-0.002122725823591324   -0.05242393768770043   -0.0012989745384746098
-0.004602452270889436   -0.05248121434721279   -0.0013226423347823917
-0.004748367045914084   -0.04686221823836744   -0.001072548424450762
-0.00463125722581644   -0.05250517585617585   -0.0013338213496617523
-0.002122725823591324   -0.05242393768770043   -0.0012989745384746098
-0.004748367045914084   -0.04686221823836744   -0.001072548424450762
-0.0014986191586439435   -0.04682286089805471   -0.0010203188448717458
-0.0014932082302367281   -0.04686973319912291   -0.000991439007330237
-0.002122725823591324   -0.05242393768770043   -0.0012989745384746098
-0.004748367045914084   -0.04686221823836744   -0.001072548424450762
-0.0014932082302367281   -0.04686973319912291   -0.000991439007330237
-0.00463125722581644   -0.05250517585617585   -0.0013338213496617523
-0.0046962168914648494   -0.05264627438537918   -0.0013374122162566784
-0.004743378639887108   -0.047042487888338334   -0.0011025135703180877
-0.007108340313166857   -0.05256815153545969   -0.0015137924509977965
-0.004664193100974653   -0.0525600247928575   -0.0013388908557449455
-0.004743378639887108   -0.047042487888338334   -0.0011025135703180877
-0.00791804506564634   -0.04696204165818456   -0.0012659879052277765
-0.007108340313166857   -0.05256815153545969   -0.0015137924509977965
-0.007920812536340655   -0.046891060317612136   -0.0012178676118753348
-0.004664193100974653   -0.0525600247928575   -0.0013388908557449455
-0.007078529500363757   -0.052493746685476995   -0.0014592000140534534
-0.007920812536340655   -0.046891060317612136   -0.0012178676118753348
-0.007108340313166857   -0.05256815153545969   -0.0015137924509977965
-0.004664193100974653   -0.0525600247928575   -0.0013388908557449455
-0.007920812536340655   -0.046891060317612136   -0.0012178676118753348
-0.0047437501869670926   -0.046957955445460206   -0.001098646005067012
-0.004743378639887108   -0.047042487888338334   -0.0011025135703180877
-0.004664193100974653   -0.0525600247928575   -0.0013388908557449455
-0.007920812536340655   -0.046891060317612136   -0.0012178676118753348
-0.004743378639887108   -0.047042487888338334   -0.0011025135703180877
-0.007108340313166857   -0.05256815153545969   -0.0015137924509977965
-0.004664193100974653   -0.0525600247928575   -0.0013388908557449455
-0.0047437501869670926   -0.046957955445460206   -0.001098646005067012
-0.007078529500363757   -0.052493746685476995   -0.0014592000140534534
-0.00463125722581644   -0.05250517585617585   -0.0013338213496617523
-0.0047437501869670926   -0.046957955445460206   -0.001098646005067012
-0.007920812536340655   -0.046891060317612136   -0.0012178676118753348
-0.007078529500363757   -0.052493746685476995   -0.0014592000140534534
-0.007918174038385418   -0.0468442910155952   -0.0011636401484074893
-0.00463125722581644   -0.05250517585617585   -0.0013338213496617523
-0.007042503829536799   -0.05245039801739132   -0.001398202968912208
-0.007918174038385418   -0.0468442910155952   -0.0011636401484074893
-0.007078529500363757   -0.052493746685476995   -0.0014592000140534534
-0.00463125722581644   -0.05250517585617585   -0.0013338213496617523
-0.007918174038385418   -0.0468442910155952   -0.0011636401484074893
-0.004743902346466076   -0.046897850913995356   -0.0010885491058495369
-0.0047437501869670926   -0.046957955445460206   -0.001098646005067012
-0.00463125722581644   -0.05250517585617585   -0.0013338213496617523
-0.007918174038385418   -0.0468442910155952   -0.0011636401484074893
-0.0047437501869670926   -0.046957955445460206   -0.001098646005067012
-0.007078529500363757   -0.052493746685476995   -0.0014592000140534534
-0.00463125722581644   -0.05250517585617585   -0.0013338213496617523
-0.004743902346466076   -0.046897850913995356   -0.0010885491058495369
-0.007042503829536799   -0.05245039801739132   -0.001398202968912208
-0.004602452270889436   -0.05248121434721279   -0.0013226423347823917
-0.004743902346466076   -0.046897850913995356   -0.0010885491058495369
-0.007918174038385418   -0.0468442910155952   -0.0011636401484074893
-0.007042503829536799   -0.05245039801739132   -0.001398202968912208
-0.007916515922011853   -0.04682131103592146   -0.001103482979527056
-0.004602452270889436   -0.05248121434721279   -0.0013226423347823917
-0.007007476081477863   -0.05243667177742126   -0.0013309981871247546
-0.007916515922011853   -0.04682131103592146   -0.001103482979527056
-0.007042503829536799   -0.05245039801739132   -0.001398202968912208
-0.004602452270889436   -0.05248121434721279   -0.0013226423347823917
-0.007916515922011853   -0.04682131103592146   -0.001103482979527056
-0.004748367045914084   -0.04686221823836744   -0.001072548424450762
-0.004743902346466076   -0.046897850913995356   -0.0010885491058495369
-0.004602452270889436   -0.05248121434721279   -0.0013226423347823917
-0.007916515922011853   -0.04682131103592146   -0.001103482979527056
-0.004743902346466076   -0.046897850913995356   -0.0010885491058495369
-0.007042503829536799   -0.05245039801739132   -0.001398202968912208
-0.007108340313166857   -0.05256815153545969   -0.0015137924509977965
-0.00791804506564634   -0.04696204165818456   -0.0012659879052277765
-0.009635906019068715   -0.05239052633933982   -0.0016704955932778426
-0.007078529500363757   -0.052493746685476995   -0.0014592000140534534
-0.00791804506564634   -0.04696204165818456   -0.0012659879052277765
-0.011191553114792016   -0.046803655067741055   -0.001406589251133623
-0.009635906019068715   -0.05239052633933982   -0.0016704955932778426
-0.011187622611251814   -0.04674563692779104   -0.001313688633852687
-0.007078529500363757   -0.052493746685476995   -0.0014592000140534534
-0.009596913374638543   -0.0523274134710643   -0.001559753247566999
-0.011187622611251814   -0.04674563692779104   -0.001313688633852687
-0.009635906019068715   -0.05239052633933982   -0.0016704955932778426
-0.007078529500363757   -0.052493746685476995   -0.0014592000140534534
-0.011187622611251814   -0.04674563692779104   -0.001313688633852687
-0.007920812536340655   -0.046891060317612136   -0.0012178676118753348
-0.00791804506564634   -0.04696204165818456   -0.0012659879052277765
-0.007078529500363757   -0.052493746685476995   -0.0014592000140534534
-0.011187622611251814   -0.04674563692779104   -0.001313688633852687
-0.00791804506564634   -0.04696204165818456   -0.0012659879052277765
-0.009635906019068715   -0.05239052633933982   -0.0016704955932778426
-0.007078529500363757   -0.052493746685476995   -0.0014592000140534534
-0.007920812536340655   -0.046891060317612136   -0.0012178676118753348
-0.009596913374638543   -0.0523274134710643   -0.001559753247566999
-0.007042503829536799   -0.05245039801739132   -0.001398202968912208
-0.007920812536340655   -0.046891060317612136   -0.0012178676118753348
-0.011187622611251814   -0.04674563692779104   -0.001313688633852687
-0.009596913374638543   -0.0523274134710643   -0.001559753247566999
-0.011160077275358329   -0.04671095971204487   -0.001215602282850147
-0.007042503829536799   -0.05245039801739132   -0.001398202968912208
-0.009530781454176683   -0.05229449095582583   -0.0014435928546635047
-0.011160077275358329   -0.04671095971204487   -0.001215602282850147
-0.009596913374638543   -0.0523274134710643   -0.001559753247566999
-0.007042503829536799   -0.05245039801739132   -0.001398202968912208
-0.011160077275358329   -0.04671095971204487   -0.001215602282850147
-0.007918174038385418   -0.0468442910155952   -0.0011636401484074893
-0.007920812536340655   -0.046891060317612136   -0.0012178676118753348
-0.007042503829536799   -0.05245039801739132   -0.001398202968912208
-0.011160077275358329   -0.04671095971204487   -0.001215602282850147
-0.007920812536340655   -0.046891060317612136   -0.0012178676118753348
-0.009596913374638543   -0.0523274134710643   -0.001559753247566999
-0.007042503829536799   -0.05245039801739132   -0.001398202968912208
-0.007918174038385418   -0.0468442910155952   -0.0011636401484074893
-0.009530781454176683   -0.05229449095582583   -0.0014435928546635047
-0.007007476081477863   -0.05243667177742126   -0.0013309981871247546
-0.007918174038385418   -0.0468442910155952   -0.0011636401484074893
-0.011160077275358329   -0.04671095971204487   -0.001215602282850147
-0.009530781454176683   -0.05229449095582583   -0.0014435928546635047
-0.011141689283055865   -0.04670207355087516   -0.0011111083969862646
-0.007007476081477863   -0.05243667177742126   -0.0013309981871247546
-0.009477125060113872   -0.052293512187225936   -0.0013203200355761057
-0.011141689283055865   -0.04670207355087516   -0.0011111083969862646
-0.009530781454176683   -0.05229449095582583   -0.0014435928546635047
-0.007007476081477863   -0.05243667177742126   -0.0013309981871247546
-0.011141689283055865   -0.04670207355087516   -0.0011111083969862646
-0.007916515922011853   -0.04682131103592146   -0.001103482979527056
-0.007918174038385418   -0.0468442910155952   -0.0011636401484074893
-0.007007476081477863   -0.05243667177742126   -0.0013309981871247546
-0.011141689283055865   -0.04670207355087516   -0.0011111083969862646
-0.007918174038385418   -0.0468442910155952   -0.0011636401484074893
-0.009530781454176683   -0.05229449095582583   -0.0014435928546635047
-0.009635906019068715   -0.05239052633933982   -0.0016704955932778426
-0.011191553114792016   -0.046803655067741055   -0.001406589251133623
-0.012583506219021006   -0.052134606454618974   -0.001816743584412376
-0.009596913374638543   -0.0523274134710643   -0.001559753247566999
-0.011191553114792016   -0.046803655067741055   -0.001406589251133623
-0.014848053202899376   -0.04658519614711904   -0.0015334506079955506
-0.012583506219021006   -0.052134606454618974   -0.001816743584412376
-0.014710879053428326   -0.046528218618012006   -0.001391286039238595
-0.009596913374638543   -0.0523274134710643   -0.001559753247566999
-0.012383292328424902   -0.05206872085312435   -0.0016433710936008242
-0.014710879053428326   -0.046528218618012006   -0.001391286039238595
-0.012583506219021006   -0.052134606454618974   -0.001816743584412376
-0.009596913374638543   -0.0523274134710643   -0.001559753247566999
-0.014710879053428326   -0.046528218618012006   -0.001391286039238595
-0.011187622611251814   -0.04674563692779104   -0.001313688633852687
-0.011191553114792016   -0.046803655067741055   -0.001406589251133623
-0.009596913374638543   -0.0523274134710643   -0.001559753247566999
-0.014710879053428326   -0.046528218618012006   -0.001391286039238595
-0.011191553114792016   -0.046803655067741055   -0.001406589251133623
-0.012583506219021006   -0.052134606454618974   -0.001816743584412376
-0.009596913374638543   -0.0523274134710643   -0.001559753247566999
-0.011187622611251814   -0.04674563692779104   -0.001313688633852687
-0.012383292328424902   -0.05206872085312435   -0.0016433710936008242
-0.009530781454176683   -0.05229449095582583   -0.0014435928546635047
-0.011187622611251814   -0.04674563692779104   -0.001313688633852687
-0.014710879053428326   -0.046528218618012006   -0.001391286039238595
-0.012383292328424902   -0.05206872085312435   -0.0016433710936008242
-0.01459362186544946   -0.04649795478089074   -0.001240399910095816
-0.009530781454176683   -0.05229449095582583   -0.0014435928546635047
-0.012209617148911412   -0.052038629220190195   -0.0014610583752171162
-0.01459362186544946   -0.04649795478089074   -0.001240399910095816
-0.012383292328424902   -0.05206872085312435   -0.0016433710936008242
-0.009530781454176683   -0.05229449095582583   -0.0014435928546635047
-0.01459362186544946   -0.04649795478089074   -0.001240399910095816
-0.011160077275358329   -0.04671095971204487   -0.001215602282850147
-0.011187622611251814   -0.04674563692779104   -0.001313688633852687
-0.009530781454176683   -0.05229449095582583   -0.0014435928546635047
-0.01459362186544946   -0.04649795478089074   -0.001240399910095816
-0.011187622611251814   -0.04674563692779104   -0.001313688633852687
-0.012383292328424902   -0.05206872085312435   -0.0016433710936008242
-0.009530781454176683   -0.05229449095582583   -0.0014435928546635047
-0.011160077275358329   -0.04671095971204487   -0.001215602282850147
-0.012209617148911412   -0.052038629220190195   -0.0014610583752171162
-0.009477125060113872   -0.052293512187225936   -0.0013203200355761057
-0.011160077275358329   -0.04671095971204487   -0.001215602282850147
-0.01459362186544946   -0.04649795478089074   -0.001240399910095816
-0.012209617148911412   -0.052038629220190195   -0.0014610583752171162
-0.01442447839706202   -0.046508578124964436   -0.0010819902258182668
-0.009477125060113872   -0.052293512187225936   -0.0013203200355761057
-0.01197567033349337   -0.05205733790619602   -0.001270965850334233
-0.01442447839706202   -0.046508578124964436   -0.0010819902258182668
-0.012209617148911412   -0.052038629220190195   -0.0014610583752171162
-0.009477125060113872   -0.052293512187225936   -0.0013203200355761057
-0.01442447839706202   -0.046508578124964436   -0.0010819902258182668
-0.011141689283055865   -0.04670207355087516   -0.0011111083969862646
-0.011160077275358329   -0.04671095971204487   -0.001215602282850147
-0.009477125060113872   -0.052293512187225936   -0.0013203200355761057
-0.01442447839706202   -0.046508578124964436   -0.0010819902258182668
-0.011160077275358329   -0.04671095971204487   -0.001215602282850147
-0.012209617148911412   -0.052038629220190195   -0.0014610583752171162
0.0018411327660402409   -0.0469585228317622   -0.0006892889441989181
0.0029145531378252706   -0.040292591954516906   -0.00045926444850283993
-0.001514032459525406   -0.04704196818654638   -0.0009158352748530386
0.0019393457860642901   -0.0468407775215242   -0.0007887745815141569
0.0029145531378252706   -0.040292591954516906   -0.00045926444850283993
-0.0010684877021243345   -0.040333804106166125   -0.0006723900364959008
-0.001514032459525406   -0.04704196818654638   -0.0009158352748530386
-0.0010870631348923836   -0.040236277487779554   -0.0006945300419001696
0.0019393457860642901   -0.0468407775215242   -0.0007887745815141569
-0.0015048729961691985   -0.04694199418230087   -0.0009567630626803936
-0.0010870631348923836   -0.040236277487779554   -0.0006945300419001696
-0.001514032459525406   -0.04704196818654638   -0.0009158352748530386
0.0019393457860642901   -0.0468407775215242   -0.0007887745815141569
-0.0010870631348923836   -0.040236277487779554   -0.0006945300419001696
0.002953693554981973   -0.040179149527210974   -0.0005246005274054601
0.0029145531378252706   -0.040292591954516906   -0.00045926444850283993
0.0019393457860642901   -0.0468407775215242   -0.0007887745815141569
-0.0010870631348923836   -0.040236277487779554   -0.0006945300419001696
0.0029145531378252706   -0.040292591954516906   -0.00045926444850283993
-0.001514032459525406   -0.04704196818654638   -0.0009158352748530386
0.0019393457860642901   -0.0468407775215242   -0.0007887745815141569
0.002953693554981973   -0.040179149527210974   -0.0005246005274054601
-0.0015048729961691985   -0.04694199418230087   -0.0009567630626803936
0.0020022132872319722   -0.04676377835638234   -0.0008794236264168168
0.002953693554981973   -0.040179149527210974   -0.0005246005274054601
-0.0010870631348923836   -0.040236277487779554   -0.0006945300419001696
-0.0015048729961691985   -0.04694199418230087   -0.0009567630626803936
-0.001106565768581071   -0.04015931914032377   -0.0007110811103994887
0.0020022132872319722   -0.04676377835638234   -0.0008794236264168168
-0.0014932082302367281   -0.04686973319912291   -0.000991439007330237
-0.001106565768581071   -0.04015931914032377   -0.0007110811103994887
-0.0015048729961691985   -0.04694199418230087   -0.0009567630626803936
0.0020022132872319722   -0.04676377835638234   -0.0008794236264168168
-0.001106565768581071   -0.04015931914032377   -0.0007110811103994887
0.0029658337586642605   -0.04009672262216134   -0.000581689326132468
0.002953693554981973   -0.040179149527210974   -0.0005246005274054601
0.0020022132872319722   -0.04676377835638234   -0.0008794236264168168
-0.001106565768581071   -0.04015931914032377   -0.0007110811103994887
0.002953693554981973   -0.040179149527210974   -0.0005246005274054601
-0.0015048729961691985   -0.04694199418230087   -0.0009567630626803936
0.0020022132872319722   -0.04676377835638234   -0.0008794236264168168
0.0029658337586642605   -0.04009672262216134   -0.000581689326132468
-0.0014932082302367281   -0.04686973319912291   -0.000991439007330237
0.002066876529804916   -0.04671252157707792   -0.0009614230024150804
0.0029658337586642605   -0.04009672262216134   -0.000581689326132468
-0.001106565768581071   -0.04015931914032377   -0.0007110811103994887
-0.0014932082302367281   -0.04686973319912291   -0.000991439007330237
-0.001139922263315221   -0.04010049785472161   -0.0007222317840147684
0.002066876529804916   -0.04671252157707792   -0.0009614230024150804
-0.0014986191586439435   -0.04682286089805471   -0.0010203188448717458
-0.001139922263315221   -0.04010049785472161   -0.0007222317840147684
-0.0014932082302367281   -0.04686973319912291   -0.000991439007330237
0.002066876529804916   -0.04671252157707792   -0.0009614230024150804
-0.001139922263315221   -0.04010049785472161   -0.0007222317840147684
0.0029729317781635382   -0.04003070589239079   -0.0006309221203186779
0.0029658337586642605   -0.04009672262216134   -0.000581689326132468
0.002066876529804916   -0.04671252157707792   -0.0009614230024150804
-0.001139922263315221   -0.04010049785472161   -0.0007222317840147684
0.0029658337586642605   -0.04009672262216134   -0.000581689326132468
-0.0014932082302367281   -0.04686973319912291   -0.000991439007330237
-0.001514032459525406   -0.04704196818654638   -0.0009158352748530386
-0.0010684877021243345   -0.040333804106166125   -0.0006723900364959008
-0.004743378639887108   -0.047042487888338334   -0.0011025135703180877
-0.0015048729961691985   -0.04694199418230087   -0.0009567630626803936
-0.0010684877021243345   -0.040333804106166125   -0.0006723900364959008
-0.004886866393176464   -0.04031285422238869   -0.0008477006666013826
-0.004743378639887108   -0.047042487888338334   -0.0011025135703180877
-0.004912729900448736   -0.04023142164849579   -0.0008374123288422333
-0.0015048729961691985   -0.04694199418230087   -0.0009567630626803936
-0.0047437501869670926   -0.046957955445460206   -0.001098646005067012
-0.004912729900448736   -0.04023142164849579   -0.0008374123288422333
-0.004743378639887108   -0.047042487888338334   -0.0011025135703180877
-0.0015048729961691985   -0.04694199418230087   -0.0009567630626803936
-0.004912729900448736   -0.04023142164849579   -0.0008374123288422333
-0.0010870631348923836   -0.040236277487779554   -0.0006945300419001696
-0.0010684877021243345   -0.040333804106166125   -0.0006723900364959008
-0.0015048729961691985   -0.04694199418230087   -0.0009567630626803936
-0.004912729900448736   -0.04023142164849579   -0.0008374123288422333
-0.0010684877021243345   -0.040333804106166125   -0.0006723900364959008
-0.004743378639887108   -0.047042487888338334   -0.0011025135703180877
-0.0015048729961691985   -0.04694199418230087   -0.0009567630626803936
-0.0010870631348923836   -0.040236277487779554   -0.0006945300419001696
-0.0047437501869670926   -0.046957955445460206   -0.001098646005067012
-0.0014932082302367281   -0.04686973319912291   -0.000991439007330237
-0.0010870631348923836   -0.040236277487779554   -0.0006945300419001696
-0.004912729900448736   -0.04023142164849579   -0.0008374123288422333
-0.0047437501869670926   -0.046957955445460206   -0.001098646005067012
-0.004938949536574719   -0.04016761843646017   -0.000821368564345556
-0.0014932082302367281   -0.04686973319912291   -0.000991439007330237
-0.004743902346466076   -0.046897850913995356   -0.0010885491058495369
-0.004938949536574719   -0.04016761843646017   -0.000821368564345556
-0.0047437501869670926   -0.046957955445460206   -0.001098646005067012
-0.0014932082302367281   -0.04686973319912291   -0.000991439007330237
-0.004938949536574719   -0.04016761843646017   -0.000821368564345556
-0.001106565768581071   -0.04015931914032377   -0.0007110811103994887
-0.0010870631348923836   -0.040236277487779554   -0.0006945300419001696
-0.0014932082302367281   -0.04686973319912291   -0.000991439007330237
-0.004938949536574719   -0.04016761843646017   -0.000821368564345556
-0.0010870631348923836   -0.040236277487779554   -0.0006945300419001696
-0.0047437501869670926   -0.046957955445460206   -0.001098646005067012
-0.0014932082302367281   -0.04686973319912291   -0.000991439007330237
-0.001106565768581071   -0.04015931914032377   -0.0007110811103994887
-0.004743902346466076   -0.046897850913995356   -0.0010885491058495369
-0.0014986191586439435   -0.04682286089805471   -0.0010203188448717458
-0.001106565768581071   -0.04015931914032377   -0.0007110811103994887
-0.004938949536574719   -0.04016761843646017   -0.000821368564345556
-0.004743902346466076   -0.046897850913995356   -0.0010885491058495369
-0.004969265593513075   -0.04012174305651556   -0.0007998490626946364
-0.0014986191586439435   -0.04682286089805471   -0.0010203188448717458
-0.004748367045914084   -0.04686221823836744   -0.001072548424450762
-0.004969265593513075   -0.04012174305651556   -0.0007998490626946364
-0.004743902346466076   -0.046897850913995356   -0.0010885491058495369
-0.0014986191586439435   -0.04682286089805471   -0.0010203188448717458
-0.004969265593513075   -0.04012174305651556   -0.0007998490626946364
-0.001139922263315221   -0.04010049785472161   -0.0007222317840147684
-0.001106565768581071   -0.04015931914032377   -0.0007110811103994887
-0.0014986191586439435   -0.04682286089805471   -0.0010203188448717458
-0.004969265593513075   -0.04012174305651556   -0.0007998490626946364
-0.001106565768581071   -0.04015931914032377   -0.0007110811103994887
-0.004743902346466076   -0.046897850913995356   -0.0010885491058495369
-0.004743378639887108   -0.047042487888338334   -0.0011025135703180877
-0.004886866393176464   -0.04031285422238869   -0.0008477006666013826
-0.00791804506564634   -0.04696204165818456   -0.0012659879052277765
-0.0047437501869670926   -0.046957955445460206   -0.001098646005067012
-0.004886866393176464   -0.04031285422238869   -0.0008477006666013826
-0.008640802742755216   -0.040233640165065594   -0.000997617243709175
-0.00791804506564634   -0.04696204165818456   -0.0012659879052277765
-0.008668728375395639   -0.04016681647924457   -0.0009550618007972166
-0.0047437501869670926   -0.046957955445460206   -0.001098646005067012
-0.007920812536340655   -0.046891060317612136   -0.0012178676118753348
-0.008668728375395639   -0.04016681647924457   -0.0009550618007972166
-0.00791804506564634   -0.04696204165818456   -0.0012659879052277765
-0.0047437501869670926   -0.046957955445460206   -0.001098646005067012
-0.008668728375395639   -0.04016681647924457   -0.0009550618007972166
-0.004912729900448736   -0.04023142164849579   -0.0008374123288422333
-0.004886866393176464   -0.04031285422238869   -0.0008477006666013826
-0.0047437501869670926   -0.046957955445460206   -0.001098646005067012
-0.008668728375395639   -0.04016681647924457   -0.0009550618007972166
-0.004886866393176464   -0.04031285422238869   -0.0008477006666013826
-0.00791804506564634   -0.04696204165818456   -0.0012659879052277765
-0.0047437501869670926   -0.046957955445460206   -0.001098646005067012
-0.004912729900448736   -0.04023142164849579   -0.0008374123288422333
-0.007920812536340655   -0.046891060317612136   -0.0012178676118753348
-0.004743902346466076   -0.046897850913995356   -0.0010885491058495369
-0.004912729900448736   -0.04023142164849579   -0.0008374123288422333
-0.008668728375395639   -0.04016681647924457   -0.0009550618007972166
-0.007920812536340655   -0.046891060317612136   -0.0012178676118753348
-0.008691849840214193   -0.040117454081224885   -0.000906853769782324
-0.004743902346466076   -0.046897850913995356   -0.0010885491058495369
-0.007918174038385418   -0.0468442910155952   -0.0011636401484074893
-0.008691849840214193   -0.040117454081224885   -0.000906853769782324
-0.007920812536340655   -0.046891060317612136   -0.0012178676118753348
-0.004743902346466076   -0.046897850913995356   -0.0010885491058495369
-0.008691849840214193   -0.040117454081224885   -0.000906853769782324
-0.004938949536574719   -0.04016761843646017   -0.000821368564345556
-0.004912729900448736   -0.04023142164849579   -0.0008374123288422333
-0.004743902346466076   -0.046897850913995356   -0.0010885491058495369
-0.008691849840214193   -0.040117454081224885   -0.000906853769782324
-0.004912729900448736   -0.04023142164849579   -0.0008374123288422333
-0.007920812536340655   -0.046891060317612136   -0.0012178676118753348
-0.004743902346466076   -0.046897850913995356   -0.0010885491058495369
-0.004938949536574719   -0.04016761843646017   -0.000821368564345556
-0.007918174038385418   -0.0468442910155952   -0.0011636401484074893
-0.004748367045914084   -0.04686221823836744   -0.001072548424450762
-0.004938949536574719   -0.04016761843646017   -0.000821368564345556
-0.008691849840214193   -0.040117454081224885   -0.000906853769782324
-0.007918174038385418   -0.0468442910155952   -0.0011636401484074893
-0.008715648538265553   -0.04008547907362319   -0.0008531588735619661
-0.004748367045914084   -0.04686221823836744   -0.001072548424450762
-0.007916515922011853   -0.04682131103592146   -0.001103482979527056
-0.008715648538265553   -0.04008547907362319   -0.0008531588735619661
-0.007918174038385418   -0.0468442910155952   -0.0011636401484074893
-0.004748367045914084   -0.04686221823836744   -0.001072548424450762
-0.008715648538265553   -0.04008547907362319   -0.0008531588735619661
-0.004969265593513075   -0.04012174305651556   -0.0007998490626946364
-0.004938949536574719   -0.04016761843646017   -0.000821368564345556
-0.004748367045914084   -0.04686221823836744   -0.001072548424450762
-0.008715648538265553   -0.04008547907362319   -0.0008531588735619661
-0.004938949536574719   -0.04016761843646017   -0.000821368564345556
-0.007918174038385418   -0.0468442910155952   -0.0011636401484074893
-0.00791804506564634   -0.04696204165818456   -0.0012659879052277765
-0.008640802742755216   -0.040233640165065594   -0.000997617243709175
-0.011191553114792016   -0.046803655067741055   -0.001406589251133623
-0.007920812536340655   -0.046891060317612136   -0.0012178676118753348
-0.008640802742755216   -0.040233640165065594   -0.000997617243709175
-0.01248401456497419   -0.04009773256886632   -0.00112272958206578
-0.011191553114792016   -0.046803655067741055   -0.001406589251133623
-0.012507080236344335   -0.040045169503650106   -0.0010474656591088242
-0.007920812536340655   -0.046891060317612136   -0.0012178676118753348
-0.011187622611251814   -0.04674563692779104   -0.001313688633852687
-0.012507080236344335   -0.040045169503650106   -0.0010474656591088242
-0.011191553114792016   -0.046803655067741055   -0.001406589251133623
-0.007920812536340655   -0.046891060317612136   -0.0012178676118753348
-0.012507080236344335   -0.040045169503650106   -0.0010474656591088242
-0.008668728375395639   -0.04016681647924457   -0.0009550618007972166
-0.008640802742755216   -0.040233640165065594   -0.000997617243709175
-0.007920812536340655   -0.046891060317612136   -0.0012178676118753348
-0.012507080236344335   -0.040045169503650106   -0.0010474656591088242
-0.008640802742755216   -0.040233640165065594   -0.000997617243709175
-0.011191553114792016   -0.046803655067741055   -0.001406589251133623
-0.007920812536340655   -0.046891060317612136   -0.0012178676118753348
-0.008668728375395639   -0.04016681647924457   -0.0009550618007972166
-0.011187622611251814   -0.04674563692779104   -0.001313688633852687
-0.007918174038385418   -0.0468442910155952   -0.0011636401484074893
-0.008668728375395639   -0.04016681647924457   -0.0009550618007972166
-0.012507080236344335   -0.040045169503650106   -0.0010474656591088242
-0.011187622611251814   -0.04674563692779104   -0.001313688633852687
-0.012509908400835046   -0.04000901360514145   -0.000967330967835323
-0.007918174038385418   -0.0468442910155952   -0.0011636401484074893
-0.011160077275358329   -0.04671095971204487   -0.001215602282850147
-0.012509908400835046   -0.04000901360514145   -0.000967330967835323
-0.011187622611251814   -0.04674563692779104   -0.001313688633852687
-0.007918174038385418   -0.0468442910155952   -0.0011636401484074893
-0.012509908400835046   -0.04000901360514145   -0.000967330967835323
-0.008691849840214193   -0.040117454081224885   -0.000906853769782324
-0.008668728375395639   -0.04016681647924457   -0.0009550618007972166
-0.007918174038385418   -0.0468442910155952   -0.0011636401484074893
-0.012509908400835046   -0.04000901360514145   -0.000967330967835323
-0.008668728375395639   -0.04016681647924457   -0.0009550618007972166
-0.011187622611251814   -0.04674563692779104   -0.001313688633852687
-0.007918174038385418   -0.0468442910155952   -0.0011636401484074893
-0.008691849840214193   -0.040117454081224885   -0.000906853769782324
-0.011160077275358329   -0.04671095971204487   -0.001215602282850147
-0.007916515922011853   -0.04682131103592146   -0.001103482979527056
-0.008691849840214193   -0.040117454081224885   -0.000906853769782324
-0.012509908400835046   -0.04000901360514145   -0.000967330967835323
-0.011160077275358329   -0.04671095971204487   -0.001215602282850147
-0.012518511266678595   -0.03999181278761024   -0.0008812928230281636
-0.007916515922011853   -0.04682131103592146   -0.001103482979527056
-0.011141689283055865   -0.04670207355087516   -0.0011111083969862646
-0.012518511266678595   -0.03999181278761024   -0.0008812928230281636
-0.011160077275358329   -0.04671095971204487   -0.001215602282850147
-0.007916515922011853   -0.04682131103592146   -0.001103482979527056
-0.012518511266678595   -0.03999181278761024   -0.0008812928230281636
-0.008715648538265553   -0.04008547907362319   -0.0008531588735619661
-0.008691849840214193   -0.040117454081224885   -0.000906853769782324
-0.007916515922011853   -0.04682131103592146   -0.001103482979527056
-0.012518511266678595   -0.03999181278761024   -0.0008812928230281636
-0.008691849840214193   -0.040117454081224885   -0.000906853769782324
-0.011160077275358329   -0.04671095971204487   -0.001215602282850147
-0.011191553114792016   -0.046803655067741055   -0.001406589251133623
-0.01248401456497419   -0.04009773256886632   -0.00112272958206578
-0.014848053202899376   -0.04658519614711904   -0.0015334506079955506
-0.011187622611251814   -0.04674563692779104   -0.001313688633852687
-0.01248401456497419   -0.04009773256886632   -0.00112272958206578
-0.016675187348293787   -0.03991930014917423   -0.0012296141664997107
-0.014848053202899376   -0.04658519614711904   -0.0015334506079955506
-0.016594493558019317   -0.039871283983101136   -0.0011197154516955055
-0.011187622611251814   -0.04674563692779104   -0.001313688633852687
-0.014710879053428326   -0.046528218618012006   -0.001391286039238595
-0.016594493558019317   -0.039871283983101136   -0.0011197154516955055
-0.014848053202899376   -0.04658519614711904   -0.0015334506079955506
-0.011187622611251814   -0.04674563692779104   -0.001313688633852687
-0.016594493558019317   -0.039871283983101136   -0.0011197154516955055
-0.012507080236344335   -0.040045169503650106   -0.0010474656591088242
-0.01248401456497419   -0.04009773256886632   -0.00112272958206578
-0.011187622611251814   -0.04674563692779104   -0.001313688633852687
-0.016594493558019317   -0.039871283983101136   -0.0011197154516955055
-0.01248401456497419   -0.04009773256886632   -0.00112272958206578
-0.014848053202899376   -0.04658519614711904   -0.0015334506079955506
-0.011187622611251814   -0.04674563692779104   -0.001313688633852687
-0.012507080236344335   -0.040045169503650106   -0.0010474656591088242
-0.014710879053428326   -0.046528218618012006   -0.001391286039238595
-0.011160077275358329   -0.04671095971204487   -0.001215602282850147
-0.012507080236344335   -0.040045169503650106   -0.0010474656591088242
-0.016594493558019317   -0.039871283983101136   -0.0011197154516955055
-0.014710879053428326   -0.046528218618012006   -0.001391286039238595
-0.0165264911476899   -0.039840729231049546   -0.0010013094852807738
-0.011160077275358329   -0.04671095971204487   -0.001215602282850147
-0.01459362186544946   -0.04649795478089074   -0.001240399910095816
-0.0165264911476899   -0.039840729231049546   -0.0010013094852807738
-0.014710879053428326   -0.046528218618012006   -0.001391286039238595
-0.011160077275358329   -0.04671095971204487   -0.001215602282850147
-0.0165264911476899   -0.039840729231049546   -0.0010013094852807738
-0.012509908400835046   -0.04000901360514145   -0.000967330967835323
-0.012507080236344335   -0.040045169503650106   -0.0010474656591088242
-0.011160077275358329   -0.04671095971204487   -0.001215602282850147
-0.0165264911476899   -0.039840729231049546   -0.0010013094852807738
-0.012507080236344335   -0.040045169503650106   -0.0010474656591088242
-0.014710879053428326   -0.046528218618012006   -0.001391286039238595
-0.011160077275358329   -0.04671095971204487   -0.001215602282850147
-0.012509908400835046   -0.04000901360514145   -0.000967330967835323
-0.01459362186544946   -0.04649795478089074   -0.001240399910095816
-0.011141689283055865   -0.04670207355087516   -0.0011111083969862646
-0.012509908400835046   -0.04000901360514145   -0.000967330967835323
-0.0165264911476899   -0.039840729231049546   -0.0010013094852807738
-0.01459362186544946   -0.04649795478089074   -0.001240399910095816
-0.016414462756587988   -0.03984235827117243   -0.0008754577497666269
-0.011141689283055865   -0.04670207355087516   -0.0011111083969862646
-0.01442447839706202   -0.046508578124964436   -0.0010819902258182668
-0.016414462756587988   -0.03984235827117243   -0.0008754577497666269
-0.01459362186544946   -0.04649795478089074   -0.001240399910095816
-0.011141689283055865   -0.04670207355087516   -0.0011111083969862646
-0.016414462756587988   -0.03984235827117243   -0.0008754577497666269
-0.012518511266678595   -0.03999181278761024   -0.0008812928230281636
-0.012509908400835046   -0.04000901360514145   -0.000967330967835323
-0.011141689283055865   -0.04670207355087516   -0.0011111083969862646
-0.016414462756587988   -0.03984235827117243   -0.0008754577497666269
-0.012509908400835046   -0.04000901360514145   -0.000967330967835323
-0.01459362186544946   -0.04649795478089074   -0.001240399910095816
0.0029145531378252706   -0.040292591954516906   -0.00045926444850283993
0.003512993836731731   -0.032807838243514416   -0.00023421988105070725
-0.0010684877021243345   -0.040333804106166125   -0.0006723900364959008
0.002953693554981973   -0.040179149527210974   -0.0005246005274054601
0.003512993836731731   -0.032807838243514416   -0.00023421988105070725
-0.0009111053734122038   -0.03280719154260826   -0.00043178976691734844
-0.0010684877021243345   -0.040333804106166125   -0.0006723900364959008
-0.0009504630736135943   -0.03271288539144686   -0.00043487461573289964
0.002953693554981973   -0.040179149527210974   -0.0005246005274054601
-0.0010870631348923836   -0.040236277487779554   -0.0006945300419001696
-0.0009504630736135943   -0.03271288539144686   -0.00043487461573289964
-0.0010684877021243345   -0.040333804106166125   -0.0006723900364959008
0.002953693554981973   -0.040179149527210974   -0.0005246005274054601
-0.0009504630736135943   -0.03271288539144686   -0.00043487461573289964
0.0035007380220689593   -0.03269925697482116   -0.0002657383224456846
0.003512993836731731   -0.032807838243514416   -0.00023421988105070725
0.002953693554981973   -0.040179149527210974   -0.0005246005274054601
-0.0009504630736135943   -0.03271288539144686   -0.00043487461573289964
0.003512993836731731   -0.032807838243514416   -0.00023421988105070725
-0.0010684877021243345   -0.040333804106166125   -0.0006723900364959008
0.002953693554981973   -0.040179149527210974   -0.0005246005274054601
0.0035007380220689593   -0.03269925697482116   -0.0002657383224456846
-0.0010870631348923836   -0.040236277487779554   -0.0006945300419001696
0.0029658337586642605   -0.04009672262216134   -0.000581689326132468
0.0035007380220689593   -0.03269925697482116   -0.0002657383224456846
-0.0009504630736135943   -0.03271288539144686   -0.00043487461573289964
-0.0010870631348923836   -0.040236277487779554   -0.0006945300419001696
-0.0009942005373282474   -0.03263186900159199   -0.0004329959960485638
0.0029658337586642605   -0.04009672262216134   -0.000581689326132468
-0.001106565768581071   -0.04015931914032377   -0.0007110811103994887
-0.0009942005373282474   -0.03263186900159199   -0.0004329959960485638
-0.0010870631348923836   -0.040236277487779554   -0.0006945300419001696
0.0029658337586642605   -0.04009672262216134   -0.000581689326132468
-0.0009942005373282474   -0.03263186900159199   -0.0004329959960485638
0.0034693446779704234   -0.03261210032325482   -0.0002893011459230148
0.0035007380220689593   -0.03269925697482116   -0.0002657383224456846
0.0029658337586642605   -0.04009672262216134   -0.000581689326132468
-0.0009942005373282474   -0.03263186900159199   -0.0004329959960485638
0.0035007380220689593   -0.03269925697482116   -0.0002657383224456846
-0.0010870631348923836   -0.040236277487779554   -0.0006945300419001696
0.0029658337586642605   -0.04009672262216134   -0.000581689326132468
0.0034693446779704234   -0.03261210032325482   -0.0002893011459230148
-0.001106565768581071   -0.04015931914032377   -0.0007110811103994887
0.0029729317781635382   -0.04003070589239079   -0.0006309221203186779
0.0034693446779704234   -0.03261210032325482   -0.0002893011459230148
-0.0009942005373282474   -0.03263186900159199   -0.0004329959960485638
-0.001106565768581071   -0.04015931914032377   -0.0007110811103994887
-0.0010485621297502477   -0.03256203116892562   -0.0004259582307369664
0.0029729317781635382   -0.04003070589239079   -0.0006309221203186779
-0.001139922263315221   -0.04010049785472161   -0.0007222317840147684
-0.0010485621297502477   -0.03256203116892562   -0.0004259582307369664
-0.001106565768581071   -0.04015931914032377   -0.0007110811103994887
0.0029729317781635382   -0.04003070589239079   -0.0006309221203186779
-0.0010485621297502477   -0.03256203116892562   -0.0004259582307369664
0.0034254406511734486   -0.03253206214212908   -0.0003054640120598822
0.0034693446779704234   -0.03261210032325482   -0.0002893011459230148
0.0029729317781635382   -0.04003070589239079   -0.0006309221203186779
-0.0010485621297502477   -0.03256203116892562   -0.0004259582307369664
0.0034693446779704234   -0.03261210032325482   -0.0002893011459230148
-0.001106565768581071   -0.04015931914032377   -0.0007110811103994887
-0.0010684877021243345   -0.040333804106166125   -0.0006723900364959008
-0.0009111053734122038   -0.03280719154260826   -0.00043178976691734844
-0.004886866393176464   -0.04031285422238869   -0.0008477006666013826
-0.0010870631348923836   -0.040236277487779554   -0.0006945300419001696
-0.0009111053734122038   -0.03280719154260826   -0.00043178976691734844
-0.005131155908823002   -0.03276725808915737   -0.0005946302639391716
-0.004886866393176464   -0.04031285422238869   -0.0008477006666013826
-0.0051752840704570565   -0.03268906347929881   -0.000577374557271156
-0.0010870631348923836   -0.040236277487779554   -0.0006945300419001696
-0.004912729900448736   -0.04023142164849579   -0.0008374123288422333
-0.0051752840704570565   -0.03268906347929881   -0.000577374557271156
-0.004886866393176464   -0.04031285422238869   -0.0008477006666013826
-0.0010870631348923836   -0.040236277487779554   -0.0006945300419001696
-0.0051752840704570565   -0.03268906347929881   -0.000577374557271156
-0.0009504630736135943   -0.03271288539144686   -0.00043487461573289964
-0.0009111053734122038   -0.03280719154260826   -0.00043178976691734844
-0.0010870631348923836   -0.040236277487779554   -0.0006945300419001696
-0.0051752840704570565   -0.03268906347929881   -0.000577374557271156
-0.0009111053734122038   -0.03280719154260826   -0.00043178976691734844
-0.004886866393176464   -0.04031285422238869   -0.0008477006666013826
-0.0010870631348923836   -0.040236277487779554   -0.0006945300419001696
-0.0009504630736135943   -0.03271288539144686   -0.00043487461573289964
-0.004912729900448736   -0.04023142164849579   -0.0008374123288422333
-0.001106565768581071   -0.04015931914032377   -0.0007110811103994887
-0.0009504630736135943   -0.03271288539144686   -0.00043487461573289964
-0.0051752840704570565   -0.03268906347929881   -0.000577374557271156
-0.004912729900448736   -0.04023142164849579   -0.0008374123288422333
-0.005220305042684829   -0.032621687125537945   -0.0005549467588432158
-0.001106565768581071   -0.04015931914032377   -0.0007110811103994887
-0.004938949536574719   -0.04016761843646017   -0.000821368564345556
-0.005220305042684829   -0.032621687125537945   -0.0005549467588432158
-0.004912729900448736   -0.04023142164849579   -0.0008374123288422333
-0.001106565768581071   -0.04015931914032377   -0.0007110811103994887
-0.005220305042684829   -0.032621687125537945   -0.0005549467588432158
-0.0009942005373282474   -0.03263186900159199   -0.0004329959960485638
-0.0009504630736135943   -0.03271288539144686   -0.00043487461573289964
-0.001106565768581071   -0.04015931914032377   -0.0007110811103994887
-0.005220305042684829   -0.032621687125537945   -0.0005549467588432158
-0.0009504630736135943   -0.03271288539144686   -0.00043487461573289964
-0.004912729900448736   -0.04023142164849579   -0.0008374123288422333
-0.001106565768581071   -0.04015931914032377   -0.0007110811103994887
-0.0009942005373282474   -0.03263186900159199   -0.0004329959960485638
-0.004938949536574719   -0.04016761843646017   -0.000821368564345556
-0.001139922263315221   -0.04010049785472161   -0.0007222317840147684
-0.0009942005373282474   -0.03263186900159199   -0.0004329959960485638
-0.005220305042684829   -0.032621687125537945   -0.0005549467588432158
-0.004938949536574719   -0.04016761843646017   -0.000821368564345556
-0.005269145740432097   -0.03256577064696411   -0.0005275915115333121
-0.001139922263315221   -0.04010049785472161   -0.0007222317840147684
-0.004969265593513075   -0.04012174305651556   -0.0007998490626946364
-0.005269145740432097   -0.03256577064696411   -0.0005275915115333121
-0.004938949536574719   -0.04016761843646017   -0.000821368564345556
-0.001139922263315221   -0.04010049785472161   -0.0007222317840147684
-0.005269145740432097   -0.03256577064696411   -0.0005275915115333121
-0.0010485621297502477   -0.03256203116892562   -0.0004259582307369664
-0.0009942005373282474   -0.03263186900159199   -0.0004329959960485638
-0.001139922263315221   -0.04010049785472161   -0.0007222317840147684
-0.005269145740432097   -0.03256577064696411   -0.0005275915115333121
-0.0009942005373282474   -0.03263186900159199   -0.0004329959960485638
-0.004938949536574719   -0.04016761843646017   -0.000821368564345556
-0.004886866393176464   -0.04031285422238869   -0.0008477006666013826
-0.005131155908823002   -0.03276725808915737   -0.0005946302639391716
-0.008640802742755216   -0.040233640165065594   -0.000997617243709175
-0.004912729900448736   -0.04023142164849579   -0.0008374123288422333
-0.005131155908823002   -0.03276725808915737   -0.0005946302639391716
-0.009279863841181669   -0.03269253913900536   -0.0007318882329883611
-0.008640802742755216   -0.040233640165065594   -0.000997617243709175
-0.009325321246656493   -0.032629183463954776   -0.0006943350645561563
-0.004912729900448736   -0.04023142164849579   -0.0008374123288422333
-0.008668728375395639   -0.04016681647924457   -0.0009550618007972166
-0.009325321246656493   -0.032629183463954776   -0.0006943350645561563
-0.008640802742755216   -0.040233640165065594   -0.000997617243709175
-0.004912729900448736   -0.04023142164849579   -0.0008374123288422333
-0.009325321246656493   -0.032629183463954776   -0.0006943350645561563
-0.0051752840704570565   -0.03268906347929881   -0.000577374557271156
-0.005131155908823002   -0.03276725808915737   -0.0005946302639391716
-0.004912729900448736   -0.04023142164849579   -0.0008374123288422333
-0.009325321246656493   -0.032629183463954776   -0.0006943350645561563
-0.005131155908823002   -0.03276725808915737   -0.0005946302639391716
-0.008640802742755216   -0.040233640165065594   -0.000997617243709175
-0.004912729900448736   -0.04023142164849579   -0.0008374123288422333
-0.0051752840704570565   -0.03268906347929881   -0.000577374557271156
-0.008668728375395639   -0.04016681647924457   -0.0009550618007972166
-0.004938949536574719   -0.04016761843646017   -0.000821368564345556
-0.0051752840704570565   -0.03268906347929881   -0.000577374557271156
-0.009325321246656493   -0.032629183463954776   -0.0006943350645561563
-0.008668728375395639   -0.04016681647924457   -0.0009550618007972166
-0.009366546592129998   -0.032576569629817545   -0.000651731025540854
-0.004938949536574719   -0.04016761843646017   -0.000821368564345556
-0.008691849840214193   -0.040117454081224885   -0.000906853769782324
-0.009366546592129998   -0.032576569629817545   -0.000651731025540854
-0.008668728375395639   -0.04016681647924457   -0.0009550618007972166
-0.004938949536574719   -0.04016761843646017   -0.000821368564345556
-0.009366546592129998   -0.032576569629817545   -0.000651731025540854
-0.005220305042684829   -0.032621687125537945   -0.0005549467588432158
-0.0051752840704570565   -0.03268906347929881   -0.000577374557271156
-0.004938949536574719   -0.04016761843646017   -0.000821368564345556
-0.009366546592129998   -0.032576569629817545   -0.000651731025540854
-0.0051752840704570565   -0.03268906347929881   -0.000577374557271156
-0.008668728375395639   -0.04016681647924457   -0.0009550618007972166
-0.004938949536574719   -0.04016761843646017   -0.000821368564345556
-0.005220305042684829   -0.032621687125537945   -0.0005549467588432158
-0.008691849840214193   -0.040117454081224885   -0.000906853769782324
-0.004969265593513075   -0.04012174305651556   -0.0007998490626946364
-0.005220305042684829   -0.032621687125537945   -0.0005549467588432158
-0.009366546592129998   -0.032576569629817545   -0.000651731025540854
-0.008691849840214193   -0.040117454081224885   -0.000906853769782324
-0.009408164572057592   -0.03253478486950234   -0.000604267896320861
-0.004969265593513075   -0.04012174305651556   -0.0007998490626946364
-0.008715648538265553   -0.04008547907362319   -0.0008531588735619661
-0.009408164572057592   -0.03253478486950234   -0.000604267896320861
-0.008691849840214193   -0.040117454081224885   -0.000906853769782324
-0.004969265593513075   -0.04012174305651556   -0.0007998490626946364
-0.009408164572057592   -0.03253478486950234   -0.000604267896320861
-0.005269145740432097   -0.03256577064696411   -0.0005275915115333121
-0.005220305042684829   -0.032621687125537945   -0.0005549467588432158
-0.004969265593513075   -0.04012174305651556   -0.0007998490626946364
-0.009408164572057592   -0.03253478486950234   -0.000604267896320861
-0.005220305042684829   -0.032621687125537945   -0.0005549467588432158
-0.008691849840214193   -0.040117454081224885   -0.000906853769782324
-0.008640802742755216   -0.040233640165065594   -0.000997617243709175
-0.009279863841181669   -0.03269253913900536   -0.0007318882329883611
-0.01248401456497419   -0.04009773256886632   -0.00112272958206578
-0.008668728375395639   -0.04016681647924457   -0.0009550618007972166
-0.009279863841181669   -0.03269253913900536   -0.0007318882329883611
-0.013510796436868634   -0.03258144945962252   -0.0008438860267156356
-0.01248401456497419   -0.04009773256886632   -0.00112272958206578
-0.013552978967042254   -0.03253305208238732   -0.0007858790633058647
-0.008668728375395639   -0.04016681647924457   -0.0009550618007972166
-0.012507080236344335   -0.040045169503650106   -0.0010474656591088242
-0.013552978967042254   -0.03253305208238732   -0.0007858790633058647
-0.01248401456497419   -0.04009773256886632   -0.00112272958206578
-0.008668728375395639   -0.04016681647924457   -0.0009550618007972166
-0.013552978967042254   -0.03253305208238732   -0.0007858790633058647
-0.009325321246656493   -0.032629183463954776   -0.0006943350645561563
-0.009279863841181669   -0.03269253913900536   -0.0007318882329883611
-0.008668728375395639   -0.04016681647924457   -0.0009550618007972166
-0.013552978967042254   -0.03253305208238732   -0.0007858790633058647
-0.009279863841181669   -0.03269253913900536   -0.0007318882329883611
-0.01248401456497419   -0.04009773256886632   -0.00112272958206578
-0.008668728375395639   -0.04016681647924457   -0.0009550618007972166
-0.009325321246656493   -0.032629183463954776   -0.0006943350645561563
-0.012507080236344335   -0.040045169503650106   -0.0010474656591088242
-0.008691849840214193   -0.040117454081224885   -0.000906853769782324
-0.009325321246656493   -0.032629183463954776   -0.0006943350645561563
-0.013552978967042254   -0.03253305208238732   -0.0007858790633058647
-0.012507080236344335   -0.040045169503650106   -0.0010474656591088242
-0.013578437820039844   -0.03249404674823859   -0.0007235009828511498
-0.008691849840214193   -0.040117454081224885   -0.000906853769782324
-0.012509908400835046   -0.04000901360514145   -0.000967330967835323
-0.013578437820039844   -0.03249404674823859   -0.0007235009828511498
-0.012507080236344335   -0.040045169503650106   -0.0010474656591088242
-0.008691849840214193   -0.040117454081224885   -0.000906853769782324
-0.013578437820039844   -0.03249404674823859   -0.0007235009828511498
-0.009366546592129998   -0.032576569629817545   -0.000651731025540854
-0.009325321246656493   -0.032629183463954776   -0.0006943350645561563
-0.008691849840214193   -0.040117454081224885   -0.000906853769782324
-0.013578437820039844   -0.03249404674823859   -0.0007235009828511498
-0.009325321246656493   -0.032629183463954776   -0.0006943350645561563
-0.012507080236344335   -0.040045169503650106   -0.0010474656591088242
-0.008691849840214193   -0.040117454081224885   -0.000906853769782324
-0.009366546592129998   -0.032576569629817545   -0.000651731025540854
-0.012509908400835046   -0.04000901360514145   -0.000967330967835323
-0.008715648538265553   -0.04008547907362319   -0.0008531588735619661
-0.009366546592129998   -0.032576569629817545   -0.000651731025540854
-0.013578437820039844   -0.03249404674823859   -0.0007235009828511498
-0.012509908400835046   -0.04000901360514145   -0.000967330967835323
-0.013606449194555056   -0.03246681427210151   -0.0006558488690346099
-0.008715648538265553   -0.04008547907362319   -0.0008531588735619661
-0.012518511266678595   -0.03999181278761024   -0.0008812928230281636
-0.013606449194555056   -0.03246681427210151   -0.0006558488690346099
-0.012509908400835046   -0.04000901360514145   -0.000967330967835323
-0.008715648538265553   -0.04008547907362319   -0.0008531588735619661
-0.013606449194555056   -0.03246681427210151   -0.0006558488690346099
-0.009408164572057592   -0.03253478486950234   -0.000604267896320861
-0.009366546592129998   -0.032576569629817545   -0.000651731025540854
-0.008715648538265553   -0.04008547907362319   -0.0008531588735619661
-0.013606449194555056   -0.03246681427210151   -0.0006558488690346099
-0.009366546592129998   -0.032576569629817545   -0.000651731025540854
-0.012509908400835046   -0.04000901360514145   -0.000967330967835323
-0.01248401456497419   -0.04009773256886632   -0.00112272958206578
-0.013510796436868634   -0.03258144945962252   -0.0008438860267156356
-0.016675187348293787   -0.03991930014917423   -0.0012296141664997107
-0.012507080236344335   -0.040045169503650106   -0.0010474656591088242
-0.013510796436868634   -0.03258144945962252   -0.0008438860267156356
-0.01805210556289006   -0.03244462942975303   -0.0009328473391708231
-0.016675187348293787   -0.03991930014917423   -0.0012296141664997107
-0.01802043986788728   -0.03240388559734469   -0.0008554740934599695
-0.012507080236344335   -0.040045169503650106   -0.0010474656591088242
-0.016594493558019317   -0.039871283983101136   -0.0011197154516955055
-0.01802043986788728   -0.03240388559734469   -0.0008554740934599695
-0.016675187348293787   -0.03991930014917423   -0.0012296141664997107
-0.012507080236344335   -0.040045169503650106   -0.0010474656591088242
-0.01802043986788728   -0.03240388559734469   -0.0008554740934599695
-0.013552978967042254   -0.03253305208238732   -0.0007858790633058647
-0.013510796436868634   -0.03258144945962252   -0.0008438860267156356
-0.012507080236344335   -0.040045169503650106   -0.0010474656591088242
-0.01802043986788728   -0.03240388559734469   -0.0008554740934599695
-0.013510796436868634   -0.03258144945962252   -0.0008438860267156356
-0.016675187348293787   -0.03991930014917423   -0.0012296141664997107
-0.012507080236344335   -0.040045169503650106   -0.0010474656591088242
-0.013552978967042254   -0.03253305208238732   -0.0007858790633058647
-0.016594493558019317   -0.039871283983101136   -0.0011197154516955055
-0.012509908400835046   -0.04000901360514145   -0.000967330967835323
-0.013552978967042254   -0.03253305208238732   -0.0007858790633058647
-0.01802043986788728   -0.03240388559734469   -0.0008554740934599695
-0.016594493558019317   -0.039871283983101136   -0.0011197154516955055
-0.017994628862473744   -0.03237129291988467   -0.0007700797756054614
-0.012509908400835046   -0.04000901360514145   -0.000967330967835323
-0.0165264911476899   -0.039840729231049546   -0.0010013094852807738
-0.017994628862473744   -0.03237129291988467   -0.0007700797756054614
-0.016594493558019317   -0.039871283983101136   -0.0011197154516955055
-0.012509908400835046   -0.04000901360514145   -0.000967330967835323
-0.017994628862473744   -0.03237129291988467   -0.0007700797756054614
-0.013578437820039844   -0.03249404674823859   -0.0007235009828511498
-0.013552978967042254   -0.03253305208238732   -0.0007858790633058647
-0.012509908400835046   -0.04000901360514145   -0.000967330967835323
-0.017994628862473744   -0.03237129291988467   -0.0007700797756054614
-0.013552978967042254   -0.03253305208238732   -0.0007858790633058647
-0.016594493558019317   -0.039871283983101136   -0.0011197154516955055
-0.012509908400835046   -0.04000901360514145   -0.000967330967835323
-0.013578437820039844   -0.03249404674823859   -0.0007235009828511498
-0.0165264911476899   -0.039840729231049546   -0.0010013094852807738
-0.012518511266678595   -0.03999181278761024   -0.0008812928230281636
-0.013578437820039844   -0.03249404674823859   -0.0007235009828511498
-0.017994628862473744   -0.03237129291988467   -0.0007700797756054614
-0.0165264911476899   -0.039840729231049546   -0.0010013094852807738
-0.017933073400132324   -0.03236153143820731   -0.00067757869735008
-0.012518511266678595   -0.03999181278761024   -0.0008812928230281636
-0.016414462756587988   -0.03984235827117243   -0.0008754577497666269
-0.017933073400132324   -0.03236153143820731   -0.00067757869735008
-0.0165264911476899   -0.039840729231049546   -0.0010013094852807738
-0.012518511266678595   -0.03999181278761024   -0.0008812928230281636
-0.017933073400132324   -0.03236153143820731   -0.00067757869735008
-0.013606449194555056   -0.03246681427210151   -0.0006558488690346099
-0.013578437820039844   -0.03249404674823859   -0.0007235009828511498
-0.012518511266678595   -0.03999181278761024   -0.0008812928230281636
-0.017933073400132324   -0.03236153143820731   -0.00067757869735008
-0.013578437820039844   -0.03249404674823859   -0.0007235009828511498
-0.0165264911476899   -0.039840729231049546   -0.0010013094852807738
0.003512993836731731   -0.032807838243514416   -0.00023421988105070725
0.0036359778957712045   -0.024801632363990134   -3.7185730235318e-05
-0.0009111053734122038   -0.03280719154260826   -0.00043178976691734844
0.0035007380220689593   -0.03269925697482116   -0.0002657383224456846
0.0036359778957712045   -0.024801632363990134   -3.7185730235318e-05
-0.001041420311608814   -0.02476075134671453   -0.00021468286414264687
-0.0009111053734122038   -0.03280719154260826   -0.00043178976691734844
-0.0010955433382608603   -0.024670540867427333   -0.00019868770157789522
0.0035007380220689593   -0.03269925697482116   -0.0002657383224456846
-0.0009504630736135943   -0.03271288539144686   -0.00043487461573289964
-0.0010955433382608603   -0.024670540867427333   -0.00019868770157789522
-0.0009111053734122038   -0.03280719154260826   -0.00043178976691734844
0.0035007380220689593   -0.03269925697482116   -0.0002657383224456846
-0.0010955433382608603   -0.024670540867427333   -0.00019868770157789522
0.0035788236817374773   -0.024698103097719804   -3.425388076369101e-05
0.0036359778957712045   -0.024801632363990134   -3.7185730235318e-05
0.0035007380220689593   -0.03269925697482116   -0.0002657383224456846
-0.0010955433382608603   -0.024670540867427333   -0.00019868770157789522
0.0036359778957712045   -0.024801632363990134   -3.7185730235318e-05
-0.0009111053734122038   -0.03280719154260826   -0.00043178976691734844
0.0035007380220689593   -0.03269925697482116   -0.0002657383224456846
0.0035788236817374773   -0.024698103097719804   -3.425388076369101e-05
-0.0009504630736135943   -0.03271288539144686   -0.00043487461573289964
0.0034693446779704234   -0.03261210032325482   -0.0002893011459230148
0.0035788236817374773   -0.024698103097719804   -3.425388076369101e-05
-0.0010955433382608603   -0.024670540867427333   -0.00019868770157789522
-0.0009504630736135943   -0.03271288539144686   -0.00043487461573289964
-0.0011575285312432806   -0.024585508331978718   -0.000178185302301928
0.0034693446779704234   -0.03261210032325482   -0.0002893011459230148
-0.0009942005373282474   -0.03263186900159199   -0.0004329959960485638
-0.0011575285312432806   -0.024585508331978718   -0.000178185302301928
-0.0009504630736135943   -0.03271288539144686   -0.00043487461573289964
0.0034693446779704234   -0.03261210032325482   -0.0002893011459230148
-0.0011575285312432806   -0.024585508331978718   -0.000178185302301928
0.0035084495218946385   -0.024605759559501263   -2.211695782124451e-05
0.0035788236817374773   -0.024698103097719804   -3.425388076369101e-05
0.0034693446779704234   -0.03261210032325482   -0.0002893011459230148
-0.0011575285312432806   -0.024585508331978718   -0.000178185302301928
0.0035788236817374773   -0.024698103097719804   -3.425388076369101e-05
-0.0009504630736135943   -0.03271288539144686   -0.00043487461573289964
0.0034693446779704234   -0.03261210032325482   -0.0002893011459230148
0.0035084495218946385   -0.024605759559501263   -2.211695782124451e-05
-0.0009942005373282474   -0.03263186900159199   -0.0004329959960485638
0.0034254406511734486   -0.03253206214212908   -0.0003054640120598822
0.0035084495218946385   -0.024605759559501263   -2.211695782124451e-05
-0.0011575285312432806   -0.024585508331978718   -0.000178185302301928
-0.0009942005373282474   -0.03263186900159199   -0.0004329959960485638
-0.001227154096595246   -0.024504484341733482   -0.00015204668687759408
0.0034254406511734486   -0.03253206214212908   -0.0003054640120598822
-0.0010485621297502477   -0.03256203116892562   -0.0004259582307369664
-0.001227154096595246   -0.024504484341733482   -0.00015204668687759408
-0.0009942005373282474   -0.03263186900159199   -0.0004329959960485638
0.0034254406511734486   -0.03253206214212908   -0.0003054640120598822
-0.001227154096595246   -0.024504484341733482   -0.00015204668687759408
0.003415625362186182   -0.024509249088292842   -1.190121943404287e-06
0.0035084495218946385   -0.024605759559501263   -2.211695782124451e-05
0.0034254406511734486   -0.03253206214212908   -0.0003054640120598822
-0.001227154096595246   -0.024504484341733482   -0.00015204668687759408
0.0035084495218946385   -0.024605759559501263   -2.211695782124451e-05
-0.0009942005373282474   -0.03263186900159199   -0.0004329959960485638
-0.0009111053734122038   -0.03280719154260826   -0.00043178976691734844
-0.001041420311608814   -0.02476075134671453   -0.00021468286414264687
-0.005131155908823002   -0.03276725808915737   -0.0005946302639391716
-0.0009504630736135943   -0.03271288539144686   -0.00043487461573289964
-0.001041420311608814   -0.02476075134671453   -0.00021468286414264687
-0.005473417705071844   -0.024712840649914795   -0.00036466929986517954
-0.005131155908823002   -0.03276725808915737   -0.0005946302639391716
-0.005528697626104821   -0.02463749277802925   -0.00033999068628521743
-0.0009504630736135943   -0.03271288539144686   -0.00043487461573289964
-0.0051752840704570565   -0.03268906347929881   -0.000577374557271156
-0.005528697626104821   -0.02463749277802925   -0.00033999068628521743
-0.005131155908823002   -0.03276725808915737   -0.0005946302639391716
-0.0009504630736135943   -0.03271288539144686   -0.00043487461573289964
-0.005528697626104821   -0.02463749277802925   -0.00033999068628521743
-0.0010955433382608603   -0.024670540867427333   -0.00019868770157789522
-0.001041420311608814   -0.02476075134671453   -0.00021468286414264687
-0.0009504630736135943   -0.03271288539144686   -0.00043487461573289964
-0.005528697626104821   -0.02463749277802925   -0.00033999068628521743
-0.001041420311608814   -0.02476075134671453   -0.00021468286414264687
-0.005131155908823002   -0.03276725808915737   -0.0005946302639391716
-0.0009504630736135943   -0.03271288539144686   -0.00043487461573289964
-0.0010955433382608603   -0.024670540867427333   -0.00019868770157789522
-0.0051752840704570565   -0.03268906347929881   -0.000577374557271156
-0.0009942005373282474   -0.03263186900159199   -0.0004329959960485638
-0.0010955433382608603   -0.024670540867427333   -0.00019868770157789522
-0.005528697626104821   -0.02463749277802925   -0.00033999068628521743
-0.0051752840704570565   -0.03268906347929881   -0.000577374557271156
-0.005585223360792327   -0.024566161661766898   -0.0003110133790044804
-0.0009942005373282474   -0.03263186900159199   -0.0004329959960485638
-0.005220305042684829   -0.032621687125537945   -0.0005549467588432158
-0.005585223360792327   -0.024566161661766898   -0.0003110133790044804
-0.0051752840704570565   -0.03268906347929881   -0.000577374557271156
-0.0009942005373282474   -0.03263186900159199   -0.0004329959960485638
-0.005585223360792327   -0.024566161661766898   -0.0003110133790044804
-0.0011575285312432806   -0.024585508331978718   -0.000178185302301928
-0.0010955433382608603   -0.024670540867427333   -0.00019868770157789522
-0.0009942005373282474   -0.03263186900159199   -0.0004329959960485638
-0.005585223360792327   -0.024566161661766898   -0.0003110133790044804
-0.0010955433382608603   -0.024670540867427333   -0.00019868770157789522
-0.0051752840704570565   -0.03268906347929881   -0.000577374557271156
-0.0009942005373282474   -0.03263186900159199   -0.0004329959960485638
-0.0011575285312432806   -0.024585508331978718   -0.000178185302301928
-0.005220305042684829   -0.032621687125537945   -0.0005549467588432158
-0.0010485621297502477   -0.03256203116892562   -0.0004259582307369664
-0.0011575285312432806   -0.024585508331978718   -0.000178185302301928
-0.005585223360792327   -0.024566161661766898   -0.0003110133790044804
-0.005220305042684829   -0.032621687125537945   -0.0005549467588432158
-0.005645355808896944   -0.024499962284967737   -0.00027769354764537954
-0.0010485621297502477   -0.03256203116892562   -0.0004259582307369664
-0.005269145740432097   -0.03256577064696411   -0.0005275915115333121
-0.005645355808896944   -0.024499962284967737   -0.00027769354764537954
-0.005220305042684829   -0.032621687125537945   -0.0005549467588432158
-0.0010485621297502477   -0.03256203116892562   -0.0004259582307369664
-0.005645355808896944   -0.024499962284967737   -0.00027769354764537954
-0.001227154096595246   -0.024504484341733482   -0.00015204668687759408
-0.0011575285312432806   -0.024585508331978718   -0.000178185302301928
-0.0010485621297502477   -0.03256203116892562   -0.0004259582307369664
-0.005645355808896944   -0.024499962284967737   -0.00027769354764537954
-0.0011575285312432806   -0.024585508331978718   -0.000178185302301928
-0.005220305042684829   -0.032621687125537945   -0.0005549467588432158
-0.005131155908823002   -0.03276725808915737   -0.0005946302639391716
-0.005473417705071844   -0.024712840649914795   -0.00036466929986517954
-0.009279863841181669   -0.03269253913900536   -0.0007318882329883611
-0.0051752840704570565   -0.03268906347929881   -0.000577374557271156
-0.005473417705071844   -0.024712840649914795   -0.00036466929986517954
-0.009833177191776116   -0.024655266275747805   -0.000491908834257468
-0.009279863841181669   -0.03269253913900536   -0.0007318882329883611
-0.009888083685972687   -0.0245936771625122   -0.0004585633468032878
-0.0051752840704570565   -0.03268906347929881   -0.000577374557271156
-0.009325321246656493   -0.032629183463954776   -0.0006943350645561563
-0.009888083685972687   -0.0245936771625122   -0.0004585633468032878
-0.009279863841181669   -0.03269253913900536   -0.0007318882329883611
-0.0051752840704570565   -0.03268906347929881   -0.000577374557271156
-0.009888083685972687   -0.0245936771625122   -0.0004585633468032878
-0.005528697626104821   -0.02463749277802925   -0.00033999068628521743
-0.005473417705071844   -0.024712840649914795   -0.00036466929986517954
-0.0051752840704570565   -0.03268906347929881   -0.000577374557271156
-0.009888083685972687   -0.0245936771625122   -0.0004585633468032878
-0.005473417705071844   -0.024712840649914795   -0.00036466929986517954
-0.009279863841181669   -0.03269253913900536   -0.0007318882329883611
-0.0051752840704570565   -0.03268906347929881   -0.000577374557271156
-0.005528697626104821   -0.02463749277802925   -0.00033999068628521743
-0.009325321246656493   -0.032629183463954776   -0.0006943350645561563
-0.005220305042684829   -0.032621687125537945   -0.0005549467588432158
-0.005528697626104821   -0.02463749277802925   -0.00033999068628521743
-0.009888083685972687   -0.0245936771625122   -0.0004585633468032878
-0.009325321246656493   -0.032629183463954776   -0.0006943350645561563
-0.009939430163481713   -0.02453632822494288   -0.000421065983457626
-0.005220305042684829   -0.032621687125537945   -0.0005549467588432158
-0.009366546592129998   -0.032576569629817545   -0.000651731025540854
-0.009939430163481713   -0.02453632822494288   -0.000421065983457626
-0.009325321246656493   -0.032629183463954776   -0.0006943350645561563
-0.005220305042684829   -0.032621687125537945   -0.0005549467588432158
-0.009939430163481713   -0.02453632822494288   -0.000421065983457626
-0.005585223360792327   -0.024566161661766898   -0.0003110133790044804
-0.005528697626104821   -0.02463749277802925   -0.00033999068628521743
-0.005220305042684829   -0.032621687125537945   -0.0005549467588432158
-0.009939430163481713   -0.02453632822494288   -0.000421065983457626
-0.005528697626104821   -0.02463749277802925   -0.00033999068628521743
-0.009325321246656493   -0.032629183463954776   -0.0006943350645561563
-0.005220305042684829   -0.032621687125537945   -0.0005549467588432158
-0.005585223360792327   -0.024566161661766898   -0.0003110133790044804
-0.009366546592129998   -0.032576569629817545   -0.000651731025540854
-0.005269145740432097   -0.03256577064696411   -0.0005275915115333121
-0.005585223360792327   -0.024566161661766898   -0.0003110133790044804
-0.009939430163481713   -0.02453632822494288   -0.000421065983457626
-0.009366546592129998   -0.032576569629817545   -0.000651731025540854
-0.009990960555383153   -0.024483376772849563   -0.000379621609426829
-0.005269145740432097   -0.03256577064696411   -0.0005275915115333121
-0.009408164572057592   -0.03253478486950234   -0.000604267896320861
-0.009990960555383153   -0.024483376772849563   -0.000379621609426829
-0.009366546592129998   -0.032576569629817545   -0.000651731025540854
-0.005269145740432097   -0.03256577064696411   -0.0005275915115333121
-0.009990960555383153   -0.024483376772849563   -0.000379621609426829
-0.005645355808896944   -0.024499962284967737   -0.00027769354764537954
-0.005585223360792327   -0.024566161661766898   -0.0003110133790044804
-0.005269145740432097   -0.03256577064696411   -0.0005275915115333121
-0.009990960555383153   -0.024483376772849563   -0.000379621609426829
-0.005585223360792327   -0.024566161661766898   -0.0003110133790044804
-0.009366546592129998   -0.032576569629817545   -0.000651731025540854
-0.009279863841181669   -0.03269253913900536   -0.0007318882329883611
-0.009833177191776116   -0.024655266275747805   -0.000491908834257468
-0.013510796436868634   -0.03258144945962252   -0.0008438860267156356
-0.009325321246656493   -0.032629183463954776   -0.0006943350645561563
-0.009833177191776116   -0.024655266275747805   -0.000491908834257468
-0.014271766788812543   -0.024577353521659528   -0.000595311981585776
-0.013510796436868634   -0.03258144945962252   -0.0008438860267156356
-0.014324335465292609   -0.024530238032963912   -0.000553403232998905
-0.009325321246656493   -0.032629183463954776   -0.0006943350645561563
-0.013552978967042254   -0.03253305208238732   -0.0007858790633058647
-0.014324335465292609   -0.024530238032963912   -0.000553403232998905
-0.013510796436868634   -0.03258144945962252   -0.0008438860267156356
-0.009325321246656493   -0.032629183463954776   -0.0006943350645561563
-0.014324335465292609   -0.024530238032963912   -0.000553403232998905
-0.009888083685972687   -0.0245936771625122   -0.0004585633468032878
-0.009833177191776116   -0.024655266275747805   -0.000491908834257468
-0.009325321246656493   -0.032629183463954776   -0.0006943350645561563
-0.014324335465292609   -0.024530238032963912   -0.000553403232998905
-0.009833177191776116   -0.024655266275747805   -0.000491908834257468
-0.013510796436868634   -0.03258144945962252   -0.0008438860267156356
-0.009325321246656493   -0.032629183463954776   -0.0006943350645561563
-0.009888083685972687   -0.0245936771625122   -0.0004585633468032878
-0.013552978967042254   -0.03253305208238732   -0.0007858790633058647
-0.009366546592129998   -0.032576569629817545   -0.000651731025540854
-0.009888083685972687   -0.0245936771625122   -0.0004585633468032878
-0.014324335465292609   -0.024530238032963912   -0.000553403232998905
-0.013552978967042254   -0.03253305208238732   -0.0007858790633058647
-0.014364124931813821   -0.024485772218477968   -0.0005080241195521773
-0.009366546592129998   -0.032576569629817545   -0.000651731025540854
-0.013578437820039844   -0.03249404674823859   -0.0007235009828511498
-0.014364124931813821   -0.024485772218477968   -0.0005080241195521773
-0.013552978967042254   -0.03253305208238732   -0.0007858790633058647
-0.009366546592129998   -0.032576569629817545   -0.000651731025540854
-0.014364124931813821   -0.024485772218477968   -0.0005080241195521773
-0.009939430163481713   -0.02453632822494288   -0.000421065983457626
-0.009888083685972687   -0.0245936771625122   -0.0004585633468032878
-0.009366546592129998   -0.032576569629817545   -0.000651731025540854
-0.014364124931813821   -0.024485772218477968   -0.0005080241195521773
-0.009888083685972687   -0.0245936771625122   -0.0004585633468032878
-0.013552978967042254   -0.03253305208238732   -0.0007858790633058647
-0.009366546592129998   -0.032576569629817545   -0.000651731025540854
-0.009939430163481713   -0.02453632822494288   -0.000421065983457626
-0.013578437820039844   -0.03249404674823859   -0.0007235009828511498
-0.009408164572057592   -0.03253478486950234   -0.000604267896320861
-0.009939430163481713   -0.02453632822494288   -0.000421065983457626
-0.014364124931813821   -0.024485772218477968   -0.0005080241195521773
-0.013578437820039844   -0.03249404674823859   -0.0007235009828511498
-0.01440361951108553   -0.02444595223695746   -0.0004582724517241241
-0.009408164572057592   -0.03253478486950234   -0.000604267896320861
-0.013606449194555056   -0.03246681427210151   -0.0006558488690346099
-0.01440361951108553   -0.02444595223695746   -0.0004582724517241241
-0.013578437820039844   -0.03249404674823859   -0.0007235009828511498
-0.009408164572057592   -0.03253478486950234   -0.000604267896320861
-0.01440361951108553   -0.02444595223695746   -0.0004582724517241241
-0.009990960555383153   -0.024483376772849563   -0.000379621609426829
-0.009939430163481713   -0.02453632822494288   -0.000421065983457626
-0.009408164572057592   -0.03253478486950234   -0.000604267896320861
-0.01440361951108553   -0.02444595223695746   -0.0004582724517241241
-0.009939430163481713   -0.02453632822494288   -0.000421065983457626
-0.013578437820039844   -0.03249404674823859   -0.0007235009828511498
-0.013510796436868634   -0.03258144945962252   -0.0008438860267156356
-0.014271766788812543   -0.024577353521659528   -0.000595311981585776
-0.01805210556289006   -0.03244462942975303   -0.0009328473391708231
-0.013552978967042254   -0.03253305208238732   -0.0007858790633058647
-0.014271766788812543   -0.024577353521659528   -0.000595311981585776
-0.01897667363825887   -0.02448516686695537   -0.0006718417516289155
-0.01805210556289006   -0.03244462942975303   -0.0009328473391708231
-0.018984344709775416   -0.024447680506243092   -0.0006254259254081598
-0.013552978967042254   -0.03253305208238732   -0.0007858790633058647
-0.01802043986788728   -0.03240388559734469   -0.0008554740934599695
-0.018984344709775416   -0.024447680506243092   -0.0006254259254081598
-0.01805210556289006   -0.03244462942975303   -0.0009328473391708231
-0.013552978967042254   -0.03253305208238732   -0.0007858790633058647
-0.018984344709775416   -0.024447680506243092   -0.0006254259254081598
-0.014324335465292609   -0.024530238032963912   -0.000553403232998905
-0.014271766788812543   -0.024577353521659528   -0.000595311981585776
-0.013552978967042254   -0.03253305208238732   -0.0007858790633058647
-0.018984344709775416   -0.024447680506243092   -0.0006254259254081598
-0.014271766788812543   -0.024577353521659528   -0.000595311981585776
-0.01805210556289006   -0.03244462942975303   -0.0009328473391708231
-0.013552978967042254   -0.03253305208238732   -0.0007858790633058647
-0.014324335465292609   -0.024530238032963912   -0.000553403232998905
-0.01802043986788728   -0.03240388559734469   -0.0008554740934599695
-0.013578437820039844   -0.03249404674823859   -0.0007235009828511498
-0.014324335465292609   -0.024530238032963912   -0.000553403232998905
-0.018984344709775416   -0.024447680506243092   -0.0006254259254081598
-0.01802043986788728   -0.03240388559734469   -0.0008554740934599695
-0.018992288967381643   -0.024409833343030124   -0.0005720268618097998
-0.013578437820039844   -0.03249404674823859   -0.0007235009828511498
-0.017994628862473744   -0.03237129291988467   -0.0007700797756054614
-0.018992288967381643   -0.024409833343030124   -0.0005720268618097998
-0.01802043986788728   -0.03240388559734469   -0.0008554740934599695
-0.013578437820039844   -0.03249404674823859   -0.0007235009828511498
-0.018992288967381643   -0.024409833343030124   -0.0005720268618097998
-0.014364124931813821   -0.024485772218477968   -0.0005080241195521773
-0.014324335465292609   -0.024530238032963912   -0.000553403232998905
-0.013578437820039844   -0.03249404674823859   -0.0007235009828511498
-0.018992288967381643   -0.024409833343030124   -0.0005720268618097998
-0.014324335465292609   -0.024530238032963912   -0.000553403232998905
-0.01802043986788728   -0.03240388559734469   -0.0008554740934599695
-0.013578437820039844   -0.03249404674823859   -0.0007235009828511498
-0.014364124931813821   -0.024485772218477968   -0.0005080241195521773
-0.017994628862473744   -0.03237129291988467   -0.0007700797756054614
-0.013606449194555056   -0.03246681427210151   -0.0006558488690346099
-0.014364124931813821   -0.024485772218477968   -0.0005080241195521773
-0.018992288967381643   -0.024409833343030124   -0.0005720268618097998
-0.017994628862473744   -0.03237129291988467   -0.0007700797756054614
-0.01897367766145852   -0.02438523947543813   -0.0005124706890640731
-0.013606449194555056   -0.03246681427210151   -0.0006558488690346099
-0.017933073400132324   -0.03236153143820731   -0.00067757869735008
-0.01897367766145852   -0.02438523947543813   -0.0005124706890640731
-0.017994628862473744   -0.03237129291988467   -0.0007700797756054614
-0.013606449194555056   -0.03246681427210151   -0.0006558488690346099
-0.01897367766145852   -0.02438523947543813   -0.0005124706890640731
-0.01440361951108553   -0.02444595223695746   -0.0004582724517241241
-0.014364124931813821   -0.024485772218477968   -0.0005080241195521773
-0.013606449194555056   -0.03246681427210151   -0.0006558488690346099
-0.01897367766145852   -0.02438523947543813   -0.0005124706890640731
-0.014364124931813821   -0.024485772218477968   -0.0005080241195521773
-0.017994628862473744   -0.03237129291988467   -0.0007700797756054614
0.0036359778957712045   -0.024801632363990134   -3.7185730235318e-05
0.0032623455904977434   -0.016553530225396667   9.885067941126767e-05
-0.001041420311608814   -0.02476075134671453   -0.00021468286414264687
0.0035788236817374773   -0.024698103097719804   -3.425388076369101e-05
0.0032623455904977434   -0.016553530225396667   9.885067941126767e-05
-0.0014521445196407966   -0.016476083098070526   -4.190544016676466e-05
-0.001041420311608814   -0.02476075134671453   -0.00021468286414264687
-0.00151693742716376   -0.01639449202550895   -8.314682010413272e-06
0.0035788236817374773   -0.024698103097719804   -3.425388076369101e-05
-0.0010955433382608603   -0.024670540867427333   -0.00019868770157789522
-0.00151693742716376   -0.01639449202550895   -8.314682010413272e-06
-0.001041420311608814   -0.02476075134671453   -0.00021468286414264687
0.0035788236817374773   -0.024698103097719804   -3.425388076369101e-05
-0.00151693742716376   -0.01639449202550895   -8.314682010413272e-06
0.003160498283526566   -0.016454952682788338   0.0001404842272065076
0.0032623455904977434   -0.016553530225396667   9.885067941126767e-05
0.0035788236817374773   -0.024698103097719804   -3.425388076369101e-05
-0.00151693742716376   -0.01639449202550895   -8.314682010413272e-06
0.0032623455904977434   -0.016553530225396667   9.885067941126767e-05
-0.001041420311608814   -0.02476075134671453   -0.00021468286414264687
0.0035788236817374773   -0.024698103097719804   -3.425388076369101e-05
0.003160498283526566   -0.016454952682788338   0.0001404842272065076
-0.0010955433382608603   -0.024670540867427333   -0.00019868770157789522
0.0035084495218946385   -0.024605759559501263   -2.211695782124451e-05
0.003160498283526566   -0.016454952682788338   0.0001404842272065076
-0.00151693742716376   -0.01639449202550895   -8.314682010413272e-06
-0.0010955433382608603   -0.024670540867427333   -0.00019868770157789522
-0.0015927669614853792   -0.016308423796245433   3.127866822088568e-05
0.0035084495218946385   -0.024605759559501263   -2.211695782124451e-05
-0.0011575285312432806   -0.024585508331978718   -0.000178185302301928
-0.0015927669614853792   -0.016308423796245433   3.127866822088568e-05
-0.0010955433382608603   -0.024670540867427333   -0.00019868770157789522
0.0035084495218946385   -0.024605759559501263   -2.211695782124451e-05
-0.0015927669614853792   -0.016308423796245433   3.127866822088568e-05
0.0030466312818639737   -0.016357160045284726   0.00020044237682064416
0.003160498283526566   -0.016454952682788338   0.0001404842272065076
0.0035084495218946385   -0.024605759559501263   -2.211695782124451e-05
-0.0015927669614853792   -0.016308423796245433   3.127866822088568e-05
0.003160498283526566   -0.016454952682788338   0.0001404842272065076
-0.0010955433382608603   -0.024670540867427333   -0.00019868770157789522
0.0035084495218946385   -0.024605759559501263   -2.211695782124451e-05
0.0030466312818639737   -0.016357160045284726   0.00020044237682064416
-0.0011575285312432806   -0.024585508331978718   -0.000178185302301928
0.003415625362186182   -0.024509249088292842   -1.190121943404287e-06
0.0030466312818639737   -0.016357160045284726   0.00020044237682064416
-0.0015927669614853792   -0.016308423796245433   3.127866822088568e-05
-0.0011575285312432806   -0.024585508331978718   -0.000178185302301928
-0.0016712427139959182   -0.016217077506951533   7.679978328296965e-05
0.003415625362186182   -0.024509249088292842   -1.190121943404287e-06
-0.001227154096595246   -0.024504484341733482   -0.00015204668687759408
-0.0016712427139959182   -0.016217077506951533   7.679978328296965e-05
-0.0011575285312432806   -0.024585508331978718   -0.000178185302301928
0.003415625362186182   -0.024509249088292842   -1.190121943404287e-06
-0.0016712427139959182   -0.016217077506951533   7.679978328296965e-05
0.0029074836208409405   -0.016236986629436456   0.00026644594332319454
0.0030466312818639737   -0.016357160045284726   0.00020044237682064416
0.003415625362186182   -0.024509249088292842   -1.190121943404287e-06
-0.0016712427139959182   -0.016217077506951533   7.679978328296965e-05
0.0030466312818639737   -0.016357160045284726   0.00020044237682064416
-0.0011575285312432806   -0.024585508331978718   -0.000178185302301928
-0.001041420311608814   -0.02476075134671453   -0.00021468286414264687
-0.0014521445196407966   -0.016476083098070526   -4.190544016676466e-05
-0.005473417705071844   -0.024712840649914795   -0.00036466929986517954
-0.0010955433382608603   -0.024670540867427333   -0.00019868770157789522
-0.0014521445196407966   -0.016476083098070526   -4.190544016676466e-05
-0.005891042452563362   -0.016456024868271673   -0.00017744519611190846
-0.005473417705071844   -0.024712840649914795   -0.00036466929986517954
-0.00594967798664912   -0.0163849142005865   -0.00014610651221494484
-0.0010955433382608603   -0.024670540867427333   -0.00019868770157789522
-0.005528697626104821   -0.02463749277802925   -0.00033999068628521743
-0.00594967798664912   -0.0163849142005865   -0.00014610651221494484
-0.005473417705071844   -0.024712840649914795   -0.00036466929986517954
-0.0010955433382608603   -0.024670540867427333   -0.00019868770157789522
-0.00594967798664912   -0.0163849142005865   -0.00014610651221494484
-0.00151693742716376   -0.01639449202550895   -8.314682010413272e-06
-0.0014521445196407966   -0.016476083098070526   -4.190544016676466e-05
-0.0010955433382608603   -0.024670540867427333   -0.00019868770157789522
-0.00594967798664912   -0.0163849142005865   -0.00014610651221494484
-0.0014521445196407966   -0.016476083098070526   -4.190544016676466e-05
-0.005473417705071844   -0.024712840649914795   -0.00036466929986517954
-0.0010955433382608603   -0.024670540867427333   -0.00019868770157789522
-0.00151693742716376   -0.01639449202550895   -8.314682010413272e-06
-0.005528697626104821   -0.02463749277802925   -0.00033999068628521743
-0.0011575285312432806   -0.024585508331978718   -0.000178185302301928
-0.00151693742716376   -0.01639449202550895   -8.314682010413272e-06
-0.00594967798664912   -0.0163849142005865   -0.00014610651221494484
-0.005528697626104821   -0.02463749277802925   -0.00033999068628521743
-0.006010350280798227   -0.01631096285533776   -0.00011164257871026482
-0.0011575285312432806   -0.024585508331978718   -0.000178185302301928
-0.005585223360792327   -0.024566161661766898   -0.0003110133790044804
-0.006010350280798227   -0.01631096285533776   -0.00011164257871026482
-0.005528697626104821   -0.02463749277802925   -0.00033999068628521743
-0.0011575285312432806   -0.024585508331978718   -0.000178185302301928
-0.006010350280798227   -0.01631096285533776   -0.00011164257871026482
-0.0015927669614853792   -0.016308423796245433   3.127866822088568e-05
-0.00151693742716376   -0.01639449202550895   -8.314682010413272e-06
-0.0011575285312432806   -0.024585508331978718   -0.000178185302301928
-0.006010350280798227   -0.01631096285533776   -0.00011164257871026482
-0.00151693742716376   -0.01639449202550895   -8.314682010413272e-06
-0.005528697626104821   -0.02463749277802925   -0.00033999068628521743
-0.0011575285312432806   -0.024585508331978718   -0.000178185302301928
-0.0015927669614853792   -0.016308423796245433   3.127866822088568e-05
-0.005585223360792327   -0.024566161661766898   -0.0003110133790044804
-0.001227154096595246   -0.024504484341733482   -0.00015204668687759408
-0.0015927669614853792   -0.016308423796245433   3.127866822088568e-05
-0.006010350280798227   -0.01631096285533776   -0.00011164257871026482
-0.005585223360792327   -0.024566161661766898   -0.0003110133790044804
-0.006073531808866067   -0.016235517086354387   -7.34324964319441e-05
-0.001227154096595246   -0.024504484341733482   -0.00015204668687759408
-0.005645355808896944   -0.024499962284967737   -0.00027769354764537954
-0.006073531808866067   -0.016235517086354387   -7.34324964319441e-05
-0.005585223360792327   -0.024566161661766898   -0.0003110133790044804
-0.001227154096595246   -0.024504484341733482   -0.00015204668687759408
-0.006073531808866067   -0.016235517086354387   -7.34324964319441e-05
-0.0016712427139959182   -0.016217077506951533   7.679978328296965e-05
-0.0015927669614853792   -0.016308423796245433   3.127866822088568e-05
-0.001227154096595246   -0.024504484341733482   -0.00015204668687759408
-0.006073531808866067   -0.016235517086354387   -7.34324964319441e-05
-0.0015927669614853792   -0.016308423796245433   3.127866822088568e-05
-0.005585223360792327   -0.024566161661766898   -0.0003110133790044804
-0.005473417705071844   -0.024712840649914795   -0.00036466929986517954
-0.005891042452563362   -0.016456024868271673   -0.00017744519611190846
-0.009833177191776116   -0.024655266275747805   -0.000491908834257468
-0.005528697626104821   -0.02463749277802925   -0.00033999068628521743
-0.005891042452563362   -0.016456024868271673   -0.00017744519611190846
-0.01028397280943783   -0.0164504273453412   -0.00029987605556955566
-0.009833177191776116   -0.024655266275747805   -0.000491908834257468
-0.010340061446202451   -0.016388147315098283   -0.000269906899085905
-0.005528697626104821   -0.02463749277802925   -0.00033999068628521743
-0.009888083685972687   -0.0245936771625122   -0.0004585633468032878
-0.010340061446202451   -0.016388147315098283   -0.000269906899085905
-0.009833177191776116   -0.024655266275747805   -0.000491908834257468
-0.005528697626104821   -0.02463749277802925   -0.00033999068628521743
-0.010340061446202451   -0.016388147315098283   -0.000269906899085905
-0.00594967798664912   -0.0163849142005865   -0.00014610651221494484
-0.005891042452563362   -0.016456024868271673   -0.00017744519611190846
-0.005528697626104821   -0.02463749277802925   -0.00033999068628521743
-0.010340061446202451   -0.016388147315098283   -0.000269906899085905
-0.005891042452563362   -0.016456024868271673   -0.00017744519611190846
-0.009833177191776116   -0.024655266275747805   -0.000491908834257468
-0.005528697626104821   -0.02463749277802925   -0.00033999068628521743
-0.00594967798664912   -0.0163849142005865   -0.00014610651221494484
-0.009888083685972687   -0.0245936771625122   -0.0004585633468032878
-0.005585223360792327   -0.024566161661766898   -0.0003110133790044804
-0.00594967798664912   -0.0163849142005865   -0.00014610651221494484
-0.010340061446202451   -0.016388147315098283   -0.000269906899085905
-0.009888083685972687   -0.0245936771625122   -0.0004585633468032878
-0.010393493770506223   -0.016324768704197853   -0.0002372022533550001
-0.005585223360792327   -0.024566161661766898   -0.0003110133790044804
-0.009939430163481713   -0.02453632822494288   -0.000421065983457626
-0.010393493770506223   -0.016324768704197853   -0.0002372022533550001
-0.009888083685972687   -0.0245936771625122   -0.0004585633468032878
-0.005585223360792327   -0.024566161661766898   -0.0003110133790044804
-0.010393493770506223   -0.016324768704197853   -0.0002372022533550001
-0.006010350280798227   -0.01631096285533776   -0.00011164257871026482
-0.00594967798664912   -0.0163849142005865   -0.00014610651221494484
-0.005585223360792327   -0.024566161661766898   -0.0003110133790044804
-0.010393493770506223   -0.016324768704197853   -0.0002372022533550001
-0.00594967798664912   -0.0163849142005865   -0.00014610651221494484
-0.009888083685972687   -0.0245936771625122   -0.0004585633468032878
-0.005585223360792327   -0.024566161661766898   -0.0003110133790044804
-0.006010350280798227   -0.01631096285533776   -0.00011164257871026482
-0.009939430163481713   -0.02453632822494288   -0.000421065983457626
-0.005645355808896944   -0.024499962284967737   -0.00027769354764537954
-0.006010350280798227   -0.01631096285533776   -0.00011164257871026482
-0.010393493770506223   -0.016324768704197853   -0.0002372022533550001
-0.009939430163481713   -0.02453632822494288   -0.000421065983457626
-0.010446390402182417   -0.016259925662714243   -0.00020191468055435967
-0.005645355808896944   -0.024499962284967737   -0.00027769354764537954
-0.009990960555383153   -0.024483376772849563   -0.000379621609426829
-0.010446390402182417   -0.016259925662714243   -0.00020191468055435967
-0.009939430163481713   -0.02453632822494288   -0.000421065983457626
-0.005645355808896944   -0.024499962284967737   -0.00027769354764537954
-0.010446390402182417   -0.016259925662714243   -0.00020191468055435967
-0.006073531808866067   -0.016235517086354387   -7.34324964319441e-05
-0.006010350280798227   -0.01631096285533776   -0.00011164257871026482
-0.005645355808896944   -0.024499962284967737   -0.00027769354764537954
-0.010446390402182417   -0.016259925662714243   -0.00020191468055435967
-0.006010350280798227   -0.01631096285533776   -0.00011164257871026482
-0.009939430163481713   -0.02453632822494288   -0.000421065983457626
-0.009833177191776116   -0.024655266275747805   -0.000491908834257468
-0.01028397280943783   -0.0164504273453412   -0.00029987605556955566
-0.014271766788812543   -0.024577353521659528   -0.000595311981585776
-0.009888083685972687   -0.0245936771625122   -0.0004585633468032878
-0.01028397280943783   -0.0164504273453412   -0.00029987605556955566
-0.014770029646897795   -0.016424804326270064   -0.00040254889719592717
-0.014271766788812543   -0.024577353521659528   -0.000595311981585776
-0.014823498973583569   -0.01637416602971993   -0.00037410971362471056
-0.009888083685972687   -0.0245936771625122   -0.0004585633468032878
-0.014324335465292609   -0.024530238032963912   -0.000553403232998905
-0.014823498973583569   -0.01637416602971993   -0.00037410971362471056
-0.014271766788812543   -0.024577353521659528   -0.000595311981585776
-0.009888083685972687   -0.0245936771625122   -0.0004585633468032878
-0.014823498973583569   -0.01637416602971993   -0.00037410971362471056
-0.010340061446202451   -0.016388147315098283   -0.000269906899085905
-0.01028397280943783   -0.0164504273453412   -0.00029987605556955566
-0.009888083685972687   -0.0245936771625122   -0.0004585633468032878
-0.014823498973583569   -0.01637416602971993   -0.00037410971362471056
-0.01028397280943783   -0.0164504273453412   -0.00029987605556955566
-0.014271766788812543   -0.024577353521659528   -0.000595311981585776
-0.009888083685972687   -0.0245936771625122   -0.0004585633468032878
-0.010340061446202451   -0.016388147315098283   -0.000269906899085905
-0.014324335465292609   -0.024530238032963912   -0.000553403232998905
-0.009939430163481713   -0.02453632822494288   -0.000421065983457626
-0.010340061446202451   -0.016388147315098283   -0.000269906899085905
-0.014823498973583569   -0.01637416602971993   -0.00037410971362471056
-0.014324335465292609   -0.024530238032963912   -0.000553403232998905
-0.01486876786900298   -0.016320760123257276   -0.0003437202037194018
-0.009939430163481713   -0.02453632822494288   -0.000421065983457626
-0.014364124931813821   -0.024485772218477968   -0.0005080241195521773
-0.01486876786900298   -0.016320760123257276   -0.0003437202037194018
-0.014324335465292609   -0.024530238032963912   -0.000553403232998905
-0.009939430163481713   -0.02453632822494288   -0.000421065983457626
-0.01486876786900298   -0.016320760123257276   -0.0003437202037194018
-0.010393493770506223   -0.016324768704197853   -0.0002372022533550001
-0.010340061446202451   -0.016388147315098283   -0.000269906899085905
-0.009939430163481713   -0.02453632822494288   -0.000421065983457626
-0.01486876786900298   -0.016320760123257276   -0.0003437202037194018
-0.010340061446202451   -0.016388147315098283   -0.000269906899085905
-0.014324335465292609   -0.024530238032963912   -0.000553403232998905
-0.009939430163481713   -0.02453632822494288   -0.000421065983457626
-0.010393493770506223   -0.016324768704197853   -0.0002372022533550001
-0.014364124931813821   -0.024485772218477968   -0.0005080241195521773
-0.009990960555383153   -0.024483376772849563   -0.000379621609426829
-0.010393493770506223   -0.016324768704197853   -0.0002372022533550001
-0.01486876786900298   -0.016320760123257276   -0.0003437202037194018
-0.014364124931813821   -0.024485772218477968   -0.0005080241195521773
-0.01491155157846934   -0.016265972899836608   -0.0003105383194456058
-0.009990960555383153   -0.024483376772849563   -0.000379621609426829
-0.01440361951108553   -0.02444595223695746   -0.0004582724517241241
-0.01491155157846934   -0.016265972899836608   -0.0003105383194456058
-0.014364124931813821   -0.024485772218477968   -0.0005080241195521773
-0.009990960555383153   -0.024483376772849563   -0.000379621609426829
-0.01491155157846934   -0.016265972899836608   -0.0003105383194456058
-0.010446390402182417   -0.016259925662714243   -0.00020191468055435967
-0.010393493770506223   -0.016324768704197853   -0.0002372022533550001
-0.009990960555383153   -0.024483376772849563   -0.000379621609426829
-0.01491155157846934   -0.016265972899836608   -0.0003105383194456058
-0.010393493770506223   -0.016324768704197853   -0.0002372022533550001
-0.014364124931813821   -0.024485772218477968   -0.0005080241195521773
-0.014271766788812543   -0.024577353521659528   -0.000595311981585776
-0.014770029646897795   -0.016424804326270064   -0.00040254889719592717
-0.01897667363825887   -0.02448516686695537   -0.0006718417516289155
-0.014324335465292609   -0.024530238032963912   -0.000553403232998905
-0.014770029646897795   -0.016424804326270064   -0.00040254889719592717
-0.019469944862409612   -0.01638248881842364   -0.0004782428209315708
-0.01897667363825887   -0.02448516686695537   -0.0006718417516289155
-0.0195029867923663   -0.016340100008293418   -0.00045679769477031094
-0.014324335465292609   -0.024530238032963912   -0.000553403232998905
-0.018984344709775416   -0.024447680506243092   -0.0006254259254081598
-0.0195029867923663   -0.016340100008293418   -0.00045679769477031094
-0.01897667363825887   -0.02448516686695537   -0.0006718417516289155
-0.014324335465292609   -0.024530238032963912   -0.000553403232998905
-0.0195029867923663   -0.016340100008293418   -0.00045679769477031094
-0.014823498973583569   -0.01637416602971993   -0.00037410971362471056
-0.014770029646897795   -0.016424804326270064   -0.00040254889719592717
-0.014324335465292609   -0.024530238032963912   -0.000553403232998905
-0.0195029867923663   -0.016340100008293418   -0.00045679769477031094
-0.014770029646897795   -0.016424804326270064   -0.00040254889719592717
-0.01897667363825887   -0.02448516686695537   -0.0006718417516289155
-0.014324335465292609   -0.024530238032963912   -0.000553403232998905
-0.014823498973583569   -0.01637416602971993   -0.00037410971362471056
-0.018984344709775416   -0.024447680506243092   -0.0006254259254081598
-0.014364124931813821   -0.024485772218477968   -0.0005080241195521773
-0.014823498973583569   -0.01637416602971993   -0.00037410971362471056
-0.0195029867923663   -0.016340100008293418   -0.00045679769477031094
-0.018984344709775416   -0.024447680506243092   -0.0006254259254081598
-0.019533199957294974   -0.016292085561184957   -0.00043058394635025517
-0.014364124931813821   -0.024485772218477968   -0.0005080241195521773
-0.018992288967381643   -0.024409833343030124   -0.0005720268618097998
-0.019533199957294974   -0.016292085561184957   -0.00043058394635025517
-0.018984344709775416   -0.024447680506243092   -0.0006254259254081598
-0.014364124931813821   -0.024485772218477968   -0.0005080241195521773
-0.019533199957294974   -0.016292085561184957   -0.00043058394635025517
-0.01486876786900298   -0.016320760123257276   -0.0003437202037194018
-0.014823498973583569   -0.01637416602971993   -0.00037410971362471056
-0.014364124931813821   -0.024485772218477968   -0.0005080241195521773
-0.019533199957294974   -0.016292085561184957   -0.00043058394635025517
-0.014823498973583569   -0.01637416602971993   -0.00037410971362471056
-0.018984344709775416   -0.024447680506243092   -0.0006254259254081598
-0.014364124931813821   -0.024485772218477968   -0.0005080241195521773
-0.01486876786900298   -0.016320760123257276   -0.0003437202037194018
-0.018992288967381643   -0.024409833343030124   -0.0005720268618097998
-0.01440361951108553   -0.02444595223695746   -0.0004582724517241241
-0.01486876786900298   -0.016320760123257276   -0.0003437202037194018
-0.019533199957294974   -0.016292085561184957   -0.00043058394635025517
-0.018992288967381643   -0.024409833343030124   -0.0005720268618097998
-0.019547629849312666   -0.016248173160473427   -0.0004007848132083957
-0.01440361951108553   -0.02444595223695746   -0.0004582724517241241
-0.01897367766145852   -0.02438523947543813   -0.0005124706890640731
-0.019547629849312666   -0.016248173160473427   -0.0004007848132083957
-0.018992288967381643   -0.024409833343030124   -0.0005720268618097998
-0.01440361951108553   -0.02444595223695746   -0.0004582724517241241
-0.019547629849312666   -0.016248173160473427   -0.0004007848132083957
-0.01491155157846934   -0.016265972899836608   -0.0003105383194456058
-0.01486876786900298   -0.016320760123257276   -0.0003437202037194018
-0.01440361951108553   -0.02444595223695746   -0.0004582724517241241
-0.019547629849312666   -0.016248173160473427   -0.0004007848132083957
-0.01486876786900298   -0.016320760123257276   -0.0003437202037194018
-0.018992288967381643   -0.024409833343030124   -0.0005720268618097998
0.0032623455904977434   -0.016553530225396667   9.885067941126767e-05
0.0022877392986762964   -0.00831684019267762   0.00010644233229027217
-0.0014521445196407966   -0.016476083098070526   -4.190544016676466e-05
0.003160498283526566   -0.016454952682788338   0.0001404842272065076
0.0022877392986762964   -0.00831684019267762   0.00010644233229027217
-0.002110984301754115   -0.008209664300382143   5.5223314817947105e-05
-0.0014521445196407966   -0.016476083098070526   -4.190544016676466e-05
-0.0021755214481738302   -0.00816880268038313   0.0001020252783248488
0.003160498283526566   -0.016454952682788338   0.0001404842272065076
-0.00151693742716376   -0.01639449202550895   -8.314682010413272e-06
-0.0021755214481738302   -0.00816880268038313   0.0001020252783248488
-0.0014521445196407966   -0.016476083098070526   -4.190544016676466e-05
0.003160498283526566   -0.016454952682788338   0.0001404842272065076
-0.0021755214481738302   -0.00816880268038313   0.0001020252783248488
0.0020864886747129427   -0.008211973905438178   0.00022217148719154244
0.0022877392986762964   -0.00831684019267762   0.00010644233229027217
0.003160498283526566   -0.016454952682788338   0.0001404842272065076
-0.0021755214481738302   -0.00816880268038313   0.0001020252783248488
0.0022877392986762964   -0.00831684019267762   0.00010644233229027217
-0.0014521445196407966   -0.016476083098070526   -4.190544016676466e-05
0.003160498283526566   -0.016454952682788338   0.0001404842272065076
0.0020864886747129427   -0.008211973905438178   0.00022217148719154244
-0.00151693742716376   -0.01639449202550895   -8.314682010413272e-06
0.0030466312818639737   -0.016357160045284726   0.00020044237682064416
0.0020864886747129427   -0.008211973905438178   0.00022217148719154244
-0.0021755214481738302   -0.00816880268038313   0.0001020252783248488
-0.00151693742716376   -0.01639449202550895   -8.314682010413272e-06
-0.0022604850020457442   -0.008095538866227173   0.00015889811511874305
0.0030466312818639737   -0.016357160045284726   0.00020044237682064416
-0.0015927669614853792   -0.016308423796245433   3.127866822088568e-05
-0.0022604850020457442   -0.008095538866227173   0.00015889811511874305
-0.00151693742716376   -0.01639449202550895   -8.314682010413272e-06
0.0030466312818639737   -0.016357160045284726   0.00020044237682064416
-0.0022604850020457442   -0.008095538866227173   0.00015889811511874305
0.0019687056434415156   -0.008126430172182869   0.00030845497290775544
0.0020864886747129427   -0.008211973905438178   0.00022217148719154244
0.0030466312818639737   -0.016357160045284726   0.00020044237682064416
-0.0022604850020457442   -0.008095538866227173   0.00015889811511874305
0.0020864886747129427   -0.008211973905438178   0.00022217148719154244
-0.00151693742716376   -0.01639449202550895   -8.314682010413272e-06
0.0030466312818639737   -0.016357160045284726   0.00020044237682064416
0.0019687056434415156   -0.008126430172182869   0.00030845497290775544
-0.0015927669614853792   -0.016308423796245433   3.127866822088568e-05
0.0029074836208409405   -0.016236986629436456   0.00026644594332319454
0.0019687056434415156   -0.008126430172182869   0.00030845497290775544
-0.0022604850020457442   -0.008095538866227173   0.00015889811511874305
-0.0015927669614853792   -0.016308423796245433   3.127866822088568e-05
-0.0023319808885380365   -0.008016852423561803   0.00020895382228150702
0.0029074836208409405   -0.016236986629436456   0.00026644594332319454
-0.0016712427139959182   -0.016217077506951533   7.679978328296965e-05
-0.0023319808885380365   -0.008016852423561803   0.00020895382228150702
-0.0015927669614853792   -0.016308423796245433   3.127866822088568e-05
0.0029074836208409405   -0.016236986629436456   0.00026644594332319454
-0.0023319808885380365   -0.008016852423561803   0.00020895382228150702
0.001817657219909784   -0.00799547014784338   0.00040729091372660353
0.0019687056434415156   -0.008126430172182869   0.00030845497290775544
0.0029074836208409405   -0.016236986629436456   0.00026644594332319454
-0.0023319808885380365   -0.008016852423561803   0.00020895382228150702
0.0019687056434415156   -0.008126430172182869   0.00030845497290775544
-0.0015927669614853792   -0.016308423796245433   3.127866822088568e-05
-0.0014521445196407966   -0.016476083098070526   -4.190544016676466e-05
-0.002110984301754115   -0.008209664300382143   5.5223314817947105e-05
-0.005891042452563362   -0.016456024868271673   -0.00017744519611190846
-0.00151693742716376   -0.01639449202550895   -8.314682010413272e-06
-0.002110984301754115   -0.008209664300382143   5.5223314817947105e-05
-0.0062957174803858155   -0.0083314817353383   -5.2281410608571405e-05
-0.005891042452563362   -0.016456024868271673   -0.00017744519611190846
-0.0063552711733211266   -0.008268649331299279   -1.907697460459997e-05
-0.00151693742716376   -0.01639449202550895   -8.314682010413272e-06
-0.00594967798664912   -0.0163849142005865   -0.00014610651221494484
-0.0063552711733211266   -0.008268649331299279   -1.907697460459997e-05
-0.005891042452563362   -0.016456024868271673   -0.00017744519611190846
-0.00151693742716376   -0.01639449202550895   -8.314682010413272e-06
-0.0063552711733211266   -0.008268649331299279   -1.907697460459997e-05
-0.0021755214481738302   -0.00816880268038313   0.0001020252783248488
-0.002110984301754115   -0.008209664300382143   5.5223314817947105e-05
-0.00151693742716376   -0.01639449202550895   -8.314682010413272e-06
-0.0063552711733211266   -0.008268649331299279   -1.907697460459997e-05
-0.002110984301754115   -0.008209664300382143   5.5223314817947105e-05
-0.005891042452563362   -0.016456024868271673   -0.00017744519611190846
-0.00151693742716376   -0.01639449202550895   -8.314682010413272e-06
-0.0021755214481738302   -0.00816880268038313   0.0001020252783248488
-0.00594967798664912   -0.0163849142005865   -0.00014610651221494484
-0.0015927669614853792   -0.016308423796245433   3.127866822088568e-05
-0.0021755214481738302   -0.00816880268038313   0.0001020252783248488
-0.0063552711733211266   -0.008268649331299279   -1.907697460459997e-05
-0.00594967798664912   -0.0163849142005865   -0.00014610651221494484
-0.00641767752469065   -0.008197616437053457   1.609895234794245e-05
-0.0015927669614853792   -0.016308423796245433   3.127866822088568e-05
-0.006010350280798227   -0.01631096285533776   -0.00011164257871026482
-0.00641767752469065   -0.008197616437053457   1.609895234794245e-05
-0.00594967798664912   -0.0163849142005865   -0.00014610651221494484
-0.0015927669614853792   -0.016308423796245433   3.127866822088568e-05
-0.00641767752469065   -0.008197616437053457   1.609895234794245e-05
-0.0022604850020457442   -0.008095538866227173   0.00015889811511874305
-0.0021755214481738302   -0.00816880268038313   0.0001020252783248488
-0.0015927669614853792   -0.016308423796245433   3.127866822088568e-05
-0.00641767752469065   -0.008197616437053457   1.609895234794245e-05
-0.0021755214481738302   -0.00816880268038313   0.0001020252783248488
-0.00594967798664912   -0.0163849142005865   -0.00014610651221494484
-0.0015927669614853792   -0.016308423796245433   3.127866822088568e-05
-0.0022604850020457442   -0.008095538866227173   0.00015889811511874305
-0.006010350280798227   -0.01631096285533776   -0.00011164257871026482
-0.0016712427139959182   -0.016217077506951533   7.679978328296965e-05
-0.0022604850020457442   -0.008095538866227173   0.00015889811511874305
-0.00641767752469065   -0.008197616437053457   1.609895234794245e-05
-0.006010350280798227   -0.01631096285533776   -0.00011164257871026482
-0.006477052072305432   -0.008119763368127482   5.491341092363241e-05
-0.0016712427139959182   -0.016217077506951533   7.679978328296965e-05
-0.006073531808866067   -0.016235517086354387   -7.34324964319441e-05
-0.006477052072305432   -0.008119763368127482   5.491341092363241e-05
-0.006010350280798227   -0.01631096285533776   -0.00011164257871026482
-0.0016712427139959182   -0.016217077506951533   7.679978328296965e-05
-0.006477052072305432   -0.008119763368127482   5.491341092363241e-05
-0.0023319808885380365   -0.008016852423561803   0.00020895382228150702
-0.0022604850020457442   -0.008095538866227173   0.00015889811511874305
-0.0016712427139959182   -0.016217077506951533   7.679978328296965e-05
-0.006477052072305432   -0.008119763368127482   5.491341092363241e-05
-0.0022604850020457442   -0.008095538866227173   0.00015889811511874305
-0.006010350280798227   -0.01631096285533776   -0.00011164257871026482
-0.005891042452563362   -0.016456024868271673   -0.00017744519611190846
-0.0062957174803858155   -0.0083314817353383   -5.2281410608571405e-05
-0.01028397280943783   -0.0164504273453412   -0.00029987605556955566
-0.00594967798664912   -0.0163849142005865   -0.00014610651221494484
-0.0062957174803858155   -0.0083314817353383   -5.2281410608571405e-05
-0.010582290329440656   -0.00842665587609057   -0.0001716550519452669
-0.01028397280943783   -0.0164504273453412   -0.00029987605556955566
-0.01063583464322858   -0.00836212190689732   -0.00014588272096894257
-0.00594967798664912   -0.0163849142005865   -0.00014610651221494484
-0.010340061446202451   -0.016388147315098283   -0.000269906899085905
-0.01063583464322858   -0.00836212190689732   -0.00014588272096894257
-0.01028397280943783   -0.0164504273453412   -0.00029987605556955566
-0.00594967798664912   -0.0163849142005865   -0.00014610651221494484
-0.01063583464322858   -0.00836212190689732   -0.00014588272096894257
-0.0063552711733211266   -0.008268649331299279   -1.907697460459997e-05
-0.0062957174803858155   -0.0083314817353383   -5.2281410608571405e-05
-0.00594967798664912   -0.0163849142005865   -0.00014610651221494484
-0.01063583464322858   -0.00836212190689732   -0.00014588272096894257
-0.0062957174803858155   -0.0083314817353383   -5.2281410608571405e-05
-0.01028397280943783   -0.0164504273453412   -0.00029987605556955566
-0.00594967798664912   -0.0163849142005865   -0.00014610651221494484
-0.0063552711733211266   -0.008268649331299279   -1.907697460459997e-05
-0.010340061446202451   -0.016388147315098283   -0.000269906899085905
-0.006010350280798227   -0.01631096285533776   -0.00011164257871026482
-0.0063552711733211266   -0.008268649331299279   -1.907697460459997e-05
-0.01063583464322858   -0.00836212190689732   -0.00014588272096894257
-0.010340061446202451   -0.016388147315098283   -0.000269906899085905
-0.010687125303899389   -0.00829392379060446   -0.00012016942391506999
-0.006010350280798227   -0.01631096285533776   -0.00011164257871026482
-0.010393493770506223   -0.016324768704197853   -0.0002372022533550001
-0.010687125303899389   -0.00829392379060446   -0.00012016942391506999
-0.010340061446202451   -0.016388147315098283   -0.000269906899085905
-0.006010350280798227   -0.01631096285533776   -0.00011164257871026482
-0.010687125303899389   -0.00829392379060446   -0.00012016942391506999
-0.00641767752469065   -0.008197616437053457   1.609895234794245e-05
-0.0063552711733211266   -0.008268649331299279   -1.907697460459997e-05
-0.006010350280798227   -0.01631096285533776   -0.00011164257871026482
-0.010687125303899389   -0.00829392379060446   -0.00012016942391506999
-0.0063552711733211266   -0.008268649331299279   -1.907697460459997e-05
-0.010340061446202451   -0.016388147315098283   -0.000269906899085905
-0.006010350280798227   -0.01631096285533776   -0.00011164257871026482
-0.00641767752469065   -0.008197616437053457   1.609895234794245e-05
-0.010393493770506223   -0.016324768704197853   -0.0002372022533550001
-0.006073531808866067   -0.016235517086354387   -7.34324964319441e-05
-0.00641767752469065   -0.008197616437053457   1.609895234794245e-05
-0.010687125303899389   -0.00829392379060446   -0.00012016942391506999
-0.010393493770506223   -0.016324768704197853   -0.0002372022533550001
-0.010734434515354763   -0.0082200549792903   -9.214918171244476e-05
-0.006073531808866067   -0.016235517086354387   -7.34324964319441e-05
-0.010446390402182417   -0.016259925662714243   -0.00020191468055435967
-0.010734434515354763   -0.0082200549792903   -9.214918171244476e-05
-0.010393493770506223   -0.016324768704197853   -0.0002372022533550001
-0.006073531808866067   -0.016235517086354387   -7.34324964319441e-05
-0.010734434515354763   -0.0082200549792903   -9.214918171244476e-05
-0.006477052072305432   -0.008119763368127482   5.491341092363241e-05
-0.00641767752469065   -0.008197616437053457   1.609895234794245e-05
-0.006073531808866067   -0.016235517086354387   -7.34324964319441e-05
-0.010734434515354763   -0.0082200549792903   -9.214918171244476e-05
-0.00641767752469065   -0.008197616437053457   1.609895234794245e-05
-0.010393493770506223   -0.016324768704197853   -0.0002372022533550001
-0.01028397280943783   -0.0164504273453412   -0.00029987605556955566
-0.010582290329440656   -0.00842665587609057   -0.0001716550519452669
-0.014770029646897795   -0.016424804326270064   -0.00040254889719592717
-0.010340061446202451   -0.016388147315098283   -0.000269906899085905
-0.010582290329440656   -0.00842665587609057   -0.0001716550519452669
-0.015019455856845474   -0.008465745371903505   -0.00028180692940216266
-0.014770029646897795   -0.016424804326270064   -0.00040254889719592717
-0.015067707163757943   -0.008407845884501488   -0.0002629858420210161
-0.010340061446202451   -0.016388147315098283   -0.000269906899085905
-0.014823498973583569   -0.01637416602971993   -0.00037410971362471056
-0.015067707163757943   -0.008407845884501488   -0.0002629858420210161
-0.014770029646897795   -0.016424804326270064   -0.00040254889719592717
-0.010340061446202451   -0.016388147315098283   -0.000269906899085905
-0.015067707163757943   -0.008407845884501488   -0.0002629858420210161
-0.01063583464322858   -0.00836212190689732   -0.00014588272096894257
-0.010582290329440656   -0.00842665587609057   -0.0001716550519452669
-0.010340061446202451   -0.016388147315098283   -0.000269906899085905
-0.015067707163757943   -0.008407845884501488   -0.0002629858420210161
-0.010582290329440656   -0.00842665587609057   -0.0001716550519452669
-0.014770029646897795   -0.016424804326270064   -0.00040254889719592717
-0.010340061446202451   -0.016388147315098283   -0.000269906899085905
-0.01063583464322858   -0.00836212190689732   -0.00014588272096894257
-0.014823498973583569   -0.01637416602971993   -0.00037410971362471056
-0.010393493770506223   -0.016324768704197853   -0.0002372022533550001
-0.01063583464322858   -0.00836212190689732   -0.00014588272096894257
-0.015067707163757943   -0.008407845884501488   -0.0002629858420210161
-0.014823498973583569   -0.01637416602971993   -0.00037410971362471056
-0.01511070675435014   -0.008344731952304877   -0.0002446789248766653
-0.010393493770506223   -0.016324768704197853   -0.0002372022533550001
-0.01486876786900298   -0.016320760123257276   -0.0003437202037194018
-0.01511070675435014   -0.008344731952304877   -0.0002446789248766653
-0.014823498973583569   -0.01637416602971993   -0.00037410971362471056
-0.010393493770506223   -0.016324768704197853   -0.0002372022533550001
-0.01511070675435014   -0.008344731952304877   -0.0002446789248766653
-0.010687125303899389   -0.00829392379060446   -0.00012016942391506999
-0.01063583464322858   -0.00836212190689732   -0.00014588272096894257
-0.010393493770506223   -0.016324768704197853   -0.0002372022533550001
-0.01511070675435014   -0.008344731952304877   -0.0002446789248766653
-0.01063583464322858   -0.00836212190689732   -0.00014588272096894257
-0.014823498973583569   -0.01637416602971993   -0.00037410971362471056
-0.010393493770506223   -0.016324768704197853   -0.0002372022533550001
-0.010687125303899389   -0.00829392379060446   -0.00012016942391506999
-0.01486876786900298   -0.016320760123257276   -0.0003437202037194018
-0.010446390402182417   -0.016259925662714243   -0.00020191468055435967
-0.010687125303899389   -0.00829392379060446   -0.00012016942391506999
-0.01511070675435014   -0.008344731952304877   -0.0002446789248766653
-0.01486876786900298   -0.016320760123257276   -0.0003437202037194018
-0.015149653503311763   -0.008277522588816802   -0.00022580226528270606
-0.010446390402182417   -0.016259925662714243   -0.00020191468055435967
-0.01491155157846934   -0.016265972899836608   -0.0003105383194456058
-0.015149653503311763   -0.008277522588816802   -0.00022580226528270606
-0.01486876786900298   -0.016320760123257276   -0.0003437202037194018
-0.010446390402182417   -0.016259925662714243   -0.00020191468055435967
-0.015149653503311763   -0.008277522588816802   -0.00022580226528270606
-0.010734434515354763   -0.0082200549792903   -9.214918171244476e-05
-0.010687125303899389   -0.00829392379060446   -0.00012016942391506999
-0.010446390402182417   -0.016259925662714243   -0.00020191468055435967
-0.015149653503311763   -0.008277522588816802   -0.00022580226528270606
-0.010687125303899389   -0.00829392379060446   -0.00012016942391506999
-0.01486876786900298   -0.016320760123257276   -0.0003437202037194018
-0.014770029646897795   -0.016424804326270064   -0.00040254889719592717
-0.015019455856845474   -0.008465745371903505   -0.00028180692940216266
-0.019469944862409612   -0.01638248881842364   -0.0004782428209315708
-0.014823498973583569   -0.01637416602971993   -0.00037410971362471056
-0.015019455856845474   -0.008465745371903505   -0.00028180692940216266
-0.019615289385001684   -0.008470061378212733   -0.0003730815511647767
-0.019469944862409612   -0.01638248881842364   -0.0004782428209315708
-0.01965669620134154   -0.008413887826706025   -0.00036493695583947767
-0.014823498973583569   -0.01637416602971993   -0.00037410971362471056
-0.0195029867923663   -0.016340100008293418   -0.00045679769477031094
-0.01965669620134154   -0.008413887826706025   -0.00036493695583947767
-0.019469944862409612   -0.01638248881842364   -0.0004782428209315708
-0.014823498973583569   -0.01637416602971993   -0.00037410971362471056
-0.01965669620134154   -0.008413887826706025   -0.00036493695583947767
-0.015067707163757943   -0.008407845884501488   -0.0002629858420210161
-0.015019455856845474   -0.008465745371903505   -0.00028180692940216266
-0.014823498973583569   -0.01637416602971993   -0.00037410971362471056
-0.01965669620134154   -0.008413887826706025   -0.00036493695583947767
-0.015019455856845474   -0.008465745371903505   -0.00028180692940216266
-0.019469944862409612   -0.01638248881842364   -0.0004782428209315708
-0.014823498973583569   -0.01637416602971993   -0.00037410971362471056
-0.015067707163757943   -0.008407845884501488   -0.0002629858420210161
-0.0195029867923663   -0.016340100008293418   -0.00045679769477031094
-0.01486876786900298   -0.016320760123257276   -0.0003437202037194018
-0.015067707163757943   -0.008407845884501488   -0.0002629858420210161
-0.01965669620134154   -0.008413887826706025   -0.00036493695583947767
-0.0195029867923663   -0.016340100008293418   -0.00045679769477031094
-0.019693793146026962   -0.008353102266933232   -0.000355399489461056
-0.01486876786900298   -0.016320760123257276   -0.0003437202037194018
-0.019533199957294974   -0.016292085561184957   -0.00043058394635025517
-0.019693793146026962   -0.008353102266933232   -0.000355399489461056
-0.0195029867923663   -0.016340100008293418   -0.00045679769477031094
-0.01486876786900298   -0.016320760123257276   -0.0003437202037194018
-0.019693793146026962   -0.008353102266933232   -0.000355399489461056
-0.01511070675435014   -0.008344731952304877   -0.0002446789248766653
-0.015067707163757943   -0.008407845884501488   -0.0002629858420210161
-0.01486876786900298   -0.016320760123257276   -0.0003437202037194018
-0.019693793146026962   -0.008353102266933232   -0.000355399489461056
-0.015067707163757943   -0.008407845884501488   -0.0002629858420210161
-0.0195029867923663   -0.016340100008293418   -0.00045679769477031094
-0.01486876786900298   -0.016320760123257276   -0.0003437202037194018
-0.01511070675435014   -0.008344731952304877   -0.0002446789248766653
-0.019533199957294974   -0.016292085561184957   -0.00043058394635025517
-0.01491155157846934   -0.016265972899836608   -0.0003105383194456058
-0.01511070675435014   -0.008344731952304877   -0.0002446789248766653
-0.019693793146026962   -0.008353102266933232   -0.000355399489461056
-0.019533199957294974   -0.016292085561184957   -0.00043058394635025517
-0.019724923413422975   -0.008288745803794495   -0.0003464883204929206
-0.01491155157846934   -0.016265972899836608   -0.0003105383194456058
-0.019547629849312666   -0.016248173160473427   -0.0004007848132083957
-0.019724923413422975   -0.008288745803794495   -0.0003464883204929206
-0.019533199957294974   -0.016292085561184957   -0.00043058394635025517
-0.01491155157846934   -0.016265972899836608   -0.0003105383194456058
-0.019724923413422975   -0.008288745803794495   -0.0003464883204929206
-0.015149653503311763   -0.008277522588816802   -0.00022580226528270606
-0.01511070675435014   -0.008344731952304877   -0.0002446789248766653
-0.01491155157846934   -0.016265972899836608   -0.0003105383194456058
-0.019724923413422975   -0.008288745803794495   -0.0003464883204929206
-0.01511070675435014   -0.008344731952304877   -0.0002446789248766653
-0.019533199957294974   -0.016292085561184957   -0.00043058394635025517
0.0022877392986762964   -0.00831684019267762   0.00010644233229027217
0.0   0.0   0.0
-0.002110984301754115   -0.008209664300382143   5.5223314817947105e-05
0.0020864886747129427   -0.008211973905438178   0.00022217148719154244
0.0   0.0   0.0
-0.002648199758959757   -0.0006746238844861285   -2.1560378964341624e-05
-0.002110984301754115   -0.008209664300382143   5.5223314817947105e-05
-0.002806490912577984   -0.0005249366089721694   6.998609818234718e-05
0.0020864886747129427   -0.008211973905438178   0.00022217148719154244
-0.0021755214481738302   -0.00816880268038313   0.0001020252783248488
-0.002806490912577984   -0.0005249366089721694   6.998609818234718e-05
-0.002110984301754115   -0.008209664300382143   5.5223314817947105e-05
0.0020864886747129427   -0.008211973905438178   0.00022217148719154244
-0.002806490912577984   -0.0005249366089721694   6.998609818234718e-05
0.0   0.0   0.0
0.0   0.0   0.0
0.0020864886747129427   -0.008211973905438178   0.00022217148719154244
-0.002806490912577984   -0.0005249366089721694   6.998609818234718e-05
0.0   0.0   0.0
-0.002110984301754115   -0.008209664300382143   5.5223314817947105e-05
0.0020864886747129427   -0.008211973905438178   0.00022217148719154244
0.0   0.0   0.0
-0.0021755214481738302   -0.00816880268038313   0.0001020252783248488
0.0019687056434415156   -0.008126430172182869   0.00030845497290775544
0.0   0.0   0.0
-0.002806490912577984   -0.0005249366089721694   6.998609818234718e-05
-0.0021755214481738302   -0.00816880268038313   0.0001020252783248488
-0.0029059297180656007   -0.00045288712075743044   0.00012293859549833771
0.0019687056434415156   -0.008126430172182869   0.00030845497290775544
-0.0022604850020457442   -0.008095538866227173   0.00015889811511874305
-0.0029059297180656007   -0.00045288712075743044   0.00012293859549833771
-0.0021755214481738302   -0.00816880268038313   0.0001020252783248488
0.0019687056434415156   -0.008126430172182869   0.00030845497290775544
-0.0029059297180656007   -0.00045288712075743044   0.00012293859549833771
0.0   0.0   0.0
0.0   0.0   0.0
0.0019687056434415156   -0.008126430172182869   0.00030845497290775544
-0.0029059297180656007   -0.00045288712075743044   0.00012293859549833771
0.0   0.0   0.0
-0.0021755214481738302   -0.00816880268038313   0.0001020252783248488
0.0019687056434415156   -0.008126430172182869   0.00030845497290775544
0.0   0.0   0.0
-0.0022604850020457442   -0.008095538866227173   0.00015889811511874305
0.001817657219909784   -0.00799547014784338   0.00040729091372660353
0.0   0.0   0.0
-0.0029059297180656007   -0.00045288712075743044   0.00012293859549833771
-0.0022604850020457442   -0.008095538866227173   0.00015889811511874305
-0.0030394177858227333   -0.00035715577253298214   0.0001837397371792864
0.001817657219909784   -0.00799547014784338   0.00040729091372660353
-0.0023319808885380365   -0.008016852423561803   0.00020895382228150702
-0.0030394177858227333   -0.00035715577253298214   0.0001837397371792864
-0.0022604850020457442   -0.008095538866227173   0.00015889811511874305
0.001817657219909784   -0.00799547014784338   0.00040729091372660353
-0.0030394177858227333   -0.00035715577253298214   0.0001837397371792864
0.0   0.0   0.0
0.0   0.0   0.0
0.001817657219909784   -0.00799547014784338   0.00040729091372660353
-0.0030394177858227333   -0.00035715577253298214   0.0001837397371792864
0.0   0.0   0.0
-0.0022604850020457442   -0.008095538866227173   0.00015889811511874305
-0.002110984301754115   -0.008209664300382143   5.5223314817947105e-05
-0.002648199758959757   -0.0006746238844861285   -2.1560378964341624e-05
-0.0062957174803858155   -0.0083314817353383   -5.2281410608571405e-05
-0.0021755214481738302   -0.00816880268038313   0.0001020252783248488
-0.002648199758959757   -0.0006746238844861285   -2.1560378964341624e-05
-0.006482674067447095   -0.0008848270906868786   -1.9255628970297917e-05
-0.0062957174803858155   -0.0083314817353383   -5.2281410608571405e-05
-0.0065643652598101725   -0.0008031822968756747   4.346219535905964e-06
-0.0021755214481738302   -0.00816880268038313   0.0001020252783248488
-0.0063552711733211266   -0.008268649331299279   -1.907697460459997e-05
-0.0065643652598101725   -0.0008031822968756747   4.346219535905964e-06
-0.0062957174803858155   -0.0083314817353383   -5.2281410608571405e-05
-0.0021755214481738302   -0.00816880268038313   0.0001020252783248488
-0.0065643652598101725   -0.0008031822968756747   4.346219535905964e-06
-0.002806490912577984   -0.0005249366089721694   6.998609818234718e-05
-0.002648199758959757   -0.0006746238844861285   -2.1560378964341624e-05
-0.0021755214481738302   -0.00816880268038313   0.0001020252783248488
-0.0065643652598101725   -0.0008031822968756747   4.346219535905964e-06
-0.002648199758959757   -0.0006746238844861285   -2.1560378964341624e-05
-0.0062957174803858155   -0.0083314817353383   -5.2281410608571405e-05
-0.0021755214481738302   -0.00816880268038313   0.0001020252783248488
-0.002806490912577984   -0.0005249366089721694   6.998609818234718e-05
-0.0063552711733211266   -0.008268649331299279   -1.907697460459997e-05
-0.0022604850020457442   -0.008095538866227173   0.00015889811511874305
-0.002806490912577984   -0.0005249366089721694   6.998609818234718e-05
-0.0065643652598101725   -0.0008031822968756747   4.346219535905964e-06
-0.0063552711733211266   -0.008268649331299279   -1.907697460459997e-05
-0.006645756702893318   -0.0007076111387935821   4.652127322658371e-05
-0.0022604850020457442   -0.008095538866227173   0.00015889811511874305
-0.00641767752469065   -0.008197616437053457   1.609895234794245e-05
-0.006645756702893318   -0.0007076111387935821   4.652127322658371e-05
-0.0063552711733211266   -0.008268649331299279   -1.907697460459997e-05
-0.0022604850020457442   -0.008095538866227173   0.00015889811511874305
-0.006645756702893318   -0.0007076111387935821   4.652127322658371e-05
-0.0029059297180656007   -0.00045288712075743044   0.00012293859549833771
-0.002806490912577984   -0.0005249366089721694   6.998609818234718e-05
-0.0022604850020457442   -0.008095538866227173   0.00015889811511874305
-0.006645756702893318   -0.0007076111387935821   4.652127322658371e-05
-0.002806490912577984   -0.0005249366089721694   6.998609818234718e-05
-0.0063552711733211266   -0.008268649331299279   -1.907697460459997e-05
-0.0022604850020457442   -0.008095538866227173   0.00015889811511874305
-0.0029059297180656007   -0.00045288712075743044   0.00012293859549833771
-0.00641767752469065   -0.008197616437053457   1.609895234794245e-05
-0.0023319808885380365   -0.008016852423561803   0.00020895382228150702
-0.0029059297180656007   -0.00045288712075743044   0.00012293859549833771
-0.006645756702893318   -0.0007076111387935821   4.652127322658371e-05
-0.00641767752469065   -0.008197616437053457   1.609895234794245e-05
-0.006736054634819251   -0.0005970175668513128   8.696740655462595e-05
-0.0023319808885380365   -0.008016852423561803   0.00020895382228150702
-0.006477052072305432   -0.008119763368127482   5.491341092363241e-05
-0.006736054634819251   -0.0005970175668513128   8.696740655462595e-05
-0.00641767752469065   -0.008197616437053457   1.609895234794245e-05
-0.0023319808885380365   -0.008016852423561803   0.00020895382228150702
-0.006736054634819251   -0.0005970175668513128   8.696740655462595e-05
-0.0030394177858227333   -0.00035715577253298214   0.0001837397371792864
-0.0029059297180656007   -0.00045288712075743044   0.00012293859549833771
-0.0023319808885380365   -0.008016852423561803   0.00020895382228150702
-0.006736054634819251   -0.0005970175668513128   8.696740655462595e-05
-0.0029059297180656007   -0.00045288712075743044   0.00012293859549833771
-0.00641767752469065   -0.008197616437053457   1.609895234794245e-05
-0.0062957174803858155   -0.0083314817353383   -5.2281410608571405e-05
-0.006482674067447095   -0.0008848270906868786   -1.9255628970297917e-05
-0.010582290329440656   -0.00842665587609057   -0.0001716550519452669
-0.0063552711733211266   -0.008268649331299279   -1.907697460459997e-05
-0.006482674067447095   -0.0008848270906868786   -1.9255628970297917e-05
-0.010686708078786066   -0.0009441597900513478   -9.443378487374287e-05
-0.010582290329440656   -0.00842665587609057   -0.0001716550519452669
-0.010736329352310106   -0.0008806474214212388   -8.785703118695841e-05
-0.0063552711733211266   -0.008268649331299279   -1.907697460459997e-05
-0.01063583464322858   -0.00836212190689732   -0.00014588272096894257
-0.010736329352310106   -0.0008806474214212388   -8.785703118695841e-05
-0.010582290329440656   -0.00842665587609057   -0.0001716550519452669
-0.0063552711733211266   -0.008268649331299279   -1.907697460459997e-05
-0.010736329352310106   -0.0008806474214212388   -8.785703118695841e-05
-0.0065643652598101725   -0.0008031822968756747   4.346219535905964e-06
-0.006482674067447095   -0.0008848270906868786   -1.9255628970297917e-05
-0.0063552711733211266   -0.008268649331299279   -1.907697460459997e-05
-0.010736329352310106   -0.0008806474214212388   -8.785703118695841e-05
-0.006482674067447095   -0.0008848270906868786   -1.9255628970297917e-05
-0.010582290329440656   -0.00842665587609057   -0.0001716550519452669
-0.0063552711733211266   -0.008268649331299279   -1.907697460459997e-05
-0.0065643652598101725   -0.0008031822968756747   4.346219535905964e-06
-0.01063583464322858   -0.00836212190689732   -0.00014588272096894257
-0.00641767752469065   -0.008197616437053457   1.609895234794245e-05
-0.0065643652598101725   -0.0008031822968756747   4.346219535905964e-06
-0.010736329352310106   -0.0008806474214212388   -8.785703118695841e-05
-0.01063583464322858   -0.00836212190689732   -0.00014588272096894257
-0.010787936009297129   -0.0008068555849802328   -7.633749256423443e-05
-0.00641767752469065   -0.008197616437053457   1.609895234794245e-05
-0.010687125303899389   -0.00829392379060446   -0.00012016942391506999
-0.010787936009297129   -0.0008068555849802328   -7.633749256423443e-05
-0.01063583464322858   -0.00836212190689732   -0.00014588272096894257
-0.00641767752469065   -0.008197616437053457   1.609895234794245e-05
-0.010787936009297129   -0.0008068555849802328   -7.633749256423443e-05
-0.006645756702893318   -0.0007076111387935821   4.652127322658371e-05
-0.0065643652598101725   -0.0008031822968756747   4.346219535905964e-06
-0.00641767752469065   -0.008197616437053457   1.609895234794245e-05
-0.010787936009297129   -0.0008068555849802328   -7.633749256423443e-05
-0.0065643652598101725   -0.0008031822968756747   4.346219535905964e-06
-0.01063583464322858   -0.00836212190689732   -0.00014588272096894257
-0.00641767752469065   -0.008197616437053457   1.609895234794245e-05
-0.006645756702893318   -0.0007076111387935821   4.652127322658371e-05
-0.010687125303899389   -0.00829392379060446   -0.00012016942391506999
-0.006477052072305432   -0.008119763368127482   5.491341092363241e-05
-0.006645756702893318   -0.0007076111387935821   4.652127322658371e-05
-0.010787936009297129   -0.0008068555849802328   -7.633749256423443e-05
-0.010687125303899389   -0.00829392379060446   -0.00012016942391506999
-0.010837042466602373   -0.0007169471413377768   -6.109532976655847e-05
-0.006477052072305432   -0.008119763368127482   5.491341092363241e-05
-0.010734434515354763   -0.0082200549792903   -9.214918171244476e-05
-0.010837042466602373   -0.0007169471413377768   -6.109532976655847e-05
-0.010687125303899389   -0.00829392379060446   -0.00012016942391506999
-0.006477052072305432   -0.008119763368127482   5.491341092363241e-05
-0.010837042466602373   -0.0007169471413377768   -6.109532976655847e-05
-0.006736054634819251   -0.0005970175668513128   8.696740655462595e-05
-0.006645756702893318   -0.0007076111387935821   4.652127322658371e-05
-0.006477052072305432   -0.008119763368127482   5.491341092363241e-05
-0.010837042466602373   -0.0007169471413377768   -6.109532976655847e-05
-0.006645756702893318   -0.0007076111387935821   4.652127322658371e-05
-0.010687125303899389   -0.00829392379060446   -0.00012016942391506999
-0.010582290329440656   -0.00842665587609057   -0.0001716550519452669
-0.010686708078786066   -0.0009441597900513478   -9.443378487374287e-05
-0.015019455856845474   -0.008465745371903505   -0.00028180692940216266
-0.01063583464322858   -0.00836212190689732   -0.00014588272096894257
-0.010686708078786066   -0.0009441597900513478   -9.443378487374287e-05
-0.015097271902444588   -0.000934641780818362   -0.00020295510764858782
-0.015019455856845474   -0.008465745371903505   -0.00028180692940216266
-0.015130801465076794   -0.0008776833552019268   -0.0002001334707646909
-0.01063583464322858   -0.00836212190689732   -0.00014588272096894257
-0.015067707163757943   -0.008407845884501488   -0.0002629858420210161
-0.015130801465076794   -0.0008776833552019268   -0.0002001334707646909
-0.015019455856845474   -0.008465745371903505   -0.00028180692940216266
-0.01063583464322858   -0.00836212190689732   -0.00014588272096894257
-0.015130801465076794   -0.0008776833552019268   -0.0002001334707646909
-0.010736329352310106   -0.0008806474214212388   -8.785703118695841e-05
-0.010686708078786066   -0.0009441597900513478   -9.443378487374287e-05
-0.01063583464322858   -0.00836212190689732   -0.00014588272096894257
-0.015130801465076794   -0.0008776833552019268   -0.0002001334707646909
-0.010686708078786066   -0.0009441597900513478   -9.443378487374287e-05
-0.015019455856845474   -0.008465745371903505   -0.00028180692940216266
-0.01063583464322858   -0.00836212190689732   -0.00014588272096894257
-0.010736329352310106   -0.0008806474214212388   -8.785703118695841e-05
-0.015067707163757943   -0.008407845884501488   -0.0002629858420210161
-0.010687125303899389   -0.00829392379060446   -0.00012016942391506999
-0.010736329352310106   -0.0008806474214212388   -8.785703118695841e-05
-0.015130801465076794   -0.0008776833552019268   -0.0002001334707646909
-0.015067707163757943   -0.008407845884501488   -0.0002629858420210161
-0.015165779174673218   -0.0008142121579095294   -0.00019813764771053647
-0.010687125303899389   -0.00829392379060446   -0.00012016942391506999
-0.01511070675435014   -0.008344731952304877   -0.0002446789248766653
-0.015165779174673218   -0.0008142121579095294   -0.00019813764771053647
-0.015067707163757943   -0.008407845884501488   -0.0002629858420210161
-0.010687125303899389   -0.00829392379060446   -0.00012016942391506999
-0.015165779174673218   -0.0008142121579095294   -0.00019813764771053647
-0.010787936009297129   -0.0008068555849802328   -7.633749256423443e-05
-0.010736329352310106   -0.0008806474214212388   -8.785703118695841e-05
-0.010687125303899389   -0.00829392379060446   -0.00012016942391506999
-0.015165779174673218   -0.0008142121579095294   -0.00019813764771053647
-0.010736329352310106   -0.0008806474214212388   -8.785703118695841e-05
-0.015067707163757943   -0.008407845884501488   -0.0002629858420210161
-0.010687125303899389   -0.00829392379060446   -0.00012016942391506999
-0.010787936009297129   -0.0008068555849802328   -7.633749256423443e-05
-0.01511070675435014   -0.008344731952304877   -0.0002446789248766653
-0.010734434515354763   -0.0082200549792903   -9.214918171244476e-05
-0.010787936009297129   -0.0008068555849802328   -7.633749256423443e-05
-0.015165779174673218   -0.0008142121579095294   -0.00019813764771053647
-0.01511070675435014   -0.008344731952304877   -0.0002446789248766653
-0.015192429442137551   -0.0007454145492751282   -0.00019711340378003605
-0.010734434515354763   -0.0082200549792903   -9.214918171244476e-05
-0.015149653503311763   -0.008277522588816802   -0.00022580226528270606
-0.015192429442137551   -0.0007454145492751282   -0.00019711340378003605
-0.01511070675435014   -0.008344731952304877   -0.0002446789248766653
-0.010734434515354763   -0.0082200549792903   -9.214918171244476e-05
-0.015192429442137551   -0.0007454145492751282   -0.00019711340378003605
-0.010837042466602373   -0.0007169471413377768   -6.109532976655847e-05
-0.010787936009297129   -0.0008068555849802328   -7.633749256423443e-05
-0.010734434515354763   -0.0082200549792903   -9.214918171244476e-05
-0.015192429442137551   -0.0007454145492751282   -0.00019711340378003605
-0.010787936009297129   -0.0008068555849802328   -7.633749256423443e-05
-0.01511070675435014   -0.008344731952304877   -0.0002446789248766653
-0.015019455856845474   -0.008465745371903505   -0.00028180692940216266
-0.015097271902444588   -0.000934641780818362   -0.00020295510764858782
-0.019615289385001684   -0.008470061378212733   -0.0003730815511647767
-0.015067707163757943   -0.008407845884501488   -0.0002629858420210161
-0.015097271902444588   -0.000934641780818362   -0.00020295510764858782
-0.019630055239923155   -0.0009280266677441216   -0.0003098258796333304
-0.019615289385001684   -0.008470061378212733   -0.0003730815511647767
-0.019657016386605924   -0.000866266751563123   -0.0003097513008915082
-0.015067707163757943   -0.008407845884501488   -0.0002629858420210161
-0.01965669620134154   -0.008413887826706025   -0.00036493695583947767
-0.019657016386605924   -0.000866266751563123   -0.0003097513008915082
-0.019615289385001684   -0.008470061378212733   -0.0003730815511647767
-0.015067707163757943   -0.008407845884501488   -0.0002629858420210161
-0.019657016386605924   -0.000866266751563123   -0.0003097513008915082
-0.015130801465076794   -0.0008776833552019268   -0.0002001334707646909
-0.015097271902444588   -0.000934641780818362   -0.00020295510764858782
-0.015067707163757943   -0.008407845884501488   -0.0002629858420210161
-0.019657016386605924   -0.000866266751563123   -0.0003097513008915082
-0.015097271902444588   -0.000934641780818362   -0.00020295510764858782
-0.019615289385001684   -0.008470061378212733   -0.0003730815511647767
-0.015067707163757943   -0.008407845884501488   -0.0002629858420210161
-0.015130801465076794   -0.0008776833552019268   -0.0002001334707646909
-0.01965669620134154   -0.008413887826706025   -0.00036493695583947767
-0.01511070675435014   -0.008344731952304877   -0.0002446789248766653
-0.015130801465076794   -0.0008776833552019268   -0.0002001334707646909
-0.019657016386605924   -0.000866266751563123   -0.0003097513008915082
-0.01965669620134154   -0.008413887826706025   -0.00036493695583947767
-0.019686605546438   -0.0008045178951388855   -0.00031449844991167906
-0.01511070675435014   -0.008344731952304877   -0.0002446789248766653
-0.019693793146026962   -0.008353102266933232   -0.000355399489461056
-0.019686605546438   -0.0008045178951388855   -0.00031449844991167906
-0.01965669620134154   -0.008413887826706025   -0.00036493695583947767
-0.01511070675435014   -0.008344731952304877   -0.0002446789248766653
-0.019686605546438   -0.0008045178951388855   -0.00031449844991167906
-0.015165779174673218   -0.0008142121579095294   -0.00019813764771053647
-0.015130801465076794   -0.0008776833552019268   -0.0002001334707646909
-0.01511070675435014   -0.008344731952304877   -0.0002446789248766653
-0.019686605546438   -0.0008045178951388855   -0.00031449844991167906
-0.015130801465076794   -0.0008776833552019268   -0.0002001334707646909
-0.01965669620134154   -0.008413887826706025   -0.00036493695583947767
-0.01511070675435014   -0.008344731952304877   -0.0002446789248766653
-0.015165779174673218   -0.0008142121579095294   -0.00019813764771053647
-0.019693793146026962   -0.008353102266933232   -0.000355399489461056
-0.015149653503311763   -0.008277522588816802   -0.00022580226528270606
-0.015165779174673218   -0.0008142121579095294   -0.00019813764771053647
-0.019686605546438   -0.0008045178951388855   -0.00031449844991167906
-0.019693793146026962   -0.008353102266933232   -0.000355399489461056
-0.01970843231860124   -0.0007372559201413692   -0.0003195340682256599
-0.015149653503311763   -0.008277522588816802   -0.00022580226528270606
-0.019724923413422975   -0.008288745803794495   -0.0003464883204929206
-0.01970843231860124   -0.0007372559201413692   -0.0003195340682256599
-0.019693793146026962   -0.008353102266933232   -0.000355399489461056
-0.015149653503311763   -0.008277522588816802   -0.00022580226528270606
-0.01970843231860124   -0.0007372559201413692   -0.0003195340682256599
-0.015192429442137551   -0.0007454145492751282   -0.00019711340378003605
-0.015165779174673218   -0.0008142121579095294   -0.00019813764771053647
-0.015149653503311763   -0.008277522588816802   -0.00022580226528270606
-0.01970843231860124   -0.0007372559201413692   -0.0003195340682256599
-0.015165779174673218   -0.0008142121579095294   -0.00019813764771053647
-0.019693793146026962   -0.008353102266933232   -0.000355399489461056
              </DataArray>   
          </PointData>  
       </Piece>  
   </UnstructuredGrid> 
</VTKFile> 
