<?xml version="1.0"?> 
<VTKFile type="UnstructuredGrid"> 
   <UnstructuredGrid> 
      <Piece NumberOfPoints="6000"  NumberOfCells="1500">  
          <Points>  
             <DataArray type="Float64" NumberOfComponents="3" format="ascii">   
-500.0   0.0   0.0
-450.0   0.0   0.0
-500.0   30.0   0.0
-500.0   0.0   16.666666666666668
-450.0   0.0   0.0
-450.0   30.0   0.0
-500.0   30.0   0.0
-450.0   30.0   16.666666666666668
-500.0   0.0   16.666666666666668
-500.0   30.0   16.666666666666668
-450.0   30.0   16.666666666666668
-500.0   30.0   0.0
-500.0   0.0   16.666666666666668
-450.0   30.0   16.666666666666668
-450.0   0.0   16.666666666666668
-450.0   0.0   0.0
-500.0   0.0   16.666666666666668
-450.0   30.0   16.666666666666668
-450.0   0.0   0.0
-500.0   30.0   0.0
-500.0   0.0   16.666666666666668
-450.0   0.0   16.666666666666668
-500.0   30.0   16.666666666666668
-500.0   0.0   33.333333333333336
-450.0   0.0   16.666666666666668
-450.0   30.0   16.666666666666668
-500.0   30.0   16.666666666666668
-450.0   30.0   33.333333333333336
-500.0   0.0   33.333333333333336
-500.0   30.0   33.333333333333336
-450.0   30.0   33.333333333333336
-500.0   30.0   16.666666666666668
-500.0   0.0   33.333333333333336
-450.0   30.0   33.333333333333336
-450.0   0.0   33.333333333333336
-450.0   0.0   16.666666666666668
-500.0   0.0   33.333333333333336
-450.0   30.0   33.333333333333336
-450.0   0.0   16.666666666666668
-500.0   30.0   16.666666666666668
-500.0   0.0   33.333333333333336
-450.0   0.0   33.333333333333336
-500.0   30.0   33.333333333333336
-500.0   0.0   50.0
-450.0   0.0   33.333333333333336
-450.0   30.0   33.333333333333336
-500.0   30.0   33.333333333333336
-450.0   30.0   50.0
-500.0   0.0   50.0
-500.0   30.0   50.0
-450.0   30.0   50.0
-500.0   30.0   33.333333333333336
-500.0   0.0   50.0
-450.0   30.0   50.0
-450.0   0.0   50.0
-450.0   0.0   33.333333333333336
-500.0   0.0   50.0
-450.0   30.0   50.0
-450.0   0.0   33.333333333333336
-500.0   30.0   33.333333333333336
-500.0   30.0   0.0
-450.0   30.0   0.0
-500.0   60.0   0.0
-500.0   30.0   16.666666666666668
-450.0   30.0   0.0
-450.0   60.0   0.0
-500.0   60.0   0.0
-450.0   60.0   16.666666666666668
-500.0   30.0   16.666666666666668
-500.0   60.0   16.666666666666668
-450.0   60.0   16.666666666666668
-500.0   60.0   0.0
-500.0   30.0   16.666666666666668
-450.0   60.0   16.666666666666668
-450.0   30.0   16.666666666666668
-450.0   30.0   0.0
-500.0   30.0   16.666666666666668
-450.0   60.0   16.666666666666668
-450.0   30.0   0.0
-500.0   60.0   0.0
-500.0   30.0   16.666666666666668
-450.0   30.0   16.666666666666668
-500.0   60.0   16.666666666666668
-500.0   30.0   33.333333333333336
-450.0   30.0   16.666666666666668
-450.0   60.0   16.666666666666668
-500.0   60.0   16.666666666666668
-450.0   60.0   33.333333333333336
-500.0   30.0   33.333333333333336
-500.0   60.0   33.333333333333336
-450.0   60.0   33.333333333333336
-500.0   60.0   16.666666666666668
-500.0   30.0   33.333333333333336
-450.0   60.0   33.333333333333336
-450.0   30.0   33.333333333333336
-450.0   30.0   16.666666666666668
-500.0   30.0   33.333333333333336
-450.0   60.0   33.333333333333336
-450.0   30.0   16.666666666666668
-500.0   60.0   16.666666666666668
-500.0   30.0   33.333333333333336
-450.0   30.0   33.333333333333336
-500.0   60.0   33.333333333333336
-500.0   30.0   50.0
-450.0   30.0   33.333333333333336
-450.0   60.0   33.333333333333336
-500.0   60.0   33.333333333333336
-450.0   60.0   50.0
-500.0   30.0   50.0
-500.0   60.0   50.0
-450.0   60.0   50.0
-500.0   60.0   33.333333333333336
-500.0   30.0   50.0
-450.0   60.0   50.0
-450.0   30.0   50.0
-450.0   30.0   33.333333333333336
-500.0   30.0   50.0
-450.0   60.0   50.0
-450.0   30.0   33.333333333333336
-500.0   60.0   33.333333333333336
-500.0   60.0   0.0
-450.0   60.0   0.0
-500.0   90.0   0.0
-500.0   60.0   16.666666666666668
-450.0   60.0   0.0
-450.0   90.0   0.0
-500.0   90.0   0.0
-450.0   90.0   16.666666666666668
-500.0   60.0   16.666666666666668
-500.0   90.0   16.666666666666668
-450.0   90.0   16.666666666666668
-500.0   90.0   0.0
-500.0   60.0   16.666666666666668
-450.0   90.0   16.666666666666668
-450.0   60.0   16.666666666666668
-450.0   60.0   0.0
-500.0   60.0   16.666666666666668
-450.0   90.0   16.666666666666668
-450.0   60.0   0.0
-500.0   90.0   0.0
-500.0   60.0   16.666666666666668
-450.0   60.0   16.666666666666668
-500.0   90.0   16.666666666666668
-500.0   60.0   33.333333333333336
-450.0   60.0   16.666666666666668
-450.0   90.0   16.666666666666668
-500.0   90.0   16.666666666666668
-450.0   90.0   33.333333333333336
-500.0   60.0   33.333333333333336
-500.0   90.0   33.333333333333336
-450.0   90.0   33.333333333333336
-500.0   90.0   16.666666666666668
-500.0   60.0   33.333333333333336
-450.0   90.0   33.333333333333336
-450.0   60.0   33.333333333333336
-450.0   60.0   16.666666666666668
-500.0   60.0   33.333333333333336
-450.0   90.0   33.333333333333336
-450.0   60.0   16.666666666666668
-500.0   90.0   16.666666666666668
-500.0   60.0   33.333333333333336
-450.0   60.0   33.333333333333336
-500.0   90.0   33.333333333333336
-500.0   60.0   50.0
-450.0   60.0   33.333333333333336
-450.0   90.0   33.333333333333336
-500.0   90.0   33.333333333333336
-450.0   90.0   50.0
-500.0   60.0   50.0
-500.0   90.0   50.0
-450.0   90.0   50.0
-500.0   90.0   33.333333333333336
-500.0   60.0   50.0
-450.0   90.0   50.0
-450.0   60.0   50.0
-450.0   60.0   33.333333333333336
-500.0   60.0   50.0
-450.0   90.0   50.0
-450.0   60.0   33.333333333333336
-500.0   90.0   33.333333333333336
-500.0   90.0   0.0
-450.0   90.0   0.0
-500.0   120.0   0.0
-500.0   90.0   16.666666666666668
-450.0   90.0   0.0
-450.0   120.0   0.0
-500.0   120.0   0.0
-450.0   120.0   16.666666666666668
-500.0   90.0   16.666666666666668
-500.0   120.0   16.666666666666668
-450.0   120.0   16.666666666666668
-500.0   120.0   0.0
-500.0   90.0   16.666666666666668
-450.0   120.0   16.666666666666668
-450.0   90.0   16.666666666666668
-450.0   90.0   0.0
-500.0   90.0   16.666666666666668
-450.0   120.0   16.666666666666668
-450.0   90.0   0.0
-500.0   120.0   0.0
-500.0   90.0   16.666666666666668
-450.0   90.0   16.666666666666668
-500.0   120.0   16.666666666666668
-500.0   90.0   33.333333333333336
-450.0   90.0   16.666666666666668
-450.0   120.0   16.666666666666668
-500.0   120.0   16.666666666666668
-450.0   120.0   33.333333333333336
-500.0   90.0   33.333333333333336
-500.0   120.0   33.333333333333336
-450.0   120.0   33.333333333333336
-500.0   120.0   16.666666666666668
-500.0   90.0   33.333333333333336
-450.0   120.0   33.333333333333336
-450.0   90.0   33.333333333333336
-450.0   90.0   16.666666666666668
-500.0   90.0   33.333333333333336
-450.0   120.0   33.333333333333336
-450.0   90.0   16.666666666666668
-500.0   120.0   16.666666666666668
-500.0   90.0   33.333333333333336
-450.0   90.0   33.333333333333336
-500.0   120.0   33.333333333333336
-500.0   90.0   50.0
-450.0   90.0   33.333333333333336
-450.0   120.0   33.333333333333336
-500.0   120.0   33.333333333333336
-450.0   120.0   50.0
-500.0   90.0   50.0
-500.0   120.0   50.0
-450.0   120.0   50.0
-500.0   120.0   33.333333333333336
-500.0   90.0   50.0
-450.0   120.0   50.0
-450.0   90.0   50.0
-450.0   90.0   33.333333333333336
-500.0   90.0   50.0
-450.0   120.0   50.0
-450.0   90.0   33.333333333333336
-500.0   120.0   33.333333333333336
-500.0   120.0   0.0
-450.0   120.0   0.0
-500.0   150.0   0.0
-500.0   120.0   16.666666666666668
-450.0   120.0   0.0
-450.0   150.0   0.0
-500.0   150.0   0.0
-450.0   150.0   16.666666666666668
-500.0   120.0   16.666666666666668
-500.0   150.0   16.666666666666668
-450.0   150.0   16.666666666666668
-500.0   150.0   0.0
-500.0   120.0   16.666666666666668
-450.0   150.0   16.666666666666668
-450.0   120.0   16.666666666666668
-450.0   120.0   0.0
-500.0   120.0   16.666666666666668
-450.0   150.0   16.666666666666668
-450.0   120.0   0.0
-500.0   150.0   0.0
-500.0   120.0   16.666666666666668
-450.0   120.0   16.666666666666668
-500.0   150.0   16.666666666666668
-500.0   120.0   33.333333333333336
-450.0   120.0   16.666666666666668
-450.0   150.0   16.666666666666668
-500.0   150.0   16.666666666666668
-450.0   150.0   33.333333333333336
-500.0   120.0   33.333333333333336
-500.0   150.0   33.333333333333336
-450.0   150.0   33.333333333333336
-500.0   150.0   16.666666666666668
-500.0   120.0   33.333333333333336
-450.0   150.0   33.333333333333336
-450.0   120.0   33.333333333333336
-450.0   120.0   16.666666666666668
-500.0   120.0   33.333333333333336
-450.0   150.0   33.333333333333336
-450.0   120.0   16.666666666666668
-500.0   150.0   16.666666666666668
-500.0   120.0   33.333333333333336
-450.0   120.0   33.333333333333336
-500.0   150.0   33.333333333333336
-500.0   120.0   50.0
-450.0   120.0   33.333333333333336
-450.0   150.0   33.333333333333336
-500.0   150.0   33.333333333333336
-450.0   150.0   50.0
-500.0   120.0   50.0
-500.0   150.0   50.0
-450.0   150.0   50.0
-500.0   150.0   33.333333333333336
-500.0   120.0   50.0
-450.0   150.0   50.0
-450.0   120.0   50.0
-450.0   120.0   33.333333333333336
-500.0   120.0   50.0
-450.0   150.0   50.0
-450.0   120.0   33.333333333333336
-500.0   150.0   33.333333333333336
-450.0   0.0   0.0
-400.0   0.0   0.0
-450.0   30.0   0.0
-450.0   0.0   16.666666666666668
-400.0   0.0   0.0
-400.0   30.0   0.0
-450.0   30.0   0.0
-400.0   30.0   16.666666666666668
-450.0   0.0   16.666666666666668
-450.0   30.0   16.666666666666668
-400.0   30.0   16.666666666666668
-450.0   30.0   0.0
-450.0   0.0   16.666666666666668
-400.0   30.0   16.666666666666668
-400.0   0.0   16.666666666666668
-400.0   0.0   0.0
-450.0   0.0   16.666666666666668
-400.0   30.0   16.666666666666668
-400.0   0.0   0.0
-450.0   30.0   0.0
-450.0   0.0   16.666666666666668
-400.0   0.0   16.666666666666668
-450.0   30.0   16.666666666666668
-450.0   0.0   33.333333333333336
-400.0   0.0   16.666666666666668
-400.0   30.0   16.666666666666668
-450.0   30.0   16.666666666666668
-400.0   30.0   33.333333333333336
-450.0   0.0   33.333333333333336
-450.0   30.0   33.333333333333336
-400.0   30.0   33.333333333333336
-450.0   30.0   16.666666666666668
-450.0   0.0   33.333333333333336
-400.0   30.0   33.333333333333336
-400.0   0.0   33.333333333333336
-400.0   0.0   16.666666666666668
-450.0   0.0   33.333333333333336
-400.0   30.0   33.333333333333336
-400.0   0.0   16.666666666666668
-450.0   30.0   16.666666666666668
-450.0   0.0   33.333333333333336
-400.0   0.0   33.333333333333336
-450.0   30.0   33.333333333333336
-450.0   0.0   50.0
-400.0   0.0   33.333333333333336
-400.0   30.0   33.333333333333336
-450.0   30.0   33.333333333333336
-400.0   30.0   50.0
-450.0   0.0   50.0
-450.0   30.0   50.0
-400.0   30.0   50.0
-450.0   30.0   33.333333333333336
-450.0   0.0   50.0
-400.0   30.0   50.0
-400.0   0.0   50.0
-400.0   0.0   33.333333333333336
-450.0   0.0   50.0
-400.0   30.0   50.0
-400.0   0.0   33.333333333333336
-450.0   30.0   33.333333333333336
-450.0   30.0   0.0
-400.0   30.0   0.0
-450.0   60.0   0.0
-450.0   30.0   16.666666666666668
-400.0   30.0   0.0
-400.0   60.0   0.0
-450.0   60.0   0.0
-400.0   60.0   16.666666666666668
-450.0   30.0   16.666666666666668
-450.0   60.0   16.666666666666668
-400.0   60.0   16.666666666666668
-450.0   60.0   0.0
-450.0   30.0   16.666666666666668
-400.0   60.0   16.666666666666668
-400.0   30.0   16.666666666666668
-400.0   30.0   0.0
-450.0   30.0   16.666666666666668
-400.0   60.0   16.666666666666668
-400.0   30.0   0.0
-450.0   60.0   0.0
-450.0   30.0   16.666666666666668
-400.0   30.0   16.666666666666668
-450.0   60.0   16.666666666666668
-450.0   30.0   33.333333333333336
-400.0   30.0   16.666666666666668
-400.0   60.0   16.666666666666668
-450.0   60.0   16.666666666666668
-400.0   60.0   33.333333333333336
-450.0   30.0   33.333333333333336
-450.0   60.0   33.333333333333336
-400.0   60.0   33.333333333333336
-450.0   60.0   16.666666666666668
-450.0   30.0   33.333333333333336
-400.0   60.0   33.333333333333336
-400.0   30.0   33.333333333333336
-400.0   30.0   16.666666666666668
-450.0   30.0   33.333333333333336
-400.0   60.0   33.333333333333336
-400.0   30.0   16.666666666666668
-450.0   60.0   16.666666666666668
-450.0   30.0   33.333333333333336
-400.0   30.0   33.333333333333336
-450.0   60.0   33.333333333333336
-450.0   30.0   50.0
-400.0   30.0   33.333333333333336
-400.0   60.0   33.333333333333336
-450.0   60.0   33.333333333333336
-400.0   60.0   50.0
-450.0   30.0   50.0
-450.0   60.0   50.0
-400.0   60.0   50.0
-450.0   60.0   33.333333333333336
-450.0   30.0   50.0
-400.0   60.0   50.0
-400.0   30.0   50.0
-400.0   30.0   33.333333333333336
-450.0   30.0   50.0
-400.0   60.0   50.0
-400.0   30.0   33.333333333333336
-450.0   60.0   33.333333333333336
-450.0   60.0   0.0
-400.0   60.0   0.0
-450.0   90.0   0.0
-450.0   60.0   16.666666666666668
-400.0   60.0   0.0
-400.0   90.0   0.0
-450.0   90.0   0.0
-400.0   90.0   16.666666666666668
-450.0   60.0   16.666666666666668
-450.0   90.0   16.666666666666668
-400.0   90.0   16.666666666666668
-450.0   90.0   0.0
-450.0   60.0   16.666666666666668
-400.0   90.0   16.666666666666668
-400.0   60.0   16.666666666666668
-400.0   60.0   0.0
-450.0   60.0   16.666666666666668
-400.0   90.0   16.666666666666668
-400.0   60.0   0.0
-450.0   90.0   0.0
-450.0   60.0   16.666666666666668
-400.0   60.0   16.666666666666668
-450.0   90.0   16.666666666666668
-450.0   60.0   33.333333333333336
-400.0   60.0   16.666666666666668
-400.0   90.0   16.666666666666668
-450.0   90.0   16.666666666666668
-400.0   90.0   33.333333333333336
-450.0   60.0   33.333333333333336
-450.0   90.0   33.333333333333336
-400.0   90.0   33.333333333333336
-450.0   90.0   16.666666666666668
-450.0   60.0   33.333333333333336
-400.0   90.0   33.333333333333336
-400.0   60.0   33.333333333333336
-400.0   60.0   16.666666666666668
-450.0   60.0   33.333333333333336
-400.0   90.0   33.333333333333336
-400.0   60.0   16.666666666666668
-450.0   90.0   16.666666666666668
-450.0   60.0   33.333333333333336
-400.0   60.0   33.333333333333336
-450.0   90.0   33.333333333333336
-450.0   60.0   50.0
-400.0   60.0   33.333333333333336
-400.0   90.0   33.333333333333336
-450.0   90.0   33.333333333333336
-400.0   90.0   50.0
-450.0   60.0   50.0
-450.0   90.0   50.0
-400.0   90.0   50.0
-450.0   90.0   33.333333333333336
-450.0   60.0   50.0
-400.0   90.0   50.0
-400.0   60.0   50.0
-400.0   60.0   33.333333333333336
-450.0   60.0   50.0
-400.0   90.0   50.0
-400.0   60.0   33.333333333333336
-450.0   90.0   33.333333333333336
-450.0   90.0   0.0
-400.0   90.0   0.0
-450.0   120.0   0.0
-450.0   90.0   16.666666666666668
-400.0   90.0   0.0
-400.0   120.0   0.0
-450.0   120.0   0.0
-400.0   120.0   16.666666666666668
-450.0   90.0   16.666666666666668
-450.0   120.0   16.666666666666668
-400.0   120.0   16.666666666666668
-450.0   120.0   0.0
-450.0   90.0   16.666666666666668
-400.0   120.0   16.666666666666668
-400.0   90.0   16.666666666666668
-400.0   90.0   0.0
-450.0   90.0   16.666666666666668
-400.0   120.0   16.666666666666668
-400.0   90.0   0.0
-450.0   120.0   0.0
-450.0   90.0   16.666666666666668
-400.0   90.0   16.666666666666668
-450.0   120.0   16.666666666666668
-450.0   90.0   33.333333333333336
-400.0   90.0   16.666666666666668
-400.0   120.0   16.666666666666668
-450.0   120.0   16.666666666666668
-400.0   120.0   33.333333333333336
-450.0   90.0   33.333333333333336
-450.0   120.0   33.333333333333336
-400.0   120.0   33.333333333333336
-450.0   120.0   16.666666666666668
-450.0   90.0   33.333333333333336
-400.0   120.0   33.333333333333336
-400.0   90.0   33.333333333333336
-400.0   90.0   16.666666666666668
-450.0   90.0   33.333333333333336
-400.0   120.0   33.333333333333336
-400.0   90.0   16.666666666666668
-450.0   120.0   16.666666666666668
-450.0   90.0   33.333333333333336
-400.0   90.0   33.333333333333336
-450.0   120.0   33.333333333333336
-450.0   90.0   50.0
-400.0   90.0   33.333333333333336
-400.0   120.0   33.333333333333336
-450.0   120.0   33.333333333333336
-400.0   120.0   50.0
-450.0   90.0   50.0
-450.0   120.0   50.0
-400.0   120.0   50.0
-450.0   120.0   33.333333333333336
-450.0   90.0   50.0
-400.0   120.0   50.0
-400.0   90.0   50.0
-400.0   90.0   33.333333333333336
-450.0   90.0   50.0
-400.0   120.0   50.0
-400.0   90.0   33.333333333333336
-450.0   120.0   33.333333333333336
-450.0   120.0   0.0
-400.0   120.0   0.0
-450.0   150.0   0.0
-450.0   120.0   16.666666666666668
-400.0   120.0   0.0
-400.0   150.0   0.0
-450.0   150.0   0.0
-400.0   150.0   16.666666666666668
-450.0   120.0   16.666666666666668
-450.0   150.0   16.666666666666668
-400.0   150.0   16.666666666666668
-450.0   150.0   0.0
-450.0   120.0   16.666666666666668
-400.0   150.0   16.666666666666668
-400.0   120.0   16.666666666666668
-400.0   120.0   0.0
-450.0   120.0   16.666666666666668
-400.0   150.0   16.666666666666668
-400.0   120.0   0.0
-450.0   150.0   0.0
-450.0   120.0   16.666666666666668
-400.0   120.0   16.666666666666668
-450.0   150.0   16.666666666666668
-450.0   120.0   33.333333333333336
-400.0   120.0   16.666666666666668
-400.0   150.0   16.666666666666668
-450.0   150.0   16.666666666666668
-400.0   150.0   33.333333333333336
-450.0   120.0   33.333333333333336
-450.0   150.0   33.333333333333336
-400.0   150.0   33.333333333333336
-450.0   150.0   16.666666666666668
-450.0   120.0   33.333333333333336
-400.0   150.0   33.333333333333336
-400.0   120.0   33.333333333333336
-400.0   120.0   16.666666666666668
-450.0   120.0   33.333333333333336
-400.0   150.0   33.333333333333336
-400.0   120.0   16.666666666666668
-450.0   150.0   16.666666666666668
-450.0   120.0   33.333333333333336
-400.0   120.0   33.333333333333336
-450.0   150.0   33.333333333333336
-450.0   120.0   50.0
-400.0   120.0   33.333333333333336
-400.0   150.0   33.333333333333336
-450.0   150.0   33.333333333333336
-400.0   150.0   50.0
-450.0   120.0   50.0
-450.0   150.0   50.0
-400.0   150.0   50.0
-450.0   150.0   33.333333333333336
-450.0   120.0   50.0
-400.0   150.0   50.0
-400.0   120.0   50.0
-400.0   120.0   33.333333333333336
-450.0   120.0   50.0
-400.0   150.0   50.0
-400.0   120.0   33.333333333333336
-450.0   150.0   33.333333333333336
-400.0   0.0   0.0
-350.0   0.0   0.0
-400.0   30.0   0.0
-400.0   0.0   16.666666666666668
-350.0   0.0   0.0
-350.0   30.0   0.0
-400.0   30.0   0.0
-350.0   30.0   16.666666666666668
-400.0   0.0   16.666666666666668
-400.0   30.0   16.666666666666668
-350.0   30.0   16.666666666666668
-400.0   30.0   0.0
-400.0   0.0   16.666666666666668
-350.0   30.0   16.666666666666668
-350.0   0.0   16.666666666666668
-350.0   0.0   0.0
-400.0   0.0   16.666666666666668
-350.0   30.0   16.666666666666668
-350.0   0.0   0.0
-400.0   30.0   0.0
-400.0   0.0   16.666666666666668
-350.0   0.0   16.666666666666668
-400.0   30.0   16.666666666666668
-400.0   0.0   33.333333333333336
-350.0   0.0   16.666666666666668
-350.0   30.0   16.666666666666668
-400.0   30.0   16.666666666666668
-350.0   30.0   33.333333333333336
-400.0   0.0   33.333333333333336
-400.0   30.0   33.333333333333336
-350.0   30.0   33.333333333333336
-400.0   30.0   16.666666666666668
-400.0   0.0   33.333333333333336
-350.0   30.0   33.333333333333336
-350.0   0.0   33.333333333333336
-350.0   0.0   16.666666666666668
-400.0   0.0   33.333333333333336
-350.0   30.0   33.333333333333336
-350.0   0.0   16.666666666666668
-400.0   30.0   16.666666666666668
-400.0   0.0   33.333333333333336
-350.0   0.0   33.333333333333336
-400.0   30.0   33.333333333333336
-400.0   0.0   50.0
-350.0   0.0   33.333333333333336
-350.0   30.0   33.333333333333336
-400.0   30.0   33.333333333333336
-350.0   30.0   50.0
-400.0   0.0   50.0
-400.0   30.0   50.0
-350.0   30.0   50.0
-400.0   30.0   33.333333333333336
-400.0   0.0   50.0
-350.0   30.0   50.0
-350.0   0.0   50.0
-350.0   0.0   33.333333333333336
-400.0   0.0   50.0
-350.0   30.0   50.0
-350.0   0.0   33.333333333333336
-400.0   30.0   33.333333333333336
-400.0   30.0   0.0
-350.0   30.0   0.0
-400.0   60.0   0.0
-400.0   30.0   16.666666666666668
-350.0   30.0   0.0
-350.0   60.0   0.0
-400.0   60.0   0.0
-350.0   60.0   16.666666666666668
-400.0   30.0   16.666666666666668
-400.0   60.0   16.666666666666668
-350.0   60.0   16.666666666666668
-400.0   60.0   0.0
-400.0   30.0   16.666666666666668
-350.0   60.0   16.666666666666668
-350.0   30.0   16.666666666666668
-350.0   30.0   0.0
-400.0   30.0   16.666666666666668
-350.0   60.0   16.666666666666668
-350.0   30.0   0.0
-400.0   60.0   0.0
-400.0   30.0   16.666666666666668
-350.0   30.0   16.666666666666668
-400.0   60.0   16.666666666666668
-400.0   30.0   33.333333333333336
-350.0   30.0   16.666666666666668
-350.0   60.0   16.666666666666668
-400.0   60.0   16.666666666666668
-350.0   60.0   33.333333333333336
-400.0   30.0   33.333333333333336
-400.0   60.0   33.333333333333336
-350.0   60.0   33.333333333333336
-400.0   60.0   16.666666666666668
-400.0   30.0   33.333333333333336
-350.0   60.0   33.333333333333336
-350.0   30.0   33.333333333333336
-350.0   30.0   16.666666666666668
-400.0   30.0   33.333333333333336
-350.0   60.0   33.333333333333336
-350.0   30.0   16.666666666666668
-400.0   60.0   16.666666666666668
-400.0   30.0   33.333333333333336
-350.0   30.0   33.333333333333336
-400.0   60.0   33.333333333333336
-400.0   30.0   50.0
-350.0   30.0   33.333333333333336
-350.0   60.0   33.333333333333336
-400.0   60.0   33.333333333333336
-350.0   60.0   50.0
-400.0   30.0   50.0
-400.0   60.0   50.0
-350.0   60.0   50.0
-400.0   60.0   33.333333333333336
-400.0   30.0   50.0
-350.0   60.0   50.0
-350.0   30.0   50.0
-350.0   30.0   33.333333333333336
-400.0   30.0   50.0
-350.0   60.0   50.0
-350.0   30.0   33.333333333333336
-400.0   60.0   33.333333333333336
-400.0   60.0   0.0
-350.0   60.0   0.0
-400.0   90.0   0.0
-400.0   60.0   16.666666666666668
-350.0   60.0   0.0
-350.0   90.0   0.0
-400.0   90.0   0.0
-350.0   90.0   16.666666666666668
-400.0   60.0   16.666666666666668
-400.0   90.0   16.666666666666668
-350.0   90.0   16.666666666666668
-400.0   90.0   0.0
-400.0   60.0   16.666666666666668
-350.0   90.0   16.666666666666668
-350.0   60.0   16.666666666666668
-350.0   60.0   0.0
-400.0   60.0   16.666666666666668
-350.0   90.0   16.666666666666668
-350.0   60.0   0.0
-400.0   90.0   0.0
-400.0   60.0   16.666666666666668
-350.0   60.0   16.666666666666668
-400.0   90.0   16.666666666666668
-400.0   60.0   33.333333333333336
-350.0   60.0   16.666666666666668
-350.0   90.0   16.666666666666668
-400.0   90.0   16.666666666666668
-350.0   90.0   33.333333333333336
-400.0   60.0   33.333333333333336
-400.0   90.0   33.333333333333336
-350.0   90.0   33.333333333333336
-400.0   90.0   16.666666666666668
-400.0   60.0   33.333333333333336
-350.0   90.0   33.333333333333336
-350.0   60.0   33.333333333333336
-350.0   60.0   16.666666666666668
-400.0   60.0   33.333333333333336
-350.0   90.0   33.333333333333336
-350.0   60.0   16.666666666666668
-400.0   90.0   16.666666666666668
-400.0   60.0   33.333333333333336
-350.0   60.0   33.333333333333336
-400.0   90.0   33.333333333333336
-400.0   60.0   50.0
-350.0   60.0   33.333333333333336
-350.0   90.0   33.333333333333336
-400.0   90.0   33.333333333333336
-350.0   90.0   50.0
-400.0   60.0   50.0
-400.0   90.0   50.0
-350.0   90.0   50.0
-400.0   90.0   33.333333333333336
-400.0   60.0   50.0
-350.0   90.0   50.0
-350.0   60.0   50.0
-350.0   60.0   33.333333333333336
-400.0   60.0   50.0
-350.0   90.0   50.0
-350.0   60.0   33.333333333333336
-400.0   90.0   33.333333333333336
-400.0   90.0   0.0
-350.0   90.0   0.0
-400.0   120.0   0.0
-400.0   90.0   16.666666666666668
-350.0   90.0   0.0
-350.0   120.0   0.0
-400.0   120.0   0.0
-350.0   120.0   16.666666666666668
-400.0   90.0   16.666666666666668
-400.0   120.0   16.666666666666668
-350.0   120.0   16.666666666666668
-400.0   120.0   0.0
-400.0   90.0   16.666666666666668
-350.0   120.0   16.666666666666668
-350.0   90.0   16.666666666666668
-350.0   90.0   0.0
-400.0   90.0   16.666666666666668
-350.0   120.0   16.666666666666668
-350.0   90.0   0.0
-400.0   120.0   0.0
-400.0   90.0   16.666666666666668
-350.0   90.0   16.666666666666668
-400.0   120.0   16.666666666666668
-400.0   90.0   33.333333333333336
-350.0   90.0   16.666666666666668
-350.0   120.0   16.666666666666668
-400.0   120.0   16.666666666666668
-350.0   120.0   33.333333333333336
-400.0   90.0   33.333333333333336
-400.0   120.0   33.333333333333336
-350.0   120.0   33.333333333333336
-400.0   120.0   16.666666666666668
-400.0   90.0   33.333333333333336
-350.0   120.0   33.333333333333336
-350.0   90.0   33.333333333333336
-350.0   90.0   16.666666666666668
-400.0   90.0   33.333333333333336
-350.0   120.0   33.333333333333336
-350.0   90.0   16.666666666666668
-400.0   120.0   16.666666666666668
-400.0   90.0   33.333333333333336
-350.0   90.0   33.333333333333336
-400.0   120.0   33.333333333333336
-400.0   90.0   50.0
-350.0   90.0   33.333333333333336
-350.0   120.0   33.333333333333336
-400.0   120.0   33.333333333333336
-350.0   120.0   50.0
-400.0   90.0   50.0
-400.0   120.0   50.0
-350.0   120.0   50.0
-400.0   120.0   33.333333333333336
-400.0   90.0   50.0
-350.0   120.0   50.0
-350.0   90.0   50.0
-350.0   90.0   33.333333333333336
-400.0   90.0   50.0
-350.0   120.0   50.0
-350.0   90.0   33.333333333333336
-400.0   120.0   33.333333333333336
-400.0   120.0   0.0
-350.0   120.0   0.0
-400.0   150.0   0.0
-400.0   120.0   16.666666666666668
-350.0   120.0   0.0
-350.0   150.0   0.0
-400.0   150.0   0.0
-350.0   150.0   16.666666666666668
-400.0   120.0   16.666666666666668
-400.0   150.0   16.666666666666668
-350.0   150.0   16.666666666666668
-400.0   150.0   0.0
-400.0   120.0   16.666666666666668
-350.0   150.0   16.666666666666668
-350.0   120.0   16.666666666666668
-350.0   120.0   0.0
-400.0   120.0   16.666666666666668
-350.0   150.0   16.666666666666668
-350.0   120.0   0.0
-400.0   150.0   0.0
-400.0   120.0   16.666666666666668
-350.0   120.0   16.666666666666668
-400.0   150.0   16.666666666666668
-400.0   120.0   33.333333333333336
-350.0   120.0   16.666666666666668
-350.0   150.0   16.666666666666668
-400.0   150.0   16.666666666666668
-350.0   150.0   33.333333333333336
-400.0   120.0   33.333333333333336
-400.0   150.0   33.333333333333336
-350.0   150.0   33.333333333333336
-400.0   150.0   16.666666666666668
-400.0   120.0   33.333333333333336
-350.0   150.0   33.333333333333336
-350.0   120.0   33.333333333333336
-350.0   120.0   16.666666666666668
-400.0   120.0   33.333333333333336
-350.0   150.0   33.333333333333336
-350.0   120.0   16.666666666666668
-400.0   150.0   16.666666666666668
-400.0   120.0   33.333333333333336
-350.0   120.0   33.333333333333336
-400.0   150.0   33.333333333333336
-400.0   120.0   50.0
-350.0   120.0   33.333333333333336
-350.0   150.0   33.333333333333336
-400.0   150.0   33.333333333333336
-350.0   150.0   50.0
-400.0   120.0   50.0
-400.0   150.0   50.0
-350.0   150.0   50.0
-400.0   150.0   33.333333333333336
-400.0   120.0   50.0
-350.0   150.0   50.0
-350.0   120.0   50.0
-350.0   120.0   33.333333333333336
-400.0   120.0   50.0
-350.0   150.0   50.0
-350.0   120.0   33.333333333333336
-400.0   150.0   33.333333333333336
-350.0   0.0   0.0
-300.0   0.0   0.0
-350.0   30.0   0.0
-350.0   0.0   16.666666666666668
-300.0   0.0   0.0
-300.0   30.0   0.0
-350.0   30.0   0.0
-300.0   30.0   16.666666666666668
-350.0   0.0   16.666666666666668
-350.0   30.0   16.666666666666668
-300.0   30.0   16.666666666666668
-350.0   30.0   0.0
-350.0   0.0   16.666666666666668
-300.0   30.0   16.666666666666668
-300.0   0.0   16.666666666666668
-300.0   0.0   0.0
-350.0   0.0   16.666666666666668
-300.0   30.0   16.666666666666668
-300.0   0.0   0.0
-350.0   30.0   0.0
-350.0   0.0   16.666666666666668
-300.0   0.0   16.666666666666668
-350.0   30.0   16.666666666666668
-350.0   0.0   33.333333333333336
-300.0   0.0   16.666666666666668
-300.0   30.0   16.666666666666668
-350.0   30.0   16.666666666666668
-300.0   30.0   33.333333333333336
-350.0   0.0   33.333333333333336
-350.0   30.0   33.333333333333336
-300.0   30.0   33.333333333333336
-350.0   30.0   16.666666666666668
-350.0   0.0   33.333333333333336
-300.0   30.0   33.333333333333336
-300.0   0.0   33.333333333333336
-300.0   0.0   16.666666666666668
-350.0   0.0   33.333333333333336
-300.0   30.0   33.333333333333336
-300.0   0.0   16.666666666666668
-350.0   30.0   16.666666666666668
-350.0   0.0   33.333333333333336
-300.0   0.0   33.333333333333336
-350.0   30.0   33.333333333333336
-350.0   0.0   50.0
-300.0   0.0   33.333333333333336
-300.0   30.0   33.333333333333336
-350.0   30.0   33.333333333333336
-300.0   30.0   50.0
-350.0   0.0   50.0
-350.0   30.0   50.0
-300.0   30.0   50.0
-350.0   30.0   33.333333333333336
-350.0   0.0   50.0
-300.0   30.0   50.0
-300.0   0.0   50.0
-300.0   0.0   33.333333333333336
-350.0   0.0   50.0
-300.0   30.0   50.0
-300.0   0.0   33.333333333333336
-350.0   30.0   33.333333333333336
-350.0   30.0   0.0
-300.0   30.0   0.0
-350.0   60.0   0.0
-350.0   30.0   16.666666666666668
-300.0   30.0   0.0
-300.0   60.0   0.0
-350.0   60.0   0.0
-300.0   60.0   16.666666666666668
-350.0   30.0   16.666666666666668
-350.0   60.0   16.666666666666668
-300.0   60.0   16.666666666666668
-350.0   60.0   0.0
-350.0   30.0   16.666666666666668
-300.0   60.0   16.666666666666668
-300.0   30.0   16.666666666666668
-300.0   30.0   0.0
-350.0   30.0   16.666666666666668
-300.0   60.0   16.666666666666668
-300.0   30.0   0.0
-350.0   60.0   0.0
-350.0   30.0   16.666666666666668
-300.0   30.0   16.666666666666668
-350.0   60.0   16.666666666666668
-350.0   30.0   33.333333333333336
-300.0   30.0   16.666666666666668
-300.0   60.0   16.666666666666668
-350.0   60.0   16.666666666666668
-300.0   60.0   33.333333333333336
-350.0   30.0   33.333333333333336
-350.0   60.0   33.333333333333336
-300.0   60.0   33.333333333333336
-350.0   60.0   16.666666666666668
-350.0   30.0   33.333333333333336
-300.0   60.0   33.333333333333336
-300.0   30.0   33.333333333333336
-300.0   30.0   16.666666666666668
-350.0   30.0   33.333333333333336
-300.0   60.0   33.333333333333336
-300.0   30.0   16.666666666666668
-350.0   60.0   16.666666666666668
-350.0   30.0   33.333333333333336
-300.0   30.0   33.333333333333336
-350.0   60.0   33.333333333333336
-350.0   30.0   50.0
-300.0   30.0   33.333333333333336
-300.0   60.0   33.333333333333336
-350.0   60.0   33.333333333333336
-300.0   60.0   50.0
-350.0   30.0   50.0
-350.0   60.0   50.0
-300.0   60.0   50.0
-350.0   60.0   33.333333333333336
-350.0   30.0   50.0
-300.0   60.0   50.0
-300.0   30.0   50.0
-300.0   30.0   33.333333333333336
-350.0   30.0   50.0
-300.0   60.0   50.0
-300.0   30.0   33.333333333333336
-350.0   60.0   33.333333333333336
-350.0   60.0   0.0
-300.0   60.0   0.0
-350.0   90.0   0.0
-350.0   60.0   16.666666666666668
-300.0   60.0   0.0
-300.0   90.0   0.0
-350.0   90.0   0.0
-300.0   90.0   16.666666666666668
-350.0   60.0   16.666666666666668
-350.0   90.0   16.666666666666668
-300.0   90.0   16.666666666666668
-350.0   90.0   0.0
-350.0   60.0   16.666666666666668
-300.0   90.0   16.666666666666668
-300.0   60.0   16.666666666666668
-300.0   60.0   0.0
-350.0   60.0   16.666666666666668
-300.0   90.0   16.666666666666668
-300.0   60.0   0.0
-350.0   90.0   0.0
-350.0   60.0   16.666666666666668
-300.0   60.0   16.666666666666668
-350.0   90.0   16.666666666666668
-350.0   60.0   33.333333333333336
-300.0   60.0   16.666666666666668
-300.0   90.0   16.666666666666668
-350.0   90.0   16.666666666666668
-300.0   90.0   33.333333333333336
-350.0   60.0   33.333333333333336
-350.0   90.0   33.333333333333336
-300.0   90.0   33.333333333333336
-350.0   90.0   16.666666666666668
-350.0   60.0   33.333333333333336
-300.0   90.0   33.333333333333336
-300.0   60.0   33.333333333333336
-300.0   60.0   16.666666666666668
-350.0   60.0   33.333333333333336
-300.0   90.0   33.333333333333336
-300.0   60.0   16.666666666666668
-350.0   90.0   16.666666666666668
-350.0   60.0   33.333333333333336
-300.0   60.0   33.333333333333336
-350.0   90.0   33.333333333333336
-350.0   60.0   50.0
-300.0   60.0   33.333333333333336
-300.0   90.0   33.333333333333336
-350.0   90.0   33.333333333333336
-300.0   90.0   50.0
-350.0   60.0   50.0
-350.0   90.0   50.0
-300.0   90.0   50.0
-350.0   90.0   33.333333333333336
-350.0   60.0   50.0
-300.0   90.0   50.0
-300.0   60.0   50.0
-300.0   60.0   33.333333333333336
-350.0   60.0   50.0
-300.0   90.0   50.0
-300.0   60.0   33.333333333333336
-350.0   90.0   33.333333333333336
-350.0   90.0   0.0
-300.0   90.0   0.0
-350.0   120.0   0.0
-350.0   90.0   16.666666666666668
-300.0   90.0   0.0
-300.0   120.0   0.0
-350.0   120.0   0.0
-300.0   120.0   16.666666666666668
-350.0   90.0   16.666666666666668
-350.0   120.0   16.666666666666668
-300.0   120.0   16.666666666666668
-350.0   120.0   0.0
-350.0   90.0   16.666666666666668
-300.0   120.0   16.666666666666668
-300.0   90.0   16.666666666666668
-300.0   90.0   0.0
-350.0   90.0   16.666666666666668
-300.0   120.0   16.666666666666668
-300.0   90.0   0.0
-350.0   120.0   0.0
-350.0   90.0   16.666666666666668
-300.0   90.0   16.666666666666668
-350.0   120.0   16.666666666666668
-350.0   90.0   33.333333333333336
-300.0   90.0   16.666666666666668
-300.0   120.0   16.666666666666668
-350.0   120.0   16.666666666666668
-300.0   120.0   33.333333333333336
-350.0   90.0   33.333333333333336
-350.0   120.0   33.333333333333336
-300.0   120.0   33.333333333333336
-350.0   120.0   16.666666666666668
-350.0   90.0   33.333333333333336
-300.0   120.0   33.333333333333336
-300.0   90.0   33.333333333333336
-300.0   90.0   16.666666666666668
-350.0   90.0   33.333333333333336
-300.0   120.0   33.333333333333336
-300.0   90.0   16.666666666666668
-350.0   120.0   16.666666666666668
-350.0   90.0   33.333333333333336
-300.0   90.0   33.333333333333336
-350.0   120.0   33.333333333333336
-350.0   90.0   50.0
-300.0   90.0   33.333333333333336
-300.0   120.0   33.333333333333336
-350.0   120.0   33.333333333333336
-300.0   120.0   50.0
-350.0   90.0   50.0
-350.0   120.0   50.0
-300.0   120.0   50.0
-350.0   120.0   33.333333333333336
-350.0   90.0   50.0
-300.0   120.0   50.0
-300.0   90.0   50.0
-300.0   90.0   33.333333333333336
-350.0   90.0   50.0
-300.0   120.0   50.0
-300.0   90.0   33.333333333333336
-350.0   120.0   33.333333333333336
-350.0   120.0   0.0
-300.0   120.0   0.0
-350.0   150.0   0.0
-350.0   120.0   16.666666666666668
-300.0   120.0   0.0
-300.0   150.0   0.0
-350.0   150.0   0.0
-300.0   150.0   16.666666666666668
-350.0   120.0   16.666666666666668
-350.0   150.0   16.666666666666668
-300.0   150.0   16.666666666666668
-350.0   150.0   0.0
-350.0   120.0   16.666666666666668
-300.0   150.0   16.666666666666668
-300.0   120.0   16.666666666666668
-300.0   120.0   0.0
-350.0   120.0   16.666666666666668
-300.0   150.0   16.666666666666668
-300.0   120.0   0.0
-350.0   150.0   0.0
-350.0   120.0   16.666666666666668
-300.0   120.0   16.666666666666668
-350.0   150.0   16.666666666666668
-350.0   120.0   33.333333333333336
-300.0   120.0   16.666666666666668
-300.0   150.0   16.666666666666668
-350.0   150.0   16.666666666666668
-300.0   150.0   33.333333333333336
-350.0   120.0   33.333333333333336
-350.0   150.0   33.333333333333336
-300.0   150.0   33.333333333333336
-350.0   150.0   16.666666666666668
-350.0   120.0   33.333333333333336
-300.0   150.0   33.333333333333336
-300.0   120.0   33.333333333333336
-300.0   120.0   16.666666666666668
-350.0   120.0   33.333333333333336
-300.0   150.0   33.333333333333336
-300.0   120.0   16.666666666666668
-350.0   150.0   16.666666666666668
-350.0   120.0   33.333333333333336
-300.0   120.0   33.333333333333336
-350.0   150.0   33.333333333333336
-350.0   120.0   50.0
-300.0   120.0   33.333333333333336
-300.0   150.0   33.333333333333336
-350.0   150.0   33.333333333333336
-300.0   150.0   50.0
-350.0   120.0   50.0
-350.0   150.0   50.0
-300.0   150.0   50.0
-350.0   150.0   33.333333333333336
-350.0   120.0   50.0
-300.0   150.0   50.0
-300.0   120.0   50.0
-300.0   120.0   33.333333333333336
-350.0   120.0   50.0
-300.0   150.0   50.0
-300.0   120.0   33.333333333333336
-350.0   150.0   33.333333333333336
-300.0   0.0   0.0
-250.0   0.0   0.0
-300.0   30.0   0.0
-300.0   0.0   16.666666666666668
-250.0   0.0   0.0
-250.0   30.0   0.0
-300.0   30.0   0.0
-250.0   30.0   16.666666666666668
-300.0   0.0   16.666666666666668
-300.0   30.0   16.666666666666668
-250.0   30.0   16.666666666666668
-300.0   30.0   0.0
-300.0   0.0   16.666666666666668
-250.0   30.0   16.666666666666668
-250.0   0.0   16.666666666666668
-250.0   0.0   0.0
-300.0   0.0   16.666666666666668
-250.0   30.0   16.666666666666668
-250.0   0.0   0.0
-300.0   30.0   0.0
-300.0   0.0   16.666666666666668
-250.0   0.0   16.666666666666668
-300.0   30.0   16.666666666666668
-300.0   0.0   33.333333333333336
-250.0   0.0   16.666666666666668
-250.0   30.0   16.666666666666668
-300.0   30.0   16.666666666666668
-250.0   30.0   33.333333333333336
-300.0   0.0   33.333333333333336
-300.0   30.0   33.333333333333336
-250.0   30.0   33.333333333333336
-300.0   30.0   16.666666666666668
-300.0   0.0   33.333333333333336
-250.0   30.0   33.333333333333336
-250.0   0.0   33.333333333333336
-250.0   0.0   16.666666666666668
-300.0   0.0   33.333333333333336
-250.0   30.0   33.333333333333336
-250.0   0.0   16.666666666666668
-300.0   30.0   16.666666666666668
-300.0   0.0   33.333333333333336
-250.0   0.0   33.333333333333336
-300.0   30.0   33.333333333333336
-300.0   0.0   50.0
-250.0   0.0   33.333333333333336
-250.0   30.0   33.333333333333336
-300.0   30.0   33.333333333333336
-250.0   30.0   50.0
-300.0   0.0   50.0
-300.0   30.0   50.0
-250.0   30.0   50.0
-300.0   30.0   33.333333333333336
-300.0   0.0   50.0
-250.0   30.0   50.0
-250.0   0.0   50.0
-250.0   0.0   33.333333333333336
-300.0   0.0   50.0
-250.0   30.0   50.0
-250.0   0.0   33.333333333333336
-300.0   30.0   33.333333333333336
-300.0   30.0   0.0
-250.0   30.0   0.0
-300.0   60.0   0.0
-300.0   30.0   16.666666666666668
-250.0   30.0   0.0
-250.0   60.0   0.0
-300.0   60.0   0.0
-250.0   60.0   16.666666666666668
-300.0   30.0   16.666666666666668
-300.0   60.0   16.666666666666668
-250.0   60.0   16.666666666666668
-300.0   60.0   0.0
-300.0   30.0   16.666666666666668
-250.0   60.0   16.666666666666668
-250.0   30.0   16.666666666666668
-250.0   30.0   0.0
-300.0   30.0   16.666666666666668
-250.0   60.0   16.666666666666668
-250.0   30.0   0.0
-300.0   60.0   0.0
-300.0   30.0   16.666666666666668
-250.0   30.0   16.666666666666668
-300.0   60.0   16.666666666666668
-300.0   30.0   33.333333333333336
-250.0   30.0   16.666666666666668
-250.0   60.0   16.666666666666668
-300.0   60.0   16.666666666666668
-250.0   60.0   33.333333333333336
-300.0   30.0   33.333333333333336
-300.0   60.0   33.333333333333336
-250.0   60.0   33.333333333333336
-300.0   60.0   16.666666666666668
-300.0   30.0   33.333333333333336
-250.0   60.0   33.333333333333336
-250.0   30.0   33.333333333333336
-250.0   30.0   16.666666666666668
-300.0   30.0   33.333333333333336
-250.0   60.0   33.333333333333336
-250.0   30.0   16.666666666666668
-300.0   60.0   16.666666666666668
-300.0   30.0   33.333333333333336
-250.0   30.0   33.333333333333336
-300.0   60.0   33.333333333333336
-300.0   30.0   50.0
-250.0   30.0   33.333333333333336
-250.0   60.0   33.333333333333336
-300.0   60.0   33.333333333333336
-250.0   60.0   50.0
-300.0   30.0   50.0
-300.0   60.0   50.0
-250.0   60.0   50.0
-300.0   60.0   33.333333333333336
-300.0   30.0   50.0
-250.0   60.0   50.0
-250.0   30.0   50.0
-250.0   30.0   33.333333333333336
-300.0   30.0   50.0
-250.0   60.0   50.0
-250.0   30.0   33.333333333333336
-300.0   60.0   33.333333333333336
-300.0   60.0   0.0
-250.0   60.0   0.0
-300.0   90.0   0.0
-300.0   60.0   16.666666666666668
-250.0   60.0   0.0
-250.0   90.0   0.0
-300.0   90.0   0.0
-250.0   90.0   16.666666666666668
-300.0   60.0   16.666666666666668
-300.0   90.0   16.666666666666668
-250.0   90.0   16.666666666666668
-300.0   90.0   0.0
-300.0   60.0   16.666666666666668
-250.0   90.0   16.666666666666668
-250.0   60.0   16.666666666666668
-250.0   60.0   0.0
-300.0   60.0   16.666666666666668
-250.0   90.0   16.666666666666668
-250.0   60.0   0.0
-300.0   90.0   0.0
-300.0   60.0   16.666666666666668
-250.0   60.0   16.666666666666668
-300.0   90.0   16.666666666666668
-300.0   60.0   33.333333333333336
-250.0   60.0   16.666666666666668
-250.0   90.0   16.666666666666668
-300.0   90.0   16.666666666666668
-250.0   90.0   33.333333333333336
-300.0   60.0   33.333333333333336
-300.0   90.0   33.333333333333336
-250.0   90.0   33.333333333333336
-300.0   90.0   16.666666666666668
-300.0   60.0   33.333333333333336
-250.0   90.0   33.333333333333336
-250.0   60.0   33.333333333333336
-250.0   60.0   16.666666666666668
-300.0   60.0   33.333333333333336
-250.0   90.0   33.333333333333336
-250.0   60.0   16.666666666666668
-300.0   90.0   16.666666666666668
-300.0   60.0   33.333333333333336
-250.0   60.0   33.333333333333336
-300.0   90.0   33.333333333333336
-300.0   60.0   50.0
-250.0   60.0   33.333333333333336
-250.0   90.0   33.333333333333336
-300.0   90.0   33.333333333333336
-250.0   90.0   50.0
-300.0   60.0   50.0
-300.0   90.0   50.0
-250.0   90.0   50.0
-300.0   90.0   33.333333333333336
-300.0   60.0   50.0
-250.0   90.0   50.0
-250.0   60.0   50.0
-250.0   60.0   33.333333333333336
-300.0   60.0   50.0
-250.0   90.0   50.0
-250.0   60.0   33.333333333333336
-300.0   90.0   33.333333333333336
-300.0   90.0   0.0
-250.0   90.0   0.0
-300.0   120.0   0.0
-300.0   90.0   16.666666666666668
-250.0   90.0   0.0
-250.0   120.0   0.0
-300.0   120.0   0.0
-250.0   120.0   16.666666666666668
-300.0   90.0   16.666666666666668
-300.0   120.0   16.666666666666668
-250.0   120.0   16.666666666666668
-300.0   120.0   0.0
-300.0   90.0   16.666666666666668
-250.0   120.0   16.666666666666668
-250.0   90.0   16.666666666666668
-250.0   90.0   0.0
-300.0   90.0   16.666666666666668
-250.0   120.0   16.666666666666668
-250.0   90.0   0.0
-300.0   120.0   0.0
-300.0   90.0   16.666666666666668
-250.0   90.0   16.666666666666668
-300.0   120.0   16.666666666666668
-300.0   90.0   33.333333333333336
-250.0   90.0   16.666666666666668
-250.0   120.0   16.666666666666668
-300.0   120.0   16.666666666666668
-250.0   120.0   33.333333333333336
-300.0   90.0   33.333333333333336
-300.0   120.0   33.333333333333336
-250.0   120.0   33.333333333333336
-300.0   120.0   16.666666666666668
-300.0   90.0   33.333333333333336
-250.0   120.0   33.333333333333336
-250.0   90.0   33.333333333333336
-250.0   90.0   16.666666666666668
-300.0   90.0   33.333333333333336
-250.0   120.0   33.333333333333336
-250.0   90.0   16.666666666666668
-300.0   120.0   16.666666666666668
-300.0   90.0   33.333333333333336
-250.0   90.0   33.333333333333336
-300.0   120.0   33.333333333333336
-300.0   90.0   50.0
-250.0   90.0   33.333333333333336
-250.0   120.0   33.333333333333336
-300.0   120.0   33.333333333333336
-250.0   120.0   50.0
-300.0   90.0   50.0
-300.0   120.0   50.0
-250.0   120.0   50.0
-300.0   120.0   33.333333333333336
-300.0   90.0   50.0
-250.0   120.0   50.0
-250.0   90.0   50.0
-250.0   90.0   33.333333333333336
-300.0   90.0   50.0
-250.0   120.0   50.0
-250.0   90.0   33.333333333333336
-300.0   120.0   33.333333333333336
-300.0   120.0   0.0
-250.0   120.0   0.0
-300.0   150.0   0.0
-300.0   120.0   16.666666666666668
-250.0   120.0   0.0
-250.0   150.0   0.0
-300.0   150.0   0.0
-250.0   150.0   16.666666666666668
-300.0   120.0   16.666666666666668
-300.0   150.0   16.666666666666668
-250.0   150.0   16.666666666666668
-300.0   150.0   0.0
-300.0   120.0   16.666666666666668
-250.0   150.0   16.666666666666668
-250.0   120.0   16.666666666666668
-250.0   120.0   0.0
-300.0   120.0   16.666666666666668
-250.0   150.0   16.666666666666668
-250.0   120.0   0.0
-300.0   150.0   0.0
-300.0   120.0   16.666666666666668
-250.0   120.0   16.666666666666668
-300.0   150.0   16.666666666666668
-300.0   120.0   33.333333333333336
-250.0   120.0   16.666666666666668
-250.0   150.0   16.666666666666668
-300.0   150.0   16.666666666666668
-250.0   150.0   33.333333333333336
-300.0   120.0   33.333333333333336
-300.0   150.0   33.333333333333336
-250.0   150.0   33.333333333333336
-300.0   150.0   16.666666666666668
-300.0   120.0   33.333333333333336
-250.0   150.0   33.333333333333336
-250.0   120.0   33.333333333333336
-250.0   120.0   16.666666666666668
-300.0   120.0   33.333333333333336
-250.0   150.0   33.333333333333336
-250.0   120.0   16.666666666666668
-300.0   150.0   16.666666666666668
-300.0   120.0   33.333333333333336
-250.0   120.0   33.333333333333336
-300.0   150.0   33.333333333333336
-300.0   120.0   50.0
-250.0   120.0   33.333333333333336
-250.0   150.0   33.333333333333336
-300.0   150.0   33.333333333333336
-250.0   150.0   50.0
-300.0   120.0   50.0
-300.0   150.0   50.0
-250.0   150.0   50.0
-300.0   150.0   33.333333333333336
-300.0   120.0   50.0
-250.0   150.0   50.0
-250.0   120.0   50.0
-250.0   120.0   33.333333333333336
-300.0   120.0   50.0
-250.0   150.0   50.0
-250.0   120.0   33.333333333333336
-300.0   150.0   33.333333333333336
-250.0   0.0   0.0
-200.0   0.0   0.0
-250.0   30.0   0.0
-250.0   0.0   16.666666666666668
-200.0   0.0   0.0
-200.0   30.0   0.0
-250.0   30.0   0.0
-200.0   30.0   16.666666666666668
-250.0   0.0   16.666666666666668
-250.0   30.0   16.666666666666668
-200.0   30.0   16.666666666666668
-250.0   30.0   0.0
-250.0   0.0   16.666666666666668
-200.0   30.0   16.666666666666668
-200.0   0.0   16.666666666666668
-200.0   0.0   0.0
-250.0   0.0   16.666666666666668
-200.0   30.0   16.666666666666668
-200.0   0.0   0.0
-250.0   30.0   0.0
-250.0   0.0   16.666666666666668
-200.0   0.0   16.666666666666668
-250.0   30.0   16.666666666666668
-250.0   0.0   33.333333333333336
-200.0   0.0   16.666666666666668
-200.0   30.0   16.666666666666668
-250.0   30.0   16.666666666666668
-200.0   30.0   33.333333333333336
-250.0   0.0   33.333333333333336
-250.0   30.0   33.333333333333336
-200.0   30.0   33.333333333333336
-250.0   30.0   16.666666666666668
-250.0   0.0   33.333333333333336
-200.0   30.0   33.333333333333336
-200.0   0.0   33.333333333333336
-200.0   0.0   16.666666666666668
-250.0   0.0   33.333333333333336
-200.0   30.0   33.333333333333336
-200.0   0.0   16.666666666666668
-250.0   30.0   16.666666666666668
-250.0   0.0   33.333333333333336
-200.0   0.0   33.333333333333336
-250.0   30.0   33.333333333333336
-250.0   0.0   50.0
-200.0   0.0   33.333333333333336
-200.0   30.0   33.333333333333336
-250.0   30.0   33.333333333333336
-200.0   30.0   50.0
-250.0   0.0   50.0
-250.0   30.0   50.0
-200.0   30.0   50.0
-250.0   30.0   33.333333333333336
-250.0   0.0   50.0
-200.0   30.0   50.0
-200.0   0.0   50.0
-200.0   0.0   33.333333333333336
-250.0   0.0   50.0
-200.0   30.0   50.0
-200.0   0.0   33.333333333333336
-250.0   30.0   33.333333333333336
-250.0   30.0   0.0
-200.0   30.0   0.0
-250.0   60.0   0.0
-250.0   30.0   16.666666666666668
-200.0   30.0   0.0
-200.0   60.0   0.0
-250.0   60.0   0.0
-200.0   60.0   16.666666666666668
-250.0   30.0   16.666666666666668
-250.0   60.0   16.666666666666668
-200.0   60.0   16.666666666666668
-250.0   60.0   0.0
-250.0   30.0   16.666666666666668
-200.0   60.0   16.666666666666668
-200.0   30.0   16.666666666666668
-200.0   30.0   0.0
-250.0   30.0   16.666666666666668
-200.0   60.0   16.666666666666668
-200.0   30.0   0.0
-250.0   60.0   0.0
-250.0   30.0   16.666666666666668
-200.0   30.0   16.666666666666668
-250.0   60.0   16.666666666666668
-250.0   30.0   33.333333333333336
-200.0   30.0   16.666666666666668
-200.0   60.0   16.666666666666668
-250.0   60.0   16.666666666666668
-200.0   60.0   33.333333333333336
-250.0   30.0   33.333333333333336
-250.0   60.0   33.333333333333336
-200.0   60.0   33.333333333333336
-250.0   60.0   16.666666666666668
-250.0   30.0   33.333333333333336
-200.0   60.0   33.333333333333336
-200.0   30.0   33.333333333333336
-200.0   30.0   16.666666666666668
-250.0   30.0   33.333333333333336
-200.0   60.0   33.333333333333336
-200.0   30.0   16.666666666666668
-250.0   60.0   16.666666666666668
-250.0   30.0   33.333333333333336
-200.0   30.0   33.333333333333336
-250.0   60.0   33.333333333333336
-250.0   30.0   50.0
-200.0   30.0   33.333333333333336
-200.0   60.0   33.333333333333336
-250.0   60.0   33.333333333333336
-200.0   60.0   50.0
-250.0   30.0   50.0
-250.0   60.0   50.0
-200.0   60.0   50.0
-250.0   60.0   33.333333333333336
-250.0   30.0   50.0
-200.0   60.0   50.0
-200.0   30.0   50.0
-200.0   30.0   33.333333333333336
-250.0   30.0   50.0
-200.0   60.0   50.0
-200.0   30.0   33.333333333333336
-250.0   60.0   33.333333333333336
-250.0   60.0   0.0
-200.0   60.0   0.0
-250.0   90.0   0.0
-250.0   60.0   16.666666666666668
-200.0   60.0   0.0
-200.0   90.0   0.0
-250.0   90.0   0.0
-200.0   90.0   16.666666666666668
-250.0   60.0   16.666666666666668
-250.0   90.0   16.666666666666668
-200.0   90.0   16.666666666666668
-250.0   90.0   0.0
-250.0   60.0   16.666666666666668
-200.0   90.0   16.666666666666668
-200.0   60.0   16.666666666666668
-200.0   60.0   0.0
-250.0   60.0   16.666666666666668
-200.0   90.0   16.666666666666668
-200.0   60.0   0.0
-250.0   90.0   0.0
-250.0   60.0   16.666666666666668
-200.0   60.0   16.666666666666668
-250.0   90.0   16.666666666666668
-250.0   60.0   33.333333333333336
-200.0   60.0   16.666666666666668
-200.0   90.0   16.666666666666668
-250.0   90.0   16.666666666666668
-200.0   90.0   33.333333333333336
-250.0   60.0   33.333333333333336
-250.0   90.0   33.333333333333336
-200.0   90.0   33.333333333333336
-250.0   90.0   16.666666666666668
-250.0   60.0   33.333333333333336
-200.0   90.0   33.333333333333336
-200.0   60.0   33.333333333333336
-200.0   60.0   16.666666666666668
-250.0   60.0   33.333333333333336
-200.0   90.0   33.333333333333336
-200.0   60.0   16.666666666666668
-250.0   90.0   16.666666666666668
-250.0   60.0   33.333333333333336
-200.0   60.0   33.333333333333336
-250.0   90.0   33.333333333333336
-250.0   60.0   50.0
-200.0   60.0   33.333333333333336
-200.0   90.0   33.333333333333336
-250.0   90.0   33.333333333333336
-200.0   90.0   50.0
-250.0   60.0   50.0
-250.0   90.0   50.0
-200.0   90.0   50.0
-250.0   90.0   33.333333333333336
-250.0   60.0   50.0
-200.0   90.0   50.0
-200.0   60.0   50.0
-200.0   60.0   33.333333333333336
-250.0   60.0   50.0
-200.0   90.0   50.0
-200.0   60.0   33.333333333333336
-250.0   90.0   33.333333333333336
-250.0   90.0   0.0
-200.0   90.0   0.0
-250.0   120.0   0.0
-250.0   90.0   16.666666666666668
-200.0   90.0   0.0
-200.0   120.0   0.0
-250.0   120.0   0.0
-200.0   120.0   16.666666666666668
-250.0   90.0   16.666666666666668
-250.0   120.0   16.666666666666668
-200.0   120.0   16.666666666666668
-250.0   120.0   0.0
-250.0   90.0   16.666666666666668
-200.0   120.0   16.666666666666668
-200.0   90.0   16.666666666666668
-200.0   90.0   0.0
-250.0   90.0   16.666666666666668
-200.0   120.0   16.666666666666668
-200.0   90.0   0.0
-250.0   120.0   0.0
-250.0   90.0   16.666666666666668
-200.0   90.0   16.666666666666668
-250.0   120.0   16.666666666666668
-250.0   90.0   33.333333333333336
-200.0   90.0   16.666666666666668
-200.0   120.0   16.666666666666668
-250.0   120.0   16.666666666666668
-200.0   120.0   33.333333333333336
-250.0   90.0   33.333333333333336
-250.0   120.0   33.333333333333336
-200.0   120.0   33.333333333333336
-250.0   120.0   16.666666666666668
-250.0   90.0   33.333333333333336
-200.0   120.0   33.333333333333336
-200.0   90.0   33.333333333333336
-200.0   90.0   16.666666666666668
-250.0   90.0   33.333333333333336
-200.0   120.0   33.333333333333336
-200.0   90.0   16.666666666666668
-250.0   120.0   16.666666666666668
-250.0   90.0   33.333333333333336
-200.0   90.0   33.333333333333336
-250.0   120.0   33.333333333333336
-250.0   90.0   50.0
-200.0   90.0   33.333333333333336
-200.0   120.0   33.333333333333336
-250.0   120.0   33.333333333333336
-200.0   120.0   50.0
-250.0   90.0   50.0
-250.0   120.0   50.0
-200.0   120.0   50.0
-250.0   120.0   33.333333333333336
-250.0   90.0   50.0
-200.0   120.0   50.0
-200.0   90.0   50.0
-200.0   90.0   33.333333333333336
-250.0   90.0   50.0
-200.0   120.0   50.0
-200.0   90.0   33.333333333333336
-250.0   120.0   33.333333333333336
-250.0   120.0   0.0
-200.0   120.0   0.0
-250.0   150.0   0.0
-250.0   120.0   16.666666666666668
-200.0   120.0   0.0
-200.0   150.0   0.0
-250.0   150.0   0.0
-200.0   150.0   16.666666666666668
-250.0   120.0   16.666666666666668
-250.0   150.0   16.666666666666668
-200.0   150.0   16.666666666666668
-250.0   150.0   0.0
-250.0   120.0   16.666666666666668
-200.0   150.0   16.666666666666668
-200.0   120.0   16.666666666666668
-200.0   120.0   0.0
-250.0   120.0   16.666666666666668
-200.0   150.0   16.666666666666668
-200.0   120.0   0.0
-250.0   150.0   0.0
-250.0   120.0   16.666666666666668
-200.0   120.0   16.666666666666668
-250.0   150.0   16.666666666666668
-250.0   120.0   33.333333333333336
-200.0   120.0   16.666666666666668
-200.0   150.0   16.666666666666668
-250.0   150.0   16.666666666666668
-200.0   150.0   33.333333333333336
-250.0   120.0   33.333333333333336
-250.0   150.0   33.333333333333336
-200.0   150.0   33.333333333333336
-250.0   150.0   16.666666666666668
-250.0   120.0   33.333333333333336
-200.0   150.0   33.333333333333336
-200.0   120.0   33.333333333333336
-200.0   120.0   16.666666666666668
-250.0   120.0   33.333333333333336
-200.0   150.0   33.333333333333336
-200.0   120.0   16.666666666666668
-250.0   150.0   16.666666666666668
-250.0   120.0   33.333333333333336
-200.0   120.0   33.333333333333336
-250.0   150.0   33.333333333333336
-250.0   120.0   50.0
-200.0   120.0   33.333333333333336
-200.0   150.0   33.333333333333336
-250.0   150.0   33.333333333333336
-200.0   150.0   50.0
-250.0   120.0   50.0
-250.0   150.0   50.0
-200.0   150.0   50.0
-250.0   150.0   33.333333333333336
-250.0   120.0   50.0
-200.0   150.0   50.0
-200.0   120.0   50.0
-200.0   120.0   33.333333333333336
-250.0   120.0   50.0
-200.0   150.0   50.0
-200.0   120.0   33.333333333333336
-250.0   150.0   33.333333333333336
-200.0   0.0   0.0
-150.0   0.0   0.0
-200.0   30.0   0.0
-200.0   0.0   16.666666666666668
-150.0   0.0   0.0
-150.0   30.0   0.0
-200.0   30.0   0.0
-150.0   30.0   16.666666666666668
-200.0   0.0   16.666666666666668
-200.0   30.0   16.666666666666668
-150.0   30.0   16.666666666666668
-200.0   30.0   0.0
-200.0   0.0   16.666666666666668
-150.0   30.0   16.666666666666668
-150.0   0.0   16.666666666666668
-150.0   0.0   0.0
-200.0   0.0   16.666666666666668
-150.0   30.0   16.666666666666668
-150.0   0.0   0.0
-200.0   30.0   0.0
-200.0   0.0   16.666666666666668
-150.0   0.0   16.666666666666668
-200.0   30.0   16.666666666666668
-200.0   0.0   33.333333333333336
-150.0   0.0   16.666666666666668
-150.0   30.0   16.666666666666668
-200.0   30.0   16.666666666666668
-150.0   30.0   33.333333333333336
-200.0   0.0   33.333333333333336
-200.0   30.0   33.333333333333336
-150.0   30.0   33.333333333333336
-200.0   30.0   16.666666666666668
-200.0   0.0   33.333333333333336
-150.0   30.0   33.333333333333336
-150.0   0.0   33.333333333333336
-150.0   0.0   16.666666666666668
-200.0   0.0   33.333333333333336
-150.0   30.0   33.333333333333336
-150.0   0.0   16.666666666666668
-200.0   30.0   16.666666666666668
-200.0   0.0   33.333333333333336
-150.0   0.0   33.333333333333336
-200.0   30.0   33.333333333333336
-200.0   0.0   50.0
-150.0   0.0   33.333333333333336
-150.0   30.0   33.333333333333336
-200.0   30.0   33.333333333333336
-150.0   30.0   50.0
-200.0   0.0   50.0
-200.0   30.0   50.0
-150.0   30.0   50.0
-200.0   30.0   33.333333333333336
-200.0   0.0   50.0
-150.0   30.0   50.0
-150.0   0.0   50.0
-150.0   0.0   33.333333333333336
-200.0   0.0   50.0
-150.0   30.0   50.0
-150.0   0.0   33.333333333333336
-200.0   30.0   33.333333333333336
-200.0   30.0   0.0
-150.0   30.0   0.0
-200.0   60.0   0.0
-200.0   30.0   16.666666666666668
-150.0   30.0   0.0
-150.0   60.0   0.0
-200.0   60.0   0.0
-150.0   60.0   16.666666666666668
-200.0   30.0   16.666666666666668
-200.0   60.0   16.666666666666668
-150.0   60.0   16.666666666666668
-200.0   60.0   0.0
-200.0   30.0   16.666666666666668
-150.0   60.0   16.666666666666668
-150.0   30.0   16.666666666666668
-150.0   30.0   0.0
-200.0   30.0   16.666666666666668
-150.0   60.0   16.666666666666668
-150.0   30.0   0.0
-200.0   60.0   0.0
-200.0   30.0   16.666666666666668
-150.0   30.0   16.666666666666668
-200.0   60.0   16.666666666666668
-200.0   30.0   33.333333333333336
-150.0   30.0   16.666666666666668
-150.0   60.0   16.666666666666668
-200.0   60.0   16.666666666666668
-150.0   60.0   33.333333333333336
-200.0   30.0   33.333333333333336
-200.0   60.0   33.333333333333336
-150.0   60.0   33.333333333333336
-200.0   60.0   16.666666666666668
-200.0   30.0   33.333333333333336
-150.0   60.0   33.333333333333336
-150.0   30.0   33.333333333333336
-150.0   30.0   16.666666666666668
-200.0   30.0   33.333333333333336
-150.0   60.0   33.333333333333336
-150.0   30.0   16.666666666666668
-200.0   60.0   16.666666666666668
-200.0   30.0   33.333333333333336
-150.0   30.0   33.333333333333336
-200.0   60.0   33.333333333333336
-200.0   30.0   50.0
-150.0   30.0   33.333333333333336
-150.0   60.0   33.333333333333336
-200.0   60.0   33.333333333333336
-150.0   60.0   50.0
-200.0   30.0   50.0
-200.0   60.0   50.0
-150.0   60.0   50.0
-200.0   60.0   33.333333333333336
-200.0   30.0   50.0
-150.0   60.0   50.0
-150.0   30.0   50.0
-150.0   30.0   33.333333333333336
-200.0   30.0   50.0
-150.0   60.0   50.0
-150.0   30.0   33.333333333333336
-200.0   60.0   33.333333333333336
-200.0   60.0   0.0
-150.0   60.0   0.0
-200.0   90.0   0.0
-200.0   60.0   16.666666666666668
-150.0   60.0   0.0
-150.0   90.0   0.0
-200.0   90.0   0.0
-150.0   90.0   16.666666666666668
-200.0   60.0   16.666666666666668
-200.0   90.0   16.666666666666668
-150.0   90.0   16.666666666666668
-200.0   90.0   0.0
-200.0   60.0   16.666666666666668
-150.0   90.0   16.666666666666668
-150.0   60.0   16.666666666666668
-150.0   60.0   0.0
-200.0   60.0   16.666666666666668
-150.0   90.0   16.666666666666668
-150.0   60.0   0.0
-200.0   90.0   0.0
-200.0   60.0   16.666666666666668
-150.0   60.0   16.666666666666668
-200.0   90.0   16.666666666666668
-200.0   60.0   33.333333333333336
-150.0   60.0   16.666666666666668
-150.0   90.0   16.666666666666668
-200.0   90.0   16.666666666666668
-150.0   90.0   33.333333333333336
-200.0   60.0   33.333333333333336
-200.0   90.0   33.333333333333336
-150.0   90.0   33.333333333333336
-200.0   90.0   16.666666666666668
-200.0   60.0   33.333333333333336
-150.0   90.0   33.333333333333336
-150.0   60.0   33.333333333333336
-150.0   60.0   16.666666666666668
-200.0   60.0   33.333333333333336
-150.0   90.0   33.333333333333336
-150.0   60.0   16.666666666666668
-200.0   90.0   16.666666666666668
-200.0   60.0   33.333333333333336
-150.0   60.0   33.333333333333336
-200.0   90.0   33.333333333333336
-200.0   60.0   50.0
-150.0   60.0   33.333333333333336
-150.0   90.0   33.333333333333336
-200.0   90.0   33.333333333333336
-150.0   90.0   50.0
-200.0   60.0   50.0
-200.0   90.0   50.0
-150.0   90.0   50.0
-200.0   90.0   33.333333333333336
-200.0   60.0   50.0
-150.0   90.0   50.0
-150.0   60.0   50.0
-150.0   60.0   33.333333333333336
-200.0   60.0   50.0
-150.0   90.0   50.0
-150.0   60.0   33.333333333333336
-200.0   90.0   33.333333333333336
-200.0   90.0   0.0
-150.0   90.0   0.0
-200.0   120.0   0.0
-200.0   90.0   16.666666666666668
-150.0   90.0   0.0
-150.0   120.0   0.0
-200.0   120.0   0.0
-150.0   120.0   16.666666666666668
-200.0   90.0   16.666666666666668
-200.0   120.0   16.666666666666668
-150.0   120.0   16.666666666666668
-200.0   120.0   0.0
-200.0   90.0   16.666666666666668
-150.0   120.0   16.666666666666668
-150.0   90.0   16.666666666666668
-150.0   90.0   0.0
-200.0   90.0   16.666666666666668
-150.0   120.0   16.666666666666668
-150.0   90.0   0.0
-200.0   120.0   0.0
-200.0   90.0   16.666666666666668
-150.0   90.0   16.666666666666668
-200.0   120.0   16.666666666666668
-200.0   90.0   33.333333333333336
-150.0   90.0   16.666666666666668
-150.0   120.0   16.666666666666668
-200.0   120.0   16.666666666666668
-150.0   120.0   33.333333333333336
-200.0   90.0   33.333333333333336
-200.0   120.0   33.333333333333336
-150.0   120.0   33.333333333333336
-200.0   120.0   16.666666666666668
-200.0   90.0   33.333333333333336
-150.0   120.0   33.333333333333336
-150.0   90.0   33.333333333333336
-150.0   90.0   16.666666666666668
-200.0   90.0   33.333333333333336
-150.0   120.0   33.333333333333336
-150.0   90.0   16.666666666666668
-200.0   120.0   16.666666666666668
-200.0   90.0   33.333333333333336
-150.0   90.0   33.333333333333336
-200.0   120.0   33.333333333333336
-200.0   90.0   50.0
-150.0   90.0   33.333333333333336
-150.0   120.0   33.333333333333336
-200.0   120.0   33.333333333333336
-150.0   120.0   50.0
-200.0   90.0   50.0
-200.0   120.0   50.0
-150.0   120.0   50.0
-200.0   120.0   33.333333333333336
-200.0   90.0   50.0
-150.0   120.0   50.0
-150.0   90.0   50.0
-150.0   90.0   33.333333333333336
-200.0   90.0   50.0
-150.0   120.0   50.0
-150.0   90.0   33.333333333333336
-200.0   120.0   33.333333333333336
-200.0   120.0   0.0
-150.0   120.0   0.0
-200.0   150.0   0.0
-200.0   120.0   16.666666666666668
-150.0   120.0   0.0
-150.0   150.0   0.0
-200.0   150.0   0.0
-150.0   150.0   16.666666666666668
-200.0   120.0   16.666666666666668
-200.0   150.0   16.666666666666668
-150.0   150.0   16.666666666666668
-200.0   150.0   0.0
-200.0   120.0   16.666666666666668
-150.0   150.0   16.666666666666668
-150.0   120.0   16.666666666666668
-150.0   120.0   0.0
-200.0   120.0   16.666666666666668
-150.0   150.0   16.666666666666668
-150.0   120.0   0.0
-200.0   150.0   0.0
-200.0   120.0   16.666666666666668
-150.0   120.0   16.666666666666668
-200.0   150.0   16.666666666666668
-200.0   120.0   33.333333333333336
-150.0   120.0   16.666666666666668
-150.0   150.0   16.666666666666668
-200.0   150.0   16.666666666666668
-150.0   150.0   33.333333333333336
-200.0   120.0   33.333333333333336
-200.0   150.0   33.333333333333336
-150.0   150.0   33.333333333333336
-200.0   150.0   16.666666666666668
-200.0   120.0   33.333333333333336
-150.0   150.0   33.333333333333336
-150.0   120.0   33.333333333333336
-150.0   120.0   16.666666666666668
-200.0   120.0   33.333333333333336
-150.0   150.0   33.333333333333336
-150.0   120.0   16.666666666666668
-200.0   150.0   16.666666666666668
-200.0   120.0   33.333333333333336
-150.0   120.0   33.333333333333336
-200.0   150.0   33.333333333333336
-200.0   120.0   50.0
-150.0   120.0   33.333333333333336
-150.0   150.0   33.333333333333336
-200.0   150.0   33.333333333333336
-150.0   150.0   50.0
-200.0   120.0   50.0
-200.0   150.0   50.0
-150.0   150.0   50.0
-200.0   150.0   33.333333333333336
-200.0   120.0   50.0
-150.0   150.0   50.0
-150.0   120.0   50.0
-150.0   120.0   33.333333333333336
-200.0   120.0   50.0
-150.0   150.0   50.0
-150.0   120.0   33.333333333333336
-200.0   150.0   33.333333333333336
-150.0   0.0   0.0
-100.0   0.0   0.0
-150.0   30.0   0.0
-150.0   0.0   16.666666666666668
-100.0   0.0   0.0
-100.0   30.0   0.0
-150.0   30.0   0.0
-100.0   30.0   16.666666666666668
-150.0   0.0   16.666666666666668
-150.0   30.0   16.666666666666668
-100.0   30.0   16.666666666666668
-150.0   30.0   0.0
-150.0   0.0   16.666666666666668
-100.0   30.0   16.666666666666668
-100.0   0.0   16.666666666666668
-100.0   0.0   0.0
-150.0   0.0   16.666666666666668
-100.0   30.0   16.666666666666668
-100.0   0.0   0.0
-150.0   30.0   0.0
-150.0   0.0   16.666666666666668
-100.0   0.0   16.666666666666668
-150.0   30.0   16.666666666666668
-150.0   0.0   33.333333333333336
-100.0   0.0   16.666666666666668
-100.0   30.0   16.666666666666668
-150.0   30.0   16.666666666666668
-100.0   30.0   33.333333333333336
-150.0   0.0   33.333333333333336
-150.0   30.0   33.333333333333336
-100.0   30.0   33.333333333333336
-150.0   30.0   16.666666666666668
-150.0   0.0   33.333333333333336
-100.0   30.0   33.333333333333336
-100.0   0.0   33.333333333333336
-100.0   0.0   16.666666666666668
-150.0   0.0   33.333333333333336
-100.0   30.0   33.333333333333336
-100.0   0.0   16.666666666666668
-150.0   30.0   16.666666666666668
-150.0   0.0   33.333333333333336
-100.0   0.0   33.333333333333336
-150.0   30.0   33.333333333333336
-150.0   0.0   50.0
-100.0   0.0   33.333333333333336
-100.0   30.0   33.333333333333336
-150.0   30.0   33.333333333333336
-100.0   30.0   50.0
-150.0   0.0   50.0
-150.0   30.0   50.0
-100.0   30.0   50.0
-150.0   30.0   33.333333333333336
-150.0   0.0   50.0
-100.0   30.0   50.0
-100.0   0.0   50.0
-100.0   0.0   33.333333333333336
-150.0   0.0   50.0
-100.0   30.0   50.0
-100.0   0.0   33.333333333333336
-150.0   30.0   33.333333333333336
-150.0   30.0   0.0
-100.0   30.0   0.0
-150.0   60.0   0.0
-150.0   30.0   16.666666666666668
-100.0   30.0   0.0
-100.0   60.0   0.0
-150.0   60.0   0.0
-100.0   60.0   16.666666666666668
-150.0   30.0   16.666666666666668
-150.0   60.0   16.666666666666668
-100.0   60.0   16.666666666666668
-150.0   60.0   0.0
-150.0   30.0   16.666666666666668
-100.0   60.0   16.666666666666668
-100.0   30.0   16.666666666666668
-100.0   30.0   0.0
-150.0   30.0   16.666666666666668
-100.0   60.0   16.666666666666668
-100.0   30.0   0.0
-150.0   60.0   0.0
-150.0   30.0   16.666666666666668
-100.0   30.0   16.666666666666668
-150.0   60.0   16.666666666666668
-150.0   30.0   33.333333333333336
-100.0   30.0   16.666666666666668
-100.0   60.0   16.666666666666668
-150.0   60.0   16.666666666666668
-100.0   60.0   33.333333333333336
-150.0   30.0   33.333333333333336
-150.0   60.0   33.333333333333336
-100.0   60.0   33.333333333333336
-150.0   60.0   16.666666666666668
-150.0   30.0   33.333333333333336
-100.0   60.0   33.333333333333336
-100.0   30.0   33.333333333333336
-100.0   30.0   16.666666666666668
-150.0   30.0   33.333333333333336
-100.0   60.0   33.333333333333336
-100.0   30.0   16.666666666666668
-150.0   60.0   16.666666666666668
-150.0   30.0   33.333333333333336
-100.0   30.0   33.333333333333336
-150.0   60.0   33.333333333333336
-150.0   30.0   50.0
-100.0   30.0   33.333333333333336
-100.0   60.0   33.333333333333336
-150.0   60.0   33.333333333333336
-100.0   60.0   50.0
-150.0   30.0   50.0
-150.0   60.0   50.0
-100.0   60.0   50.0
-150.0   60.0   33.333333333333336
-150.0   30.0   50.0
-100.0   60.0   50.0
-100.0   30.0   50.0
-100.0   30.0   33.333333333333336
-150.0   30.0   50.0
-100.0   60.0   50.0
-100.0   30.0   33.333333333333336
-150.0   60.0   33.333333333333336
-150.0   60.0   0.0
-100.0   60.0   0.0
-150.0   90.0   0.0
-150.0   60.0   16.666666666666668
-100.0   60.0   0.0
-100.0   90.0   0.0
-150.0   90.0   0.0
-100.0   90.0   16.666666666666668
-150.0   60.0   16.666666666666668
-150.0   90.0   16.666666666666668
-100.0   90.0   16.666666666666668
-150.0   90.0   0.0
-150.0   60.0   16.666666666666668
-100.0   90.0   16.666666666666668
-100.0   60.0   16.666666666666668
-100.0   60.0   0.0
-150.0   60.0   16.666666666666668
-100.0   90.0   16.666666666666668
-100.0   60.0   0.0
-150.0   90.0   0.0
-150.0   60.0   16.666666666666668
-100.0   60.0   16.666666666666668
-150.0   90.0   16.666666666666668
-150.0   60.0   33.333333333333336
-100.0   60.0   16.666666666666668
-100.0   90.0   16.666666666666668
-150.0   90.0   16.666666666666668
-100.0   90.0   33.333333333333336
-150.0   60.0   33.333333333333336
-150.0   90.0   33.333333333333336
-100.0   90.0   33.333333333333336
-150.0   90.0   16.666666666666668
-150.0   60.0   33.333333333333336
-100.0   90.0   33.333333333333336
-100.0   60.0   33.333333333333336
-100.0   60.0   16.666666666666668
-150.0   60.0   33.333333333333336
-100.0   90.0   33.333333333333336
-100.0   60.0   16.666666666666668
-150.0   90.0   16.666666666666668
-150.0   60.0   33.333333333333336
-100.0   60.0   33.333333333333336
-150.0   90.0   33.333333333333336
-150.0   60.0   50.0
-100.0   60.0   33.333333333333336
-100.0   90.0   33.333333333333336
-150.0   90.0   33.333333333333336
-100.0   90.0   50.0
-150.0   60.0   50.0
-150.0   90.0   50.0
-100.0   90.0   50.0
-150.0   90.0   33.333333333333336
-150.0   60.0   50.0
-100.0   90.0   50.0
-100.0   60.0   50.0
-100.0   60.0   33.333333333333336
-150.0   60.0   50.0
-100.0   90.0   50.0
-100.0   60.0   33.333333333333336
-150.0   90.0   33.333333333333336
-150.0   90.0   0.0
-100.0   90.0   0.0
-150.0   120.0   0.0
-150.0   90.0   16.666666666666668
-100.0   90.0   0.0
-100.0   120.0   0.0
-150.0   120.0   0.0
-100.0   120.0   16.666666666666668
-150.0   90.0   16.666666666666668
-150.0   120.0   16.666666666666668
-100.0   120.0   16.666666666666668
-150.0   120.0   0.0
-150.0   90.0   16.666666666666668
-100.0   120.0   16.666666666666668
-100.0   90.0   16.666666666666668
-100.0   90.0   0.0
-150.0   90.0   16.666666666666668
-100.0   120.0   16.666666666666668
-100.0   90.0   0.0
-150.0   120.0   0.0
-150.0   90.0   16.666666666666668
-100.0   90.0   16.666666666666668
-150.0   120.0   16.666666666666668
-150.0   90.0   33.333333333333336
-100.0   90.0   16.666666666666668
-100.0   120.0   16.666666666666668
-150.0   120.0   16.666666666666668
-100.0   120.0   33.333333333333336
-150.0   90.0   33.333333333333336
-150.0   120.0   33.333333333333336
-100.0   120.0   33.333333333333336
-150.0   120.0   16.666666666666668
-150.0   90.0   33.333333333333336
-100.0   120.0   33.333333333333336
-100.0   90.0   33.333333333333336
-100.0   90.0   16.666666666666668
-150.0   90.0   33.333333333333336
-100.0   120.0   33.333333333333336
-100.0   90.0   16.666666666666668
-150.0   120.0   16.666666666666668
-150.0   90.0   33.333333333333336
-100.0   90.0   33.333333333333336
-150.0   120.0   33.333333333333336
-150.0   90.0   50.0
-100.0   90.0   33.333333333333336
-100.0   120.0   33.333333333333336
-150.0   120.0   33.333333333333336
-100.0   120.0   50.0
-150.0   90.0   50.0
-150.0   120.0   50.0
-100.0   120.0   50.0
-150.0   120.0   33.333333333333336
-150.0   90.0   50.0
-100.0   120.0   50.0
-100.0   90.0   50.0
-100.0   90.0   33.333333333333336
-150.0   90.0   50.0
-100.0   120.0   50.0
-100.0   90.0   33.333333333333336
-150.0   120.0   33.333333333333336
-150.0   120.0   0.0
-100.0   120.0   0.0
-150.0   150.0   0.0
-150.0   120.0   16.666666666666668
-100.0   120.0   0.0
-100.0   150.0   0.0
-150.0   150.0   0.0
-100.0   150.0   16.666666666666668
-150.0   120.0   16.666666666666668
-150.0   150.0   16.666666666666668
-100.0   150.0   16.666666666666668
-150.0   150.0   0.0
-150.0   120.0   16.666666666666668
-100.0   150.0   16.666666666666668
-100.0   120.0   16.666666666666668
-100.0   120.0   0.0
-150.0   120.0   16.666666666666668
-100.0   150.0   16.666666666666668
-100.0   120.0   0.0
-150.0   150.0   0.0
-150.0   120.0   16.666666666666668
-100.0   120.0   16.666666666666668
-150.0   150.0   16.666666666666668
-150.0   120.0   33.333333333333336
-100.0   120.0   16.666666666666668
-100.0   150.0   16.666666666666668
-150.0   150.0   16.666666666666668
-100.0   150.0   33.333333333333336
-150.0   120.0   33.333333333333336
-150.0   150.0   33.333333333333336
-100.0   150.0   33.333333333333336
-150.0   150.0   16.666666666666668
-150.0   120.0   33.333333333333336
-100.0   150.0   33.333333333333336
-100.0   120.0   33.333333333333336
-100.0   120.0   16.666666666666668
-150.0   120.0   33.333333333333336
-100.0   150.0   33.333333333333336
-100.0   120.0   16.666666666666668
-150.0   150.0   16.666666666666668
-150.0   120.0   33.333333333333336
-100.0   120.0   33.333333333333336
-150.0   150.0   33.333333333333336
-150.0   120.0   50.0
-100.0   120.0   33.333333333333336
-100.0   150.0   33.333333333333336
-150.0   150.0   33.333333333333336
-100.0   150.0   50.0
-150.0   120.0   50.0
-150.0   150.0   50.0
-100.0   150.0   50.0
-150.0   150.0   33.333333333333336
-150.0   120.0   50.0
-100.0   150.0   50.0
-100.0   120.0   50.0
-100.0   120.0   33.333333333333336
-150.0   120.0   50.0
-100.0   150.0   50.0
-100.0   120.0   33.333333333333336
-150.0   150.0   33.333333333333336
-100.0   0.0   0.0
-50.0   0.0   0.0
-100.0   30.0   0.0
-100.0   0.0   16.666666666666668
-50.0   0.0   0.0
-50.0   30.0   0.0
-100.0   30.0   0.0
-50.0   30.0   16.666666666666668
-100.0   0.0   16.666666666666668
-100.0   30.0   16.666666666666668
-50.0   30.0   16.666666666666668
-100.0   30.0   0.0
-100.0   0.0   16.666666666666668
-50.0   30.0   16.666666666666668
-50.0   0.0   16.666666666666668
-50.0   0.0   0.0
-100.0   0.0   16.666666666666668
-50.0   30.0   16.666666666666668
-50.0   0.0   0.0
-100.0   30.0   0.0
-100.0   0.0   16.666666666666668
-50.0   0.0   16.666666666666668
-100.0   30.0   16.666666666666668
-100.0   0.0   33.333333333333336
-50.0   0.0   16.666666666666668
-50.0   30.0   16.666666666666668
-100.0   30.0   16.666666666666668
-50.0   30.0   33.333333333333336
-100.0   0.0   33.333333333333336
-100.0   30.0   33.333333333333336
-50.0   30.0   33.333333333333336
-100.0   30.0   16.666666666666668
-100.0   0.0   33.333333333333336
-50.0   30.0   33.333333333333336
-50.0   0.0   33.333333333333336
-50.0   0.0   16.666666666666668
-100.0   0.0   33.333333333333336
-50.0   30.0   33.333333333333336
-50.0   0.0   16.666666666666668
-100.0   30.0   16.666666666666668
-100.0   0.0   33.333333333333336
-50.0   0.0   33.333333333333336
-100.0   30.0   33.333333333333336
-100.0   0.0   50.0
-50.0   0.0   33.333333333333336
-50.0   30.0   33.333333333333336
-100.0   30.0   33.333333333333336
-50.0   30.0   50.0
-100.0   0.0   50.0
-100.0   30.0   50.0
-50.0   30.0   50.0
-100.0   30.0   33.333333333333336
-100.0   0.0   50.0
-50.0   30.0   50.0
-50.0   0.0   50.0
-50.0   0.0   33.333333333333336
-100.0   0.0   50.0
-50.0   30.0   50.0
-50.0   0.0   33.333333333333336
-100.0   30.0   33.333333333333336
-100.0   30.0   0.0
-50.0   30.0   0.0
-100.0   60.0   0.0
-100.0   30.0   16.666666666666668
-50.0   30.0   0.0
-50.0   60.0   0.0
-100.0   60.0   0.0
-50.0   60.0   16.666666666666668
-100.0   30.0   16.666666666666668
-100.0   60.0   16.666666666666668
-50.0   60.0   16.666666666666668
-100.0   60.0   0.0
-100.0   30.0   16.666666666666668
-50.0   60.0   16.666666666666668
-50.0   30.0   16.666666666666668
-50.0   30.0   0.0
-100.0   30.0   16.666666666666668
-50.0   60.0   16.666666666666668
-50.0   30.0   0.0
-100.0   60.0   0.0
-100.0   30.0   16.666666666666668
-50.0   30.0   16.666666666666668
-100.0   60.0   16.666666666666668
-100.0   30.0   33.333333333333336
-50.0   30.0   16.666666666666668
-50.0   60.0   16.666666666666668
-100.0   60.0   16.666666666666668
-50.0   60.0   33.333333333333336
-100.0   30.0   33.333333333333336
-100.0   60.0   33.333333333333336
-50.0   60.0   33.333333333333336
-100.0   60.0   16.666666666666668
-100.0   30.0   33.333333333333336
-50.0   60.0   33.333333333333336
-50.0   30.0   33.333333333333336
-50.0   30.0   16.666666666666668
-100.0   30.0   33.333333333333336
-50.0   60.0   33.333333333333336
-50.0   30.0   16.666666666666668
-100.0   60.0   16.666666666666668
-100.0   30.0   33.333333333333336
-50.0   30.0   33.333333333333336
-100.0   60.0   33.333333333333336
-100.0   30.0   50.0
-50.0   30.0   33.333333333333336
-50.0   60.0   33.333333333333336
-100.0   60.0   33.333333333333336
-50.0   60.0   50.0
-100.0   30.0   50.0
-100.0   60.0   50.0
-50.0   60.0   50.0
-100.0   60.0   33.333333333333336
-100.0   30.0   50.0
-50.0   60.0   50.0
-50.0   30.0   50.0
-50.0   30.0   33.333333333333336
-100.0   30.0   50.0
-50.0   60.0   50.0
-50.0   30.0   33.333333333333336
-100.0   60.0   33.333333333333336
-100.0   60.0   0.0
-50.0   60.0   0.0
-100.0   90.0   0.0
-100.0   60.0   16.666666666666668
-50.0   60.0   0.0
-50.0   90.0   0.0
-100.0   90.0   0.0
-50.0   90.0   16.666666666666668
-100.0   60.0   16.666666666666668
-100.0   90.0   16.666666666666668
-50.0   90.0   16.666666666666668
-100.0   90.0   0.0
-100.0   60.0   16.666666666666668
-50.0   90.0   16.666666666666668
-50.0   60.0   16.666666666666668
-50.0   60.0   0.0
-100.0   60.0   16.666666666666668
-50.0   90.0   16.666666666666668
-50.0   60.0   0.0
-100.0   90.0   0.0
-100.0   60.0   16.666666666666668
-50.0   60.0   16.666666666666668
-100.0   90.0   16.666666666666668
-100.0   60.0   33.333333333333336
-50.0   60.0   16.666666666666668
-50.0   90.0   16.666666666666668
-100.0   90.0   16.666666666666668
-50.0   90.0   33.333333333333336
-100.0   60.0   33.333333333333336
-100.0   90.0   33.333333333333336
-50.0   90.0   33.333333333333336
-100.0   90.0   16.666666666666668
-100.0   60.0   33.333333333333336
-50.0   90.0   33.333333333333336
-50.0   60.0   33.333333333333336
-50.0   60.0   16.666666666666668
-100.0   60.0   33.333333333333336
-50.0   90.0   33.333333333333336
-50.0   60.0   16.666666666666668
-100.0   90.0   16.666666666666668
-100.0   60.0   33.333333333333336
-50.0   60.0   33.333333333333336
-100.0   90.0   33.333333333333336
-100.0   60.0   50.0
-50.0   60.0   33.333333333333336
-50.0   90.0   33.333333333333336
-100.0   90.0   33.333333333333336
-50.0   90.0   50.0
-100.0   60.0   50.0
-100.0   90.0   50.0
-50.0   90.0   50.0
-100.0   90.0   33.333333333333336
-100.0   60.0   50.0
-50.0   90.0   50.0
-50.0   60.0   50.0
-50.0   60.0   33.333333333333336
-100.0   60.0   50.0
-50.0   90.0   50.0
-50.0   60.0   33.333333333333336
-100.0   90.0   33.333333333333336
-100.0   90.0   0.0
-50.0   90.0   0.0
-100.0   120.0   0.0
-100.0   90.0   16.666666666666668
-50.0   90.0   0.0
-50.0   120.0   0.0
-100.0   120.0   0.0
-50.0   120.0   16.666666666666668
-100.0   90.0   16.666666666666668
-100.0   120.0   16.666666666666668
-50.0   120.0   16.666666666666668
-100.0   120.0   0.0
-100.0   90.0   16.666666666666668
-50.0   120.0   16.666666666666668
-50.0   90.0   16.666666666666668
-50.0   90.0   0.0
-100.0   90.0   16.666666666666668
-50.0   120.0   16.666666666666668
-50.0   90.0   0.0
-100.0   120.0   0.0
-100.0   90.0   16.666666666666668
-50.0   90.0   16.666666666666668
-100.0   120.0   16.666666666666668
-100.0   90.0   33.333333333333336
-50.0   90.0   16.666666666666668
-50.0   120.0   16.666666666666668
-100.0   120.0   16.666666666666668
-50.0   120.0   33.333333333333336
-100.0   90.0   33.333333333333336
-100.0   120.0   33.333333333333336
-50.0   120.0   33.333333333333336
-100.0   120.0   16.666666666666668
-100.0   90.0   33.333333333333336
-50.0   120.0   33.333333333333336
-50.0   90.0   33.333333333333336
-50.0   90.0   16.666666666666668
-100.0   90.0   33.333333333333336
-50.0   120.0   33.333333333333336
-50.0   90.0   16.666666666666668
-100.0   120.0   16.666666666666668
-100.0   90.0   33.333333333333336
-50.0   90.0   33.333333333333336
-100.0   120.0   33.333333333333336
-100.0   90.0   50.0
-50.0   90.0   33.333333333333336
-50.0   120.0   33.333333333333336
-100.0   120.0   33.333333333333336
-50.0   120.0   50.0
-100.0   90.0   50.0
-100.0   120.0   50.0
-50.0   120.0   50.0
-100.0   120.0   33.333333333333336
-100.0   90.0   50.0
-50.0   120.0   50.0
-50.0   90.0   50.0
-50.0   90.0   33.333333333333336
-100.0   90.0   50.0
-50.0   120.0   50.0
-50.0   90.0   33.333333333333336
-100.0   120.0   33.333333333333336
-100.0   120.0   0.0
-50.0   120.0   0.0
-100.0   150.0   0.0
-100.0   120.0   16.666666666666668
-50.0   120.0   0.0
-50.0   150.0   0.0
-100.0   150.0   0.0
-50.0   150.0   16.666666666666668
-100.0   120.0   16.666666666666668
-100.0   150.0   16.666666666666668
-50.0   150.0   16.666666666666668
-100.0   150.0   0.0
-100.0   120.0   16.666666666666668
-50.0   150.0   16.666666666666668
-50.0   120.0   16.666666666666668
-50.0   120.0   0.0
-100.0   120.0   16.666666666666668
-50.0   150.0   16.666666666666668
-50.0   120.0   0.0
-100.0   150.0   0.0
-100.0   120.0   16.666666666666668
-50.0   120.0   16.666666666666668
-100.0   150.0   16.666666666666668
-100.0   120.0   33.333333333333336
-50.0   120.0   16.666666666666668
-50.0   150.0   16.666666666666668
-100.0   150.0   16.666666666666668
-50.0   150.0   33.333333333333336
-100.0   120.0   33.333333333333336
-100.0   150.0   33.333333333333336
-50.0   150.0   33.333333333333336
-100.0   150.0   16.666666666666668
-100.0   120.0   33.333333333333336
-50.0   150.0   33.333333333333336
-50.0   120.0   33.333333333333336
-50.0   120.0   16.666666666666668
-100.0   120.0   33.333333333333336
-50.0   150.0   33.333333333333336
-50.0   120.0   16.666666666666668
-100.0   150.0   16.666666666666668
-100.0   120.0   33.333333333333336
-50.0   120.0   33.333333333333336
-100.0   150.0   33.333333333333336
-100.0   120.0   50.0
-50.0   120.0   33.333333333333336
-50.0   150.0   33.333333333333336
-100.0   150.0   33.333333333333336
-50.0   150.0   50.0
-100.0   120.0   50.0
-100.0   150.0   50.0
-50.0   150.0   50.0
-100.0   150.0   33.333333333333336
-100.0   120.0   50.0
-50.0   150.0   50.0
-50.0   120.0   50.0
-50.0   120.0   33.333333333333336
-100.0   120.0   50.0
-50.0   150.0   50.0
-50.0   120.0   33.333333333333336
-100.0   150.0   33.333333333333336
-50.0   0.0   0.0
0.0   0.0   0.0
-50.0   30.0   0.0
-50.0   0.0   16.666666666666668
0.0   0.0   0.0
0.0   30.0   0.0
-50.0   30.0   0.0
0.0   30.0   16.666666666666668
-50.0   0.0   16.666666666666668
-50.0   30.0   16.666666666666668
0.0   30.0   16.666666666666668
-50.0   30.0   0.0
-50.0   0.0   16.666666666666668
0.0   30.0   16.666666666666668
0.0   0.0   16.666666666666668
0.0   0.0   0.0
-50.0   0.0   16.666666666666668
0.0   30.0   16.666666666666668
0.0   0.0   0.0
-50.0   30.0   0.0
-50.0   0.0   16.666666666666668
0.0   0.0   16.666666666666668
-50.0   30.0   16.666666666666668
-50.0   0.0   33.333333333333336
0.0   0.0   16.666666666666668
0.0   30.0   16.666666666666668
-50.0   30.0   16.666666666666668
0.0   30.0   33.333333333333336
-50.0   0.0   33.333333333333336
-50.0   30.0   33.333333333333336
0.0   30.0   33.333333333333336
-50.0   30.0   16.666666666666668
-50.0   0.0   33.333333333333336
0.0   30.0   33.333333333333336
0.0   0.0   33.333333333333336
0.0   0.0   16.666666666666668
-50.0   0.0   33.333333333333336
0.0   30.0   33.333333333333336
0.0   0.0   16.666666666666668
-50.0   30.0   16.666666666666668
-50.0   0.0   33.333333333333336
0.0   0.0   33.333333333333336
-50.0   30.0   33.333333333333336
-50.0   0.0   50.0
0.0   0.0   33.333333333333336
0.0   30.0   33.333333333333336
-50.0   30.0   33.333333333333336
0.0   30.0   50.0
-50.0   0.0   50.0
-50.0   30.0   50.0
0.0   30.0   50.0
-50.0   30.0   33.333333333333336
-50.0   0.0   50.0
0.0   30.0   50.0
0.0   0.0   50.0
0.0   0.0   33.333333333333336
-50.0   0.0   50.0
0.0   30.0   50.0
0.0   0.0   33.333333333333336
-50.0   30.0   33.333333333333336
-50.0   30.0   0.0
0.0   30.0   0.0
-50.0   60.0   0.0
-50.0   30.0   16.666666666666668
0.0   30.0   0.0
0.0   60.0   0.0
-50.0   60.0   0.0
0.0   60.0   16.666666666666668
-50.0   30.0   16.666666666666668
-50.0   60.0   16.666666666666668
0.0   60.0   16.666666666666668
-50.0   60.0   0.0
-50.0   30.0   16.666666666666668
0.0   60.0   16.666666666666668
0.0   30.0   16.666666666666668
0.0   30.0   0.0
-50.0   30.0   16.666666666666668
0.0   60.0   16.666666666666668
0.0   30.0   0.0
-50.0   60.0   0.0
-50.0   30.0   16.666666666666668
0.0   30.0   16.666666666666668
-50.0   60.0   16.666666666666668
-50.0   30.0   33.333333333333336
0.0   30.0   16.666666666666668
0.0   60.0   16.666666666666668
-50.0   60.0   16.666666666666668
0.0   60.0   33.333333333333336
-50.0   30.0   33.333333333333336
-50.0   60.0   33.333333333333336
0.0   60.0   33.333333333333336
-50.0   60.0   16.666666666666668
-50.0   30.0   33.333333333333336
0.0   60.0   33.333333333333336
0.0   30.0   33.333333333333336
0.0   30.0   16.666666666666668
-50.0   30.0   33.333333333333336
0.0   60.0   33.333333333333336
0.0   30.0   16.666666666666668
-50.0   60.0   16.666666666666668
-50.0   30.0   33.333333333333336
0.0   30.0   33.333333333333336
-50.0   60.0   33.333333333333336
-50.0   30.0   50.0
0.0   30.0   33.333333333333336
0.0   60.0   33.333333333333336
-50.0   60.0   33.333333333333336
0.0   60.0   50.0
-50.0   30.0   50.0
-50.0   60.0   50.0
0.0   60.0   50.0
-50.0   60.0   33.333333333333336
-50.0   30.0   50.0
0.0   60.0   50.0
0.0   30.0   50.0
0.0   30.0   33.333333333333336
-50.0   30.0   50.0
0.0   60.0   50.0
0.0   30.0   33.333333333333336
-50.0   60.0   33.333333333333336
-50.0   60.0   0.0
0.0   60.0   0.0
-50.0   90.0   0.0
-50.0   60.0   16.666666666666668
0.0   60.0   0.0
0.0   90.0   0.0
-50.0   90.0   0.0
0.0   90.0   16.666666666666668
-50.0   60.0   16.666666666666668
-50.0   90.0   16.666666666666668
0.0   90.0   16.666666666666668
-50.0   90.0   0.0
-50.0   60.0   16.666666666666668
0.0   90.0   16.666666666666668
0.0   60.0   16.666666666666668
0.0   60.0   0.0
-50.0   60.0   16.666666666666668
0.0   90.0   16.666666666666668
0.0   60.0   0.0
-50.0   90.0   0.0
-50.0   60.0   16.666666666666668
0.0   60.0   16.666666666666668
-50.0   90.0   16.666666666666668
-50.0   60.0   33.333333333333336
0.0   60.0   16.666666666666668
0.0   90.0   16.666666666666668
-50.0   90.0   16.666666666666668
0.0   90.0   33.333333333333336
-50.0   60.0   33.333333333333336
-50.0   90.0   33.333333333333336
0.0   90.0   33.333333333333336
-50.0   90.0   16.666666666666668
-50.0   60.0   33.333333333333336
0.0   90.0   33.333333333333336
0.0   60.0   33.333333333333336
0.0   60.0   16.666666666666668
-50.0   60.0   33.333333333333336
0.0   90.0   33.333333333333336
0.0   60.0   16.666666666666668
-50.0   90.0   16.666666666666668
-50.0   60.0   33.333333333333336
0.0   60.0   33.333333333333336
-50.0   90.0   33.333333333333336
-50.0   60.0   50.0
0.0   60.0   33.333333333333336
0.0   90.0   33.333333333333336
-50.0   90.0   33.333333333333336
0.0   90.0   50.0
-50.0   60.0   50.0
-50.0   90.0   50.0
0.0   90.0   50.0
-50.0   90.0   33.333333333333336
-50.0   60.0   50.0
0.0   90.0   50.0
0.0   60.0   50.0
0.0   60.0   33.333333333333336
-50.0   60.0   50.0
0.0   90.0   50.0
0.0   60.0   33.333333333333336
-50.0   90.0   33.333333333333336
-50.0   90.0   0.0
0.0   90.0   0.0
-50.0   120.0   0.0
-50.0   90.0   16.666666666666668
0.0   90.0   0.0
0.0   120.0   0.0
-50.0   120.0   0.0
0.0   120.0   16.666666666666668
-50.0   90.0   16.666666666666668
-50.0   120.0   16.666666666666668
0.0   120.0   16.666666666666668
-50.0   120.0   0.0
-50.0   90.0   16.666666666666668
0.0   120.0   16.666666666666668
0.0   90.0   16.666666666666668
0.0   90.0   0.0
-50.0   90.0   16.666666666666668
0.0   120.0   16.666666666666668
0.0   90.0   0.0
-50.0   120.0   0.0
-50.0   90.0   16.666666666666668
0.0   90.0   16.666666666666668
-50.0   120.0   16.666666666666668
-50.0   90.0   33.333333333333336
0.0   90.0   16.666666666666668
0.0   120.0   16.666666666666668
-50.0   120.0   16.666666666666668
0.0   120.0   33.333333333333336
-50.0   90.0   33.333333333333336
-50.0   120.0   33.333333333333336
0.0   120.0   33.333333333333336
-50.0   120.0   16.666666666666668
-50.0   90.0   33.333333333333336
0.0   120.0   33.333333333333336
0.0   90.0   33.333333333333336
0.0   90.0   16.666666666666668
-50.0   90.0   33.333333333333336
0.0   120.0   33.333333333333336
0.0   90.0   16.666666666666668
-50.0   120.0   16.666666666666668
-50.0   90.0   33.333333333333336
0.0   90.0   33.333333333333336
-50.0   120.0   33.333333333333336
-50.0   90.0   50.0
0.0   90.0   33.333333333333336
0.0   120.0   33.333333333333336
-50.0   120.0   33.333333333333336
0.0   120.0   50.0
-50.0   90.0   50.0
-50.0   120.0   50.0
0.0   120.0   50.0
-50.0   120.0   33.333333333333336
-50.0   90.0   50.0
0.0   120.0   50.0
0.0   90.0   50.0
0.0   90.0   33.333333333333336
-50.0   90.0   50.0
0.0   120.0   50.0
0.0   90.0   33.333333333333336
-50.0   120.0   33.333333333333336
-50.0   120.0   0.0
0.0   120.0   0.0
-50.0   150.0   0.0
-50.0   120.0   16.666666666666668
0.0   120.0   0.0
0.0   150.0   0.0
-50.0   150.0   0.0
0.0   150.0   16.666666666666668
-50.0   120.0   16.666666666666668
-50.0   150.0   16.666666666666668
0.0   150.0   16.666666666666668
-50.0   150.0   0.0
-50.0   120.0   16.666666666666668
0.0   150.0   16.666666666666668
0.0   120.0   16.666666666666668
0.0   120.0   0.0
-50.0   120.0   16.666666666666668
0.0   150.0   16.666666666666668
0.0   120.0   0.0
-50.0   150.0   0.0
-50.0   120.0   16.666666666666668
0.0   120.0   16.666666666666668
-50.0   150.0   16.666666666666668
-50.0   120.0   33.333333333333336
0.0   120.0   16.666666666666668
0.0   150.0   16.666666666666668
-50.0   150.0   16.666666666666668
0.0   150.0   33.333333333333336
-50.0   120.0   33.333333333333336
-50.0   150.0   33.333333333333336
0.0   150.0   33.333333333333336
-50.0   150.0   16.666666666666668
-50.0   120.0   33.333333333333336
0.0   150.0   33.333333333333336
0.0   120.0   33.333333333333336
0.0   120.0   16.666666666666668
-50.0   120.0   33.333333333333336
0.0   150.0   33.333333333333336
0.0   120.0   16.666666666666668
-50.0   150.0   16.666666666666668
-50.0   120.0   33.333333333333336
0.0   120.0   33.333333333333336
-50.0   150.0   33.333333333333336
-50.0   120.0   50.0
0.0   120.0   33.333333333333336
0.0   150.0   33.333333333333336
-50.0   150.0   33.333333333333336
0.0   150.0   50.0
-50.0   120.0   50.0
-50.0   150.0   50.0
0.0   150.0   50.0
-50.0   150.0   33.333333333333336
-50.0   120.0   50.0
0.0   150.0   50.0
0.0   120.0   50.0
0.0   120.0   33.333333333333336
-50.0   120.0   50.0
0.0   150.0   50.0
0.0   120.0   33.333333333333336
-50.0   150.0   33.333333333333336
0.0   0.0   0.0
50.0   0.0   0.0
0.0   30.0   0.0
0.0   0.0   16.666666666666668
50.0   0.0   0.0
50.0   30.0   0.0
0.0   30.0   0.0
50.0   30.0   16.666666666666668
0.0   0.0   16.666666666666668
0.0   30.0   16.666666666666668
50.0   30.0   16.666666666666668
0.0   30.0   0.0
0.0   0.0   16.666666666666668
50.0   30.0   16.666666666666668
50.0   0.0   16.666666666666668
50.0   0.0   0.0
0.0   0.0   16.666666666666668
50.0   30.0   16.666666666666668
50.0   0.0   0.0
0.0   30.0   0.0
0.0   0.0   16.666666666666668
50.0   0.0   16.666666666666668
0.0   30.0   16.666666666666668
0.0   0.0   33.333333333333336
50.0   0.0   16.666666666666668
50.0   30.0   16.666666666666668
0.0   30.0   16.666666666666668
50.0   30.0   33.333333333333336
0.0   0.0   33.333333333333336
0.0   30.0   33.333333333333336
50.0   30.0   33.333333333333336
0.0   30.0   16.666666666666668
0.0   0.0   33.333333333333336
50.0   30.0   33.333333333333336
50.0   0.0   33.333333333333336
50.0   0.0   16.666666666666668
0.0   0.0   33.333333333333336
50.0   30.0   33.333333333333336
50.0   0.0   16.666666666666668
0.0   30.0   16.666666666666668
0.0   0.0   33.333333333333336
50.0   0.0   33.333333333333336
0.0   30.0   33.333333333333336
0.0   0.0   50.0
50.0   0.0   33.333333333333336
50.0   30.0   33.333333333333336
0.0   30.0   33.333333333333336
50.0   30.0   50.0
0.0   0.0   50.0
0.0   30.0   50.0
50.0   30.0   50.0
0.0   30.0   33.333333333333336
0.0   0.0   50.0
50.0   30.0   50.0
50.0   0.0   50.0
50.0   0.0   33.333333333333336
0.0   0.0   50.0
50.0   30.0   50.0
50.0   0.0   33.333333333333336
0.0   30.0   33.333333333333336
0.0   30.0   0.0
50.0   30.0   0.0
0.0   60.0   0.0
0.0   30.0   16.666666666666668
50.0   30.0   0.0
50.0   60.0   0.0
0.0   60.0   0.0
50.0   60.0   16.666666666666668
0.0   30.0   16.666666666666668
0.0   60.0   16.666666666666668
50.0   60.0   16.666666666666668
0.0   60.0   0.0
0.0   30.0   16.666666666666668
50.0   60.0   16.666666666666668
50.0   30.0   16.666666666666668
50.0   30.0   0.0
0.0   30.0   16.666666666666668
50.0   60.0   16.666666666666668
50.0   30.0   0.0
0.0   60.0   0.0
0.0   30.0   16.666666666666668
50.0   30.0   16.666666666666668
0.0   60.0   16.666666666666668
0.0   30.0   33.333333333333336
50.0   30.0   16.666666666666668
50.0   60.0   16.666666666666668
0.0   60.0   16.666666666666668
50.0   60.0   33.333333333333336
0.0   30.0   33.333333333333336
0.0   60.0   33.333333333333336
50.0   60.0   33.333333333333336
0.0   60.0   16.666666666666668
0.0   30.0   33.333333333333336
50.0   60.0   33.333333333333336
50.0   30.0   33.333333333333336
50.0   30.0   16.666666666666668
0.0   30.0   33.333333333333336
50.0   60.0   33.333333333333336
50.0   30.0   16.666666666666668
0.0   60.0   16.666666666666668
0.0   30.0   33.333333333333336
50.0   30.0   33.333333333333336
0.0   60.0   33.333333333333336
0.0   30.0   50.0
50.0   30.0   33.333333333333336
50.0   60.0   33.333333333333336
0.0   60.0   33.333333333333336
50.0   60.0   50.0
0.0   30.0   50.0
0.0   60.0   50.0
50.0   60.0   50.0
0.0   60.0   33.333333333333336
0.0   30.0   50.0
50.0   60.0   50.0
50.0   30.0   50.0
50.0   30.0   33.333333333333336
0.0   30.0   50.0
50.0   60.0   50.0
50.0   30.0   33.333333333333336
0.0   60.0   33.333333333333336
0.0   60.0   0.0
50.0   60.0   0.0
0.0   90.0   0.0
0.0   60.0   16.666666666666668
50.0   60.0   0.0
50.0   90.0   0.0
0.0   90.0   0.0
50.0   90.0   16.666666666666668
0.0   60.0   16.666666666666668
0.0   90.0   16.666666666666668
50.0   90.0   16.666666666666668
0.0   90.0   0.0
0.0   60.0   16.666666666666668
50.0   90.0   16.666666666666668
50.0   60.0   16.666666666666668
50.0   60.0   0.0
0.0   60.0   16.666666666666668
50.0   90.0   16.666666666666668
50.0   60.0   0.0
0.0   90.0   0.0
0.0   60.0   16.666666666666668
50.0   60.0   16.666666666666668
0.0   90.0   16.666666666666668
0.0   60.0   33.333333333333336
50.0   60.0   16.666666666666668
50.0   90.0   16.666666666666668
0.0   90.0   16.666666666666668
50.0   90.0   33.333333333333336
0.0   60.0   33.333333333333336
0.0   90.0   33.333333333333336
50.0   90.0   33.333333333333336
0.0   90.0   16.666666666666668
0.0   60.0   33.333333333333336
50.0   90.0   33.333333333333336
50.0   60.0   33.333333333333336
50.0   60.0   16.666666666666668
0.0   60.0   33.333333333333336
50.0   90.0   33.333333333333336
50.0   60.0   16.666666666666668
0.0   90.0   16.666666666666668
0.0   60.0   33.333333333333336
50.0   60.0   33.333333333333336
0.0   90.0   33.333333333333336
0.0   60.0   50.0
50.0   60.0   33.333333333333336
50.0   90.0   33.333333333333336
0.0   90.0   33.333333333333336
50.0   90.0   50.0
0.0   60.0   50.0
0.0   90.0   50.0
50.0   90.0   50.0
0.0   90.0   33.333333333333336
0.0   60.0   50.0
50.0   90.0   50.0
50.0   60.0   50.0
50.0   60.0   33.333333333333336
0.0   60.0   50.0
50.0   90.0   50.0
50.0   60.0   33.333333333333336
0.0   90.0   33.333333333333336
0.0   90.0   0.0
50.0   90.0   0.0
0.0   120.0   0.0
0.0   90.0   16.666666666666668
50.0   90.0   0.0
50.0   120.0   0.0
0.0   120.0   0.0
50.0   120.0   16.666666666666668
0.0   90.0   16.666666666666668
0.0   120.0   16.666666666666668
50.0   120.0   16.666666666666668
0.0   120.0   0.0
0.0   90.0   16.666666666666668
50.0   120.0   16.666666666666668
50.0   90.0   16.666666666666668
50.0   90.0   0.0
0.0   90.0   16.666666666666668
50.0   120.0   16.666666666666668
50.0   90.0   0.0
0.0   120.0   0.0
0.0   90.0   16.666666666666668
50.0   90.0   16.666666666666668
0.0   120.0   16.666666666666668
0.0   90.0   33.333333333333336
50.0   90.0   16.666666666666668
50.0   120.0   16.666666666666668
0.0   120.0   16.666666666666668
50.0   120.0   33.333333333333336
0.0   90.0   33.333333333333336
0.0   120.0   33.333333333333336
50.0   120.0   33.333333333333336
0.0   120.0   16.666666666666668
0.0   90.0   33.333333333333336
50.0   120.0   33.333333333333336
50.0   90.0   33.333333333333336
50.0   90.0   16.666666666666668
0.0   90.0   33.333333333333336
50.0   120.0   33.333333333333336
50.0   90.0   16.666666666666668
0.0   120.0   16.666666666666668
0.0   90.0   33.333333333333336
50.0   90.0   33.333333333333336
0.0   120.0   33.333333333333336
0.0   90.0   50.0
50.0   90.0   33.333333333333336
50.0   120.0   33.333333333333336
0.0   120.0   33.333333333333336
50.0   120.0   50.0
0.0   90.0   50.0
0.0   120.0   50.0
50.0   120.0   50.0
0.0   120.0   33.333333333333336
0.0   90.0   50.0
50.0   120.0   50.0
50.0   90.0   50.0
50.0   90.0   33.333333333333336
0.0   90.0   50.0
50.0   120.0   50.0
50.0   90.0   33.333333333333336
0.0   120.0   33.333333333333336
0.0   120.0   0.0
50.0   120.0   0.0
0.0   150.0   0.0
0.0   120.0   16.666666666666668
50.0   120.0   0.0
50.0   150.0   0.0
0.0   150.0   0.0
50.0   150.0   16.666666666666668
0.0   120.0   16.666666666666668
0.0   150.0   16.666666666666668
50.0   150.0   16.666666666666668
0.0   150.0   0.0
0.0   120.0   16.666666666666668
50.0   150.0   16.666666666666668
50.0   120.0   16.666666666666668
50.0   120.0   0.0
0.0   120.0   16.666666666666668
50.0   150.0   16.666666666666668
50.0   120.0   0.0
0.0   150.0   0.0
0.0   120.0   16.666666666666668
50.0   120.0   16.666666666666668
0.0   150.0   16.666666666666668
0.0   120.0   33.333333333333336
50.0   120.0   16.666666666666668
50.0   150.0   16.666666666666668
0.0   150.0   16.666666666666668
50.0   150.0   33.333333333333336
0.0   120.0   33.333333333333336
0.0   150.0   33.333333333333336
50.0   150.0   33.333333333333336
0.0   150.0   16.666666666666668
0.0   120.0   33.333333333333336
50.0   150.0   33.333333333333336
50.0   120.0   33.333333333333336
50.0   120.0   16.666666666666668
0.0   120.0   33.333333333333336
50.0   150.0   33.333333333333336
50.0   120.0   16.666666666666668
0.0   150.0   16.666666666666668
0.0   120.0   33.333333333333336
50.0   120.0   33.333333333333336
0.0   150.0   33.333333333333336
0.0   120.0   50.0
50.0   120.0   33.333333333333336
50.0   150.0   33.333333333333336
0.0   150.0   33.333333333333336
50.0   150.0   50.0
0.0   120.0   50.0
0.0   150.0   50.0
50.0   150.0   50.0
0.0   150.0   33.333333333333336
0.0   120.0   50.0
50.0   150.0   50.0
50.0   120.0   50.0
50.0   120.0   33.333333333333336
0.0   120.0   50.0
50.0   150.0   50.0
50.0   120.0   33.333333333333336
0.0   150.0   33.333333333333336
50.0   0.0   0.0
100.0   0.0   0.0
50.0   30.0   0.0
50.0   0.0   16.666666666666668
100.0   0.0   0.0
100.0   30.0   0.0
50.0   30.0   0.0
100.0   30.0   16.666666666666668
50.0   0.0   16.666666666666668
50.0   30.0   16.666666666666668
100.0   30.0   16.666666666666668
50.0   30.0   0.0
50.0   0.0   16.666666666666668
100.0   30.0   16.666666666666668
100.0   0.0   16.666666666666668
100.0   0.0   0.0
50.0   0.0   16.666666666666668
100.0   30.0   16.666666666666668
100.0   0.0   0.0
50.0   30.0   0.0
50.0   0.0   16.666666666666668
100.0   0.0   16.666666666666668
50.0   30.0   16.666666666666668
50.0   0.0   33.333333333333336
100.0   0.0   16.666666666666668
100.0   30.0   16.666666666666668
50.0   30.0   16.666666666666668
100.0   30.0   33.333333333333336
50.0   0.0   33.333333333333336
50.0   30.0   33.333333333333336
100.0   30.0   33.333333333333336
50.0   30.0   16.666666666666668
50.0   0.0   33.333333333333336
100.0   30.0   33.333333333333336
100.0   0.0   33.333333333333336
100.0   0.0   16.666666666666668
50.0   0.0   33.333333333333336
100.0   30.0   33.333333333333336
100.0   0.0   16.666666666666668
50.0   30.0   16.666666666666668
50.0   0.0   33.333333333333336
100.0   0.0   33.333333333333336
50.0   30.0   33.333333333333336
50.0   0.0   50.0
100.0   0.0   33.333333333333336
100.0   30.0   33.333333333333336
50.0   30.0   33.333333333333336
100.0   30.0   50.0
50.0   0.0   50.0
50.0   30.0   50.0
100.0   30.0   50.0
50.0   30.0   33.333333333333336
50.0   0.0   50.0
100.0   30.0   50.0
100.0   0.0   50.0
100.0   0.0   33.333333333333336
50.0   0.0   50.0
100.0   30.0   50.0
100.0   0.0   33.333333333333336
50.0   30.0   33.333333333333336
50.0   30.0   0.0
100.0   30.0   0.0
50.0   60.0   0.0
50.0   30.0   16.666666666666668
100.0   30.0   0.0
100.0   60.0   0.0
50.0   60.0   0.0
100.0   60.0   16.666666666666668
50.0   30.0   16.666666666666668
50.0   60.0   16.666666666666668
100.0   60.0   16.666666666666668
50.0   60.0   0.0
50.0   30.0   16.666666666666668
100.0   60.0   16.666666666666668
100.0   30.0   16.666666666666668
100.0   30.0   0.0
50.0   30.0   16.666666666666668
100.0   60.0   16.666666666666668
100.0   30.0   0.0
50.0   60.0   0.0
50.0   30.0   16.666666666666668
100.0   30.0   16.666666666666668
50.0   60.0   16.666666666666668
50.0   30.0   33.333333333333336
100.0   30.0   16.666666666666668
100.0   60.0   16.666666666666668
50.0   60.0   16.666666666666668
100.0   60.0   33.333333333333336
50.0   30.0   33.333333333333336
50.0   60.0   33.333333333333336
100.0   60.0   33.333333333333336
50.0   60.0   16.666666666666668
50.0   30.0   33.333333333333336
100.0   60.0   33.333333333333336
100.0   30.0   33.333333333333336
100.0   30.0   16.666666666666668
50.0   30.0   33.333333333333336
100.0   60.0   33.333333333333336
100.0   30.0   16.666666666666668
50.0   60.0   16.666666666666668
50.0   30.0   33.333333333333336
100.0   30.0   33.333333333333336
50.0   60.0   33.333333333333336
50.0   30.0   50.0
100.0   30.0   33.333333333333336
100.0   60.0   33.333333333333336
50.0   60.0   33.333333333333336
100.0   60.0   50.0
50.0   30.0   50.0
50.0   60.0   50.0
100.0   60.0   50.0
50.0   60.0   33.333333333333336
50.0   30.0   50.0
100.0   60.0   50.0
100.0   30.0   50.0
100.0   30.0   33.333333333333336
50.0   30.0   50.0
100.0   60.0   50.0
100.0   30.0   33.333333333333336
50.0   60.0   33.333333333333336
50.0   60.0   0.0
100.0   60.0   0.0
50.0   90.0   0.0
50.0   60.0   16.666666666666668
100.0   60.0   0.0
100.0   90.0   0.0
50.0   90.0   0.0
100.0   90.0   16.666666666666668
50.0   60.0   16.666666666666668
50.0   90.0   16.666666666666668
100.0   90.0   16.666666666666668
50.0   90.0   0.0
50.0   60.0   16.666666666666668
100.0   90.0   16.666666666666668
100.0   60.0   16.666666666666668
100.0   60.0   0.0
50.0   60.0   16.666666666666668
100.0   90.0   16.666666666666668
100.0   60.0   0.0
50.0   90.0   0.0
50.0   60.0   16.666666666666668
100.0   60.0   16.666666666666668
50.0   90.0   16.666666666666668
50.0   60.0   33.333333333333336
100.0   60.0   16.666666666666668
100.0   90.0   16.666666666666668
50.0   90.0   16.666666666666668
100.0   90.0   33.333333333333336
50.0   60.0   33.333333333333336
50.0   90.0   33.333333333333336
100.0   90.0   33.333333333333336
50.0   90.0   16.666666666666668
50.0   60.0   33.333333333333336
100.0   90.0   33.333333333333336
100.0   60.0   33.333333333333336
100.0   60.0   16.666666666666668
50.0   60.0   33.333333333333336
100.0   90.0   33.333333333333336
100.0   60.0   16.666666666666668
50.0   90.0   16.666666666666668
50.0   60.0   33.333333333333336
100.0   60.0   33.333333333333336
50.0   90.0   33.333333333333336
50.0   60.0   50.0
100.0   60.0   33.333333333333336
100.0   90.0   33.333333333333336
50.0   90.0   33.333333333333336
100.0   90.0   50.0
50.0   60.0   50.0
50.0   90.0   50.0
100.0   90.0   50.0
50.0   90.0   33.333333333333336
50.0   60.0   50.0
100.0   90.0   50.0
100.0   60.0   50.0
100.0   60.0   33.333333333333336
50.0   60.0   50.0
100.0   90.0   50.0
100.0   60.0   33.333333333333336
50.0   90.0   33.333333333333336
50.0   90.0   0.0
100.0   90.0   0.0
50.0   120.0   0.0
50.0   90.0   16.666666666666668
100.0   90.0   0.0
100.0   120.0   0.0
50.0   120.0   0.0
100.0   120.0   16.666666666666668
50.0   90.0   16.666666666666668
50.0   120.0   16.666666666666668
100.0   120.0   16.666666666666668
50.0   120.0   0.0
50.0   90.0   16.666666666666668
100.0   120.0   16.666666666666668
100.0   90.0   16.666666666666668
100.0   90.0   0.0
50.0   90.0   16.666666666666668
100.0   120.0   16.666666666666668
100.0   90.0   0.0
50.0   120.0   0.0
50.0   90.0   16.666666666666668
100.0   90.0   16.666666666666668
50.0   120.0   16.666666666666668
50.0   90.0   33.333333333333336
100.0   90.0   16.666666666666668
100.0   120.0   16.666666666666668
50.0   120.0   16.666666666666668
100.0   120.0   33.333333333333336
50.0   90.0   33.333333333333336
50.0   120.0   33.333333333333336
100.0   120.0   33.333333333333336
50.0   120.0   16.666666666666668
50.0   90.0   33.333333333333336
100.0   120.0   33.333333333333336
100.0   90.0   33.333333333333336
100.0   90.0   16.666666666666668
50.0   90.0   33.333333333333336
100.0   120.0   33.333333333333336
100.0   90.0   16.666666666666668
50.0   120.0   16.666666666666668
50.0   90.0   33.333333333333336
100.0   90.0   33.333333333333336
50.0   120.0   33.333333333333336
50.0   90.0   50.0
100.0   90.0   33.333333333333336
100.0   120.0   33.333333333333336
50.0   120.0   33.333333333333336
100.0   120.0   50.0
50.0   90.0   50.0
50.0   120.0   50.0
100.0   120.0   50.0
50.0   120.0   33.333333333333336
50.0   90.0   50.0
100.0   120.0   50.0
100.0   90.0   50.0
100.0   90.0   33.333333333333336
50.0   90.0   50.0
100.0   120.0   50.0
100.0   90.0   33.333333333333336
50.0   120.0   33.333333333333336
50.0   120.0   0.0
100.0   120.0   0.0
50.0   150.0   0.0
50.0   120.0   16.666666666666668
100.0   120.0   0.0
100.0   150.0   0.0
50.0   150.0   0.0
100.0   150.0   16.666666666666668
50.0   120.0   16.666666666666668
50.0   150.0   16.666666666666668
100.0   150.0   16.666666666666668
50.0   150.0   0.0
50.0   120.0   16.666666666666668
100.0   150.0   16.666666666666668
100.0   120.0   16.666666666666668
100.0   120.0   0.0
50.0   120.0   16.666666666666668
100.0   150.0   16.666666666666668
100.0   120.0   0.0
50.0   150.0   0.0
50.0   120.0   16.666666666666668
100.0   120.0   16.666666666666668
50.0   150.0   16.666666666666668
50.0   120.0   33.333333333333336
100.0   120.0   16.666666666666668
100.0   150.0   16.666666666666668
50.0   150.0   16.666666666666668
100.0   150.0   33.333333333333336
50.0   120.0   33.333333333333336
50.0   150.0   33.333333333333336
100.0   150.0   33.333333333333336
50.0   150.0   16.666666666666668
50.0   120.0   33.333333333333336
100.0   150.0   33.333333333333336
100.0   120.0   33.333333333333336
100.0   120.0   16.666666666666668
50.0   120.0   33.333333333333336
100.0   150.0   33.333333333333336
100.0   120.0   16.666666666666668
50.0   150.0   16.666666666666668
50.0   120.0   33.333333333333336
100.0   120.0   33.333333333333336
50.0   150.0   33.333333333333336
50.0   120.0   50.0
100.0   120.0   33.333333333333336
100.0   150.0   33.333333333333336
50.0   150.0   33.333333333333336
100.0   150.0   50.0
50.0   120.0   50.0
50.0   150.0   50.0
100.0   150.0   50.0
50.0   150.0   33.333333333333336
50.0   120.0   50.0
100.0   150.0   50.0
100.0   120.0   50.0
100.0   120.0   33.333333333333336
50.0   120.0   50.0
100.0   150.0   50.0
100.0   120.0   33.333333333333336
50.0   150.0   33.333333333333336
100.0   0.0   0.0
150.0   0.0   0.0
100.0   30.0   0.0
100.0   0.0   16.666666666666668
150.0   0.0   0.0
150.0   30.0   0.0
100.0   30.0   0.0
150.0   30.0   16.666666666666668
100.0   0.0   16.666666666666668
100.0   30.0   16.666666666666668
150.0   30.0   16.666666666666668
100.0   30.0   0.0
100.0   0.0   16.666666666666668
150.0   30.0   16.666666666666668
150.0   0.0   16.666666666666668
150.0   0.0   0.0
100.0   0.0   16.666666666666668
150.0   30.0   16.666666666666668
150.0   0.0   0.0
100.0   30.0   0.0
100.0   0.0   16.666666666666668
150.0   0.0   16.666666666666668
100.0   30.0   16.666666666666668
100.0   0.0   33.333333333333336
150.0   0.0   16.666666666666668
150.0   30.0   16.666666666666668
100.0   30.0   16.666666666666668
150.0   30.0   33.333333333333336
100.0   0.0   33.333333333333336
100.0   30.0   33.333333333333336
150.0   30.0   33.333333333333336
100.0   30.0   16.666666666666668
100.0   0.0   33.333333333333336
150.0   30.0   33.333333333333336
150.0   0.0   33.333333333333336
150.0   0.0   16.666666666666668
100.0   0.0   33.333333333333336
150.0   30.0   33.333333333333336
150.0   0.0   16.666666666666668
100.0   30.0   16.666666666666668
100.0   0.0   33.333333333333336
150.0   0.0   33.333333333333336
100.0   30.0   33.333333333333336
100.0   0.0   50.0
150.0   0.0   33.333333333333336
150.0   30.0   33.333333333333336
100.0   30.0   33.333333333333336
150.0   30.0   50.0
100.0   0.0   50.0
100.0   30.0   50.0
150.0   30.0   50.0
100.0   30.0   33.333333333333336
100.0   0.0   50.0
150.0   30.0   50.0
150.0   0.0   50.0
150.0   0.0   33.333333333333336
100.0   0.0   50.0
150.0   30.0   50.0
150.0   0.0   33.333333333333336
100.0   30.0   33.333333333333336
100.0   30.0   0.0
150.0   30.0   0.0
100.0   60.0   0.0
100.0   30.0   16.666666666666668
150.0   30.0   0.0
150.0   60.0   0.0
100.0   60.0   0.0
150.0   60.0   16.666666666666668
100.0   30.0   16.666666666666668
100.0   60.0   16.666666666666668
150.0   60.0   16.666666666666668
100.0   60.0   0.0
100.0   30.0   16.666666666666668
150.0   60.0   16.666666666666668
150.0   30.0   16.666666666666668
150.0   30.0   0.0
100.0   30.0   16.666666666666668
150.0   60.0   16.666666666666668
150.0   30.0   0.0
100.0   60.0   0.0
100.0   30.0   16.666666666666668
150.0   30.0   16.666666666666668
100.0   60.0   16.666666666666668
100.0   30.0   33.333333333333336
150.0   30.0   16.666666666666668
150.0   60.0   16.666666666666668
100.0   60.0   16.666666666666668
150.0   60.0   33.333333333333336
100.0   30.0   33.333333333333336
100.0   60.0   33.333333333333336
150.0   60.0   33.333333333333336
100.0   60.0   16.666666666666668
100.0   30.0   33.333333333333336
150.0   60.0   33.333333333333336
150.0   30.0   33.333333333333336
150.0   30.0   16.666666666666668
100.0   30.0   33.333333333333336
150.0   60.0   33.333333333333336
150.0   30.0   16.666666666666668
100.0   60.0   16.666666666666668
100.0   30.0   33.333333333333336
150.0   30.0   33.333333333333336
100.0   60.0   33.333333333333336
100.0   30.0   50.0
150.0   30.0   33.333333333333336
150.0   60.0   33.333333333333336
100.0   60.0   33.333333333333336
150.0   60.0   50.0
100.0   30.0   50.0
100.0   60.0   50.0
150.0   60.0   50.0
100.0   60.0   33.333333333333336
100.0   30.0   50.0
150.0   60.0   50.0
150.0   30.0   50.0
150.0   30.0   33.333333333333336
100.0   30.0   50.0
150.0   60.0   50.0
150.0   30.0   33.333333333333336
100.0   60.0   33.333333333333336
100.0   60.0   0.0
150.0   60.0   0.0
100.0   90.0   0.0
100.0   60.0   16.666666666666668
150.0   60.0   0.0
150.0   90.0   0.0
100.0   90.0   0.0
150.0   90.0   16.666666666666668
100.0   60.0   16.666666666666668
100.0   90.0   16.666666666666668
150.0   90.0   16.666666666666668
100.0   90.0   0.0
100.0   60.0   16.666666666666668
150.0   90.0   16.666666666666668
150.0   60.0   16.666666666666668
150.0   60.0   0.0
100.0   60.0   16.666666666666668
150.0   90.0   16.666666666666668
150.0   60.0   0.0
100.0   90.0   0.0
100.0   60.0   16.666666666666668
150.0   60.0   16.666666666666668
100.0   90.0   16.666666666666668
100.0   60.0   33.333333333333336
150.0   60.0   16.666666666666668
150.0   90.0   16.666666666666668
100.0   90.0   16.666666666666668
150.0   90.0   33.333333333333336
100.0   60.0   33.333333333333336
100.0   90.0   33.333333333333336
150.0   90.0   33.333333333333336
100.0   90.0   16.666666666666668
100.0   60.0   33.333333333333336
150.0   90.0   33.333333333333336
150.0   60.0   33.333333333333336
150.0   60.0   16.666666666666668
100.0   60.0   33.333333333333336
150.0   90.0   33.333333333333336
150.0   60.0   16.666666666666668
100.0   90.0   16.666666666666668
100.0   60.0   33.333333333333336
150.0   60.0   33.333333333333336
100.0   90.0   33.333333333333336
100.0   60.0   50.0
150.0   60.0   33.333333333333336
150.0   90.0   33.333333333333336
100.0   90.0   33.333333333333336
150.0   90.0   50.0
100.0   60.0   50.0
100.0   90.0   50.0
150.0   90.0   50.0
100.0   90.0   33.333333333333336
100.0   60.0   50.0
150.0   90.0   50.0
150.0   60.0   50.0
150.0   60.0   33.333333333333336
100.0   60.0   50.0
150.0   90.0   50.0
150.0   60.0   33.333333333333336
100.0   90.0   33.333333333333336
100.0   90.0   0.0
150.0   90.0   0.0
100.0   120.0   0.0
100.0   90.0   16.666666666666668
150.0   90.0   0.0
150.0   120.0   0.0
100.0   120.0   0.0
150.0   120.0   16.666666666666668
100.0   90.0   16.666666666666668
100.0   120.0   16.666666666666668
150.0   120.0   16.666666666666668
100.0   120.0   0.0
100.0   90.0   16.666666666666668
150.0   120.0   16.666666666666668
150.0   90.0   16.666666666666668
150.0   90.0   0.0
100.0   90.0   16.666666666666668
150.0   120.0   16.666666666666668
150.0   90.0   0.0
100.0   120.0   0.0
100.0   90.0   16.666666666666668
150.0   90.0   16.666666666666668
100.0   120.0   16.666666666666668
100.0   90.0   33.333333333333336
150.0   90.0   16.666666666666668
150.0   120.0   16.666666666666668
100.0   120.0   16.666666666666668
150.0   120.0   33.333333333333336
100.0   90.0   33.333333333333336
100.0   120.0   33.333333333333336
150.0   120.0   33.333333333333336
100.0   120.0   16.666666666666668
100.0   90.0   33.333333333333336
150.0   120.0   33.333333333333336
150.0   90.0   33.333333333333336
150.0   90.0   16.666666666666668
100.0   90.0   33.333333333333336
150.0   120.0   33.333333333333336
150.0   90.0   16.666666666666668
100.0   120.0   16.666666666666668
100.0   90.0   33.333333333333336
150.0   90.0   33.333333333333336
100.0   120.0   33.333333333333336
100.0   90.0   50.0
150.0   90.0   33.333333333333336
150.0   120.0   33.333333333333336
100.0   120.0   33.333333333333336
150.0   120.0   50.0
100.0   90.0   50.0
100.0   120.0   50.0
150.0   120.0   50.0
100.0   120.0   33.333333333333336
100.0   90.0   50.0
150.0   120.0   50.0
150.0   90.0   50.0
150.0   90.0   33.333333333333336
100.0   90.0   50.0
150.0   120.0   50.0
150.0   90.0   33.333333333333336
100.0   120.0   33.333333333333336
100.0   120.0   0.0
150.0   120.0   0.0
100.0   150.0   0.0
100.0   120.0   16.666666666666668
150.0   120.0   0.0
150.0   150.0   0.0
100.0   150.0   0.0
150.0   150.0   16.666666666666668
100.0   120.0   16.666666666666668
100.0   150.0   16.666666666666668
150.0   150.0   16.666666666666668
100.0   150.0   0.0
100.0   120.0   16.666666666666668
150.0   150.0   16.666666666666668
150.0   120.0   16.666666666666668
150.0   120.0   0.0
100.0   120.0   16.666666666666668
150.0   150.0   16.666666666666668
150.0   120.0   0.0
100.0   150.0   0.0
100.0   120.0   16.666666666666668
150.0   120.0   16.666666666666668
100.0   150.0   16.666666666666668
100.0   120.0   33.333333333333336
150.0   120.0   16.666666666666668
150.0   150.0   16.666666666666668
100.0   150.0   16.666666666666668
150.0   150.0   33.333333333333336
100.0   120.0   33.333333333333336
100.0   150.0   33.333333333333336
150.0   150.0   33.333333333333336
100.0   150.0   16.666666666666668
100.0   120.0   33.333333333333336
150.0   150.0   33.333333333333336
150.0   120.0   33.333333333333336
150.0   120.0   16.666666666666668
100.0   120.0   33.333333333333336
150.0   150.0   33.333333333333336
150.0   120.0   16.666666666666668
100.0   150.0   16.666666666666668
100.0   120.0   33.333333333333336
150.0   120.0   33.333333333333336
100.0   150.0   33.333333333333336
100.0   120.0   50.0
150.0   120.0   33.333333333333336
150.0   150.0   33.333333333333336
100.0   150.0   33.333333333333336
150.0   150.0   50.0
100.0   120.0   50.0
100.0   150.0   50.0
150.0   150.0   50.0
100.0   150.0   33.333333333333336
100.0   120.0   50.0
150.0   150.0   50.0
150.0   120.0   50.0
150.0   120.0   33.333333333333336
100.0   120.0   50.0
150.0   150.0   50.0
150.0   120.0   33.333333333333336
100.0   150.0   33.333333333333336
150.0   0.0   0.0
200.0   0.0   0.0
150.0   30.0   0.0
150.0   0.0   16.666666666666668
200.0   0.0   0.0
200.0   30.0   0.0
150.0   30.0   0.0
200.0   30.0   16.666666666666668
150.0   0.0   16.666666666666668
150.0   30.0   16.666666666666668
200.0   30.0   16.666666666666668
150.0   30.0   0.0
150.0   0.0   16.666666666666668
200.0   30.0   16.666666666666668
200.0   0.0   16.666666666666668
200.0   0.0   0.0
150.0   0.0   16.666666666666668
200.0   30.0   16.666666666666668
200.0   0.0   0.0
150.0   30.0   0.0
150.0   0.0   16.666666666666668
200.0   0.0   16.666666666666668
150.0   30.0   16.666666666666668
150.0   0.0   33.333333333333336
200.0   0.0   16.666666666666668
200.0   30.0   16.666666666666668
150.0   30.0   16.666666666666668
200.0   30.0   33.333333333333336
150.0   0.0   33.333333333333336
150.0   30.0   33.333333333333336
200.0   30.0   33.333333333333336
150.0   30.0   16.666666666666668
150.0   0.0   33.333333333333336
200.0   30.0   33.333333333333336
200.0   0.0   33.333333333333336
200.0   0.0   16.666666666666668
150.0   0.0   33.333333333333336
200.0   30.0   33.333333333333336
200.0   0.0   16.666666666666668
150.0   30.0   16.666666666666668
150.0   0.0   33.333333333333336
200.0   0.0   33.333333333333336
150.0   30.0   33.333333333333336
150.0   0.0   50.0
200.0   0.0   33.333333333333336
200.0   30.0   33.333333333333336
150.0   30.0   33.333333333333336
200.0   30.0   50.0
150.0   0.0   50.0
150.0   30.0   50.0
200.0   30.0   50.0
150.0   30.0   33.333333333333336
150.0   0.0   50.0
200.0   30.0   50.0
200.0   0.0   50.0
200.0   0.0   33.333333333333336
150.0   0.0   50.0
200.0   30.0   50.0
200.0   0.0   33.333333333333336
150.0   30.0   33.333333333333336
150.0   30.0   0.0
200.0   30.0   0.0
150.0   60.0   0.0
150.0   30.0   16.666666666666668
200.0   30.0   0.0
200.0   60.0   0.0
150.0   60.0   0.0
200.0   60.0   16.666666666666668
150.0   30.0   16.666666666666668
150.0   60.0   16.666666666666668
200.0   60.0   16.666666666666668
150.0   60.0   0.0
150.0   30.0   16.666666666666668
200.0   60.0   16.666666666666668
200.0   30.0   16.666666666666668
200.0   30.0   0.0
150.0   30.0   16.666666666666668
200.0   60.0   16.666666666666668
200.0   30.0   0.0
150.0   60.0   0.0
150.0   30.0   16.666666666666668
200.0   30.0   16.666666666666668
150.0   60.0   16.666666666666668
150.0   30.0   33.333333333333336
200.0   30.0   16.666666666666668
200.0   60.0   16.666666666666668
150.0   60.0   16.666666666666668
200.0   60.0   33.333333333333336
150.0   30.0   33.333333333333336
150.0   60.0   33.333333333333336
200.0   60.0   33.333333333333336
150.0   60.0   16.666666666666668
150.0   30.0   33.333333333333336
200.0   60.0   33.333333333333336
200.0   30.0   33.333333333333336
200.0   30.0   16.666666666666668
150.0   30.0   33.333333333333336
200.0   60.0   33.333333333333336
200.0   30.0   16.666666666666668
150.0   60.0   16.666666666666668
150.0   30.0   33.333333333333336
200.0   30.0   33.333333333333336
150.0   60.0   33.333333333333336
150.0   30.0   50.0
200.0   30.0   33.333333333333336
200.0   60.0   33.333333333333336
150.0   60.0   33.333333333333336
200.0   60.0   50.0
150.0   30.0   50.0
150.0   60.0   50.0
200.0   60.0   50.0
150.0   60.0   33.333333333333336
150.0   30.0   50.0
200.0   60.0   50.0
200.0   30.0   50.0
200.0   30.0   33.333333333333336
150.0   30.0   50.0
200.0   60.0   50.0
200.0   30.0   33.333333333333336
150.0   60.0   33.333333333333336
150.0   60.0   0.0
200.0   60.0   0.0
150.0   90.0   0.0
150.0   60.0   16.666666666666668
200.0   60.0   0.0
200.0   90.0   0.0
150.0   90.0   0.0
200.0   90.0   16.666666666666668
150.0   60.0   16.666666666666668
150.0   90.0   16.666666666666668
200.0   90.0   16.666666666666668
150.0   90.0   0.0
150.0   60.0   16.666666666666668
200.0   90.0   16.666666666666668
200.0   60.0   16.666666666666668
200.0   60.0   0.0
150.0   60.0   16.666666666666668
200.0   90.0   16.666666666666668
200.0   60.0   0.0
150.0   90.0   0.0
150.0   60.0   16.666666666666668
200.0   60.0   16.666666666666668
150.0   90.0   16.666666666666668
150.0   60.0   33.333333333333336
200.0   60.0   16.666666666666668
200.0   90.0   16.666666666666668
150.0   90.0   16.666666666666668
200.0   90.0   33.333333333333336
150.0   60.0   33.333333333333336
150.0   90.0   33.333333333333336
200.0   90.0   33.333333333333336
150.0   90.0   16.666666666666668
150.0   60.0   33.333333333333336
200.0   90.0   33.333333333333336
200.0   60.0   33.333333333333336
200.0   60.0   16.666666666666668
150.0   60.0   33.333333333333336
200.0   90.0   33.333333333333336
200.0   60.0   16.666666666666668
150.0   90.0   16.666666666666668
150.0   60.0   33.333333333333336
200.0   60.0   33.333333333333336
150.0   90.0   33.333333333333336
150.0   60.0   50.0
200.0   60.0   33.333333333333336
200.0   90.0   33.333333333333336
150.0   90.0   33.333333333333336
200.0   90.0   50.0
150.0   60.0   50.0
150.0   90.0   50.0
200.0   90.0   50.0
150.0   90.0   33.333333333333336
150.0   60.0   50.0
200.0   90.0   50.0
200.0   60.0   50.0
200.0   60.0   33.333333333333336
150.0   60.0   50.0
200.0   90.0   50.0
200.0   60.0   33.333333333333336
150.0   90.0   33.333333333333336
150.0   90.0   0.0
200.0   90.0   0.0
150.0   120.0   0.0
150.0   90.0   16.666666666666668
200.0   90.0   0.0
200.0   120.0   0.0
150.0   120.0   0.0
200.0   120.0   16.666666666666668
150.0   90.0   16.666666666666668
150.0   120.0   16.666666666666668
200.0   120.0   16.666666666666668
150.0   120.0   0.0
150.0   90.0   16.666666666666668
200.0   120.0   16.666666666666668
200.0   90.0   16.666666666666668
200.0   90.0   0.0
150.0   90.0   16.666666666666668
200.0   120.0   16.666666666666668
200.0   90.0   0.0
150.0   120.0   0.0
150.0   90.0   16.666666666666668
200.0   90.0   16.666666666666668
150.0   120.0   16.666666666666668
150.0   90.0   33.333333333333336
200.0   90.0   16.666666666666668
200.0   120.0   16.666666666666668
150.0   120.0   16.666666666666668
200.0   120.0   33.333333333333336
150.0   90.0   33.333333333333336
150.0   120.0   33.333333333333336
200.0   120.0   33.333333333333336
150.0   120.0   16.666666666666668
150.0   90.0   33.333333333333336
200.0   120.0   33.333333333333336
200.0   90.0   33.333333333333336
200.0   90.0   16.666666666666668
150.0   90.0   33.333333333333336
200.0   120.0   33.333333333333336
200.0   90.0   16.666666666666668
150.0   120.0   16.666666666666668
150.0   90.0   33.333333333333336
200.0   90.0   33.333333333333336
150.0   120.0   33.333333333333336
150.0   90.0   50.0
200.0   90.0   33.333333333333336
200.0   120.0   33.333333333333336
150.0   120.0   33.333333333333336
200.0   120.0   50.0
150.0   90.0   50.0
150.0   120.0   50.0
200.0   120.0   50.0
150.0   120.0   33.333333333333336
150.0   90.0   50.0
200.0   120.0   50.0
200.0   90.0   50.0
200.0   90.0   33.333333333333336
150.0   90.0   50.0
200.0   120.0   50.0
200.0   90.0   33.333333333333336
150.0   120.0   33.333333333333336
150.0   120.0   0.0
200.0   120.0   0.0
150.0   150.0   0.0
150.0   120.0   16.666666666666668
200.0   120.0   0.0
200.0   150.0   0.0
150.0   150.0   0.0
200.0   150.0   16.666666666666668
150.0   120.0   16.666666666666668
150.0   150.0   16.666666666666668
200.0   150.0   16.666666666666668
150.0   150.0   0.0
150.0   120.0   16.666666666666668
200.0   150.0   16.666666666666668
200.0   120.0   16.666666666666668
200.0   120.0   0.0
150.0   120.0   16.666666666666668
200.0   150.0   16.666666666666668
200.0   120.0   0.0
150.0   150.0   0.0
150.0   120.0   16.666666666666668
200.0   120.0   16.666666666666668
150.0   150.0   16.666666666666668
150.0   120.0   33.333333333333336
200.0   120.0   16.666666666666668
200.0   150.0   16.666666666666668
150.0   150.0   16.666666666666668
200.0   150.0   33.333333333333336
150.0   120.0   33.333333333333336
150.0   150.0   33.333333333333336
200.0   150.0   33.333333333333336
150.0   150.0   16.666666666666668
150.0   120.0   33.333333333333336
200.0   150.0   33.333333333333336
200.0   120.0   33.333333333333336
200.0   120.0   16.666666666666668
150.0   120.0   33.333333333333336
200.0   150.0   33.333333333333336
200.0   120.0   16.666666666666668
150.0   150.0   16.666666666666668
150.0   120.0   33.333333333333336
200.0   120.0   33.333333333333336
150.0   150.0   33.333333333333336
150.0   120.0   50.0
200.0   120.0   33.333333333333336
200.0   150.0   33.333333333333336
150.0   150.0   33.333333333333336
200.0   150.0   50.0
150.0   120.0   50.0
150.0   150.0   50.0
200.0   150.0   50.0
150.0   150.0   33.333333333333336
150.0   120.0   50.0
200.0   150.0   50.0
200.0   120.0   50.0
200.0   120.0   33.333333333333336
150.0   120.0   50.0
200.0   150.0   50.0
200.0   120.0   33.333333333333336
150.0   150.0   33.333333333333336
200.0   0.0   0.0
250.0   0.0   0.0
200.0   30.0   0.0
200.0   0.0   16.666666666666668
250.0   0.0   0.0
250.0   30.0   0.0
200.0   30.0   0.0
250.0   30.0   16.666666666666668
200.0   0.0   16.666666666666668
200.0   30.0   16.666666666666668
250.0   30.0   16.666666666666668
200.0   30.0   0.0
200.0   0.0   16.666666666666668
250.0   30.0   16.666666666666668
250.0   0.0   16.666666666666668
250.0   0.0   0.0
200.0   0.0   16.666666666666668
250.0   30.0   16.666666666666668
250.0   0.0   0.0
200.0   30.0   0.0
200.0   0.0   16.666666666666668
250.0   0.0   16.666666666666668
200.0   30.0   16.666666666666668
200.0   0.0   33.333333333333336
250.0   0.0   16.666666666666668
250.0   30.0   16.666666666666668
200.0   30.0   16.666666666666668
250.0   30.0   33.333333333333336
200.0   0.0   33.333333333333336
200.0   30.0   33.333333333333336
250.0   30.0   33.333333333333336
200.0   30.0   16.666666666666668
200.0   0.0   33.333333333333336
250.0   30.0   33.333333333333336
250.0   0.0   33.333333333333336
250.0   0.0   16.666666666666668
200.0   0.0   33.333333333333336
250.0   30.0   33.333333333333336
250.0   0.0   16.666666666666668
200.0   30.0   16.666666666666668
200.0   0.0   33.333333333333336
250.0   0.0   33.333333333333336
200.0   30.0   33.333333333333336
200.0   0.0   50.0
250.0   0.0   33.333333333333336
250.0   30.0   33.333333333333336
200.0   30.0   33.333333333333336
250.0   30.0   50.0
200.0   0.0   50.0
200.0   30.0   50.0
250.0   30.0   50.0
200.0   30.0   33.333333333333336
200.0   0.0   50.0
250.0   30.0   50.0
250.0   0.0   50.0
250.0   0.0   33.333333333333336
200.0   0.0   50.0
250.0   30.0   50.0
250.0   0.0   33.333333333333336
200.0   30.0   33.333333333333336
200.0   30.0   0.0
250.0   30.0   0.0
200.0   60.0   0.0
200.0   30.0   16.666666666666668
250.0   30.0   0.0
250.0   60.0   0.0
200.0   60.0   0.0
250.0   60.0   16.666666666666668
200.0   30.0   16.666666666666668
200.0   60.0   16.666666666666668
250.0   60.0   16.666666666666668
200.0   60.0   0.0
200.0   30.0   16.666666666666668
250.0   60.0   16.666666666666668
250.0   30.0   16.666666666666668
250.0   30.0   0.0
200.0   30.0   16.666666666666668
250.0   60.0   16.666666666666668
250.0   30.0   0.0
200.0   60.0   0.0
200.0   30.0   16.666666666666668
250.0   30.0   16.666666666666668
200.0   60.0   16.666666666666668
200.0   30.0   33.333333333333336
250.0   30.0   16.666666666666668
250.0   60.0   16.666666666666668
200.0   60.0   16.666666666666668
250.0   60.0   33.333333333333336
200.0   30.0   33.333333333333336
200.0   60.0   33.333333333333336
250.0   60.0   33.333333333333336
200.0   60.0   16.666666666666668
200.0   30.0   33.333333333333336
250.0   60.0   33.333333333333336
250.0   30.0   33.333333333333336
250.0   30.0   16.666666666666668
200.0   30.0   33.333333333333336
250.0   60.0   33.333333333333336
250.0   30.0   16.666666666666668
200.0   60.0   16.666666666666668
200.0   30.0   33.333333333333336
250.0   30.0   33.333333333333336
200.0   60.0   33.333333333333336
200.0   30.0   50.0
250.0   30.0   33.333333333333336
250.0   60.0   33.333333333333336
200.0   60.0   33.333333333333336
250.0   60.0   50.0
200.0   30.0   50.0
200.0   60.0   50.0
250.0   60.0   50.0
200.0   60.0   33.333333333333336
200.0   30.0   50.0
250.0   60.0   50.0
250.0   30.0   50.0
250.0   30.0   33.333333333333336
200.0   30.0   50.0
250.0   60.0   50.0
250.0   30.0   33.333333333333336
200.0   60.0   33.333333333333336
200.0   60.0   0.0
250.0   60.0   0.0
200.0   90.0   0.0
200.0   60.0   16.666666666666668
250.0   60.0   0.0
250.0   90.0   0.0
200.0   90.0   0.0
250.0   90.0   16.666666666666668
200.0   60.0   16.666666666666668
200.0   90.0   16.666666666666668
250.0   90.0   16.666666666666668
200.0   90.0   0.0
200.0   60.0   16.666666666666668
250.0   90.0   16.666666666666668
250.0   60.0   16.666666666666668
250.0   60.0   0.0
200.0   60.0   16.666666666666668
250.0   90.0   16.666666666666668
250.0   60.0   0.0
200.0   90.0   0.0
200.0   60.0   16.666666666666668
250.0   60.0   16.666666666666668
200.0   90.0   16.666666666666668
200.0   60.0   33.333333333333336
250.0   60.0   16.666666666666668
250.0   90.0   16.666666666666668
200.0   90.0   16.666666666666668
250.0   90.0   33.333333333333336
200.0   60.0   33.333333333333336
200.0   90.0   33.333333333333336
250.0   90.0   33.333333333333336
200.0   90.0   16.666666666666668
200.0   60.0   33.333333333333336
250.0   90.0   33.333333333333336
250.0   60.0   33.333333333333336
250.0   60.0   16.666666666666668
200.0   60.0   33.333333333333336
250.0   90.0   33.333333333333336
250.0   60.0   16.666666666666668
200.0   90.0   16.666666666666668
200.0   60.0   33.333333333333336
250.0   60.0   33.333333333333336
200.0   90.0   33.333333333333336
200.0   60.0   50.0
250.0   60.0   33.333333333333336
250.0   90.0   33.333333333333336
200.0   90.0   33.333333333333336
250.0   90.0   50.0
200.0   60.0   50.0
200.0   90.0   50.0
250.0   90.0   50.0
200.0   90.0   33.333333333333336
200.0   60.0   50.0
250.0   90.0   50.0
250.0   60.0   50.0
250.0   60.0   33.333333333333336
200.0   60.0   50.0
250.0   90.0   50.0
250.0   60.0   33.333333333333336
200.0   90.0   33.333333333333336
200.0   90.0   0.0
250.0   90.0   0.0
200.0   120.0   0.0
200.0   90.0   16.666666666666668
250.0   90.0   0.0
250.0   120.0   0.0
200.0   120.0   0.0
250.0   120.0   16.666666666666668
200.0   90.0   16.666666666666668
200.0   120.0   16.666666666666668
250.0   120.0   16.666666666666668
200.0   120.0   0.0
200.0   90.0   16.666666666666668
250.0   120.0   16.666666666666668
250.0   90.0   16.666666666666668
250.0   90.0   0.0
200.0   90.0   16.666666666666668
250.0   120.0   16.666666666666668
250.0   90.0   0.0
200.0   120.0   0.0
200.0   90.0   16.666666666666668
250.0   90.0   16.666666666666668
200.0   120.0   16.666666666666668
200.0   90.0   33.333333333333336
250.0   90.0   16.666666666666668
250.0   120.0   16.666666666666668
200.0   120.0   16.666666666666668
250.0   120.0   33.333333333333336
200.0   90.0   33.333333333333336
200.0   120.0   33.333333333333336
250.0   120.0   33.333333333333336
200.0   120.0   16.666666666666668
200.0   90.0   33.333333333333336
250.0   120.0   33.333333333333336
250.0   90.0   33.333333333333336
250.0   90.0   16.666666666666668
200.0   90.0   33.333333333333336
250.0   120.0   33.333333333333336
250.0   90.0   16.666666666666668
200.0   120.0   16.666666666666668
200.0   90.0   33.333333333333336
250.0   90.0   33.333333333333336
200.0   120.0   33.333333333333336
200.0   90.0   50.0
250.0   90.0   33.333333333333336
250.0   120.0   33.333333333333336
200.0   120.0   33.333333333333336
250.0   120.0   50.0
200.0   90.0   50.0
200.0   120.0   50.0
250.0   120.0   50.0
200.0   120.0   33.333333333333336
200.0   90.0   50.0
250.0   120.0   50.0
250.0   90.0   50.0
250.0   90.0   33.333333333333336
200.0   90.0   50.0
250.0   120.0   50.0
250.0   90.0   33.333333333333336
200.0   120.0   33.333333333333336
200.0   120.0   0.0
250.0   120.0   0.0
200.0   150.0   0.0
200.0   120.0   16.666666666666668
250.0   120.0   0.0
250.0   150.0   0.0
200.0   150.0   0.0
250.0   150.0   16.666666666666668
200.0   120.0   16.666666666666668
200.0   150.0   16.666666666666668
250.0   150.0   16.666666666666668
200.0   150.0   0.0
200.0   120.0   16.666666666666668
250.0   150.0   16.666666666666668
250.0   120.0   16.666666666666668
250.0   120.0   0.0
200.0   120.0   16.666666666666668
250.0   150.0   16.666666666666668
250.0   120.0   0.0
200.0   150.0   0.0
200.0   120.0   16.666666666666668
250.0   120.0   16.666666666666668
200.0   150.0   16.666666666666668
200.0   120.0   33.333333333333336
250.0   120.0   16.666666666666668
250.0   150.0   16.666666666666668
200.0   150.0   16.666666666666668
250.0   150.0   33.333333333333336
200.0   120.0   33.333333333333336
200.0   150.0   33.333333333333336
250.0   150.0   33.333333333333336
200.0   150.0   16.666666666666668
200.0   120.0   33.333333333333336
250.0   150.0   33.333333333333336
250.0   120.0   33.333333333333336
250.0   120.0   16.666666666666668
200.0   120.0   33.333333333333336
250.0   150.0   33.333333333333336
250.0   120.0   16.666666666666668
200.0   150.0   16.666666666666668
200.0   120.0   33.333333333333336
250.0   120.0   33.333333333333336
200.0   150.0   33.333333333333336
200.0   120.0   50.0
250.0   120.0   33.333333333333336
250.0   150.0   33.333333333333336
200.0   150.0   33.333333333333336
250.0   150.0   50.0
200.0   120.0   50.0
200.0   150.0   50.0
250.0   150.0   50.0
200.0   150.0   33.333333333333336
200.0   120.0   50.0
250.0   150.0   50.0
250.0   120.0   50.0
250.0   120.0   33.333333333333336
200.0   120.0   50.0
250.0   150.0   50.0
250.0   120.0   33.333333333333336
200.0   150.0   33.333333333333336
250.0   0.0   0.0
300.0   0.0   0.0
250.0   30.0   0.0
250.0   0.0   16.666666666666668
300.0   0.0   0.0
300.0   30.0   0.0
250.0   30.0   0.0
300.0   30.0   16.666666666666668
250.0   0.0   16.666666666666668
250.0   30.0   16.666666666666668
300.0   30.0   16.666666666666668
250.0   30.0   0.0
250.0   0.0   16.666666666666668
300.0   30.0   16.666666666666668
300.0   0.0   16.666666666666668
300.0   0.0   0.0
250.0   0.0   16.666666666666668
300.0   30.0   16.666666666666668
300.0   0.0   0.0
250.0   30.0   0.0
250.0   0.0   16.666666666666668
300.0   0.0   16.666666666666668
250.0   30.0   16.666666666666668
250.0   0.0   33.333333333333336
300.0   0.0   16.666666666666668
300.0   30.0   16.666666666666668
250.0   30.0   16.666666666666668
300.0   30.0   33.333333333333336
250.0   0.0   33.333333333333336
250.0   30.0   33.333333333333336
300.0   30.0   33.333333333333336
250.0   30.0   16.666666666666668
250.0   0.0   33.333333333333336
300.0   30.0   33.333333333333336
300.0   0.0   33.333333333333336
300.0   0.0   16.666666666666668
250.0   0.0   33.333333333333336
300.0   30.0   33.333333333333336
300.0   0.0   16.666666666666668
250.0   30.0   16.666666666666668
250.0   0.0   33.333333333333336
300.0   0.0   33.333333333333336
250.0   30.0   33.333333333333336
250.0   0.0   50.0
300.0   0.0   33.333333333333336
300.0   30.0   33.333333333333336
250.0   30.0   33.333333333333336
300.0   30.0   50.0
250.0   0.0   50.0
250.0   30.0   50.0
300.0   30.0   50.0
250.0   30.0   33.333333333333336
250.0   0.0   50.0
300.0   30.0   50.0
300.0   0.0   50.0
300.0   0.0   33.333333333333336
250.0   0.0   50.0
300.0   30.0   50.0
300.0   0.0   33.333333333333336
250.0   30.0   33.333333333333336
250.0   30.0   0.0
300.0   30.0   0.0
250.0   60.0   0.0
250.0   30.0   16.666666666666668
300.0   30.0   0.0
300.0   60.0   0.0
250.0   60.0   0.0
300.0   60.0   16.666666666666668
250.0   30.0   16.666666666666668
250.0   60.0   16.666666666666668
300.0   60.0   16.666666666666668
250.0   60.0   0.0
250.0   30.0   16.666666666666668
300.0   60.0   16.666666666666668
300.0   30.0   16.666666666666668
300.0   30.0   0.0
250.0   30.0   16.666666666666668
300.0   60.0   16.666666666666668
300.0   30.0   0.0
250.0   60.0   0.0
250.0   30.0   16.666666666666668
300.0   30.0   16.666666666666668
250.0   60.0   16.666666666666668
250.0   30.0   33.333333333333336
300.0   30.0   16.666666666666668
300.0   60.0   16.666666666666668
250.0   60.0   16.666666666666668
300.0   60.0   33.333333333333336
250.0   30.0   33.333333333333336
250.0   60.0   33.333333333333336
300.0   60.0   33.333333333333336
250.0   60.0   16.666666666666668
250.0   30.0   33.333333333333336
300.0   60.0   33.333333333333336
300.0   30.0   33.333333333333336
300.0   30.0   16.666666666666668
250.0   30.0   33.333333333333336
300.0   60.0   33.333333333333336
300.0   30.0   16.666666666666668
250.0   60.0   16.666666666666668
250.0   30.0   33.333333333333336
300.0   30.0   33.333333333333336
250.0   60.0   33.333333333333336
250.0   30.0   50.0
300.0   30.0   33.333333333333336
300.0   60.0   33.333333333333336
250.0   60.0   33.333333333333336
300.0   60.0   50.0
250.0   30.0   50.0
250.0   60.0   50.0
300.0   60.0   50.0
250.0   60.0   33.333333333333336
250.0   30.0   50.0
300.0   60.0   50.0
300.0   30.0   50.0
300.0   30.0   33.333333333333336
250.0   30.0   50.0
300.0   60.0   50.0
300.0   30.0   33.333333333333336
250.0   60.0   33.333333333333336
250.0   60.0   0.0
300.0   60.0   0.0
250.0   90.0   0.0
250.0   60.0   16.666666666666668
300.0   60.0   0.0
300.0   90.0   0.0
250.0   90.0   0.0
300.0   90.0   16.666666666666668
250.0   60.0   16.666666666666668
250.0   90.0   16.666666666666668
300.0   90.0   16.666666666666668
250.0   90.0   0.0
250.0   60.0   16.666666666666668
300.0   90.0   16.666666666666668
300.0   60.0   16.666666666666668
300.0   60.0   0.0
250.0   60.0   16.666666666666668
300.0   90.0   16.666666666666668
300.0   60.0   0.0
250.0   90.0   0.0
250.0   60.0   16.666666666666668
300.0   60.0   16.666666666666668
250.0   90.0   16.666666666666668
250.0   60.0   33.333333333333336
300.0   60.0   16.666666666666668
300.0   90.0   16.666666666666668
250.0   90.0   16.666666666666668
300.0   90.0   33.333333333333336
250.0   60.0   33.333333333333336
250.0   90.0   33.333333333333336
300.0   90.0   33.333333333333336
250.0   90.0   16.666666666666668
250.0   60.0   33.333333333333336
300.0   90.0   33.333333333333336
300.0   60.0   33.333333333333336
300.0   60.0   16.666666666666668
250.0   60.0   33.333333333333336
300.0   90.0   33.333333333333336
300.0   60.0   16.666666666666668
250.0   90.0   16.666666666666668
250.0   60.0   33.333333333333336
300.0   60.0   33.333333333333336
250.0   90.0   33.333333333333336
250.0   60.0   50.0
300.0   60.0   33.333333333333336
300.0   90.0   33.333333333333336
250.0   90.0   33.333333333333336
300.0   90.0   50.0
250.0   60.0   50.0
250.0   90.0   50.0
300.0   90.0   50.0
250.0   90.0   33.333333333333336
250.0   60.0   50.0
300.0   90.0   50.0
300.0   60.0   50.0
300.0   60.0   33.333333333333336
250.0   60.0   50.0
300.0   90.0   50.0
300.0   60.0   33.333333333333336
250.0   90.0   33.333333333333336
250.0   90.0   0.0
300.0   90.0   0.0
250.0   120.0   0.0
250.0   90.0   16.666666666666668
300.0   90.0   0.0
300.0   120.0   0.0
250.0   120.0   0.0
300.0   120.0   16.666666666666668
250.0   90.0   16.666666666666668
250.0   120.0   16.666666666666668
300.0   120.0   16.666666666666668
250.0   120.0   0.0
250.0   90.0   16.666666666666668
300.0   120.0   16.666666666666668
300.0   90.0   16.666666666666668
300.0   90.0   0.0
250.0   90.0   16.666666666666668
300.0   120.0   16.666666666666668
300.0   90.0   0.0
250.0   120.0   0.0
250.0   90.0   16.666666666666668
300.0   90.0   16.666666666666668
250.0   120.0   16.666666666666668
250.0   90.0   33.333333333333336
300.0   90.0   16.666666666666668
300.0   120.0   16.666666666666668
250.0   120.0   16.666666666666668
300.0   120.0   33.333333333333336
250.0   90.0   33.333333333333336
250.0   120.0   33.333333333333336
300.0   120.0   33.333333333333336
250.0   120.0   16.666666666666668
250.0   90.0   33.333333333333336
300.0   120.0   33.333333333333336
300.0   90.0   33.333333333333336
300.0   90.0   16.666666666666668
250.0   90.0   33.333333333333336
300.0   120.0   33.333333333333336
300.0   90.0   16.666666666666668
250.0   120.0   16.666666666666668
250.0   90.0   33.333333333333336
300.0   90.0   33.333333333333336
250.0   120.0   33.333333333333336
250.0   90.0   50.0
300.0   90.0   33.333333333333336
300.0   120.0   33.333333333333336
250.0   120.0   33.333333333333336
300.0   120.0   50.0
250.0   90.0   50.0
250.0   120.0   50.0
300.0   120.0   50.0
250.0   120.0   33.333333333333336
250.0   90.0   50.0
300.0   120.0   50.0
300.0   90.0   50.0
300.0   90.0   33.333333333333336
250.0   90.0   50.0
300.0   120.0   50.0
300.0   90.0   33.333333333333336
250.0   120.0   33.333333333333336
250.0   120.0   0.0
300.0   120.0   0.0
250.0   150.0   0.0
250.0   120.0   16.666666666666668
300.0   120.0   0.0
300.0   150.0   0.0
250.0   150.0   0.0
300.0   150.0   16.666666666666668
250.0   120.0   16.666666666666668
250.0   150.0   16.666666666666668
300.0   150.0   16.666666666666668
250.0   150.0   0.0
250.0   120.0   16.666666666666668
300.0   150.0   16.666666666666668
300.0   120.0   16.666666666666668
300.0   120.0   0.0
250.0   120.0   16.666666666666668
300.0   150.0   16.666666666666668
300.0   120.0   0.0
250.0   150.0   0.0
250.0   120.0   16.666666666666668
300.0   120.0   16.666666666666668
250.0   150.0   16.666666666666668
250.0   120.0   33.333333333333336
300.0   120.0   16.666666666666668
300.0   150.0   16.666666666666668
250.0   150.0   16.666666666666668
300.0   150.0   33.333333333333336
250.0   120.0   33.333333333333336
250.0   150.0   33.333333333333336
300.0   150.0   33.333333333333336
250.0   150.0   16.666666666666668
250.0   120.0   33.333333333333336
300.0   150.0   33.333333333333336
300.0   120.0   33.333333333333336
300.0   120.0   16.666666666666668
250.0   120.0   33.333333333333336
300.0   150.0   33.333333333333336
300.0   120.0   16.666666666666668
250.0   150.0   16.666666666666668
250.0   120.0   33.333333333333336
300.0   120.0   33.333333333333336
250.0   150.0   33.333333333333336
250.0   120.0   50.0
300.0   120.0   33.333333333333336
300.0   150.0   33.333333333333336
250.0   150.0   33.333333333333336
300.0   150.0   50.0
250.0   120.0   50.0
250.0   150.0   50.0
300.0   150.0   50.0
250.0   150.0   33.333333333333336
250.0   120.0   50.0
300.0   150.0   50.0
300.0   120.0   50.0
300.0   120.0   33.333333333333336
250.0   120.0   50.0
300.0   150.0   50.0
300.0   120.0   33.333333333333336
250.0   150.0   33.333333333333336
300.0   0.0   0.0
350.0   0.0   0.0
300.0   30.0   0.0
300.0   0.0   16.666666666666668
350.0   0.0   0.0
350.0   30.0   0.0
300.0   30.0   0.0
350.0   30.0   16.666666666666668
300.0   0.0   16.666666666666668
300.0   30.0   16.666666666666668
350.0   30.0   16.666666666666668
300.0   30.0   0.0
300.0   0.0   16.666666666666668
350.0   30.0   16.666666666666668
350.0   0.0   16.666666666666668
350.0   0.0   0.0
300.0   0.0   16.666666666666668
350.0   30.0   16.666666666666668
350.0   0.0   0.0
300.0   30.0   0.0
300.0   0.0   16.666666666666668
350.0   0.0   16.666666666666668
300.0   30.0   16.666666666666668
300.0   0.0   33.333333333333336
350.0   0.0   16.666666666666668
350.0   30.0   16.666666666666668
300.0   30.0   16.666666666666668
350.0   30.0   33.333333333333336
300.0   0.0   33.333333333333336
300.0   30.0   33.333333333333336
350.0   30.0   33.333333333333336
300.0   30.0   16.666666666666668
300.0   0.0   33.333333333333336
350.0   30.0   33.333333333333336
350.0   0.0   33.333333333333336
350.0   0.0   16.666666666666668
300.0   0.0   33.333333333333336
350.0   30.0   33.333333333333336
350.0   0.0   16.666666666666668
300.0   30.0   16.666666666666668
300.0   0.0   33.333333333333336
350.0   0.0   33.333333333333336
300.0   30.0   33.333333333333336
300.0   0.0   50.0
350.0   0.0   33.333333333333336
350.0   30.0   33.333333333333336
300.0   30.0   33.333333333333336
350.0   30.0   50.0
300.0   0.0   50.0
300.0   30.0   50.0
350.0   30.0   50.0
300.0   30.0   33.333333333333336
300.0   0.0   50.0
350.0   30.0   50.0
350.0   0.0   50.0
350.0   0.0   33.333333333333336
300.0   0.0   50.0
350.0   30.0   50.0
350.0   0.0   33.333333333333336
300.0   30.0   33.333333333333336
300.0   30.0   0.0
350.0   30.0   0.0
300.0   60.0   0.0
300.0   30.0   16.666666666666668
350.0   30.0   0.0
350.0   60.0   0.0
300.0   60.0   0.0
350.0   60.0   16.666666666666668
300.0   30.0   16.666666666666668
300.0   60.0   16.666666666666668
350.0   60.0   16.666666666666668
300.0   60.0   0.0
300.0   30.0   16.666666666666668
350.0   60.0   16.666666666666668
350.0   30.0   16.666666666666668
350.0   30.0   0.0
300.0   30.0   16.666666666666668
350.0   60.0   16.666666666666668
350.0   30.0   0.0
300.0   60.0   0.0
300.0   30.0   16.666666666666668
350.0   30.0   16.666666666666668
300.0   60.0   16.666666666666668
300.0   30.0   33.333333333333336
350.0   30.0   16.666666666666668
350.0   60.0   16.666666666666668
300.0   60.0   16.666666666666668
350.0   60.0   33.333333333333336
300.0   30.0   33.333333333333336
300.0   60.0   33.333333333333336
350.0   60.0   33.333333333333336
300.0   60.0   16.666666666666668
300.0   30.0   33.333333333333336
350.0   60.0   33.333333333333336
350.0   30.0   33.333333333333336
350.0   30.0   16.666666666666668
300.0   30.0   33.333333333333336
350.0   60.0   33.333333333333336
350.0   30.0   16.666666666666668
300.0   60.0   16.666666666666668
300.0   30.0   33.333333333333336
350.0   30.0   33.333333333333336
300.0   60.0   33.333333333333336
300.0   30.0   50.0
350.0   30.0   33.333333333333336
350.0   60.0   33.333333333333336
300.0   60.0   33.333333333333336
350.0   60.0   50.0
300.0   30.0   50.0
300.0   60.0   50.0
350.0   60.0   50.0
300.0   60.0   33.333333333333336
300.0   30.0   50.0
350.0   60.0   50.0
350.0   30.0   50.0
350.0   30.0   33.333333333333336
300.0   30.0   50.0
350.0   60.0   50.0
350.0   30.0   33.333333333333336
300.0   60.0   33.333333333333336
300.0   60.0   0.0
350.0   60.0   0.0
300.0   90.0   0.0
300.0   60.0   16.666666666666668
350.0   60.0   0.0
350.0   90.0   0.0
300.0   90.0   0.0
350.0   90.0   16.666666666666668
300.0   60.0   16.666666666666668
300.0   90.0   16.666666666666668
350.0   90.0   16.666666666666668
300.0   90.0   0.0
300.0   60.0   16.666666666666668
350.0   90.0   16.666666666666668
350.0   60.0   16.666666666666668
350.0   60.0   0.0
300.0   60.0   16.666666666666668
350.0   90.0   16.666666666666668
350.0   60.0   0.0
300.0   90.0   0.0
300.0   60.0   16.666666666666668
350.0   60.0   16.666666666666668
300.0   90.0   16.666666666666668
300.0   60.0   33.333333333333336
350.0   60.0   16.666666666666668
350.0   90.0   16.666666666666668
300.0   90.0   16.666666666666668
350.0   90.0   33.333333333333336
300.0   60.0   33.333333333333336
300.0   90.0   33.333333333333336
350.0   90.0   33.333333333333336
300.0   90.0   16.666666666666668
300.0   60.0   33.333333333333336
350.0   90.0   33.333333333333336
350.0   60.0   33.333333333333336
350.0   60.0   16.666666666666668
300.0   60.0   33.333333333333336
350.0   90.0   33.333333333333336
350.0   60.0   16.666666666666668
300.0   90.0   16.666666666666668
300.0   60.0   33.333333333333336
350.0   60.0   33.333333333333336
300.0   90.0   33.333333333333336
300.0   60.0   50.0
350.0   60.0   33.333333333333336
350.0   90.0   33.333333333333336
300.0   90.0   33.333333333333336
350.0   90.0   50.0
300.0   60.0   50.0
300.0   90.0   50.0
350.0   90.0   50.0
300.0   90.0   33.333333333333336
300.0   60.0   50.0
350.0   90.0   50.0
350.0   60.0   50.0
350.0   60.0   33.333333333333336
300.0   60.0   50.0
350.0   90.0   50.0
350.0   60.0   33.333333333333336
300.0   90.0   33.333333333333336
300.0   90.0   0.0
350.0   90.0   0.0
300.0   120.0   0.0
300.0   90.0   16.666666666666668
350.0   90.0   0.0
350.0   120.0   0.0
300.0   120.0   0.0
350.0   120.0   16.666666666666668
300.0   90.0   16.666666666666668
300.0   120.0   16.666666666666668
350.0   120.0   16.666666666666668
300.0   120.0   0.0
300.0   90.0   16.666666666666668
350.0   120.0   16.666666666666668
350.0   90.0   16.666666666666668
350.0   90.0   0.0
300.0   90.0   16.666666666666668
350.0   120.0   16.666666666666668
350.0   90.0   0.0
300.0   120.0   0.0
300.0   90.0   16.666666666666668
350.0   90.0   16.666666666666668
300.0   120.0   16.666666666666668
300.0   90.0   33.333333333333336
350.0   90.0   16.666666666666668
350.0   120.0   16.666666666666668
300.0   120.0   16.666666666666668
350.0   120.0   33.333333333333336
300.0   90.0   33.333333333333336
300.0   120.0   33.333333333333336
350.0   120.0   33.333333333333336
300.0   120.0   16.666666666666668
300.0   90.0   33.333333333333336
350.0   120.0   33.333333333333336
350.0   90.0   33.333333333333336
350.0   90.0   16.666666666666668
300.0   90.0   33.333333333333336
350.0   120.0   33.333333333333336
350.0   90.0   16.666666666666668
300.0   120.0   16.666666666666668
300.0   90.0   33.333333333333336
350.0   90.0   33.333333333333336
300.0   120.0   33.333333333333336
300.0   90.0   50.0
350.0   90.0   33.333333333333336
350.0   120.0   33.333333333333336
300.0   120.0   33.333333333333336
350.0   120.0   50.0
300.0   90.0   50.0
300.0   120.0   50.0
350.0   120.0   50.0
300.0   120.0   33.333333333333336
300.0   90.0   50.0
350.0   120.0   50.0
350.0   90.0   50.0
350.0   90.0   33.333333333333336
300.0   90.0   50.0
350.0   120.0   50.0
350.0   90.0   33.333333333333336
300.0   120.0   33.333333333333336
300.0   120.0   0.0
350.0   120.0   0.0
300.0   150.0   0.0
300.0   120.0   16.666666666666668
350.0   120.0   0.0
350.0   150.0   0.0
300.0   150.0   0.0
350.0   150.0   16.666666666666668
300.0   120.0   16.666666666666668
300.0   150.0   16.666666666666668
350.0   150.0   16.666666666666668
300.0   150.0   0.0
300.0   120.0   16.666666666666668
350.0   150.0   16.666666666666668
350.0   120.0   16.666666666666668
350.0   120.0   0.0
300.0   120.0   16.666666666666668
350.0   150.0   16.666666666666668
350.0   120.0   0.0
300.0   150.0   0.0
300.0   120.0   16.666666666666668
350.0   120.0   16.666666666666668
300.0   150.0   16.666666666666668
300.0   120.0   33.333333333333336
350.0   120.0   16.666666666666668
350.0   150.0   16.666666666666668
300.0   150.0   16.666666666666668
350.0   150.0   33.333333333333336
300.0   120.0   33.333333333333336
300.0   150.0   33.333333333333336
350.0   150.0   33.333333333333336
300.0   150.0   16.666666666666668
300.0   120.0   33.333333333333336
350.0   150.0   33.333333333333336
350.0   120.0   33.333333333333336
350.0   120.0   16.666666666666668
300.0   120.0   33.333333333333336
350.0   150.0   33.333333333333336
350.0   120.0   16.666666666666668
300.0   150.0   16.666666666666668
300.0   120.0   33.333333333333336
350.0   120.0   33.333333333333336
300.0   150.0   33.333333333333336
300.0   120.0   50.0
350.0   120.0   33.333333333333336
350.0   150.0   33.333333333333336
300.0   150.0   33.333333333333336
350.0   150.0   50.0
300.0   120.0   50.0
300.0   150.0   50.0
350.0   150.0   50.0
300.0   150.0   33.333333333333336
300.0   120.0   50.0
350.0   150.0   50.0
350.0   120.0   50.0
350.0   120.0   33.333333333333336
300.0   120.0   50.0
350.0   150.0   50.0
350.0   120.0   33.333333333333336
300.0   150.0   33.333333333333336
350.0   0.0   0.0
400.0   0.0   0.0
350.0   30.0   0.0
350.0   0.0   16.666666666666668
400.0   0.0   0.0
400.0   30.0   0.0
350.0   30.0   0.0
400.0   30.0   16.666666666666668
350.0   0.0   16.666666666666668
350.0   30.0   16.666666666666668
400.0   30.0   16.666666666666668
350.0   30.0   0.0
350.0   0.0   16.666666666666668
400.0   30.0   16.666666666666668
400.0   0.0   16.666666666666668
400.0   0.0   0.0
350.0   0.0   16.666666666666668
400.0   30.0   16.666666666666668
400.0   0.0   0.0
350.0   30.0   0.0
350.0   0.0   16.666666666666668
400.0   0.0   16.666666666666668
350.0   30.0   16.666666666666668
350.0   0.0   33.333333333333336
400.0   0.0   16.666666666666668
400.0   30.0   16.666666666666668
350.0   30.0   16.666666666666668
400.0   30.0   33.333333333333336
350.0   0.0   33.333333333333336
350.0   30.0   33.333333333333336
400.0   30.0   33.333333333333336
350.0   30.0   16.666666666666668
350.0   0.0   33.333333333333336
400.0   30.0   33.333333333333336
400.0   0.0   33.333333333333336
400.0   0.0   16.666666666666668
350.0   0.0   33.333333333333336
400.0   30.0   33.333333333333336
400.0   0.0   16.666666666666668
350.0   30.0   16.666666666666668
350.0   0.0   33.333333333333336
400.0   0.0   33.333333333333336
350.0   30.0   33.333333333333336
350.0   0.0   50.0
400.0   0.0   33.333333333333336
400.0   30.0   33.333333333333336
350.0   30.0   33.333333333333336
400.0   30.0   50.0
350.0   0.0   50.0
350.0   30.0   50.0
400.0   30.0   50.0
350.0   30.0   33.333333333333336
350.0   0.0   50.0
400.0   30.0   50.0
400.0   0.0   50.0
400.0   0.0   33.333333333333336
350.0   0.0   50.0
400.0   30.0   50.0
400.0   0.0   33.333333333333336
350.0   30.0   33.333333333333336
350.0   30.0   0.0
400.0   30.0   0.0
350.0   60.0   0.0
350.0   30.0   16.666666666666668
400.0   30.0   0.0
400.0   60.0   0.0
350.0   60.0   0.0
400.0   60.0   16.666666666666668
350.0   30.0   16.666666666666668
350.0   60.0   16.666666666666668
400.0   60.0   16.666666666666668
350.0   60.0   0.0
350.0   30.0   16.666666666666668
400.0   60.0   16.666666666666668
400.0   30.0   16.666666666666668
400.0   30.0   0.0
350.0   30.0   16.666666666666668
400.0   60.0   16.666666666666668
400.0   30.0   0.0
350.0   60.0   0.0
350.0   30.0   16.666666666666668
400.0   30.0   16.666666666666668
350.0   60.0   16.666666666666668
350.0   30.0   33.333333333333336
400.0   30.0   16.666666666666668
400.0   60.0   16.666666666666668
350.0   60.0   16.666666666666668
400.0   60.0   33.333333333333336
350.0   30.0   33.333333333333336
350.0   60.0   33.333333333333336
400.0   60.0   33.333333333333336
350.0   60.0   16.666666666666668
350.0   30.0   33.333333333333336
400.0   60.0   33.333333333333336
400.0   30.0   33.333333333333336
400.0   30.0   16.666666666666668
350.0   30.0   33.333333333333336
400.0   60.0   33.333333333333336
400.0   30.0   16.666666666666668
350.0   60.0   16.666666666666668
350.0   30.0   33.333333333333336
400.0   30.0   33.333333333333336
350.0   60.0   33.333333333333336
350.0   30.0   50.0
400.0   30.0   33.333333333333336
400.0   60.0   33.333333333333336
350.0   60.0   33.333333333333336
400.0   60.0   50.0
350.0   30.0   50.0
350.0   60.0   50.0
400.0   60.0   50.0
350.0   60.0   33.333333333333336
350.0   30.0   50.0
400.0   60.0   50.0
400.0   30.0   50.0
400.0   30.0   33.333333333333336
350.0   30.0   50.0
400.0   60.0   50.0
400.0   30.0   33.333333333333336
350.0   60.0   33.333333333333336
350.0   60.0   0.0
400.0   60.0   0.0
350.0   90.0   0.0
350.0   60.0   16.666666666666668
400.0   60.0   0.0
400.0   90.0   0.0
350.0   90.0   0.0
400.0   90.0   16.666666666666668
350.0   60.0   16.666666666666668
350.0   90.0   16.666666666666668
400.0   90.0   16.666666666666668
350.0   90.0   0.0
350.0   60.0   16.666666666666668
400.0   90.0   16.666666666666668
400.0   60.0   16.666666666666668
400.0   60.0   0.0
350.0   60.0   16.666666666666668
400.0   90.0   16.666666666666668
400.0   60.0   0.0
350.0   90.0   0.0
350.0   60.0   16.666666666666668
400.0   60.0   16.666666666666668
350.0   90.0   16.666666666666668
350.0   60.0   33.333333333333336
400.0   60.0   16.666666666666668
400.0   90.0   16.666666666666668
350.0   90.0   16.666666666666668
400.0   90.0   33.333333333333336
350.0   60.0   33.333333333333336
350.0   90.0   33.333333333333336
400.0   90.0   33.333333333333336
350.0   90.0   16.666666666666668
350.0   60.0   33.333333333333336
400.0   90.0   33.333333333333336
400.0   60.0   33.333333333333336
400.0   60.0   16.666666666666668
350.0   60.0   33.333333333333336
400.0   90.0   33.333333333333336
400.0   60.0   16.666666666666668
350.0   90.0   16.666666666666668
350.0   60.0   33.333333333333336
400.0   60.0   33.333333333333336
350.0   90.0   33.333333333333336
350.0   60.0   50.0
400.0   60.0   33.333333333333336
400.0   90.0   33.333333333333336
350.0   90.0   33.333333333333336
400.0   90.0   50.0
350.0   60.0   50.0
350.0   90.0   50.0
400.0   90.0   50.0
350.0   90.0   33.333333333333336
350.0   60.0   50.0
400.0   90.0   50.0
400.0   60.0   50.0
400.0   60.0   33.333333333333336
350.0   60.0   50.0
400.0   90.0   50.0
400.0   60.0   33.333333333333336
350.0   90.0   33.333333333333336
350.0   90.0   0.0
400.0   90.0   0.0
350.0   120.0   0.0
350.0   90.0   16.666666666666668
400.0   90.0   0.0
400.0   120.0   0.0
350.0   120.0   0.0
400.0   120.0   16.666666666666668
350.0   90.0   16.666666666666668
350.0   120.0   16.666666666666668
400.0   120.0   16.666666666666668
350.0   120.0   0.0
350.0   90.0   16.666666666666668
400.0   120.0   16.666666666666668
400.0   90.0   16.666666666666668
400.0   90.0   0.0
350.0   90.0   16.666666666666668
400.0   120.0   16.666666666666668
400.0   90.0   0.0
350.0   120.0   0.0
350.0   90.0   16.666666666666668
400.0   90.0   16.666666666666668
350.0   120.0   16.666666666666668
350.0   90.0   33.333333333333336
400.0   90.0   16.666666666666668
400.0   120.0   16.666666666666668
350.0   120.0   16.666666666666668
400.0   120.0   33.333333333333336
350.0   90.0   33.333333333333336
350.0   120.0   33.333333333333336
400.0   120.0   33.333333333333336
350.0   120.0   16.666666666666668
350.0   90.0   33.333333333333336
400.0   120.0   33.333333333333336
400.0   90.0   33.333333333333336
400.0   90.0   16.666666666666668
350.0   90.0   33.333333333333336
400.0   120.0   33.333333333333336
400.0   90.0   16.666666666666668
350.0   120.0   16.666666666666668
350.0   90.0   33.333333333333336
400.0   90.0   33.333333333333336
350.0   120.0   33.333333333333336
350.0   90.0   50.0
400.0   90.0   33.333333333333336
400.0   120.0   33.333333333333336
350.0   120.0   33.333333333333336
400.0   120.0   50.0
350.0   90.0   50.0
350.0   120.0   50.0
400.0   120.0   50.0
350.0   120.0   33.333333333333336
350.0   90.0   50.0
400.0   120.0   50.0
400.0   90.0   50.0
400.0   90.0   33.333333333333336
350.0   90.0   50.0
400.0   120.0   50.0
400.0   90.0   33.333333333333336
350.0   120.0   33.333333333333336
350.0   120.0   0.0
400.0   120.0   0.0
350.0   150.0   0.0
350.0   120.0   16.666666666666668
400.0   120.0   0.0
400.0   150.0   0.0
350.0   150.0   0.0
400.0   150.0   16.666666666666668
350.0   120.0   16.666666666666668
350.0   150.0   16.666666666666668
400.0   150.0   16.666666666666668
350.0   150.0   0.0
350.0   120.0   16.666666666666668
400.0   150.0   16.666666666666668
400.0   120.0   16.666666666666668
400.0   120.0   0.0
350.0   120.0   16.666666666666668
400.0   150.0   16.666666666666668
400.0   120.0   0.0
350.0   150.0   0.0
350.0   120.0   16.666666666666668
400.0   120.0   16.666666666666668
350.0   150.0   16.666666666666668
350.0   120.0   33.333333333333336
400.0   120.0   16.666666666666668
400.0   150.0   16.666666666666668
350.0   150.0   16.666666666666668
400.0   150.0   33.333333333333336
350.0   120.0   33.333333333333336
350.0   150.0   33.333333333333336
400.0   150.0   33.333333333333336
350.0   150.0   16.666666666666668
350.0   120.0   33.333333333333336
400.0   150.0   33.333333333333336
400.0   120.0   33.333333333333336
400.0   120.0   16.666666666666668
350.0   120.0   33.333333333333336
400.0   150.0   33.333333333333336
400.0   120.0   16.666666666666668
350.0   150.0   16.666666666666668
350.0   120.0   33.333333333333336
400.0   120.0   33.333333333333336
350.0   150.0   33.333333333333336
350.0   120.0   50.0
400.0   120.0   33.333333333333336
400.0   150.0   33.333333333333336
350.0   150.0   33.333333333333336
400.0   150.0   50.0
350.0   120.0   50.0
350.0   150.0   50.0
400.0   150.0   50.0
350.0   150.0   33.333333333333336
350.0   120.0   50.0
400.0   150.0   50.0
400.0   120.0   50.0
400.0   120.0   33.333333333333336
350.0   120.0   50.0
400.0   150.0   50.0
400.0   120.0   33.333333333333336
350.0   150.0   33.333333333333336
400.0   0.0   0.0
450.0   0.0   0.0
400.0   30.0   0.0
400.0   0.0   16.666666666666668
450.0   0.0   0.0
450.0   30.0   0.0
400.0   30.0   0.0
450.0   30.0   16.666666666666668
400.0   0.0   16.666666666666668
400.0   30.0   16.666666666666668
450.0   30.0   16.666666666666668
400.0   30.0   0.0
400.0   0.0   16.666666666666668
450.0   30.0   16.666666666666668
450.0   0.0   16.666666666666668
450.0   0.0   0.0
400.0   0.0   16.666666666666668
450.0   30.0   16.666666666666668
450.0   0.0   0.0
400.0   30.0   0.0
400.0   0.0   16.666666666666668
450.0   0.0   16.666666666666668
400.0   30.0   16.666666666666668
400.0   0.0   33.333333333333336
450.0   0.0   16.666666666666668
450.0   30.0   16.666666666666668
400.0   30.0   16.666666666666668
450.0   30.0   33.333333333333336
400.0   0.0   33.333333333333336
400.0   30.0   33.333333333333336
450.0   30.0   33.333333333333336
400.0   30.0   16.666666666666668
400.0   0.0   33.333333333333336
450.0   30.0   33.333333333333336
450.0   0.0   33.333333333333336
450.0   0.0   16.666666666666668
400.0   0.0   33.333333333333336
450.0   30.0   33.333333333333336
450.0   0.0   16.666666666666668
400.0   30.0   16.666666666666668
400.0   0.0   33.333333333333336
450.0   0.0   33.333333333333336
400.0   30.0   33.333333333333336
400.0   0.0   50.0
450.0   0.0   33.333333333333336
450.0   30.0   33.333333333333336
400.0   30.0   33.333333333333336
450.0   30.0   50.0
400.0   0.0   50.0
400.0   30.0   50.0
450.0   30.0   50.0
400.0   30.0   33.333333333333336
400.0   0.0   50.0
450.0   30.0   50.0
450.0   0.0   50.0
450.0   0.0   33.333333333333336
400.0   0.0   50.0
450.0   30.0   50.0
450.0   0.0   33.333333333333336
400.0   30.0   33.333333333333336
400.0   30.0   0.0
450.0   30.0   0.0
400.0   60.0   0.0
400.0   30.0   16.666666666666668
450.0   30.0   0.0
450.0   60.0   0.0
400.0   60.0   0.0
450.0   60.0   16.666666666666668
400.0   30.0   16.666666666666668
400.0   60.0   16.666666666666668
450.0   60.0   16.666666666666668
400.0   60.0   0.0
400.0   30.0   16.666666666666668
450.0   60.0   16.666666666666668
450.0   30.0   16.666666666666668
450.0   30.0   0.0
400.0   30.0   16.666666666666668
450.0   60.0   16.666666666666668
450.0   30.0   0.0
400.0   60.0   0.0
400.0   30.0   16.666666666666668
450.0   30.0   16.666666666666668
400.0   60.0   16.666666666666668
400.0   30.0   33.333333333333336
450.0   30.0   16.666666666666668
450.0   60.0   16.666666666666668
400.0   60.0   16.666666666666668
450.0   60.0   33.333333333333336
400.0   30.0   33.333333333333336
400.0   60.0   33.333333333333336
450.0   60.0   33.333333333333336
400.0   60.0   16.666666666666668
400.0   30.0   33.333333333333336
450.0   60.0   33.333333333333336
450.0   30.0   33.333333333333336
450.0   30.0   16.666666666666668
400.0   30.0   33.333333333333336
450.0   60.0   33.333333333333336
450.0   30.0   16.666666666666668
400.0   60.0   16.666666666666668
400.0   30.0   33.333333333333336
450.0   30.0   33.333333333333336
400.0   60.0   33.333333333333336
400.0   30.0   50.0
450.0   30.0   33.333333333333336
450.0   60.0   33.333333333333336
400.0   60.0   33.333333333333336
450.0   60.0   50.0
400.0   30.0   50.0
400.0   60.0   50.0
450.0   60.0   50.0
400.0   60.0   33.333333333333336
400.0   30.0   50.0
450.0   60.0   50.0
450.0   30.0   50.0
450.0   30.0   33.333333333333336
400.0   30.0   50.0
450.0   60.0   50.0
450.0   30.0   33.333333333333336
400.0   60.0   33.333333333333336
400.0   60.0   0.0
450.0   60.0   0.0
400.0   90.0   0.0
400.0   60.0   16.666666666666668
450.0   60.0   0.0
450.0   90.0   0.0
400.0   90.0   0.0
450.0   90.0   16.666666666666668
400.0   60.0   16.666666666666668
400.0   90.0   16.666666666666668
450.0   90.0   16.666666666666668
400.0   90.0   0.0
400.0   60.0   16.666666666666668
450.0   90.0   16.666666666666668
450.0   60.0   16.666666666666668
450.0   60.0   0.0
400.0   60.0   16.666666666666668
450.0   90.0   16.666666666666668
450.0   60.0   0.0
400.0   90.0   0.0
400.0   60.0   16.666666666666668
450.0   60.0   16.666666666666668
400.0   90.0   16.666666666666668
400.0   60.0   33.333333333333336
450.0   60.0   16.666666666666668
450.0   90.0   16.666666666666668
400.0   90.0   16.666666666666668
450.0   90.0   33.333333333333336
400.0   60.0   33.333333333333336
400.0   90.0   33.333333333333336
450.0   90.0   33.333333333333336
400.0   90.0   16.666666666666668
400.0   60.0   33.333333333333336
450.0   90.0   33.333333333333336
450.0   60.0   33.333333333333336
450.0   60.0   16.666666666666668
400.0   60.0   33.333333333333336
450.0   90.0   33.333333333333336
450.0   60.0   16.666666666666668
400.0   90.0   16.666666666666668
400.0   60.0   33.333333333333336
450.0   60.0   33.333333333333336
400.0   90.0   33.333333333333336
400.0   60.0   50.0
450.0   60.0   33.333333333333336
450.0   90.0   33.333333333333336
400.0   90.0   33.333333333333336
450.0   90.0   50.0
400.0   60.0   50.0
400.0   90.0   50.0
450.0   90.0   50.0
400.0   90.0   33.333333333333336
400.0   60.0   50.0
450.0   90.0   50.0
450.0   60.0   50.0
450.0   60.0   33.333333333333336
400.0   60.0   50.0
450.0   90.0   50.0
450.0   60.0   33.333333333333336
400.0   90.0   33.333333333333336
400.0   90.0   0.0
450.0   90.0   0.0
400.0   120.0   0.0
400.0   90.0   16.666666666666668
450.0   90.0   0.0
450.0   120.0   0.0
400.0   120.0   0.0
450.0   120.0   16.666666666666668
400.0   90.0   16.666666666666668
400.0   120.0   16.666666666666668
450.0   120.0   16.666666666666668
400.0   120.0   0.0
400.0   90.0   16.666666666666668
450.0   120.0   16.666666666666668
450.0   90.0   16.666666666666668
450.0   90.0   0.0
400.0   90.0   16.666666666666668
450.0   120.0   16.666666666666668
450.0   90.0   0.0
400.0   120.0   0.0
400.0   90.0   16.666666666666668
450.0   90.0   16.666666666666668
400.0   120.0   16.666666666666668
400.0   90.0   33.333333333333336
450.0   90.0   16.666666666666668
450.0   120.0   16.666666666666668
400.0   120.0   16.666666666666668
450.0   120.0   33.333333333333336
400.0   90.0   33.333333333333336
400.0   120.0   33.333333333333336
450.0   120.0   33.333333333333336
400.0   120.0   16.666666666666668
400.0   90.0   33.333333333333336
450.0   120.0   33.333333333333336
450.0   90.0   33.333333333333336
450.0   90.0   16.666666666666668
400.0   90.0   33.333333333333336
450.0   120.0   33.333333333333336
450.0   90.0   16.666666666666668
400.0   120.0   16.666666666666668
400.0   90.0   33.333333333333336
450.0   90.0   33.333333333333336
400.0   120.0   33.333333333333336
400.0   90.0   50.0
450.0   90.0   33.333333333333336
450.0   120.0   33.333333333333336
400.0   120.0   33.333333333333336
450.0   120.0   50.0
400.0   90.0   50.0
400.0   120.0   50.0
450.0   120.0   50.0
400.0   120.0   33.333333333333336
400.0   90.0   50.0
450.0   120.0   50.0
450.0   90.0   50.0
450.0   90.0   33.333333333333336
400.0   90.0   50.0
450.0   120.0   50.0
450.0   90.0   33.333333333333336
400.0   120.0   33.333333333333336
400.0   120.0   0.0
450.0   120.0   0.0
400.0   150.0   0.0
400.0   120.0   16.666666666666668
450.0   120.0   0.0
450.0   150.0   0.0
400.0   150.0   0.0
450.0   150.0   16.666666666666668
400.0   120.0   16.666666666666668
400.0   150.0   16.666666666666668
450.0   150.0   16.666666666666668
400.0   150.0   0.0
400.0   120.0   16.666666666666668
450.0   150.0   16.666666666666668
450.0   120.0   16.666666666666668
450.0   120.0   0.0
400.0   120.0   16.666666666666668
450.0   150.0   16.666666666666668
450.0   120.0   0.0
400.0   150.0   0.0
400.0   120.0   16.666666666666668
450.0   120.0   16.666666666666668
400.0   150.0   16.666666666666668
400.0   120.0   33.333333333333336
450.0   120.0   16.666666666666668
450.0   150.0   16.666666666666668
400.0   150.0   16.666666666666668
450.0   150.0   33.333333333333336
400.0   120.0   33.333333333333336
400.0   150.0   33.333333333333336
450.0   150.0   33.333333333333336
400.0   150.0   16.666666666666668
400.0   120.0   33.333333333333336
450.0   150.0   33.333333333333336
450.0   120.0   33.333333333333336
450.0   120.0   16.666666666666668
400.0   120.0   33.333333333333336
450.0   150.0   33.333333333333336
450.0   120.0   16.666666666666668
400.0   150.0   16.666666666666668
400.0   120.0   33.333333333333336
450.0   120.0   33.333333333333336
400.0   150.0   33.333333333333336
400.0   120.0   50.0
450.0   120.0   33.333333333333336
450.0   150.0   33.333333333333336
400.0   150.0   33.333333333333336
450.0   150.0   50.0
400.0   120.0   50.0
400.0   150.0   50.0
450.0   150.0   50.0
400.0   150.0   33.333333333333336
400.0   120.0   50.0
450.0   150.0   50.0
450.0   120.0   50.0
450.0   120.0   33.333333333333336
400.0   120.0   50.0
450.0   150.0   50.0
450.0   120.0   33.333333333333336
400.0   150.0   33.333333333333336
450.0   0.0   0.0
500.0   0.0   0.0
450.0   30.0   0.0
450.0   0.0   16.666666666666668
500.0   0.0   0.0
500.0   30.0   0.0
450.0   30.0   0.0
500.0   30.0   16.666666666666668
450.0   0.0   16.666666666666668
450.0   30.0   16.666666666666668
500.0   30.0   16.666666666666668
450.0   30.0   0.0
450.0   0.0   16.666666666666668
500.0   30.0   16.666666666666668
500.0   0.0   16.666666666666668
500.0   0.0   0.0
450.0   0.0   16.666666666666668
500.0   30.0   16.666666666666668
500.0   0.0   0.0
450.0   30.0   0.0
450.0   0.0   16.666666666666668
500.0   0.0   16.666666666666668
450.0   30.0   16.666666666666668
450.0   0.0   33.333333333333336
500.0   0.0   16.666666666666668
500.0   30.0   16.666666666666668
450.0   30.0   16.666666666666668
500.0   30.0   33.333333333333336
450.0   0.0   33.333333333333336
450.0   30.0   33.333333333333336
500.0   30.0   33.333333333333336
450.0   30.0   16.666666666666668
450.0   0.0   33.333333333333336
500.0   30.0   33.333333333333336
500.0   0.0   33.333333333333336
500.0   0.0   16.666666666666668
450.0   0.0   33.333333333333336
500.0   30.0   33.333333333333336
500.0   0.0   16.666666666666668
450.0   30.0   16.666666666666668
450.0   0.0   33.333333333333336
500.0   0.0   33.333333333333336
450.0   30.0   33.333333333333336
450.0   0.0   50.0
500.0   0.0   33.333333333333336
500.0   30.0   33.333333333333336
450.0   30.0   33.333333333333336
500.0   30.0   50.0
450.0   0.0   50.0
450.0   30.0   50.0
500.0   30.0   50.0
450.0   30.0   33.333333333333336
450.0   0.0   50.0
500.0   30.0   50.0
500.0   0.0   50.0
500.0   0.0   33.333333333333336
450.0   0.0   50.0
500.0   30.0   50.0
500.0   0.0   33.333333333333336
450.0   30.0   33.333333333333336
450.0   30.0   0.0
500.0   30.0   0.0
450.0   60.0   0.0
450.0   30.0   16.666666666666668
500.0   30.0   0.0
500.0   60.0   0.0
450.0   60.0   0.0
500.0   60.0   16.666666666666668
450.0   30.0   16.666666666666668
450.0   60.0   16.666666666666668
500.0   60.0   16.666666666666668
450.0   60.0   0.0
450.0   30.0   16.666666666666668
500.0   60.0   16.666666666666668
500.0   30.0   16.666666666666668
500.0   30.0   0.0
450.0   30.0   16.666666666666668
500.0   60.0   16.666666666666668
500.0   30.0   0.0
450.0   60.0   0.0
450.0   30.0   16.666666666666668
500.0   30.0   16.666666666666668
450.0   60.0   16.666666666666668
450.0   30.0   33.333333333333336
500.0   30.0   16.666666666666668
500.0   60.0   16.666666666666668
450.0   60.0   16.666666666666668
500.0   60.0   33.333333333333336
450.0   30.0   33.333333333333336
450.0   60.0   33.333333333333336
500.0   60.0   33.333333333333336
450.0   60.0   16.666666666666668
450.0   30.0   33.333333333333336
500.0   60.0   33.333333333333336
500.0   30.0   33.333333333333336
500.0   30.0   16.666666666666668
450.0   30.0   33.333333333333336
500.0   60.0   33.333333333333336
500.0   30.0   16.666666666666668
450.0   60.0   16.666666666666668
450.0   30.0   33.333333333333336
500.0   30.0   33.333333333333336
450.0   60.0   33.333333333333336
450.0   30.0   50.0
500.0   30.0   33.333333333333336
500.0   60.0   33.333333333333336
450.0   60.0   33.333333333333336
500.0   60.0   50.0
450.0   30.0   50.0
450.0   60.0   50.0
500.0   60.0   50.0
450.0   60.0   33.333333333333336
450.0   30.0   50.0
500.0   60.0   50.0
500.0   30.0   50.0
500.0   30.0   33.333333333333336
450.0   30.0   50.0
500.0   60.0   50.0
500.0   30.0   33.333333333333336
450.0   60.0   33.333333333333336
450.0   60.0   0.0
500.0   60.0   0.0
450.0   90.0   0.0
450.0   60.0   16.666666666666668
500.0   60.0   0.0
500.0   90.0   0.0
450.0   90.0   0.0
500.0   90.0   16.666666666666668
450.0   60.0   16.666666666666668
450.0   90.0   16.666666666666668
500.0   90.0   16.666666666666668
450.0   90.0   0.0
450.0   60.0   16.666666666666668
500.0   90.0   16.666666666666668
500.0   60.0   16.666666666666668
500.0   60.0   0.0
450.0   60.0   16.666666666666668
500.0   90.0   16.666666666666668
500.0   60.0   0.0
450.0   90.0   0.0
450.0   60.0   16.666666666666668
500.0   60.0   16.666666666666668
450.0   90.0   16.666666666666668
450.0   60.0   33.333333333333336
500.0   60.0   16.666666666666668
500.0   90.0   16.666666666666668
450.0   90.0   16.666666666666668
500.0   90.0   33.333333333333336
450.0   60.0   33.333333333333336
450.0   90.0   33.333333333333336
500.0   90.0   33.333333333333336
450.0   90.0   16.666666666666668
450.0   60.0   33.333333333333336
500.0   90.0   33.333333333333336
500.0   60.0   33.333333333333336
500.0   60.0   16.666666666666668
450.0   60.0   33.333333333333336
500.0   90.0   33.333333333333336
500.0   60.0   16.666666666666668
450.0   90.0   16.666666666666668
450.0   60.0   33.333333333333336
500.0   60.0   33.333333333333336
450.0   90.0   33.333333333333336
450.0   60.0   50.0
500.0   60.0   33.333333333333336
500.0   90.0   33.333333333333336
450.0   90.0   33.333333333333336
500.0   90.0   50.0
450.0   60.0   50.0
450.0   90.0   50.0
500.0   90.0   50.0
450.0   90.0   33.333333333333336
450.0   60.0   50.0
500.0   90.0   50.0
500.0   60.0   50.0
500.0   60.0   33.333333333333336
450.0   60.0   50.0
500.0   90.0   50.0
500.0   60.0   33.333333333333336
450.0   90.0   33.333333333333336
450.0   90.0   0.0
500.0   90.0   0.0
450.0   120.0   0.0
450.0   90.0   16.666666666666668
500.0   90.0   0.0
500.0   120.0   0.0
450.0   120.0   0.0
500.0   120.0   16.666666666666668
450.0   90.0   16.666666666666668
450.0   120.0   16.666666666666668
500.0   120.0   16.666666666666668
450.0   120.0   0.0
450.0   90.0   16.666666666666668
500.0   120.0   16.666666666666668
500.0   90.0   16.666666666666668
500.0   90.0   0.0
450.0   90.0   16.666666666666668
500.0   120.0   16.666666666666668
500.0   90.0   0.0
450.0   120.0   0.0
450.0   90.0   16.666666666666668
500.0   90.0   16.666666666666668
450.0   120.0   16.666666666666668
450.0   90.0   33.333333333333336
500.0   90.0   16.666666666666668
500.0   120.0   16.666666666666668
450.0   120.0   16.666666666666668
500.0   120.0   33.333333333333336
450.0   90.0   33.333333333333336
450.0   120.0   33.333333333333336
500.0   120.0   33.333333333333336
450.0   120.0   16.666666666666668
450.0   90.0   33.333333333333336
500.0   120.0   33.333333333333336
500.0   90.0   33.333333333333336
500.0   90.0   16.666666666666668
450.0   90.0   33.333333333333336
500.0   120.0   33.333333333333336
500.0   90.0   16.666666666666668
450.0   120.0   16.666666666666668
450.0   90.0   33.333333333333336
500.0   90.0   33.333333333333336
450.0   120.0   33.333333333333336
450.0   90.0   50.0
500.0   90.0   33.333333333333336
500.0   120.0   33.333333333333336
450.0   120.0   33.333333333333336
500.0   120.0   50.0
450.0   90.0   50.0
450.0   120.0   50.0
500.0   120.0   50.0
450.0   120.0   33.333333333333336
450.0   90.0   50.0
500.0   120.0   50.0
500.0   90.0   50.0
500.0   90.0   33.333333333333336
450.0   90.0   50.0
500.0   120.0   50.0
500.0   90.0   33.333333333333336
450.0   120.0   33.333333333333336
450.0   120.0   0.0
500.0   120.0   0.0
450.0   150.0   0.0
450.0   120.0   16.666666666666668
500.0   120.0   0.0
500.0   150.0   0.0
450.0   150.0   0.0
500.0   150.0   16.666666666666668
450.0   120.0   16.666666666666668
450.0   150.0   16.666666666666668
500.0   150.0   16.666666666666668
450.0   150.0   0.0
450.0   120.0   16.666666666666668
500.0   150.0   16.666666666666668
500.0   120.0   16.666666666666668
500.0   120.0   0.0
450.0   120.0   16.666666666666668
500.0   150.0   16.666666666666668
500.0   120.0   0.0
450.0   150.0   0.0
450.0   120.0   16.666666666666668
500.0   120.0   16.666666666666668
450.0   150.0   16.666666666666668
450.0   120.0   33.333333333333336
500.0   120.0   16.666666666666668
500.0   150.0   16.666666666666668
450.0   150.0   16.666666666666668
500.0   150.0   33.333333333333336
450.0   120.0   33.333333333333336
450.0   150.0   33.333333333333336
500.0   150.0   33.333333333333336
450.0   150.0   16.666666666666668
450.0   120.0   33.333333333333336
500.0   150.0   33.333333333333336
500.0   120.0   33.333333333333336
500.0   120.0   16.666666666666668
450.0   120.0   33.333333333333336
500.0   150.0   33.333333333333336
500.0   120.0   16.666666666666668
450.0   150.0   16.666666666666668
450.0   120.0   33.333333333333336
500.0   120.0   33.333333333333336
450.0   150.0   33.333333333333336
450.0   120.0   50.0
500.0   120.0   33.333333333333336
500.0   150.0   33.333333333333336
450.0   150.0   33.333333333333336
500.0   150.0   50.0
450.0   120.0   50.0
450.0   150.0   50.0
500.0   150.0   50.0
450.0   150.0   33.333333333333336
450.0   120.0   50.0
500.0   150.0   50.0
500.0   120.0   50.0
500.0   120.0   33.333333333333336
450.0   120.0   50.0
500.0   150.0   50.0
500.0   120.0   33.333333333333336
450.0   150.0   33.333333333333336
             </DataArray>   
          </Points>  
          <Cells>  
             <DataArray type="Int32" Name="connectivity" format="ascii">   
0   1   2   3
4   5   6   7
8   9   10   11
12   13   14   15
16   17   18   19
20   21   22   23
24   25   26   27
28   29   30   31
32   33   34   35
36   37   38   39
40   41   42   43
44   45   46   47
48   49   50   51
52   53   54   55
56   57   58   59
60   61   62   63
64   65   66   67
68   69   70   71
72   73   74   75
76   77   78   79
80   81   82   83
84   85   86   87
88   89   90   91
92   93   94   95
96   97   98   99
100   101   102   103
104   105   106   107
108   109   110   111
112   113   114   115
116   117   118   119
120   121   122   123
124   125   126   127
128   129   130   131
132   133   134   135
136   137   138   139
140   141   142   143
144   145   146   147
148   149   150   151
152   153   154   155
156   157   158   159
160   161   162   163
164   165   166   167
168   169   170   171
172   173   174   175
176   177   178   179
180   181   182   183
184   185   186   187
188   189   190   191
192   193   194   195
196   197   198   199
200   201   202   203
204   205   206   207
208   209   210   211
212   213   214   215
216   217   218   219
220   221   222   223
224   225   226   227
228   229   230   231
232   233   234   235
236   237   238   239
240   241   242   243
244   245   246   247
248   249   250   251
252   253   254   255
256   257   258   259
260   261   262   263
264   265   266   267
268   269   270   271
272   273   274   275
276   277   278   279
280   281   282   283
284   285   286   287
288   289   290   291
292   293   294   295
296   297   298   299
300   301   302   303
304   305   306   307
308   309   310   311
312   313   314   315
316   317   318   319
320   321   322   323
324   325   326   327
328   329   330   331
332   333   334   335
336   337   338   339
340   341   342   343
344   345   346   347
348   349   350   351
352   353   354   355
356   357   358   359
360   361   362   363
364   365   366   367
368   369   370   371
372   373   374   375
376   377   378   379
380   381   382   383
384   385   386   387
388   389   390   391
392   393   394   395
396   397   398   399
400   401   402   403
404   405   406   407
408   409   410   411
412   413   414   415
416   417   418   419
420   421   422   423
424   425   426   427
428   429   430   431
432   433   434   435
436   437   438   439
440   441   442   443
444   445   446   447
448   449   450   451
452   453   454   455
456   457   458   459
460   461   462   463
464   465   466   467
468   469   470   471
472   473   474   475
476   477   478   479
480   481   482   483
484   485   486   487
488   489   490   491
492   493   494   495
496   497   498   499
500   501   502   503
504   505   506   507
508   509   510   511
512   513   514   515
516   517   518   519
520   521   522   523
524   525   526   527
528   529   530   531
532   533   534   535
536   537   538   539
540   541   542   543
544   545   546   547
548   549   550   551
552   553   554   555
556   557   558   559
560   561   562   563
564   565   566   567
568   569   570   571
572   573   574   575
576   577   578   579
580   581   582   583
584   585   586   587
588   589   590   591
592   593   594   595
596   597   598   599
600   601   602   603
604   605   606   607
608   609   610   611
612   613   614   615
616   617   618   619
620   621   622   623
624   625   626   627
628   629   630   631
632   633   634   635
636   637   638   639
640   641   642   643
644   645   646   647
648   649   650   651
652   653   654   655
656   657   658   659
660   661   662   663
664   665   666   667
668   669   670   671
672   673   674   675
676   677   678   679
680   681   682   683
684   685   686   687
688   689   690   691
692   693   694   695
696   697   698   699
700   701   702   703
704   705   706   707
708   709   710   711
712   713   714   715
716   717   718   719
720   721   722   723
724   725   726   727
728   729   730   731
732   733   734   735
736   737   738   739
740   741   742   743
744   745   746   747
748   749   750   751
752   753   754   755
756   757   758   759
760   761   762   763
764   765   766   767
768   769   770   771
772   773   774   775
776   777   778   779
780   781   782   783
784   785   786   787
788   789   790   791
792   793   794   795
796   797   798   799
800   801   802   803
804   805   806   807
808   809   810   811
812   813   814   815
816   817   818   819
820   821   822   823
824   825   826   827
828   829   830   831
832   833   834   835
836   837   838   839
840   841   842   843
844   845   846   847
848   849   850   851
852   853   854   855
856   857   858   859
860   861   862   863
864   865   866   867
868   869   870   871
872   873   874   875
876   877   878   879
880   881   882   883
884   885   886   887
888   889   890   891
892   893   894   895
896   897   898   899
900   901   902   903
904   905   906   907
908   909   910   911
912   913   914   915
916   917   918   919
920   921   922   923
924   925   926   927
928   929   930   931
932   933   934   935
936   937   938   939
940   941   942   943
944   945   946   947
948   949   950   951
952   953   954   955
956   957   958   959
960   961   962   963
964   965   966   967
968   969   970   971
972   973   974   975
976   977   978   979
980   981   982   983
984   985   986   987
988   989   990   991
992   993   994   995
996   997   998   999
1000   1001   1002   1003
1004   1005   1006   1007
1008   1009   1010   1011
1012   1013   1014   1015
1016   1017   1018   1019
1020   1021   1022   1023
1024   1025   1026   1027
1028   1029   1030   1031
1032   1033   1034   1035
1036   1037   1038   1039
1040   1041   1042   1043
1044   1045   1046   1047
1048   1049   1050   1051
1052   1053   1054   1055
1056   1057   1058   1059
1060   1061   1062   1063
1064   1065   1066   1067
1068   1069   1070   1071
1072   1073   1074   1075
1076   1077   1078   1079
1080   1081   1082   1083
1084   1085   1086   1087
1088   1089   1090   1091
1092   1093   1094   1095
1096   1097   1098   1099
1100   1101   1102   1103
1104   1105   1106   1107
1108   1109   1110   1111
1112   1113   1114   1115
1116   1117   1118   1119
1120   1121   1122   1123
1124   1125   1126   1127
1128   1129   1130   1131
1132   1133   1134   1135
1136   1137   1138   1139
1140   1141   1142   1143
1144   1145   1146   1147
1148   1149   1150   1151
1152   1153   1154   1155
1156   1157   1158   1159
1160   1161   1162   1163
1164   1165   1166   1167
1168   1169   1170   1171
1172   1173   1174   1175
1176   1177   1178   1179
1180   1181   1182   1183
1184   1185   1186   1187
1188   1189   1190   1191
1192   1193   1194   1195
1196   1197   1198   1199
1200   1201   1202   1203
1204   1205   1206   1207
1208   1209   1210   1211
1212   1213   1214   1215
1216   1217   1218   1219
1220   1221   1222   1223
1224   1225   1226   1227
1228   1229   1230   1231
1232   1233   1234   1235
1236   1237   1238   1239
1240   1241   1242   1243
1244   1245   1246   1247
1248   1249   1250   1251
1252   1253   1254   1255
1256   1257   1258   1259
1260   1261   1262   1263
1264   1265   1266   1267
1268   1269   1270   1271
1272   1273   1274   1275
1276   1277   1278   1279
1280   1281   1282   1283
1284   1285   1286   1287
1288   1289   1290   1291
1292   1293   1294   1295
1296   1297   1298   1299
1300   1301   1302   1303
1304   1305   1306   1307
1308   1309   1310   1311
1312   1313   1314   1315
1316   1317   1318   1319
1320   1321   1322   1323
1324   1325   1326   1327
1328   1329   1330   1331
1332   1333   1334   1335
1336   1337   1338   1339
1340   1341   1342   1343
1344   1345   1346   1347
1348   1349   1350   1351
1352   1353   1354   1355
1356   1357   1358   1359
1360   1361   1362   1363
1364   1365   1366   1367
1368   1369   1370   1371
1372   1373   1374   1375
1376   1377   1378   1379
1380   1381   1382   1383
1384   1385   1386   1387
1388   1389   1390   1391
1392   1393   1394   1395
1396   1397   1398   1399
1400   1401   1402   1403
1404   1405   1406   1407
1408   1409   1410   1411
1412   1413   1414   1415
1416   1417   1418   1419
1420   1421   1422   1423
1424   1425   1426   1427
1428   1429   1430   1431
1432   1433   1434   1435
1436   1437   1438   1439
1440   1441   1442   1443
1444   1445   1446   1447
1448   1449   1450   1451
1452   1453   1454   1455
1456   1457   1458   1459
1460   1461   1462   1463
1464   1465   1466   1467
1468   1469   1470   1471
1472   1473   1474   1475
1476   1477   1478   1479
1480   1481   1482   1483
1484   1485   1486   1487
1488   1489   1490   1491
1492   1493   1494   1495
1496   1497   1498   1499
1500   1501   1502   1503
1504   1505   1506   1507
1508   1509   1510   1511
1512   1513   1514   1515
1516   1517   1518   1519
1520   1521   1522   1523
1524   1525   1526   1527
1528   1529   1530   1531
1532   1533   1534   1535
1536   1537   1538   1539
1540   1541   1542   1543
1544   1545   1546   1547
1548   1549   1550   1551
1552   1553   1554   1555
1556   1557   1558   1559
1560   1561   1562   1563
1564   1565   1566   1567
1568   1569   1570   1571
1572   1573   1574   1575
1576   1577   1578   1579
1580   1581   1582   1583
1584   1585   1586   1587
1588   1589   1590   1591
1592   1593   1594   1595
1596   1597   1598   1599
1600   1601   1602   1603
1604   1605   1606   1607
1608   1609   1610   1611
1612   1613   1614   1615
1616   1617   1618   1619
1620   1621   1622   1623
1624   1625   1626   1627
1628   1629   1630   1631
1632   1633   1634   1635
1636   1637   1638   1639
1640   1641   1642   1643
1644   1645   1646   1647
1648   1649   1650   1651
1652   1653   1654   1655
1656   1657   1658   1659
1660   1661   1662   1663
1664   1665   1666   1667
1668   1669   1670   1671
1672   1673   1674   1675
1676   1677   1678   1679
1680   1681   1682   1683
1684   1685   1686   1687
1688   1689   1690   1691
1692   1693   1694   1695
1696   1697   1698   1699
1700   1701   1702   1703
1704   1705   1706   1707
1708   1709   1710   1711
1712   1713   1714   1715
1716   1717   1718   1719
1720   1721   1722   1723
1724   1725   1726   1727
1728   1729   1730   1731
1732   1733   1734   1735
1736   1737   1738   1739
1740   1741   1742   1743
1744   1745   1746   1747
1748   1749   1750   1751
1752   1753   1754   1755
1756   1757   1758   1759
1760   1761   1762   1763
1764   1765   1766   1767
1768   1769   1770   1771
1772   1773   1774   1775
1776   1777   1778   1779
1780   1781   1782   1783
1784   1785   1786   1787
1788   1789   1790   1791
1792   1793   1794   1795
1796   1797   1798   1799
1800   1801   1802   1803
1804   1805   1806   1807
1808   1809   1810   1811
1812   1813   1814   1815
1816   1817   1818   1819
1820   1821   1822   1823
1824   1825   1826   1827
1828   1829   1830   1831
1832   1833   1834   1835
1836   1837   1838   1839
1840   1841   1842   1843
1844   1845   1846   1847
1848   1849   1850   1851
1852   1853   1854   1855
1856   1857   1858   1859
1860   1861   1862   1863
1864   1865   1866   1867
1868   1869   1870   1871
1872   1873   1874   1875
1876   1877   1878   1879
1880   1881   1882   1883
1884   1885   1886   1887
1888   1889   1890   1891
1892   1893   1894   1895
1896   1897   1898   1899
1900   1901   1902   1903
1904   1905   1906   1907
1908   1909   1910   1911
1912   1913   1914   1915
1916   1917   1918   1919
1920   1921   1922   1923
1924   1925   1926   1927
1928   1929   1930   1931
1932   1933   1934   1935
1936   1937   1938   1939
1940   1941   1942   1943
1944   1945   1946   1947
1948   1949   1950   1951
1952   1953   1954   1955
1956   1957   1958   1959
1960   1961   1962   1963
1964   1965   1966   1967
1968   1969   1970   1971
1972   1973   1974   1975
1976   1977   1978   1979
1980   1981   1982   1983
1984   1985   1986   1987
1988   1989   1990   1991
1992   1993   1994   1995
1996   1997   1998   1999
2000   2001   2002   2003
2004   2005   2006   2007
2008   2009   2010   2011
2012   2013   2014   2015
2016   2017   2018   2019
2020   2021   2022   2023
2024   2025   2026   2027
2028   2029   2030   2031
2032   2033   2034   2035
2036   2037   2038   2039
2040   2041   2042   2043
2044   2045   2046   2047
2048   2049   2050   2051
2052   2053   2054   2055
2056   2057   2058   2059
2060   2061   2062   2063
2064   2065   2066   2067
2068   2069   2070   2071
2072   2073   2074   2075
2076   2077   2078   2079
2080   2081   2082   2083
2084   2085   2086   2087
2088   2089   2090   2091
2092   2093   2094   2095
2096   2097   2098   2099
2100   2101   2102   2103
2104   2105   2106   2107
2108   2109   2110   2111
2112   2113   2114   2115
2116   2117   2118   2119
2120   2121   2122   2123
2124   2125   2126   2127
2128   2129   2130   2131
2132   2133   2134   2135
2136   2137   2138   2139
2140   2141   2142   2143
2144   2145   2146   2147
2148   2149   2150   2151
2152   2153   2154   2155
2156   2157   2158   2159
2160   2161   2162   2163
2164   2165   2166   2167
2168   2169   2170   2171
2172   2173   2174   2175
2176   2177   2178   2179
2180   2181   2182   2183
2184   2185   2186   2187
2188   2189   2190   2191
2192   2193   2194   2195
2196   2197   2198   2199
2200   2201   2202   2203
2204   2205   2206   2207
2208   2209   2210   2211
2212   2213   2214   2215
2216   2217   2218   2219
2220   2221   2222   2223
2224   2225   2226   2227
2228   2229   2230   2231
2232   2233   2234   2235
2236   2237   2238   2239
2240   2241   2242   2243
2244   2245   2246   2247
2248   2249   2250   2251
2252   2253   2254   2255
2256   2257   2258   2259
2260   2261   2262   2263
2264   2265   2266   2267
2268   2269   2270   2271
2272   2273   2274   2275
2276   2277   2278   2279
2280   2281   2282   2283
2284   2285   2286   2287
2288   2289   2290   2291
2292   2293   2294   2295
2296   2297   2298   2299
2300   2301   2302   2303
2304   2305   2306   2307
2308   2309   2310   2311
2312   2313   2314   2315
2316   2317   2318   2319
2320   2321   2322   2323
2324   2325   2326   2327
2328   2329   2330   2331
2332   2333   2334   2335
2336   2337   2338   2339
2340   2341   2342   2343
2344   2345   2346   2347
2348   2349   2350   2351
2352   2353   2354   2355
2356   2357   2358   2359
2360   2361   2362   2363
2364   2365   2366   2367
2368   2369   2370   2371
2372   2373   2374   2375
2376   2377   2378   2379
2380   2381   2382   2383
2384   2385   2386   2387
2388   2389   2390   2391
2392   2393   2394   2395
2396   2397   2398   2399
2400   2401   2402   2403
2404   2405   2406   2407
2408   2409   2410   2411
2412   2413   2414   2415
2416   2417   2418   2419
2420   2421   2422   2423
2424   2425   2426   2427
2428   2429   2430   2431
2432   2433   2434   2435
2436   2437   2438   2439
2440   2441   2442   2443
2444   2445   2446   2447
2448   2449   2450   2451
2452   2453   2454   2455
2456   2457   2458   2459
2460   2461   2462   2463
2464   2465   2466   2467
2468   2469   2470   2471
2472   2473   2474   2475
2476   2477   2478   2479
2480   2481   2482   2483
2484   2485   2486   2487
2488   2489   2490   2491
2492   2493   2494   2495
2496   2497   2498   2499
2500   2501   2502   2503
2504   2505   2506   2507
2508   2509   2510   2511
2512   2513   2514   2515
2516   2517   2518   2519
2520   2521   2522   2523
2524   2525   2526   2527
2528   2529   2530   2531
2532   2533   2534   2535
2536   2537   2538   2539
2540   2541   2542   2543
2544   2545   2546   2547
2548   2549   2550   2551
2552   2553   2554   2555
2556   2557   2558   2559
2560   2561   2562   2563
2564   2565   2566   2567
2568   2569   2570   2571
2572   2573   2574   2575
2576   2577   2578   2579
2580   2581   2582   2583
2584   2585   2586   2587
2588   2589   2590   2591
2592   2593   2594   2595
2596   2597   2598   2599
2600   2601   2602   2603
2604   2605   2606   2607
2608   2609   2610   2611
2612   2613   2614   2615
2616   2617   2618   2619
2620   2621   2622   2623
2624   2625   2626   2627
2628   2629   2630   2631
2632   2633   2634   2635
2636   2637   2638   2639
2640   2641   2642   2643
2644   2645   2646   2647
2648   2649   2650   2651
2652   2653   2654   2655
2656   2657   2658   2659
2660   2661   2662   2663
2664   2665   2666   2667
2668   2669   2670   2671
2672   2673   2674   2675
2676   2677   2678   2679
2680   2681   2682   2683
2684   2685   2686   2687
2688   2689   2690   2691
2692   2693   2694   2695
2696   2697   2698   2699
2700   2701   2702   2703
2704   2705   2706   2707
2708   2709   2710   2711
2712   2713   2714   2715
2716   2717   2718   2719
2720   2721   2722   2723
2724   2725   2726   2727
2728   2729   2730   2731
2732   2733   2734   2735
2736   2737   2738   2739
2740   2741   2742   2743
2744   2745   2746   2747
2748   2749   2750   2751
2752   2753   2754   2755
2756   2757   2758   2759
2760   2761   2762   2763
2764   2765   2766   2767
2768   2769   2770   2771
2772   2773   2774   2775
2776   2777   2778   2779
2780   2781   2782   2783
2784   2785   2786   2787
2788   2789   2790   2791
2792   2793   2794   2795
2796   2797   2798   2799
2800   2801   2802   2803
2804   2805   2806   2807
2808   2809   2810   2811
2812   2813   2814   2815
2816   2817   2818   2819
2820   2821   2822   2823
2824   2825   2826   2827
2828   2829   2830   2831
2832   2833   2834   2835
2836   2837   2838   2839
2840   2841   2842   2843
2844   2845   2846   2847
2848   2849   2850   2851
2852   2853   2854   2855
2856   2857   2858   2859
2860   2861   2862   2863
2864   2865   2866   2867
2868   2869   2870   2871
2872   2873   2874   2875
2876   2877   2878   2879
2880   2881   2882   2883
2884   2885   2886   2887
2888   2889   2890   2891
2892   2893   2894   2895
2896   2897   2898   2899
2900   2901   2902   2903
2904   2905   2906   2907
2908   2909   2910   2911
2912   2913   2914   2915
2916   2917   2918   2919
2920   2921   2922   2923
2924   2925   2926   2927
2928   2929   2930   2931
2932   2933   2934   2935
2936   2937   2938   2939
2940   2941   2942   2943
2944   2945   2946   2947
2948   2949   2950   2951
2952   2953   2954   2955
2956   2957   2958   2959
2960   2961   2962   2963
2964   2965   2966   2967
2968   2969   2970   2971
2972   2973   2974   2975
2976   2977   2978   2979
2980   2981   2982   2983
2984   2985   2986   2987
2988   2989   2990   2991
2992   2993   2994   2995
2996   2997   2998   2999
3000   3001   3002   3003
3004   3005   3006   3007
3008   3009   3010   3011
3012   3013   3014   3015
3016   3017   3018   3019
3020   3021   3022   3023
3024   3025   3026   3027
3028   3029   3030   3031
3032   3033   3034   3035
3036   3037   3038   3039
3040   3041   3042   3043
3044   3045   3046   3047
3048   3049   3050   3051
3052   3053   3054   3055
3056   3057   3058   3059
3060   3061   3062   3063
3064   3065   3066   3067
3068   3069   3070   3071
3072   3073   3074   3075
3076   3077   3078   3079
3080   3081   3082   3083
3084   3085   3086   3087
3088   3089   3090   3091
3092   3093   3094   3095
3096   3097   3098   3099
3100   3101   3102   3103
3104   3105   3106   3107
3108   3109   3110   3111
3112   3113   3114   3115
3116   3117   3118   3119
3120   3121   3122   3123
3124   3125   3126   3127
3128   3129   3130   3131
3132   3133   3134   3135
3136   3137   3138   3139
3140   3141   3142   3143
3144   3145   3146   3147
3148   3149   3150   3151
3152   3153   3154   3155
3156   3157   3158   3159
3160   3161   3162   3163
3164   3165   3166   3167
3168   3169   3170   3171
3172   3173   3174   3175
3176   3177   3178   3179
3180   3181   3182   3183
3184   3185   3186   3187
3188   3189   3190   3191
3192   3193   3194   3195
3196   3197   3198   3199
3200   3201   3202   3203
3204   3205   3206   3207
3208   3209   3210   3211
3212   3213   3214   3215
3216   3217   3218   3219
3220   3221   3222   3223
3224   3225   3226   3227
3228   3229   3230   3231
3232   3233   3234   3235
3236   3237   3238   3239
3240   3241   3242   3243
3244   3245   3246   3247
3248   3249   3250   3251
3252   3253   3254   3255
3256   3257   3258   3259
3260   3261   3262   3263
3264   3265   3266   3267
3268   3269   3270   3271
3272   3273   3274   3275
3276   3277   3278   3279
3280   3281   3282   3283
3284   3285   3286   3287
3288   3289   3290   3291
3292   3293   3294   3295
3296   3297   3298   3299
3300   3301   3302   3303
3304   3305   3306   3307
3308   3309   3310   3311
3312   3313   3314   3315
3316   3317   3318   3319
3320   3321   3322   3323
3324   3325   3326   3327
3328   3329   3330   3331
3332   3333   3334   3335
3336   3337   3338   3339
3340   3341   3342   3343
3344   3345   3346   3347
3348   3349   3350   3351
3352   3353   3354   3355
3356   3357   3358   3359
3360   3361   3362   3363
3364   3365   3366   3367
3368   3369   3370   3371
3372   3373   3374   3375
3376   3377   3378   3379
3380   3381   3382   3383
3384   3385   3386   3387
3388   3389   3390   3391
3392   3393   3394   3395
3396   3397   3398   3399
3400   3401   3402   3403
3404   3405   3406   3407
3408   3409   3410   3411
3412   3413   3414   3415
3416   3417   3418   3419
3420   3421   3422   3423
3424   3425   3426   3427
3428   3429   3430   3431
3432   3433   3434   3435
3436   3437   3438   3439
3440   3441   3442   3443
3444   3445   3446   3447
3448   3449   3450   3451
3452   3453   3454   3455
3456   3457   3458   3459
3460   3461   3462   3463
3464   3465   3466   3467
3468   3469   3470   3471
3472   3473   3474   3475
3476   3477   3478   3479
3480   3481   3482   3483
3484   3485   3486   3487
3488   3489   3490   3491
3492   3493   3494   3495
3496   3497   3498   3499
3500   3501   3502   3503
3504   3505   3506   3507
3508   3509   3510   3511
3512   3513   3514   3515
3516   3517   3518   3519
3520   3521   3522   3523
3524   3525   3526   3527
3528   3529   3530   3531
3532   3533   3534   3535
3536   3537   3538   3539
3540   3541   3542   3543
3544   3545   3546   3547
3548   3549   3550   3551
3552   3553   3554   3555
3556   3557   3558   3559
3560   3561   3562   3563
3564   3565   3566   3567
3568   3569   3570   3571
3572   3573   3574   3575
3576   3577   3578   3579
3580   3581   3582   3583
3584   3585   3586   3587
3588   3589   3590   3591
3592   3593   3594   3595
3596   3597   3598   3599
3600   3601   3602   3603
3604   3605   3606   3607
3608   3609   3610   3611
3612   3613   3614   3615
3616   3617   3618   3619
3620   3621   3622   3623
3624   3625   3626   3627
3628   3629   3630   3631
3632   3633   3634   3635
3636   3637   3638   3639
3640   3641   3642   3643
3644   3645   3646   3647
3648   3649   3650   3651
3652   3653   3654   3655
3656   3657   3658   3659
3660   3661   3662   3663
3664   3665   3666   3667
3668   3669   3670   3671
3672   3673   3674   3675
3676   3677   3678   3679
3680   3681   3682   3683
3684   3685   3686   3687
3688   3689   3690   3691
3692   3693   3694   3695
3696   3697   3698   3699
3700   3701   3702   3703
3704   3705   3706   3707
3708   3709   3710   3711
3712   3713   3714   3715
3716   3717   3718   3719
3720   3721   3722   3723
3724   3725   3726   3727
3728   3729   3730   3731
3732   3733   3734   3735
3736   3737   3738   3739
3740   3741   3742   3743
3744   3745   3746   3747
3748   3749   3750   3751
3752   3753   3754   3755
3756   3757   3758   3759
3760   3761   3762   3763
3764   3765   3766   3767
3768   3769   3770   3771
3772   3773   3774   3775
3776   3777   3778   3779
3780   3781   3782   3783
3784   3785   3786   3787
3788   3789   3790   3791
3792   3793   3794   3795
3796   3797   3798   3799
3800   3801   3802   3803
3804   3805   3806   3807
3808   3809   3810   3811
3812   3813   3814   3815
3816   3817   3818   3819
3820   3821   3822   3823
3824   3825   3826   3827
3828   3829   3830   3831
3832   3833   3834   3835
3836   3837   3838   3839
3840   3841   3842   3843
3844   3845   3846   3847
3848   3849   3850   3851
3852   3853   3854   3855
3856   3857   3858   3859
3860   3861   3862   3863
3864   3865   3866   3867
3868   3869   3870   3871
3872   3873   3874   3875
3876   3877   3878   3879
3880   3881   3882   3883
3884   3885   3886   3887
3888   3889   3890   3891
3892   3893   3894   3895
3896   3897   3898   3899
3900   3901   3902   3903
3904   3905   3906   3907
3908   3909   3910   3911
3912   3913   3914   3915
3916   3917   3918   3919
3920   3921   3922   3923
3924   3925   3926   3927
3928   3929   3930   3931
3932   3933   3934   3935
3936   3937   3938   3939
3940   3941   3942   3943
3944   3945   3946   3947
3948   3949   3950   3951
3952   3953   3954   3955
3956   3957   3958   3959
3960   3961   3962   3963
3964   3965   3966   3967
3968   3969   3970   3971
3972   3973   3974   3975
3976   3977   3978   3979
3980   3981   3982   3983
3984   3985   3986   3987
3988   3989   3990   3991
3992   3993   3994   3995
3996   3997   3998   3999
4000   4001   4002   4003
4004   4005   4006   4007
4008   4009   4010   4011
4012   4013   4014   4015
4016   4017   4018   4019
4020   4021   4022   4023
4024   4025   4026   4027
4028   4029   4030   4031
4032   4033   4034   4035
4036   4037   4038   4039
4040   4041   4042   4043
4044   4045   4046   4047
4048   4049   4050   4051
4052   4053   4054   4055
4056   4057   4058   4059
4060   4061   4062   4063
4064   4065   4066   4067
4068   4069   4070   4071
4072   4073   4074   4075
4076   4077   4078   4079
4080   4081   4082   4083
4084   4085   4086   4087
4088   4089   4090   4091
4092   4093   4094   4095
4096   4097   4098   4099
4100   4101   4102   4103
4104   4105   4106   4107
4108   4109   4110   4111
4112   4113   4114   4115
4116   4117   4118   4119
4120   4121   4122   4123
4124   4125   4126   4127
4128   4129   4130   4131
4132   4133   4134   4135
4136   4137   4138   4139
4140   4141   4142   4143
4144   4145   4146   4147
4148   4149   4150   4151
4152   4153   4154   4155
4156   4157   4158   4159
4160   4161   4162   4163
4164   4165   4166   4167
4168   4169   4170   4171
4172   4173   4174   4175
4176   4177   4178   4179
4180   4181   4182   4183
4184   4185   4186   4187
4188   4189   4190   4191
4192   4193   4194   4195
4196   4197   4198   4199
4200   4201   4202   4203
4204   4205   4206   4207
4208   4209   4210   4211
4212   4213   4214   4215
4216   4217   4218   4219
4220   4221   4222   4223
4224   4225   4226   4227
4228   4229   4230   4231
4232   4233   4234   4235
4236   4237   4238   4239
4240   4241   4242   4243
4244   4245   4246   4247
4248   4249   4250   4251
4252   4253   4254   4255
4256   4257   4258   4259
4260   4261   4262   4263
4264   4265   4266   4267
4268   4269   4270   4271
4272   4273   4274   4275
4276   4277   4278   4279
4280   4281   4282   4283
4284   4285   4286   4287
4288   4289   4290   4291
4292   4293   4294   4295
4296   4297   4298   4299
4300   4301   4302   4303
4304   4305   4306   4307
4308   4309   4310   4311
4312   4313   4314   4315
4316   4317   4318   4319
4320   4321   4322   4323
4324   4325   4326   4327
4328   4329   4330   4331
4332   4333   4334   4335
4336   4337   4338   4339
4340   4341   4342   4343
4344   4345   4346   4347
4348   4349   4350   4351
4352   4353   4354   4355
4356   4357   4358   4359
4360   4361   4362   4363
4364   4365   4366   4367
4368   4369   4370   4371
4372   4373   4374   4375
4376   4377   4378   4379
4380   4381   4382   4383
4384   4385   4386   4387
4388   4389   4390   4391
4392   4393   4394   4395
4396   4397   4398   4399
4400   4401   4402   4403
4404   4405   4406   4407
4408   4409   4410   4411
4412   4413   4414   4415
4416   4417   4418   4419
4420   4421   4422   4423
4424   4425   4426   4427
4428   4429   4430   4431
4432   4433   4434   4435
4436   4437   4438   4439
4440   4441   4442   4443
4444   4445   4446   4447
4448   4449   4450   4451
4452   4453   4454   4455
4456   4457   4458   4459
4460   4461   4462   4463
4464   4465   4466   4467
4468   4469   4470   4471
4472   4473   4474   4475
4476   4477   4478   4479
4480   4481   4482   4483
4484   4485   4486   4487
4488   4489   4490   4491
4492   4493   4494   4495
4496   4497   4498   4499
4500   4501   4502   4503
4504   4505   4506   4507
4508   4509   4510   4511
4512   4513   4514   4515
4516   4517   4518   4519
4520   4521   4522   4523
4524   4525   4526   4527
4528   4529   4530   4531
4532   4533   4534   4535
4536   4537   4538   4539
4540   4541   4542   4543
4544   4545   4546   4547
4548   4549   4550   4551
4552   4553   4554   4555
4556   4557   4558   4559
4560   4561   4562   4563
4564   4565   4566   4567
4568   4569   4570   4571
4572   4573   4574   4575
4576   4577   4578   4579
4580   4581   4582   4583
4584   4585   4586   4587
4588   4589   4590   4591
4592   4593   4594   4595
4596   4597   4598   4599
4600   4601   4602   4603
4604   4605   4606   4607
4608   4609   4610   4611
4612   4613   4614   4615
4616   4617   4618   4619
4620   4621   4622   4623
4624   4625   4626   4627
4628   4629   4630   4631
4632   4633   4634   4635
4636   4637   4638   4639
4640   4641   4642   4643
4644   4645   4646   4647
4648   4649   4650   4651
4652   4653   4654   4655
4656   4657   4658   4659
4660   4661   4662   4663
4664   4665   4666   4667
4668   4669   4670   4671
4672   4673   4674   4675
4676   4677   4678   4679
4680   4681   4682   4683
4684   4685   4686   4687
4688   4689   4690   4691
4692   4693   4694   4695
4696   4697   4698   4699
4700   4701   4702   4703
4704   4705   4706   4707
4708   4709   4710   4711
4712   4713   4714   4715
4716   4717   4718   4719
4720   4721   4722   4723
4724   4725   4726   4727
4728   4729   4730   4731
4732   4733   4734   4735
4736   4737   4738   4739
4740   4741   4742   4743
4744   4745   4746   4747
4748   4749   4750   4751
4752   4753   4754   4755
4756   4757   4758   4759
4760   4761   4762   4763
4764   4765   4766   4767
4768   4769   4770   4771
4772   4773   4774   4775
4776   4777   4778   4779
4780   4781   4782   4783
4784   4785   4786   4787
4788   4789   4790   4791
4792   4793   4794   4795
4796   4797   4798   4799
4800   4801   4802   4803
4804   4805   4806   4807
4808   4809   4810   4811
4812   4813   4814   4815
4816   4817   4818   4819
4820   4821   4822   4823
4824   4825   4826   4827
4828   4829   4830   4831
4832   4833   4834   4835
4836   4837   4838   4839
4840   4841   4842   4843
4844   4845   4846   4847
4848   4849   4850   4851
4852   4853   4854   4855
4856   4857   4858   4859
4860   4861   4862   4863
4864   4865   4866   4867
4868   4869   4870   4871
4872   4873   4874   4875
4876   4877   4878   4879
4880   4881   4882   4883
4884   4885   4886   4887
4888   4889   4890   4891
4892   4893   4894   4895
4896   4897   4898   4899
4900   4901   4902   4903
4904   4905   4906   4907
4908   4909   4910   4911
4912   4913   4914   4915
4916   4917   4918   4919
4920   4921   4922   4923
4924   4925   4926   4927
4928   4929   4930   4931
4932   4933   4934   4935
4936   4937   4938   4939
4940   4941   4942   4943
4944   4945   4946   4947
4948   4949   4950   4951
4952   4953   4954   4955
4956   4957   4958   4959
4960   4961   4962   4963
4964   4965   4966   4967
4968   4969   4970   4971
4972   4973   4974   4975
4976   4977   4978   4979
4980   4981   4982   4983
4984   4985   4986   4987
4988   4989   4990   4991
4992   4993   4994   4995
4996   4997   4998   4999
5000   5001   5002   5003
5004   5005   5006   5007
5008   5009   5010   5011
5012   5013   5014   5015
5016   5017   5018   5019
5020   5021   5022   5023
5024   5025   5026   5027
5028   5029   5030   5031
5032   5033   5034   5035
5036   5037   5038   5039
5040   5041   5042   5043
5044   5045   5046   5047
5048   5049   5050   5051
5052   5053   5054   5055
5056   5057   5058   5059
5060   5061   5062   5063
5064   5065   5066   5067
5068   5069   5070   5071
5072   5073   5074   5075
5076   5077   5078   5079
5080   5081   5082   5083
5084   5085   5086   5087
5088   5089   5090   5091
5092   5093   5094   5095
5096   5097   5098   5099
5100   5101   5102   5103
5104   5105   5106   5107
5108   5109   5110   5111
5112   5113   5114   5115
5116   5117   5118   5119
5120   5121   5122   5123
5124   5125   5126   5127
5128   5129   5130   5131
5132   5133   5134   5135
5136   5137   5138   5139
5140   5141   5142   5143
5144   5145   5146   5147
5148   5149   5150   5151
5152   5153   5154   5155
5156   5157   5158   5159
5160   5161   5162   5163
5164   5165   5166   5167
5168   5169   5170   5171
5172   5173   5174   5175
5176   5177   5178   5179
5180   5181   5182   5183
5184   5185   5186   5187
5188   5189   5190   5191
5192   5193   5194   5195
5196   5197   5198   5199
5200   5201   5202   5203
5204   5205   5206   5207
5208   5209   5210   5211
5212   5213   5214   5215
5216   5217   5218   5219
5220   5221   5222   5223
5224   5225   5226   5227
5228   5229   5230   5231
5232   5233   5234   5235
5236   5237   5238   5239
5240   5241   5242   5243
5244   5245   5246   5247
5248   5249   5250   5251
5252   5253   5254   5255
5256   5257   5258   5259
5260   5261   5262   5263
5264   5265   5266   5267
5268   5269   5270   5271
5272   5273   5274   5275
5276   5277   5278   5279
5280   5281   5282   5283
5284   5285   5286   5287
5288   5289   5290   5291
5292   5293   5294   5295
5296   5297   5298   5299
5300   5301   5302   5303
5304   5305   5306   5307
5308   5309   5310   5311
5312   5313   5314   5315
5316   5317   5318   5319
5320   5321   5322   5323
5324   5325   5326   5327
5328   5329   5330   5331
5332   5333   5334   5335
5336   5337   5338   5339
5340   5341   5342   5343
5344   5345   5346   5347
5348   5349   5350   5351
5352   5353   5354   5355
5356   5357   5358   5359
5360   5361   5362   5363
5364   5365   5366   5367
5368   5369   5370   5371
5372   5373   5374   5375
5376   5377   5378   5379
5380   5381   5382   5383
5384   5385   5386   5387
5388   5389   5390   5391
5392   5393   5394   5395
5396   5397   5398   5399
5400   5401   5402   5403
5404   5405   5406   5407
5408   5409   5410   5411
5412   5413   5414   5415
5416   5417   5418   5419
5420   5421   5422   5423
5424   5425   5426   5427
5428   5429   5430   5431
5432   5433   5434   5435
5436   5437   5438   5439
5440   5441   5442   5443
5444   5445   5446   5447
5448   5449   5450   5451
5452   5453   5454   5455
5456   5457   5458   5459
5460   5461   5462   5463
5464   5465   5466   5467
5468   5469   5470   5471
5472   5473   5474   5475
5476   5477   5478   5479
5480   5481   5482   5483
5484   5485   5486   5487
5488   5489   5490   5491
5492   5493   5494   5495
5496   5497   5498   5499
5500   5501   5502   5503
5504   5505   5506   5507
5508   5509   5510   5511
5512   5513   5514   5515
5516   5517   5518   5519
5520   5521   5522   5523
5524   5525   5526   5527
5528   5529   5530   5531
5532   5533   5534   5535
5536   5537   5538   5539
5540   5541   5542   5543
5544   5545   5546   5547
5548   5549   5550   5551
5552   5553   5554   5555
5556   5557   5558   5559
5560   5561   5562   5563
5564   5565   5566   5567
5568   5569   5570   5571
5572   5573   5574   5575
5576   5577   5578   5579
5580   5581   5582   5583
5584   5585   5586   5587
5588   5589   5590   5591
5592   5593   5594   5595
5596   5597   5598   5599
5600   5601   5602   5603
5604   5605   5606   5607
5608   5609   5610   5611
5612   5613   5614   5615
5616   5617   5618   5619
5620   5621   5622   5623
5624   5625   5626   5627
5628   5629   5630   5631
5632   5633   5634   5635
5636   5637   5638   5639
5640   5641   5642   5643
5644   5645   5646   5647
5648   5649   5650   5651
5652   5653   5654   5655
5656   5657   5658   5659
5660   5661   5662   5663
5664   5665   5666   5667
5668   5669   5670   5671
5672   5673   5674   5675
5676   5677   5678   5679
5680   5681   5682   5683
5684   5685   5686   5687
5688   5689   5690   5691
5692   5693   5694   5695
5696   5697   5698   5699
5700   5701   5702   5703
5704   5705   5706   5707
5708   5709   5710   5711
5712   5713   5714   5715
5716   5717   5718   5719
5720   5721   5722   5723
5724   5725   5726   5727
5728   5729   5730   5731
5732   5733   5734   5735
5736   5737   5738   5739
5740   5741   5742   5743
5744   5745   5746   5747
5748   5749   5750   5751
5752   5753   5754   5755
5756   5757   5758   5759
5760   5761   5762   5763
5764   5765   5766   5767
5768   5769   5770   5771
5772   5773   5774   5775
5776   5777   5778   5779
5780   5781   5782   5783
5784   5785   5786   5787
5788   5789   5790   5791
5792   5793   5794   5795
5796   5797   5798   5799
5800   5801   5802   5803
5804   5805   5806   5807
5808   5809   5810   5811
5812   5813   5814   5815
5816   5817   5818   5819
5820   5821   5822   5823
5824   5825   5826   5827
5828   5829   5830   5831
5832   5833   5834   5835
5836   5837   5838   5839
5840   5841   5842   5843
5844   5845   5846   5847
5848   5849   5850   5851
5852   5853   5854   5855
5856   5857   5858   5859
5860   5861   5862   5863
5864   5865   5866   5867
5868   5869   5870   5871
5872   5873   5874   5875
5876   5877   5878   5879
5880   5881   5882   5883
5884   5885   5886   5887
5888   5889   5890   5891
5892   5893   5894   5895
5896   5897   5898   5899
5900   5901   5902   5903
5904   5905   5906   5907
5908   5909   5910   5911
5912   5913   5914   5915
5916   5917   5918   5919
5920   5921   5922   5923
5924   5925   5926   5927
5928   5929   5930   5931
5932   5933   5934   5935
5936   5937   5938   5939
5940   5941   5942   5943
5944   5945   5946   5947
5948   5949   5950   5951
5952   5953   5954   5955
5956   5957   5958   5959
5960   5961   5962   5963
5964   5965   5966   5967
5968   5969   5970   5971
5972   5973   5974   5975
5976   5977   5978   5979
5980   5981   5982   5983
5984   5985   5986   5987
5988   5989   5990   5991
5992   5993   5994   5995
5996   5997   5998   5999
              </DataArray>   
              <DataArray type="Int32" Name="offsets" format="ascii">   
4
8
12
16
20
24
28
32
36
40
44
48
52
56
60
64
68
72
76
80
84
88
92
96
100
104
108
112
116
120
124
128
132
136
140
144
148
152
156
160
164
168
172
176
180
184
188
192
196
200
204
208
212
216
220
224
228
232
236
240
244
248
252
256
260
264
268
272
276
280
284
288
292
296
300
304
308
312
316
320
324
328
332
336
340
344
348
352
356
360
364
368
372
376
380
384
388
392
396
400
404
408
412
416
420
424
428
432
436
440
444
448
452
456
460
464
468
472
476
480
484
488
492
496
500
504
508
512
516
520
524
528
532
536
540
544
548
552
556
560
564
568
572
576
580
584
588
592
596
600
604
608
612
616
620
624
628
632
636
640
644
648
652
656
660
664
668
672
676
680
684
688
692
696
700
704
708
712
716
720
724
728
732
736
740
744
748
752
756
760
764
768
772
776
780
784
788
792
796
800
804
808
812
816
820
824
828
832
836
840
844
848
852
856
860
864
868
872
876
880
884
888
892
896
900
904
908
912
916
920
924
928
932
936
940
944
948
952
956
960
964
968
972
976
980
984
988
992
996
1000
1004
1008
1012
1016
1020
1024
1028
1032
1036
1040
1044
1048
1052
1056
1060
1064
1068
1072
1076
1080
1084
1088
1092
1096
1100
1104
1108
1112
1116
1120
1124
1128
1132
1136
1140
1144
1148
1152
1156
1160
1164
1168
1172
1176
1180
1184
1188
1192
1196
1200
1204
1208
1212
1216
1220
1224
1228
1232
1236
1240
1244
1248
1252
1256
1260
1264
1268
1272
1276
1280
1284
1288
1292
1296
1300
1304
1308
1312
1316
1320
1324
1328
1332
1336
1340
1344
1348
1352
1356
1360
1364
1368
1372
1376
1380
1384
1388
1392
1396
1400
1404
1408
1412
1416
1420
1424
1428
1432
1436
1440
1444
1448
1452
1456
1460
1464
1468
1472
1476
1480
1484
1488
1492
1496
1500
1504
1508
1512
1516
1520
1524
1528
1532
1536
1540
1544
1548
1552
1556
1560
1564
1568
1572
1576
1580
1584
1588
1592
1596
1600
1604
1608
1612
1616
1620
1624
1628
1632
1636
1640
1644
1648
1652
1656
1660
1664
1668
1672
1676
1680
1684
1688
1692
1696
1700
1704
1708
1712
1716
1720
1724
1728
1732
1736
1740
1744
1748
1752
1756
1760
1764
1768
1772
1776
1780
1784
1788
1792
1796
1800
1804
1808
1812
1816
1820
1824
1828
1832
1836
1840
1844
1848
1852
1856
1860
1864
1868
1872
1876
1880
1884
1888
1892
1896
1900
1904
1908
1912
1916
1920
1924
1928
1932
1936
1940
1944
1948
1952
1956
1960
1964
1968
1972
1976
1980
1984
1988
1992
1996
2000
2004
2008
2012
2016
2020
2024
2028
2032
2036
2040
2044
2048
2052
2056
2060
2064
2068
2072
2076
2080
2084
2088
2092
2096
2100
2104
2108
2112
2116
2120
2124
2128
2132
2136
2140
2144
2148
2152
2156
2160
2164
2168
2172
2176
2180
2184
2188
2192
2196
2200
2204
2208
2212
2216
2220
2224
2228
2232
2236
2240
2244
2248
2252
2256
2260
2264
2268
2272
2276
2280
2284
2288
2292
2296
2300
2304
2308
2312
2316
2320
2324
2328
2332
2336
2340
2344
2348
2352
2356
2360
2364
2368
2372
2376
2380
2384
2388
2392
2396
2400
2404
2408
2412
2416
2420
2424
2428
2432
2436
2440
2444
2448
2452
2456
2460
2464
2468
2472
2476
2480
2484
2488
2492
2496
2500
2504
2508
2512
2516
2520
2524
2528
2532
2536
2540
2544
2548
2552
2556
2560
2564
2568
2572
2576
2580
2584
2588
2592
2596
2600
2604
2608
2612
2616
2620
2624
2628
2632
2636
2640
2644
2648
2652
2656
2660
2664
2668
2672
2676
2680
2684
2688
2692
2696
2700
2704
2708
2712
2716
2720
2724
2728
2732
2736
2740
2744
2748
2752
2756
2760
2764
2768
2772
2776
2780
2784
2788
2792
2796
2800
2804
2808
2812
2816
2820
2824
2828
2832
2836
2840
2844
2848
2852
2856
2860
2864
2868
2872
2876
2880
2884
2888
2892
2896
2900
2904
2908
2912
2916
2920
2924
2928
2932
2936
2940
2944
2948
2952
2956
2960
2964
2968
2972
2976
2980
2984
2988
2992
2996
3000
3004
3008
3012
3016
3020
3024
3028
3032
3036
3040
3044
3048
3052
3056
3060
3064
3068
3072
3076
3080
3084
3088
3092
3096
3100
3104
3108
3112
3116
3120
3124
3128
3132
3136
3140
3144
3148
3152
3156
3160
3164
3168
3172
3176
3180
3184
3188
3192
3196
3200
3204
3208
3212
3216
3220
3224
3228
3232
3236
3240
3244
3248
3252
3256
3260
3264
3268
3272
3276
3280
3284
3288
3292
3296
3300
3304
3308
3312
3316
3320
3324
3328
3332
3336
3340
3344
3348
3352
3356
3360
3364
3368
3372
3376
3380
3384
3388
3392
3396
3400
3404
3408
3412
3416
3420
3424
3428
3432
3436
3440
3444
3448
3452
3456
3460
3464
3468
3472
3476
3480
3484
3488
3492
3496
3500
3504
3508
3512
3516
3520
3524
3528
3532
3536
3540
3544
3548
3552
3556
3560
3564
3568
3572
3576
3580
3584
3588
3592
3596
3600
3604
3608
3612
3616
3620
3624
3628
3632
3636
3640
3644
3648
3652
3656
3660
3664
3668
3672
3676
3680
3684
3688
3692
3696
3700
3704
3708
3712
3716
3720
3724
3728
3732
3736
3740
3744
3748
3752
3756
3760
3764
3768
3772
3776
3780
3784
3788
3792
3796
3800
3804
3808
3812
3816
3820
3824
3828
3832
3836
3840
3844
3848
3852
3856
3860
3864
3868
3872
3876
3880
3884
3888
3892
3896
3900
3904
3908
3912
3916
3920
3924
3928
3932
3936
3940
3944
3948
3952
3956
3960
3964
3968
3972
3976
3980
3984
3988
3992
3996
4000
4004
4008
4012
4016
4020
4024
4028
4032
4036
4040
4044
4048
4052
4056
4060
4064
4068
4072
4076
4080
4084
4088
4092
4096
4100
4104
4108
4112
4116
4120
4124
4128
4132
4136
4140
4144
4148
4152
4156
4160
4164
4168
4172
4176
4180
4184
4188
4192
4196
4200
4204
4208
4212
4216
4220
4224
4228
4232
4236
4240
4244
4248
4252
4256
4260
4264
4268
4272
4276
4280
4284
4288
4292
4296
4300
4304
4308
4312
4316
4320
4324
4328
4332
4336
4340
4344
4348
4352
4356
4360
4364
4368
4372
4376
4380
4384
4388
4392
4396
4400
4404
4408
4412
4416
4420
4424
4428
4432
4436
4440
4444
4448
4452
4456
4460
4464
4468
4472
4476
4480
4484
4488
4492
4496
4500
4504
4508
4512
4516
4520
4524
4528
4532
4536
4540
4544
4548
4552
4556
4560
4564
4568
4572
4576
4580
4584
4588
4592
4596
4600
4604
4608
4612
4616
4620
4624
4628
4632
4636
4640
4644
4648
4652
4656
4660
4664
4668
4672
4676
4680
4684
4688
4692
4696
4700
4704
4708
4712
4716
4720
4724
4728
4732
4736
4740
4744
4748
4752
4756
4760
4764
4768
4772
4776
4780
4784
4788
4792
4796
4800
4804
4808
4812
4816
4820
4824
4828
4832
4836
4840
4844
4848
4852
4856
4860
4864
4868
4872
4876
4880
4884
4888
4892
4896
4900
4904
4908
4912
4916
4920
4924
4928
4932
4936
4940
4944
4948
4952
4956
4960
4964
4968
4972
4976
4980
4984
4988
4992
4996
5000
5004
5008
5012
5016
5020
5024
5028
5032
5036
5040
5044
5048
5052
5056
5060
5064
5068
5072
5076
5080
5084
5088
5092
5096
5100
5104
5108
5112
5116
5120
5124
5128
5132
5136
5140
5144
5148
5152
5156
5160
5164
5168
5172
5176
5180
5184
5188
5192
5196
5200
5204
5208
5212
5216
5220
5224
5228
5232
5236
5240
5244
5248
5252
5256
5260
5264
5268
5272
5276
5280
5284
5288
5292
5296
5300
5304
5308
5312
5316
5320
5324
5328
5332
5336
5340
5344
5348
5352
5356
5360
5364
5368
5372
5376
5380
5384
5388
5392
5396
5400
5404
5408
5412
5416
5420
5424
5428
5432
5436
5440
5444
5448
5452
5456
5460
5464
5468
5472
5476
5480
5484
5488
5492
5496
5500
5504
5508
5512
5516
5520
5524
5528
5532
5536
5540
5544
5548
5552
5556
5560
5564
5568
5572
5576
5580
5584
5588
5592
5596
5600
5604
5608
5612
5616
5620
5624
5628
5632
5636
5640
5644
5648
5652
5656
5660
5664
5668
5672
5676
5680
5684
5688
5692
5696
5700
5704
5708
5712
5716
5720
5724
5728
5732
5736
5740
5744
5748
5752
5756
5760
5764
5768
5772
5776
5780
5784
5788
5792
5796
5800
5804
5808
5812
5816
5820
5824
5828
5832
5836
5840
5844
5848
5852
5856
5860
5864
5868
5872
5876
5880
5884
5888
5892
5896
5900
5904
5908
5912
5916
5920
5924
5928
5932
5936
5940
5944
5948
5952
5956
5960
5964
5968
5972
5976
5980
5984
5988
5992
5996
6000
              </DataArray>   
              <DataArray type="UInt8" Name="types" format="ascii">   
10
10
10
10
10
10
10
10
10
10
10
10
10
10
10
10
10
10
10
10
10
10
10
10
10
10
10
10
10
10
10
10
10
10
10
10
10
10
10
10
10
10
10
10
10
10
10
10
10
10
10
10
10
10
10
10
10
10
10
10
10
10
10
10
10
10
10
10
10
10
10
10
10
10
10
10
10
10
10
10
10
10
10
10
10
10
10
10
10
10
10
10
10
10
10
10
10
10
10
10
10
10
10
10
10
10
10
10
10
10
10
10
10
10
10
10
10
10
10
10
10
10
10
10
10
10
10
10
10
10
10
10
10
10
10
10
10
10
10
10
10
10
10
10
10
10
10
10
10
10
10
10
10
10
10
10
10
10
10
10
10
10
10
10
10
10
10
10
10
10
10
10
10
10
10
10
10
10
10
10
10
10
10
10
10
10
10
10
10
10
10
10
10
10
10
10
10
10
10
10
10
10
10
10
10
10
10
10
10
10
10
10
10
10
10
10
10
10
10
10
10
10
10
10
10
10
10
10
10
10
10
10
10
10
10
10
10
10
10
10
10
10
10
10
10
10
10
10
10
10
10
10
10
10
10
10
10
10
10
10
10
10
10
10
10
10
10
10
10
10
10
10
10
10
10
10
10
10
10
10
10
10
10
10
10
10
10
10
10
10
10
10
10
10
10
10
10
10
10
10
10
10
10
10
10
10
10
10
10
10
10
10
10
10
10
10
10
10
10
10
10
10
10
10
10
10
10
10
10
10
10
10
10
10
10
10
10
10
10
10
10
10
10
10
10
10
10
10
10
10
10
10
10
10
10
10
10
10
10
10
10
10
10
10
10
10
10
10
10
10
10
10
10
10
10
10
10
10
10
10
10
10
10
10
10
10
10
10
10
10
10
10
10
10
10
10
10
10
10
10
10
10
10
10
10
10
10
10
10
10
10
10
10
10
10
10
10
10
10
10
10
10
10
10
10
10
10
10
10
10
10
10
10
10
10
10
10
10
10
10
10
10
10
10
10
10
10
10
10
10
10
10
10
10
10
10
10
10
10
10
10
10
10
10
10
10
10
10
10
10
10
10
10
10
10
10
10
10
10
10
10
10
10
10
10
10
10
10
10
10
10
10
10
10
10
10
10
10
10
10
10
10
10
10
10
10
10
10
10
10
10
10
10
10
10
10
10
10
10
10
10
10
10
10
10
10
10
10
10
10
10
10
10
10
10
10
10
10
10
10
10
10
10
10
10
10
10
10
10
10
10
10
10
10
10
10
10
10
10
10
10
10
10
10
10
10
10
10
10
10
10
10
10
10
10
10
10
10
10
10
10
10
10
10
10
10
10
10
10
10
10
10
10
10
10
10
10
10
10
10
10
10
10
10
10
10
10
10
10
10
10
10
10
10
10
10
10
10
10
10
10
10
10
10
10
10
10
10
10
10
10
10
10
10
10
10
10
10
10
10
10
10
10
10
10
10
10
10
10
10
10
10
10
10
10
10
10
10
10
10
10
10
10
10
10
10
10
10
10
10
10
10
10
10
10
10
10
10
10
10
10
10
10
10
10
10
10
10
10
10
10
10
10
10
10
10
10
10
10
10
10
10
10
10
10
10
10
10
10
10
10
10
10
10
10
10
10
10
10
10
10
10
10
10
10
10
10
10
10
10
10
10
10
10
10
10
10
10
10
10
10
10
10
10
10
10
10
10
10
10
10
10
10
10
10
10
10
10
10
10
10
10
10
10
10
10
10
10
10
10
10
10
10
10
10
10
10
10
10
10
10
10
10
10
10
10
10
10
10
10
10
10
10
10
10
10
10
10
10
10
10
10
10
10
10
10
10
10
10
10
10
10
10
10
10
10
10
10
10
10
10
10
10
10
10
10
10
10
10
10
10
10
10
10
10
10
10
10
10
10
10
10
10
10
10
10
10
10
10
10
10
10
10
10
10
10
10
10
10
10
10
10
10
10
10
10
10
10
10
10
10
10
10
10
10
10
10
10
10
10
10
10
10
10
10
10
10
10
10
10
10
10
10
10
10
10
10
10
10
10
10
10
10
10
10
10
10
10
10
10
10
10
10
10
10
10
10
10
10
10
10
10
10
10
10
10
10
10
10
10
10
10
10
10
10
10
10
10
10
10
10
10
10
10
10
10
10
10
10
10
10
10
10
10
10
10
10
10
10
10
10
10
10
10
10
10
10
10
10
10
10
10
10
10
10
10
10
10
10
10
10
10
10
10
10
10
10
10
10
10
10
10
10
10
10
10
10
10
10
10
10
10
10
10
10
10
10
10
10
10
10
10
10
10
10
10
10
10
10
10
10
10
10
10
10
10
10
10
10
10
10
10
10
10
10
10
10
10
10
10
10
10
10
10
10
10
10
10
10
10
10
10
10
10
10
10
10
10
10
10
10
10
10
10
10
10
10
10
10
10
10
10
10
10
10
10
10
10
10
10
10
10
10
10
10
10
10
10
10
10
10
10
10
10
10
10
10
10
10
10
10
10
10
10
10
10
10
10
10
10
10
10
10
10
10
10
10
10
10
10
10
10
10
10
10
10
10
10
10
10
10
10
10
10
10
10
10
10
10
10
10
10
10
10
10
10
10
10
10
10
10
10
10
10
10
10
10
10
10
10
10
10
10
10
10
10
10
10
10
10
10
10
10
10
10
10
10
10
10
10
10
10
10
10
10
10
10
10
10
10
10
10
10
10
10
10
10
10
10
10
10
10
10
10
10
10
10
10
10
10
10
10
10
10
10
10
10
10
10
10
10
10
10
10
10
10
10
10
10
10
10
10
10
10
10
10
10
10
10
10
10
10
10
10
10
10
10
10
10
10
10
10
10
10
10
10
10
10
10
10
10
10
10
10
10
10
10
10
10
10
10
10
10
10
10
10
10
10
10
10
10
10
10
10
10
10
10
10
10
10
10
10
10
10
10
10
10
10
10
10
10
10
10
10
10
10
10
10
10
10
10
10
10
10
10
10
10
10
10
10
10
10
10
10
10
10
10
10
10
10
10
10
10
10
10
10
10
10
10
10
10
10
10
10
10
10
10
10
10
10
10
10
10
10
10
10
10
10
10
10
10
10
10
10
10
10
10
10
10
10
10
10
10
10
10
10
10
10
10
10
10
10
10
10
10
10
10
10
10
10
10
10
10
10
10
10
10
10
10
10
10
10
10
10
10
10
10
10
10
10
10
10
10
10
10
10
10
10
10
10
10
10
10
10
10
10
10
10
10
10
10
10
10
10
10
10
10
10
10
10
10
10
10
10
10
10
10
10
10
10
10
10
10
10
10
10
10
10
10
10
10
10
10
10
10
10
10
10
10
10
10
10
10
10
10
10
10
10
10
10
10
10
10
10
10
10
10
10
10
10
10
10
10
10
10
10
10
10
10
10
              </DataArray>   
          </Cells>  
          <PointData>  
             <DataArray type="Float64" NumberOfComponents="3" Name="Strains" format="ascii">   
-8.811470777282534e-05   0.0   -5.784762011345406e-05
-8.811470777282534e-05   0.0   -5.784762011345406e-05
-8.811470777282534e-05   0.0   -5.784762011345406e-05
-8.811470777282534e-05   0.0   -5.784762011345406e-05
-5.606733686609884e-05   9.759060494663613e-06   1.420101027888146e-06
-5.606733686609884e-05   9.759060494663613e-06   1.420101027888146e-06
-5.606733686609884e-05   9.759060494663613e-06   1.420101027888146e-06
-5.606733686609884e-05   9.759060494663613e-06   1.420101027888146e-06
-5.495745030111082e-05   0.0   -5.45990830971429e-05
-5.495745030111082e-05   0.0   -5.45990830971429e-05
-5.495745030111082e-05   0.0   -5.45990830971429e-05
-5.495745030111082e-05   0.0   -5.45990830971429e-05
-9.221490587969188e-05   1.1712495372744343e-05   4.6917897684583404e-07
-9.221490587969188e-05   1.1712495372744343e-05   4.6917897684583404e-07
-9.221490587969188e-05   1.1712495372744343e-05   4.6917897684583404e-07
-9.221490587969188e-05   1.1712495372744343e-05   4.6917897684583404e-07
-7.153607903696796e-05   2.7071141802592955e-06   -2.859230371220297e-05
-7.153607903696796e-05   2.7071141802592955e-06   -2.859230371220297e-05
-7.153607903696796e-05   2.7071141802592955e-06   -2.859230371220297e-05
-7.153607903696796e-05   2.7071141802592955e-06   -2.859230371220297e-05
-9.221490587969204e-05   0.0   -6.162658032078952e-05
-9.221490587969204e-05   0.0   -6.162658032078952e-05
-9.221490587969204e-05   0.0   -6.162658032078952e-05
-9.221490587969204e-05   0.0   -6.162658032078952e-05
-5.495745030111082e-05   1.171249537274437e-05   7.496676200492461e-06
-5.495745030111082e-05   1.171249537274437e-05   7.496676200492461e-06
-5.495745030111082e-05   1.171249537274437e-05   7.496676200492461e-06
-5.495745030111082e-05   1.171249537274437e-05   7.496676200492461e-06
-5.511129806235567e-05   0.0   -5.5935169433820726e-05
-5.511129806235567e-05   0.0   -5.5935169433820726e-05
-5.511129806235567e-05   0.0   -5.5935169433820726e-05
-5.511129806235567e-05   0.0   -5.5935169433820726e-05
-9.509391057788078e-05   1.2548479668887064e-05   3.1734302907224644e-06
-9.509391057788078e-05   1.2548479668887064e-05   3.1734302907224644e-06
-9.509391057788078e-05   1.2548479668887064e-05   3.1734302907224644e-06
-9.509391057788078e-05   1.2548479668887064e-05   3.1734302907224644e-06
-7.366310197102372e-05   4.742842405807325e-06   -2.7861201696191415e-05
-7.366310197102372e-05   4.742842405807325e-06   -2.7861201696191415e-05
-7.366310197102372e-05   4.742842405807325e-06   -2.7861201696191415e-05
-7.366310197102372e-05   4.742842405807325e-06   -2.7861201696191415e-05
-9.509391057788094e-05   0.0   -6.346425723515298e-05
-9.509391057788094e-05   0.0   -6.346425723515298e-05
-9.509391057788094e-05   0.0   -6.346425723515298e-05
-9.509391057788094e-05   0.0   -6.346425723515298e-05
-5.511129806235567e-05   1.2548479668887091e-05   1.0702518092054711e-05
-5.511129806235567e-05   1.2548479668887091e-05   1.0702518092054711e-05
-5.511129806235567e-05   1.2548479668887091e-05   1.0702518092054711e-05
-5.511129806235567e-05   1.2548479668887091e-05   1.0702518092054711e-05
-5.5081043023663926e-05   0.0   -5.627867041289044e-05
-5.5081043023663926e-05   0.0   -5.627867041289044e-05
-5.5081043023663926e-05   0.0   -5.627867041289044e-05
-5.5081043023663926e-05   0.0   -5.627867041289044e-05
-0.00010129721312654648   1.4296246229896336e-05   1.217053202064294e-05
-0.00010129721312654648   1.4296246229896336e-05   1.217053202064294e-05
-0.00010129721312654648   1.4296246229896336e-05   1.217053202064294e-05
-0.00010129721312654648   1.4296246229896336e-05   1.217053202064294e-05
-7.508747680077231e-05   5.987989018552116e-06   -2.652740752884079e-05
-7.508747680077231e-05   5.987989018552116e-06   -2.652740752884079e-05
-7.508747680077231e-05   5.987989018552116e-06   -2.652740752884079e-05
-7.508747680077231e-05   5.987989018552116e-06   -2.652740752884079e-05
-5.6067336866098943e-05   0.0   -5.1992183816655886e-05
-5.6067336866098943e-05   0.0   -5.1992183816655886e-05
-5.6067336866098943e-05   0.0   -5.1992183816655886e-05
-5.6067336866098943e-05   0.0   -5.1992183816655886e-05
-2.553468900691616e-05   3.578784418787614e-06   1.042833266587933e-06
-2.553468900691616e-05   3.578784418787614e-06   1.042833266587933e-06
-2.553468900691616e-05   3.578784418787614e-06   1.042833266587933e-06
-2.553468900691616e-05   3.578784418787614e-06   1.042833266587933e-06
-2.4557789629965112e-05   0.0   -5.1541568491513345e-05
-2.4557789629965112e-05   0.0   -5.1541568491513345e-05
-2.4557789629965112e-05   0.0   -5.1541568491513345e-05
-2.4557789629965112e-05   0.0   -5.1541568491513345e-05
-5.495745030111082e-05   5.095857676049246e-06   -3.932981978566741e-06
-5.495745030111082e-05   5.095857676049246e-06   -3.932981978566741e-06
-5.495745030111082e-05   5.095857676049246e-06   -3.932981978566741e-06
-5.495745030111082e-05   5.095857676049246e-06   -3.932981978566741e-06
-4.031256324803196e-05   3.755127709521188e-07   -2.550892012397303e-05
-4.031256324803196e-05   3.755127709521188e-07   -2.550892012397303e-05
-4.031256324803196e-05   3.755127709521188e-07   -2.550892012397303e-05
-4.031256324803196e-05   3.755127709521188e-07   -2.550892012397303e-05
-5.495745030111077e-05   0.0   -5.459908309714285e-05
-5.495745030111077e-05   0.0   -5.459908309714285e-05
-5.495745030111077e-05   0.0   -5.459908309714285e-05
-5.495745030111077e-05   0.0   -5.459908309714285e-05
-2.4557789629965112e-05   5.095857676049246e-06   -8.754673729371803e-07
-2.4557789629965112e-05   5.095857676049246e-06   -8.754673729371803e-07
-2.4557789629965112e-05   5.095857676049246e-06   -8.754673729371803e-07
-2.4557789629965112e-05   5.095857676049246e-06   -8.754673729371803e-07
-2.400866605139462e-05   0.0   -5.218831806579319e-05
-2.400866605139462e-05   0.0   -5.218831806579319e-05
-2.400866605139462e-05   0.0   -5.218831806579319e-05
-2.400866605139462e-05   0.0   -5.218831806579319e-05
-5.511129806235567e-05   6.2447522800459046e-06   -4.0974494155523105e-06
-5.511129806235567e-05   6.2447522800459046e-06   -4.0974494155523105e-06
-5.511129806235567e-05   6.2447522800459046e-06   -4.0974494155523105e-06
-5.511129806235567e-05   6.2447522800459046e-06   -4.0974494155523105e-06
-3.9483058176252635e-05   2.0089708594580924e-06   -2.7603047040037796e-05
-3.9483058176252635e-05   2.0089708594580924e-06   -2.7603047040037796e-05
-3.9483058176252635e-05   2.0089708594580924e-06   -2.7603047040037796e-05
-3.9483058176252635e-05   2.0089708594580924e-06   -2.7603047040037796e-05
-5.511129806235567e-05   0.0   -5.5935169433820726e-05
-5.511129806235567e-05   0.0   -5.5935169433820726e-05
-5.511129806235567e-05   0.0   -5.5935169433820726e-05
-5.511129806235567e-05   0.0   -5.5935169433820726e-05
-2.400866605139462e-05   6.2447522800459046e-06   -3.505980475247732e-07
-2.400866605139462e-05   6.2447522800459046e-06   -3.505980475247732e-07
-2.400866605139462e-05   6.2447522800459046e-06   -3.505980475247732e-07
-2.400866605139462e-05   6.2447522800459046e-06   -3.505980475247732e-07
-2.3508457373626612e-05   0.0   -5.19186090247367e-05
-2.3508457373626612e-05   0.0   -5.19186090247367e-05
-2.3508457373626612e-05   0.0   -5.19186090247367e-05
-2.3508457373626612e-05   0.0   -5.19186090247367e-05
-5.5081043023663784e-05   7.2667689802561345e-06   -3.6576943294948957e-06
-5.5081043023663784e-05   7.2667689802561345e-06   -3.6576943294948957e-06
-5.5081043023663784e-05   7.2667689802561345e-06   -3.6576943294948957e-06
-5.5081043023663784e-05   7.2667689802561345e-06   -3.6576943294948957e-06
-3.930987771799113e-05   3.347133674236658e-06   -2.7591188655337836e-05
-3.930987771799113e-05   3.347133674236658e-06   -2.7591188655337836e-05
-3.930987771799113e-05   3.347133674236658e-06   -2.7591188655337836e-05
-3.930987771799113e-05   3.347133674236658e-06   -2.7591188655337836e-05
-2.5534689006916205e-05   0.0   -4.9844913165383315e-05
-2.5534689006916205e-05   0.0   -4.9844913165383315e-05
-2.5534689006916205e-05   0.0   -4.9844913165383315e-05
-2.5534689006916205e-05   0.0   -4.9844913165383315e-05
3.311951520450024e-06   -4.588374977385328e-07   -2.042481451749339e-06
3.311951520450024e-06   -4.588374977385328e-07   -2.042481451749339e-06
3.311951520450024e-06   -4.588374977385328e-07   -2.042481451749339e-06
3.311951520450024e-06   -4.588374977385328e-07   -2.042481451749339e-06
3.936034150392646e-06   0.0   -5.099942451445827e-05
3.936034150392646e-06   0.0   -5.099942451445827e-05
3.936034150392646e-06   0.0   -5.099942451445827e-05
3.936034150392646e-06   0.0   -5.099942451445827e-05
-2.4557789629965068e-05   9.035732950914951e-07   -4.051862190917056e-06
-2.4557789629965068e-05   9.035732950914951e-07   -4.051862190917056e-06
-2.4557789629965068e-05   9.035732950914951e-07   -4.051862190917056e-06
-2.4557789629965068e-05   9.035732950914951e-07   -4.051862190917056e-06
-1.0799327428261736e-05   -9.620927908959406e-07   -2.5863232875496725e-05
-1.0799327428261736e-05   -9.620927908959406e-07   -2.5863232875496725e-05
-1.0799327428261736e-05   -9.620927908959406e-07   -2.5863232875496725e-05
-1.0799327428261736e-05   -9.620927908959406e-07   -2.5863232875496725e-05
-2.4557789629965112e-05   0.0   -5.1541568491513345e-05
-2.4557789629965112e-05   0.0   -5.1541568491513345e-05
-2.4557789629965112e-05   0.0   -5.1541568491513345e-05
-2.4557789629965112e-05   0.0   -5.1541568491513345e-05
3.936034150392653e-06   9.035732950914951e-07   -3.5097182138621613e-06
3.936034150392653e-06   9.035732950914951e-07   -3.5097182138621613e-06
3.936034150392653e-06   9.035732950914951e-07   -3.5097182138621613e-06
3.936034150392653e-06   9.035732950914951e-07   -3.5097182138621613e-06
4.428750660908273e-06   0.0   -5.0926374449467005e-05
4.428750660908273e-06   0.0   -5.0926374449467005e-05
4.428750660908273e-06   0.0   -5.0926374449467005e-05
4.428750660908273e-06   0.0   -5.0926374449467005e-05
-2.4008666051394537e-05   2.1032393605434742e-06   -4.792623545288351e-06
-2.4008666051394537e-05   2.1032393605434742e-06   -4.792623545288351e-06
-2.4008666051394537e-05   2.1032393605434742e-06   -4.792623545288351e-06
-2.4008666051394537e-05   2.1032393605434742e-06   -4.792623545288351e-06
-1.0064519484528398e-05   5.126617017052067e-07   -2.7078521228095662e-05
-1.0064519484528398e-05   5.126617017052067e-07   -2.7078521228095662e-05
-1.0064519484528398e-05   5.126617017052067e-07   -2.7078521228095662e-05
-1.0064519484528398e-05   5.126617017052067e-07   -2.7078521228095662e-05
-2.400866605139462e-05   0.0   -5.218831806579319e-05
-2.400866605139462e-05   0.0   -5.218831806579319e-05
-2.400866605139462e-05   0.0   -5.218831806579319e-05
-2.400866605139462e-05   0.0   -5.218831806579319e-05
4.42875066090828e-06   2.1032393605434878e-06   -3.530679928962271e-06
4.42875066090828e-06   2.1032393605434878e-06   -3.530679928962271e-06
4.42875066090828e-06   2.1032393605434878e-06   -3.530679928962271e-06
4.42875066090828e-06   2.1032393605434878e-06   -3.530679928962271e-06
5.0913239947718955e-06   0.0   -4.982299471603203e-05
5.0913239947718955e-06   0.0   -4.982299471603203e-05
5.0913239947718955e-06   0.0   -4.982299471603203e-05
5.0913239947718955e-06   0.0   -4.982299471603203e-05
-2.350845737362655e-05   3.492690514507701e-06   -4.252306744072511e-06
-2.350845737362655e-05   3.492690514507701e-06   -4.252306744072511e-06
-2.350845737362655e-05   3.492690514507701e-06   -4.252306744072511e-06
-2.350845737362655e-05   3.492690514507701e-06   -4.252306744072511e-06
-9.458671028311341e-06   1.971102791467563e-06   -2.6755664685773815e-05
-9.458671028311341e-06   1.971102791467563e-06   -2.6755664685773815e-05
-9.458671028311341e-06   1.971102791467563e-06   -2.6755664685773815e-05
-9.458671028311341e-06   1.971102791467563e-06   -2.6755664685773815e-05
3.31195152045003e-06   0.0   -5.012021566402644e-05
3.31195152045003e-06   0.0   -5.012021566402644e-05
3.31195152045003e-06   0.0   -5.012021566402644e-05
3.31195152045003e-06   0.0   -5.012021566402644e-05
3.462551490354788e-05   -4.061225247405648e-06   -3.6767850730671397e-07
3.462551490354788e-05   -4.061225247405648e-06   -3.6767850730671397e-07
3.462551490354788e-05   -4.061225247405648e-06   -3.6767850730671397e-07
3.462551490354788e-05   -4.061225247405648e-06   -3.6767850730671397e-07
3.468799026798566e-05   0.0   -5.283620722424096e-05
3.468799026798566e-05   0.0   -5.283620722424096e-05
3.468799026798566e-05   0.0   -5.283620722424096e-05
3.468799026798566e-05   0.0   -5.283620722424096e-05
3.93603415039266e-06   -3.0613045163041845e-06   2.538356815298828e-07
3.93603415039266e-06   -3.0613045163041845e-06   2.538356815298828e-07
3.93603415039266e-06   -3.0613045163041845e-06   2.538356815298828e-07
3.93603415039266e-06   -3.0613045163041845e-06   2.538356815298828e-07
1.8999970894217845e-05   -2.2633263001787664e-06   -2.533151248785399e-05
1.8999970894217845e-05   -2.2633263001787664e-06   -2.533151248785399e-05
1.8999970894217845e-05   -2.2633263001787664e-06   -2.533151248785399e-05
1.8999970894217845e-05   -2.2633263001787664e-06   -2.533151248785399e-05
3.93603415039266e-06   0.0   -5.099942451445845e-05
3.93603415039266e-06   0.0   -5.099942451445845e-05
3.93603415039266e-06   0.0   -5.099942451445845e-05
3.93603415039266e-06   0.0   -5.099942451445845e-05
3.468799026798566e-05   -3.0613045163041845e-06   -1.5829470282526247e-06
3.468799026798566e-05   -3.0613045163041845e-06   -1.5829470282526247e-06
3.468799026798566e-05   -3.0613045163041845e-06   -1.5829470282526247e-06
3.468799026798566e-05   -3.0613045163041845e-06   -1.5829470282526247e-06
3.4540206869977255e-05   0.0   -5.2081732620489114e-05
3.4540206869977255e-05   0.0   -5.2081732620489114e-05
3.4540206869977255e-05   0.0   -5.2081732620489114e-05
3.4540206869977255e-05   0.0   -5.2081732620489114e-05
4.42875066090828e-06   -1.9255969517033663e-06   -7.406141010188172e-07
4.42875066090828e-06   -1.9255969517033663e-06   -7.406141010188172e-07
4.42875066090828e-06   -1.9255969517033663e-06   -7.406141010188172e-07
4.42875066090828e-06   -1.9255969517033663e-06   -7.406141010188172e-07
1.923812051018496e-05   -9.019234216922241e-07   -2.603710130115327e-05
1.923812051018496e-05   -9.019234216922241e-07   -2.603710130115327e-05
1.923812051018496e-05   -9.019234216922241e-07   -2.603710130115327e-05
1.923812051018496e-05   -9.019234216922241e-07   -2.603710130115327e-05
4.428750660908277e-06   0.0   -5.092637444946705e-05
4.428750660908277e-06   0.0   -5.092637444946705e-05
4.428750660908277e-06   0.0   -5.092637444946705e-05
4.428750660908277e-06   0.0   -5.092637444946705e-05
3.4540206869977255e-05   -1.9255969517033663e-06   -1.89597227204084e-06
3.4540206869977255e-05   -1.9255969517033663e-06   -1.89597227204084e-06
3.4540206869977255e-05   -1.9255969517033663e-06   -1.89597227204084e-06
3.4540206869977255e-05   -1.9255969517033663e-06   -1.89597227204084e-06
3.5209896445072946e-05   0.0   -5.006269898399806e-05
3.5209896445072946e-05   0.0   -5.006269898399806e-05
3.5209896445072946e-05   0.0   -5.006269898399806e-05
3.5209896445072946e-05   0.0   -5.006269898399806e-05
5.091323994771905e-06   -3.9950711327656305e-07   3.7462603446962214e-07
5.091323994771905e-06   -3.9950711327656305e-07   3.7462603446962214e-07
5.091323994771905e-06   -3.9950711327656305e-07   3.7462603446962214e-07
5.091323994771905e-06   -3.9950711327656305e-07   3.7462603446962214e-07
1.98193235529906e-05   7.19729554557531e-07   -2.4843581896595313e-05
1.98193235529906e-05   7.19729554557531e-07   -2.4843581896595313e-05
1.98193235529906e-05   7.19729554557531e-07   -2.4843581896595313e-05
1.98193235529906e-05   7.19729554557531e-07   -2.4843581896595313e-05
3.462551490354788e-05   0.0   -5.255695081246983e-05
3.462551490354788e-05   0.0   -5.255695081246983e-05
3.462551490354788e-05   0.0   -5.255695081246983e-05
3.462551490354788e-05   0.0   -5.255695081246983e-05
7.817683139686542e-05   -1.029579633517774e-05   1.3851098875286525e-05
7.817683139686542e-05   -1.029579633517774e-05   1.3851098875286525e-05
7.817683139686542e-05   -1.029579633517774e-05   1.3851098875286525e-05
7.817683139686542e-05   -1.029579633517774e-05   1.3851098875286525e-05
7.342183676005477e-05   0.0   -5.8091970913344626e-05
7.342183676005477e-05   0.0   -5.8091970913344626e-05
7.342183676005477e-05   0.0   -5.8091970913344626e-05
7.342183676005477e-05   0.0   -5.8091970913344626e-05
3.468799026798566e-05   -8.759606148506105e-06   1.1720203595874212e-05
3.468799026798566e-05   -8.759606148506105e-06   1.1720203595874212e-05
3.468799026798566e-05   -8.759606148506105e-06   1.1720203595874212e-05
3.468799026798566e-05   -8.759606148506105e-06   1.1720203595874212e-05
5.4023675831801324e-05   -4.612516750729002e-06   -2.2994192649151457e-05
5.4023675831801324e-05   -4.612516750729002e-06   -2.2994192649151457e-05
5.4023675831801324e-05   -4.612516750729002e-06   -2.2994192649151457e-05
5.4023675831801324e-05   -4.612516750729002e-06   -2.2994192649151457e-05
3.4687990267985636e-05   0.0   -5.2836207224240914e-05
3.4687990267985636e-05   0.0   -5.2836207224240914e-05
3.4687990267985636e-05   0.0   -5.2836207224240914e-05
3.4687990267985636e-05   0.0   -5.2836207224240914e-05
7.342183676005452e-05   -8.759606148506065e-06   6.464439906770527e-06
7.342183676005452e-05   -8.759606148506065e-06   6.464439906770527e-06
7.342183676005452e-05   -8.759606148506065e-06   6.464439906770527e-06
7.342183676005452e-05   -8.759606148506065e-06   6.464439906770527e-06
7.122947103040696e-05   0.0   -5.6884215599556274e-05
7.122947103040696e-05   0.0   -5.6884215599556274e-05
7.122947103040696e-05   0.0   -5.6884215599556274e-05
7.122947103040696e-05   0.0   -5.6884215599556274e-05
3.4540206869977255e-05   -8.00413829844526e-06   9.067040980227058e-06
3.4540206869977255e-05   -8.00413829844526e-06   9.067040980227058e-06
3.4540206869977255e-05   -8.00413829844526e-06   9.067040980227058e-06
3.4540206869977255e-05   -8.00413829844526e-06   9.067040980227058e-06
5.295873064919629e-05   -3.3733403127627617e-06   -2.4408977443214157e-05
5.295873064919629e-05   -3.3733403127627617e-06   -2.4408977443214157e-05
5.295873064919629e-05   -3.3733403127627617e-06   -2.4408977443214157e-05
5.295873064919629e-05   -3.3733403127627617e-06   -2.4408977443214157e-05
3.4540206869977255e-05   0.0   -5.2081732620489114e-05
3.4540206869977255e-05   0.0   -5.2081732620489114e-05
3.4540206869977255e-05   0.0   -5.2081732620489114e-05
3.4540206869977255e-05   0.0   -5.2081732620489114e-05
7.122947103040671e-05   -8.004138298445233e-06   4.2645580011598845e-06
7.122947103040671e-05   -8.004138298445233e-06   4.2645580011598845e-06
7.122947103040671e-05   -8.004138298445233e-06   4.2645580011598845e-06
7.122947103040671e-05   -8.004138298445233e-06   4.2645580011598845e-06
6.796510978901001e-05   0.0   -5.379496724955787e-05
6.796510978901001e-05   0.0   -5.379496724955787e-05
6.796510978901001e-05   0.0   -5.379496724955787e-05
6.796510978901001e-05   0.0   -5.379496724955787e-05
3.5209896445072946e-05   -6.220447109266499e-06   4.529323255897226e-06
3.5209896445072946e-05   -6.220447109266499e-06   4.529323255897226e-06
3.5209896445072946e-05   -6.220447109266499e-06   4.529323255897226e-06
3.5209896445072946e-05   -6.220447109266499e-06   4.529323255897226e-06
5.125265832949369e-05   -1.4276955242240353e-06   -2.5084264169162788e-05
5.125265832949369e-05   -1.4276955242240353e-06   -2.5084264169162788e-05
5.125265832949369e-05   -1.4276955242240353e-06   -2.5084264169162788e-05
5.125265832949369e-05   -1.4276955242240353e-06   -2.5084264169162788e-05
-7.643886827158159e-05   9.759060494663585e-06   -5.0165597483217997e-05
-7.643886827158159e-05   9.759060494663585e-06   -5.0165597483217997e-05
-7.643886827158159e-05   9.759060494663585e-06   -5.0165597483217997e-05
-7.643886827158159e-05   9.759060494663585e-06   -5.0165597483217997e-05
-4.895965501675558e-05   8.775358717541656e-06   -4.957129791447785e-06
-4.895965501675558e-05   8.775358717541656e-06   -4.957129791447785e-06
-4.895965501675558e-05   8.775358717541656e-06   -4.957129791447785e-06
-4.895965501675558e-05   8.775358717541656e-06   -4.957129791447785e-06
-5.019106276975215e-05   1.1712495372744343e-05   -4.2132166764803744e-05
-5.019106276975215e-05   1.1712495372744343e-05   -4.2132166764803744e-05
-5.019106276975215e-05   1.1712495372744343e-05   -4.2132166764803744e-05
-5.019106276975215e-05   1.1712495372744343e-05   -4.2132166764803744e-05
-7.726540999114619e-05   1.0533150461824927e-05   3.699352217404839e-06
-7.726540999114619e-05   1.0533150461824927e-05   3.699352217404839e-06
-7.726540999114619e-05   1.0533150461824927e-05   3.699352217404839e-06
-7.726540999114619e-05   1.0533150461824927e-05   3.699352217404839e-06
-6.070992318473957e-05   1.0194074821473064e-05   -2.3689680409062178e-05
-6.070992318473957e-05   1.0194074821473064e-05   -2.3689680409062178e-05
-6.070992318473957e-05   1.0194074821473064e-05   -2.3689680409062178e-05
-6.070992318473957e-05   1.0194074821473064e-05   -2.3689680409062178e-05
-7.726540999114619e-05   1.1712495372744343e-05   -4.142455981825207e-05
-7.726540999114619e-05   1.1712495372744343e-05   -4.142455981825207e-05
-7.726540999114619e-05   1.1712495372744343e-05   -4.142455981825207e-05
-7.726540999114619e-05   1.1712495372744343e-05   -4.142455981825207e-05
-5.019106276975232e-05   1.0533150461824927e-05   2.9917452708531407e-06
-5.019106276975232e-05   1.0533150461824927e-05   2.9917452708531407e-06
-5.019106276975232e-05   1.0533150461824927e-05   2.9917452708531407e-06
-5.019106276975232e-05   1.0533150461824927e-05   2.9917452708531407e-06
-5.044858051922988e-05   1.2548479668887064e-05   -3.788004981318706e-05
-5.044858051922988e-05   1.2548479668887064e-05   -3.788004981318706e-05
-5.044858051922988e-05   1.2548479668887064e-05   -3.788004981318706e-05
-5.044858051922988e-05   1.2548479668887064e-05   -3.788004981318706e-05
-7.780838548764243e-05   1.1326518162862857e-05   8.452802037781505e-06
-7.780838548764243e-05   1.1326518162862857e-05   8.452802037781505e-06
-7.780838548764243e-05   1.1326518162862857e-05   8.452802037781505e-06
-7.780838548764243e-05   1.1326518162862857e-05   8.452802037781505e-06
-6.249441678671613e-05   1.1299305668169935e-05   -1.7054151633613045e-05
-6.249441678671613e-05   1.1299305668169935e-05   -1.7054151633613045e-05
-6.249441678671613e-05   1.1299305668169935e-05   -1.7054151633613045e-05
-6.249441678671613e-05   1.1299305668169935e-05   -1.7054151633613045e-05
-7.780838548764229e-05   1.2548479668887064e-05   -3.714687290957252e-05
-7.780838548764229e-05   1.2548479668887064e-05   -3.714687290957252e-05
-7.780838548764229e-05   1.2548479668887064e-05   -3.714687290957252e-05
-7.780838548764229e-05   1.2548479668887064e-05   -3.714687290957252e-05
-5.044858051922997e-05   1.1326518162862857e-05   7.719625134166978e-06
-5.044858051922997e-05   1.1326518162862857e-05   7.719625134166978e-06
-5.044858051922997e-05   1.1326518162862857e-05   7.719625134166978e-06
-5.044858051922997e-05   1.1326518162862857e-05   7.719625134166978e-06
-5.01614893780148e-05   1.4296246229896322e-05   -2.7991422029096318e-05
-5.01614893780148e-05   1.4296246229896322e-05   -2.7991422029096318e-05
-5.01614893780148e-05   1.4296246229896322e-05   -2.7991422029096318e-05
-5.01614893780148e-05   1.4296246229896322e-05   -2.7991422029096318e-05
-7.564960996353408e-05   1.1957770415403233e-05   1.5891864435464806e-05
-7.564960996353408e-05   1.1957770415403233e-05   1.5891864435464806e-05
-7.564960996353408e-05   1.1957770415403233e-05   1.5891864435464806e-05
-7.564960996353408e-05   1.1957770415403233e-05   1.5891864435464806e-05
-6.086815863914994e-05   1.2394186478458777e-05   -9.005737409675422e-06
-6.086815863914994e-05   1.2394186478458777e-05   -9.005737409675422e-06
-6.086815863914994e-05   1.2394186478458777e-05   -9.005737409675422e-06
-6.086815863914994e-05   1.2394186478458777e-05   -9.005737409675422e-06
-4.895965501675558e-05   3.5787844187876004e-06   -5.3280356962063916e-05
-4.895965501675558e-05   3.5787844187876004e-06   -5.3280356962063916e-05
-4.895965501675558e-05   3.5787844187876004e-06   -5.3280356962063916e-05
-4.895965501675558e-05   3.5787844187876004e-06   -5.3280356962063916e-05
-2.3201972640582438e-05   4.083334583971634e-06   -1.0048156235998174e-05
-2.3201972640582438e-05   4.083334583971634e-06   -1.0048156235998174e-05
-2.3201972640582438e-05   4.083334583971634e-06   -1.0048156235998174e-05
-2.3201972640582438e-05   4.083334583971634e-06   -1.0048156235998174e-05
-2.3755845600971696e-05   5.095857676049232e-06   -5.319950683435064e-05
-2.3755845600971696e-05   5.095857676049232e-06   -5.319950683435064e-05
-2.3755845600971696e-05   5.095857676049232e-06   -5.319950683435064e-05
-2.3755845600971696e-05   5.095857676049232e-06   -5.319950683435064e-05
-5.019106276975215e-05   5.699721191902978e-06   -9.503129662562026e-06
-5.019106276975215e-05   5.699721191902978e-06   -9.503129662562026e-06
-5.019106276975215e-05   5.699721191902978e-06   -9.503129662562026e-06
-5.019106276975215e-05   5.699721191902978e-06   -9.503129662562026e-06
-3.6424243902882214e-05   4.5894005816752995e-06   -3.178163540787558e-05
-3.6424243902882214e-05   4.5894005816752995e-06   -3.178163540787558e-05
-3.6424243902882214e-05   4.5894005816752995e-06   -3.178163540787558e-05
-3.6424243902882214e-05   4.5894005816752995e-06   -3.178163540787558e-05
-5.0191062769752105e-05   5.095857676049232e-06   -5.356182494386281e-05
-5.0191062769752105e-05   5.095857676049232e-06   -5.356182494386281e-05
-5.0191062769752105e-05   5.095857676049232e-06   -5.356182494386281e-05
-5.0191062769752105e-05   5.095857676049232e-06   -5.356182494386281e-05
-2.3755845600971736e-05   5.699721191903032e-06   -9.140811553049782e-06
-2.3755845600971736e-05   5.699721191903032e-06   -9.140811553049782e-06
-2.3755845600971736e-05   5.699721191903032e-06   -9.140811553049782e-06
-2.3755845600971736e-05   5.699721191903032e-06   -9.140811553049782e-06
-2.392981124665039e-05   6.2447522800458774e-06   -5.220422647992683e-05
-2.392981124665039e-05   6.2447522800458774e-06   -5.220422647992683e-05
-2.392981124665039e-05   6.2447522800458774e-06   -5.220422647992683e-05
-2.392981124665039e-05   6.2447522800458774e-06   -5.220422647992683e-05
-5.044858051922988e-05   7.037737014824489e-06   -8.482068533161626e-06
-5.044858051922988e-05   7.037737014824489e-06   -8.482068533161626e-06
-5.044858051922988e-05   7.037737014824489e-06   -8.482068533161626e-06
-5.044858051922988e-05   7.037737014824489e-06   -8.482068533161626e-06
-3.670895133829365e-05   5.825287948250821e-06   -3.065398106144433e-05
-3.670895133829365e-05   5.825287948250821e-06   -3.065398106144433e-05
-3.670895133829365e-05   5.825287948250821e-06   -3.065398106144433e-05
-3.670895133829365e-05   5.825287948250821e-06   -3.065398106144433e-05
-5.044858051922988e-05   6.2447522800458774e-06   -5.2680017320794034e-05
-5.044858051922988e-05   6.2447522800458774e-06   -5.2680017320794034e-05
-5.044858051922988e-05   6.2447522800458774e-06   -5.2680017320794034e-05
-5.044858051922988e-05   6.2447522800458774e-06   -5.2680017320794034e-05
-2.3929811246650474e-05   7.0377370148245436e-06   -8.006277692294446e-06
-2.3929811246650474e-05   7.0377370148245436e-06   -8.006277692294446e-06
-2.3929811246650474e-05   7.0377370148245436e-06   -8.006277692294446e-06
-2.3929811246650474e-05   7.0377370148245436e-06   -8.006277692294446e-06
-2.3871365875748276e-05   7.266768980256121e-06   -5.1670985033148065e-05
-2.3871365875748276e-05   7.266768980256121e-06   -5.1670985033148065e-05
-2.3871365875748276e-05   7.266768980256121e-06   -5.1670985033148065e-05
-2.3871365875748276e-05   7.266768980256121e-06   -5.1670985033148065e-05
-5.0161489378014766e-05   8.47745412029579e-06   -8.580523613394399e-06
-5.0161489378014766e-05   8.47745412029579e-06   -8.580523613394399e-06
-5.0161489378014766e-05   8.47745412029579e-06   -8.580523613394399e-06
-5.0161489378014766e-05   8.47745412029579e-06   -8.580523613394399e-06
-3.6924996377951e-05   6.9439074822499945e-06   -2.9721217297340043e-05
-3.6924996377951e-05   6.9439074822499945e-06   -2.9721217297340043e-05
-3.6924996377951e-05   6.9439074822499945e-06   -2.9721217297340043e-05
-3.6924996377951e-05   6.9439074822499945e-06   -2.9721217297340043e-05
-2.32019726405824e-05   -4.588374977385328e-07   -5.5787639082647655e-05
-2.32019726405824e-05   -4.588374977385328e-07   -5.5787639082647655e-05
-2.32019726405824e-05   -4.588374977385328e-07   -5.5787639082647655e-05
-2.32019726405824e-05   -4.588374977385328e-07   -5.5787639082647655e-05
2.2307147609574584e-06   -1.2183230463163556e-07   -1.3197623630883712e-05
2.2307147609574584e-06   -1.2183230463163556e-07   -1.3197623630883712e-05
2.2307147609574584e-06   -1.2183230463163556e-07   -1.3197623630883712e-05
2.2307147609574584e-06   -1.2183230463163556e-07   -1.3197623630883712e-05
2.1261459701944343e-06   9.035732950914816e-07   -5.609756169048098e-05
2.1261459701944343e-06   9.035732950914816e-07   -5.609756169048098e-05
2.1261459701944343e-06   9.035732950914816e-07   -5.609756169048098e-05
2.1261459701944343e-06   9.035732950914816e-07   -5.609756169048098e-05
-2.3755845600971696e-05   1.3674732315075854e-06   -1.3239249033720213e-05
-2.3755845600971696e-05   1.3674732315075854e-06   -1.3239249033720213e-05
-2.3755845600971696e-05   1.3674732315075854e-06   -1.3239249033720213e-05
-2.3755845600971696e-05   1.3674732315075854e-06   -1.3239249033720213e-05
-1.0714321708698216e-05   4.541223185493791e-07   -3.442711163973455e-05
-1.0714321708698216e-05   4.541223185493791e-07   -3.442711163973455e-05
-1.0714321708698216e-05   4.541223185493791e-07   -3.442711163973455e-05
-1.0714321708698216e-05   4.541223185493791e-07   -3.442711163973455e-05
-2.3755845600971696e-05   9.035732950914951e-07   -5.637590165233053e-05
-2.3755845600971696e-05   9.035732950914951e-07   -5.637590165233053e-05
-2.3755845600971696e-05   9.035732950914951e-07   -5.637590165233053e-05
-2.3755845600971696e-05   9.035732950914951e-07   -5.637590165233053e-05
2.1261459701944343e-06   1.3674732315075854e-06   -1.2960909071870594e-05
2.1261459701944343e-06   1.3674732315075854e-06   -1.2960909071870594e-05
2.1261459701944343e-06   1.3674732315075854e-06   -1.2960909071870594e-05
2.1261459701944343e-06   1.3674732315075854e-06   -1.2960909071870594e-05
1.983798570553591e-06   2.1032393605434742e-06   -5.621460283456872e-05
1.983798570553591e-06   2.1032393605434742e-06   -5.621460283456872e-05
1.983798570553591e-06   2.1032393605434742e-06   -5.621460283456872e-05
1.983798570553591e-06   2.1032393605434742e-06   -5.621460283456872e-05
-2.392981124665039e-05   2.8226545990796205e-06   -1.3456902282350493e-05
-2.392981124665039e-05   2.8226545990796205e-06   -1.3456902282350493e-05
-2.392981124665039e-05   2.8226545990796205e-06   -1.3456902282350493e-05
-2.392981124665039e-05   2.8226545990796205e-06   -1.3456902282350493e-05
-1.0914227049236489e-05   1.7161651593619305e-06   -3.448564894754293e-05
-1.0914227049236489e-05   1.7161651593619305e-06   -3.448564894754293e-05
-1.0914227049236489e-05   1.7161651593619305e-06   -3.448564894754293e-05
-1.0914227049236489e-05   1.7161651593619305e-06   -3.448564894754293e-05
-2.392981124665039e-05   2.1032393605434742e-06   -5.664625197769041e-05
-2.392981124665039e-05   2.1032393605434742e-06   -5.664625197769041e-05
-2.392981124665039e-05   2.1032393605434742e-06   -5.664625197769041e-05
-2.392981124665039e-05   2.1032393605434742e-06   -5.664625197769041e-05
1.9837985705535945e-06   2.8226545990796747e-06   -1.3025253139228822e-05
1.9837985705535945e-06   2.8226545990796747e-06   -1.3025253139228822e-05
1.9837985705535945e-06   2.8226545990796747e-06   -1.3025253139228822e-05
1.9837985705535945e-06   2.8226545990796747e-06   -1.3025253139228822e-05
1.6969284311126216e-06   3.4926905145077147e-06   -5.611799968164209e-05
1.6969284311126216e-06   3.4926905145077147e-06   -5.611799968164209e-05
1.6969284311126216e-06   3.4926905145077147e-06   -5.611799968164209e-05
1.6969284311126216e-06   3.4926905145077147e-06   -5.611799968164209e-05
-2.3871365875748297e-05   4.338789104903218e-06   -1.4011834991111273e-05
-2.3871365875748297e-05   4.338789104903218e-06   -1.4011834991111273e-05
-2.3871365875748297e-05   4.338789104903218e-06   -1.4011834991111273e-05
-2.3871365875748297e-05   4.338789104903218e-06   -1.4011834991111273e-05
-1.1035259079721066e-05   3.0126687174330353e-06   -3.460967408534114e-05
-1.1035259079721066e-05   3.0126687174330353e-06   -3.460967408534114e-05
-1.1035259079721066e-05   3.0126687174330353e-06   -3.460967408534114e-05
-1.1035259079721066e-05   3.0126687174330353e-06   -3.460967408534114e-05
2.2307147609574584e-06   -4.061225247405635e-06   -5.14738978738975e-05
2.2307147609574584e-06   -4.061225247405635e-06   -5.14738978738975e-05
2.2307147609574584e-06   -4.061225247405635e-06   -5.14738978738975e-05
2.2307147609574584e-06   -4.061225247405635e-06   -5.14738978738975e-05
2.843946621550256e-05   -4.175293708438138e-06   -7.861086526275116e-06
2.843946621550256e-05   -4.175293708438138e-06   -7.861086526275116e-06
2.843946621550256e-05   -4.175293708438138e-06   -7.861086526275116e-06
2.843946621550256e-05   -4.175293708438138e-06   -7.861086526275116e-06
2.8672671253075503e-05   -3.061304516304171e-06   -5.219039144530521e-05
2.8672671253075503e-05   -3.061304516304171e-06   -5.219039144530521e-05
2.8672671253075503e-05   -3.061304516304171e-06   -5.219039144530521e-05
2.8672671253075503e-05   -3.061304516304171e-06   -5.219039144530521e-05
2.1261459701944343e-06   -2.821943933331637e-06   -8.089798990286874e-06
2.1261459701944343e-06   -2.821943933331637e-06   -8.089798990286874e-06
2.1261459701944343e-06   -2.821943933331637e-06   -8.089798990286874e-06
2.1261459701944343e-06   -2.821943933331637e-06   -8.089798990286874e-06
1.5170889374264082e-05   -3.3783327670491934e-06   -2.949720469683917e-05
1.5170889374264082e-05   -3.3783327670491934e-06   -2.949720469683917e-05
1.5170889374264082e-05   -3.3783327670491934e-06   -2.949720469683917e-05
1.5170889374264082e-05   -3.3783327670491934e-06   -2.949720469683917e-05
2.126145970194431e-06   -3.061304516304171e-06   -5.233400779508885e-05
2.126145970194431e-06   -3.061304516304171e-06   -5.233400779508885e-05
2.126145970194431e-06   -3.061304516304171e-06   -5.233400779508885e-05
2.126145970194431e-06   -3.061304516304171e-06   -5.233400779508885e-05
2.867267125307555e-05   -2.821943933331637e-06   -7.946182640503302e-06
2.867267125307555e-05   -2.821943933331637e-06   -7.946182640503302e-06
2.867267125307555e-05   -2.821943933331637e-06   -7.946182640503302e-06
2.867267125307555e-05   -2.821943933331637e-06   -7.946182640503302e-06
2.8531023930958006e-05   -1.9255969517033527e-06   -5.3167004597560947e-05
2.8531023930958006e-05   -1.9255969517033527e-06   -5.3167004597560947e-05
2.8531023930958006e-05   -1.9255969517033527e-06   -5.3167004597560947e-05
2.8531023930958006e-05   -1.9255969517033527e-06   -5.3167004597560947e-05
1.983798570553591e-06   -1.4963762699296296e-06   -9.179161405951218e-06
1.983798570553591e-06   -1.4963762699296296e-06   -9.179161405951218e-06
1.983798570553591e-06   -1.4963762699296296e-06   -9.179161405951218e-06
1.983798570553591e-06   -1.4963762699296296e-06   -9.179161405951218e-06
1.500833499631423e-05   -2.2980315297804928e-06   -3.04057289596417e-05
1.500833499631423e-05   -2.2980315297804928e-06   -3.04057289596417e-05
1.500833499631423e-05   -2.2980315297804928e-06   -3.04057289596417e-05
1.500833499631423e-05   -2.2980315297804928e-06   -3.04057289596417e-05
1.9837985705535895e-06   -1.9255969517033527e-06   -5.342453700662519e-05
1.9837985705535895e-06   -1.9255969517033527e-06   -5.342453700662519e-05
1.9837985705535895e-06   -1.9255969517033527e-06   -5.342453700662519e-05
1.9837985705535895e-06   -1.9255969517033527e-06   -5.342453700662519e-05
2.85310239309581e-05   -1.4963762699296839e-06   -8.921628996886997e-06
2.85310239309581e-05   -1.4963762699296839e-06   -8.921628996886997e-06
2.85310239309581e-05   -1.4963762699296839e-06   -8.921628996886997e-06
2.85310239309581e-05   -1.4963762699296839e-06   -8.921628996886997e-06
2.7696690549022926e-05   -3.995071132765766e-07   -5.3261143195754886e-05
2.7696690549022926e-05   -3.995071132765766e-07   -5.3261143195754886e-05
2.7696690549022926e-05   -3.995071132765766e-07   -5.3261143195754886e-05
2.7696690549022926e-05   -3.995071132765766e-07   -5.3261143195754886e-05
1.6969284311126216e-06   1.4305624680612406e-07   -1.0253744348620728e-05
1.6969284311126216e-06   1.4305624680612406e-07   -1.0253744348620728e-05
1.6969284311126216e-06   1.4305624680612406e-07   -1.0253744348620728e-05
1.6969284311126216e-06   1.4305624680612406e-07   -1.0253744348620728e-05
1.4843802680404315e-05   -1.0362741918093076e-06   -3.145760316760426e-05
1.4843802680404315e-05   -1.0362741918093076e-06   -3.145760316760426e-05
1.4843802680404315e-05   -1.0362741918093076e-06   -3.145760316760426e-05
1.4843802680404315e-05   -1.0362741918093076e-06   -3.145760316760426e-05
2.843946621550256e-05   -1.029579633517774e-05   -3.11460837668171e-05
2.843946621550256e-05   -1.029579633517774e-05   -3.11460837668171e-05
2.843946621550256e-05   -1.029579633517774e-05   -3.11460837668171e-05
2.843946621550256e-05   -1.029579633517774e-05   -3.11460837668171e-05
5.430555118859665e-05   -7.75983956867194e-06   1.3485631914909814e-05
5.430555118859665e-05   -7.75983956867194e-06   1.3485631914909814e-05
5.430555118859665e-05   -7.75983956867194e-06   1.3485631914909814e-05
5.430555118859665e-05   -7.75983956867194e-06   1.3485631914909814e-05
5.637045987156771e-05   -8.759606148506105e-06   -3.785494375272675e-05
5.637045987156771e-05   -8.759606148506105e-06   -3.785494375272675e-05
5.637045987156771e-05   -8.759606148506105e-06   -3.785494375272675e-05
5.637045987156771e-05   -8.759606148506105e-06   -3.785494375272675e-05
2.8672671253075597e-05   -7.039111034419748e-06   7.27574020964175e-06
2.8672671253075597e-05   -7.039111034419748e-06   7.27574020964175e-06
2.8672671253075597e-05   -7.039111034419748e-06   7.27574020964175e-06
2.8672671253075597e-05   -7.039111034419748e-06   7.27574020964175e-06
3.9996228042910816e-05   -8.42748733947675e-06   -1.0763828657049451e-05
3.9996228042910816e-05   -8.42748733947675e-06   -1.0763828657049451e-05
3.9996228042910816e-05   -8.42748733947675e-06   -1.0763828657049451e-05
3.9996228042910816e-05   -8.42748733947675e-06   -1.0763828657049451e-05
2.8672671253075523e-05   -8.759606148506078e-06   -3.888724082117841e-05
2.8672671253075523e-05   -8.759606148506078e-06   -3.888724082117841e-05
2.8672671253075523e-05   -8.759606148506078e-06   -3.888724082117841e-05
2.8672671253075523e-05   -8.759606148506078e-06   -3.888724082117841e-05
5.637045987156771e-05   -7.039111034419748e-06   8.308037278093538e-06
5.637045987156771e-05   -7.039111034419748e-06   8.308037278093538e-06
5.637045987156771e-05   -7.039111034419748e-06   8.308037278093538e-06
5.637045987156771e-05   -7.039111034419748e-06   8.308037278093538e-06
5.615829728093319e-05   -8.004138298445246e-06   -4.116728674894724e-05
5.615829728093319e-05   -8.004138298445246e-06   -4.116728674894724e-05
5.615829728093319e-05   -8.004138298445246e-06   -4.116728674894724e-05
5.615829728093319e-05   -8.004138298445246e-06   -4.116728674894724e-05
2.85310239309581e-05   -6.276297304535204e-06   3.841464237998513e-06
2.85310239309581e-05   -6.276297304535204e-06   3.841464237998513e-06
2.85310239309581e-05   -6.276297304535204e-06   3.841464237998513e-06
2.85310239309581e-05   -6.276297304535204e-06   3.841464237998513e-06
4.1393193101184634e-05   -7.442212813783659e-06   -1.6895935073496626e-05
4.1393193101184634e-05   -7.442212813783659e-06   -1.6895935073496626e-05
4.1393193101184634e-05   -7.442212813783659e-06   -1.6895935073496626e-05
4.1393193101184634e-05   -7.442212813783659e-06   -1.6895935073496626e-05
2.8531023930958054e-05   -8.004138298445233e-06   -4.2203991345293184e-05
2.8531023930958054e-05   -8.004138298445233e-06   -4.2203991345293184e-05
2.8531023930958054e-05   -8.004138298445233e-06   -4.2203991345293184e-05
2.8531023930958054e-05   -8.004138298445233e-06   -4.2203991345293184e-05
5.615829728093319e-05   -6.276297304535204e-06   4.878168834344552e-06
5.615829728093319e-05   -6.276297304535204e-06   4.878168834344552e-06
5.615829728093319e-05   -6.276297304535204e-06   4.878168834344552e-06
5.615829728093319e-05   -6.276297304535204e-06   4.878168834344552e-06
5.5817337608478335e-05   -6.220447109266499e-06   -4.791535722082916e-05
5.5817337608478335e-05   -6.220447109266499e-06   -4.791535722082916e-05
5.5817337608478335e-05   -6.220447109266499e-06   -4.791535722082916e-05
5.5817337608478335e-05   -6.220447109266499e-06   -4.791535722082916e-05
2.769669054902302e-05   -4.6348063000459325e-06   -1.9989966072693564e-06
2.769669054902302e-05   -4.6348063000459325e-06   -1.9989966072693564e-06
2.769669054902302e-05   -4.6348063000459325e-06   -1.9989966072693564e-06
2.769669054902302e-05   -4.6348063000459325e-06   -1.9989966072693564e-06
4.020715536147196e-05   -6.40780479945174e-06   -2.178597219504075e-05
4.020715536147196e-05   -6.40780479945174e-06   -2.178597219504075e-05
4.020715536147196e-05   -6.40780479945174e-06   -2.178597219504075e-05
4.020715536147196e-05   -6.40780479945174e-06   -2.178597219504075e-05
-6.087965485787513e-05   8.77535871754171e-06   -4.202944261894631e-05
-6.087965485787513e-05   8.77535871754171e-06   -4.202944261894631e-05
-6.087965485787513e-05   8.77535871754171e-06   -4.202944261894631e-05
-6.087965485787513e-05   8.77535871754171e-06   -4.202944261894631e-05
-3.991479164493797e-05   6.704309688606962e-06   -8.33063334807865e-06
-3.991479164493797e-05   6.704309688606962e-06   -8.33063334807865e-06
-3.991479164493797e-05   6.704309688606962e-06   -8.33063334807865e-06
-3.991479164493797e-05   6.704309688606962e-06   -8.33063334807865e-06
-4.010766598336886e-05   1.0533150461824927e-05   -3.4897640341714916e-05
-4.010766598336886e-05   1.0533150461824927e-05   -3.4897640341714916e-05
-4.010766598336886e-05   1.0533150461824927e-05   -3.4897640341714916e-05
-4.010766598336886e-05   1.0533150461824927e-05   -3.4897640341714916e-05
-5.995690694920205e-05   8.110807860672539e-06   -3.621665046348488e-07
-5.995690694920205e-05   8.110807860672539e-06   -3.621665046348488e-07
-5.995690694920205e-05   8.110807860672539e-06   -3.621665046348488e-07
-5.995690694920205e-05   8.110807860672539e-06   -3.621665046348488e-07
-4.8091051101410685e-05   8.923508378455472e-06   -2.062621322829059e-05
-4.8091051101410685e-05   8.923508378455472e-06   -2.062621322829059e-05
-4.8091051101410685e-05   8.923508378455472e-06   -2.062621322829059e-05
-4.8091051101410685e-05   8.923508378455472e-06   -2.062621322829059e-05
-5.995690694920205e-05   1.0533150461824927e-05   -3.344423478102352e-05
-5.995690694920205e-05   1.0533150461824927e-05   -3.344423478102352e-05
-5.995690694920205e-05   1.0533150461824927e-05   -3.344423478102352e-05
-5.995690694920205e-05   1.0533150461824927e-05   -3.344423478102352e-05
-4.010766598336886e-05   8.110807860672539e-06   -1.8155720653261897e-06
-4.010766598336886e-05   8.110807860672539e-06   -1.8155720653261897e-06
-4.010766598336886e-05   8.110807860672539e-06   -1.8155720653261897e-06
-4.010766598336886e-05   8.110807860672539e-06   -1.8155720653261897e-06
-4.006694052424272e-05   1.1326518162862857e-05   -2.9855715525310136e-05
-4.006694052424272e-05   1.1326518162862857e-05   -2.9855715525310136e-05
-4.006694052424272e-05   1.1326518162862857e-05   -2.9855715525310136e-05
-4.006694052424272e-05   1.1326518162862857e-05   -2.9855715525310136e-05
-5.905753241620929e-05   8.728857552047658e-06   3.353867327789877e-06
-5.905753241620929e-05   8.728857552047658e-06   3.353867327789877e-06
-5.905753241620929e-05   8.728857552047658e-06   3.353867327789877e-06
-5.905753241620929e-05   8.728857552047658e-06   3.353867327789877e-06
-4.8506616394741177e-05   9.738857742157487e-06   -1.48369928220558e-05
-4.8506616394741177e-05   9.738857742157487e-06   -1.48369928220558e-05
-4.8506616394741177e-05   9.738857742157487e-06   -1.48369928220558e-05
-4.8506616394741177e-05   9.738857742157487e-06   -1.48369928220558e-05
-5.905753241620929e-05   1.1326518162862857e-05   -2.8297119158820957e-05
-5.905753241620929e-05   1.1326518162862857e-05   -2.8297119158820957e-05
-5.905753241620929e-05   1.1326518162862857e-05   -2.8297119158820957e-05
-5.905753241620929e-05   1.1326518162862857e-05   -2.8297119158820957e-05
-4.006694052424279e-05   8.72885755204755e-06   1.7952709613009148e-06
-4.006694052424279e-05   8.72885755204755e-06   1.7952709613009148e-06
-4.006694052424279e-05   8.72885755204755e-06   1.7952709613009148e-06
-4.006694052424279e-05   8.72885755204755e-06   1.7952709613009148e-06
-4.010770589938295e-05   1.1957770415403233e-05   -2.279611873908595e-05
-4.010770589938295e-05   1.1957770415403233e-05   -2.279611873908595e-05
-4.010770589938295e-05   1.1957770415403233e-05   -2.279611873908595e-05
-4.010770589938295e-05   1.1957770415403233e-05   -2.279611873908595e-05
-5.788321662254537e-05   9.337514455769105e-06   8.401886041964845e-06
-5.788321662254537e-05   9.337514455769105e-06   8.401886041964845e-06
-5.788321662254537e-05   9.337514455769105e-06   8.401886041964845e-06
-5.788321662254537e-05   9.337514455769105e-06   8.401886041964845e-06
-4.740168255556403e-05   1.0168154077156702e-05   -9.565721175835908e-06
-4.740168255556403e-05   1.0168154077156702e-05   -9.565721175835908e-06
-4.740168255556403e-05   1.0168154077156702e-05   -9.565721175835908e-06
-4.740168255556403e-05   1.0168154077156702e-05   -9.565721175835908e-06
-3.991479164493797e-05   4.083334583971634e-06   -4.8665828579968074e-05
-3.991479164493797e-05   4.083334583971634e-06   -4.8665828579968074e-05
-3.991479164493797e-05   4.083334583971634e-06   -4.8665828579968074e-05
-3.991479164493797e-05   4.083334583971634e-06   -4.8665828579968074e-05
-2.0318039771460137e-05   3.343336677525755e-06   -1.6448574201372528e-05
-2.0318039771460137e-05   3.343336677525755e-06   -1.6448574201372528e-05
-2.0318039771460137e-05   3.343336677525755e-06   -1.6448574201372528e-05
-2.0318039771460137e-05   3.343336677525755e-06   -1.6448574201372528e-05
-2.0564794697027533e-05   5.699721191902978e-06   -4.797633186010079e-05
-2.0564794697027533e-05   5.699721191902978e-06   -4.797633186010079e-05
-2.0564794697027533e-05   5.699721191902978e-06   -4.797633186010079e-05
-2.0564794697027533e-05   5.699721191902978e-06   -4.797633186010079e-05
-4.010766598336881e-05   4.7266935502851635e-06   -1.4821063131227797e-05
-4.010766598336881e-05   4.7266935502851635e-06   -1.4821063131227797e-05
-4.010766598336881e-05   4.7266935502851635e-06   -1.4821063131227797e-05
-4.010766598336881e-05   4.7266935502851635e-06   -1.4821063131227797e-05
-2.9967519368697622e-05   4.70979237036798e-06   -3.1711166781062995e-05
-2.9967519368697622e-05   4.70979237036798e-06   -3.1711166781062995e-05
-2.9967519368697622e-05   4.70979237036798e-06   -3.1711166781062995e-05
-2.9967519368697622e-05   4.70979237036798e-06   -3.1711166781062995e-05
-4.010766598336885e-05   5.699721191902978e-06   -4.739251527512996e-05
-4.010766598336885e-05   5.699721191902978e-06   -4.739251527512996e-05
-4.010766598336885e-05   5.699721191902978e-06   -4.739251527512996e-05
-4.010766598336885e-05   5.699721191902978e-06   -4.739251527512996e-05
-2.056479469702756e-05   4.726693550285272e-06   -1.5404879716198478e-05
-2.056479469702756e-05   4.726693550285272e-06   -1.5404879716198478e-05
-2.056479469702756e-05   4.726693550285272e-06   -1.5404879716198478e-05
-2.056479469702756e-05   4.726693550285272e-06   -1.5404879716198478e-05
-2.0724802500270223e-05   7.037737014824489e-06   -4.6706564301739325e-05
-2.0724802500270223e-05   7.037737014824489e-06   -4.6706564301739325e-05
-2.0724802500270223e-05   7.037737014824489e-06   -4.6706564301739325e-05
-2.0724802500270223e-05   7.037737014824489e-06   -4.6706564301739325e-05
-4.006694052424272e-05   5.955811832990135e-06   -1.382051248601806e-05
-4.006694052424272e-05   5.955811832990135e-06   -1.382051248601806e-05
-4.006694052424272e-05   5.955811832990135e-06   -1.382051248601806e-05
-4.006694052424272e-05   5.955811832990135e-06   -1.382051248601806e-05
-3.002297252001234e-05   5.847961242836373e-06   -3.0495748805642504e-05
-3.002297252001234e-05   5.847961242836373e-06   -3.0495748805642504e-05
-3.002297252001234e-05   5.847961242836373e-06   -3.0495748805642504e-05
-3.002297252001234e-05   5.847961242836373e-06   -3.0495748805642504e-05
-4.006694052424272e-05   7.0377370148245436e-06   -4.605740919263874e-05
-4.006694052424272e-05   7.0377370148245436e-06   -4.605740919263874e-05
-4.006694052424272e-05   7.0377370148245436e-06   -4.605740919263874e-05
-4.006694052424272e-05   7.0377370148245436e-06   -4.605740919263874e-05
-2.0724802500270283e-05   5.955811832990135e-06   -1.446966759511851e-05
-2.0724802500270283e-05   5.955811832990135e-06   -1.446966759511851e-05
-2.0724802500270283e-05   5.955811832990135e-06   -1.446966759511851e-05
-2.0724802500270283e-05   5.955811832990135e-06   -1.446966759511851e-05
-2.093185917564508e-05   8.47745412029579e-06   -4.659384469483523e-05
-2.093185917564508e-05   8.47745412029579e-06   -4.659384469483523e-05
-2.093185917564508e-05   8.47745412029579e-06   -4.659384469483523e-05
-2.093185917564508e-05   8.47745412029579e-06   -4.659384469483523e-05
-4.0107705899382906e-05   7.2634151276527135e-06   -1.3905676759686251e-05
-4.0107705899382906e-05   7.2634151276527135e-06   -1.3905676759686251e-05
-4.0107705899382906e-05   7.2634151276527135e-06   -1.3905676759686251e-05
-4.0107705899382906e-05   7.2634151276527135e-06   -1.3905676759686251e-05
-3.0378745915562206e-05   6.975416164669884e-06   -2.9947810688264027e-05
-3.0378745915562206e-05   6.975416164669884e-06   -2.9947810688264027e-05
-3.0378745915562206e-05   6.975416164669884e-06   -2.9947810688264027e-05
-3.0378745915562206e-05   6.975416164669884e-06   -2.9947810688264027e-05
-2.0318039771460103e-05   -1.2183230463163556e-07   -5.246149783458528e-05
-2.0318039771460103e-05   -1.2183230463163556e-07   -5.246149783458528e-05
-2.0318039771460103e-05   -1.2183230463163556e-07   -5.246149783458528e-05
-2.0318039771460103e-05   -1.2183230463163556e-07   -5.246149783458528e-05
-9.404881290675095e-07   1.780705170359876e-07   -1.9985636737597062e-05
-9.404881290675095e-07   1.780705170359876e-07   -1.9985636737597062e-05
-9.404881290675095e-07   1.780705170359876e-07   -1.9985636737597062e-05
-9.404881290675095e-07   1.780705170359876e-07   -1.9985636737597062e-05
-1.1384732348947483e-06   1.3674732315075854e-06   -5.1971315201798684e-05
-1.1384732348947483e-06   1.3674732315075854e-06   -5.1971315201798684e-05
-1.1384732348947483e-06   1.3674732315075854e-06   -5.1971315201798684e-05
-1.1384732348947483e-06   1.3674732315075854e-06   -5.1971315201798684e-05
-2.0564794697027533e-05   1.5398967964616898e-06   -1.9697566903883277e-05
-2.0564794697027533e-05   1.5398967964616898e-06   -1.9697566903883277e-05
-2.0564794697027533e-05   1.5398967964616898e-06   -1.9697566903883277e-05
-2.0564794697027533e-05   1.5398967964616898e-06   -1.9697566903883277e-05
-1.0680012791868523e-05   8.97295681568668e-07   -3.578664274354583e-05
-1.0680012791868523e-05   8.97295681568668e-07   -3.578664274354583e-05
-1.0680012791868523e-05   8.97295681568668e-07   -3.578664274354583e-05
-1.0680012791868523e-05   8.97295681568668e-07   -3.578664274354583e-05
-2.0564794697027533e-05   1.3674732315075854e-06   -5.207476934077123e-05
-2.0564794697027533e-05   1.3674732315075854e-06   -5.207476934077123e-05
-2.0564794697027533e-05   1.3674732315075854e-06   -5.207476934077123e-05
-2.0564794697027533e-05   1.3674732315075854e-06   -5.207476934077123e-05
-1.13847323489475e-06   1.5398967964616898e-06   -1.9594112764910693e-05
-1.13847323489475e-06   1.5398967964616898e-06   -1.9594112764910693e-05
-1.13847323489475e-06   1.5398967964616898e-06   -1.9594112764910693e-05
-1.13847323489475e-06   1.5398967964616898e-06   -1.9594112764910693e-05
-1.281526422294515e-06   2.8226545990796205e-06   -5.2112175989830746e-05
-1.281526422294515e-06   2.8226545990796205e-06   -5.2112175989830746e-05
-1.281526422294515e-06   2.8226545990796205e-06   -5.2112175989830746e-05
-1.281526422294515e-06   2.8226545990796205e-06   -5.2112175989830746e-05
-2.0724802500270243e-05   2.897676102353976e-06   -1.9751728761836014e-05
-2.0724802500270243e-05   2.897676102353976e-06   -1.9751728761836014e-05
-2.0724802500270243e-05   2.897676102353976e-06   -1.9751728761836014e-05
-2.0724802500270243e-05   2.897676102353976e-06   -1.9751728761836014e-05
-1.093555497066953e-05   2.0983206272122998e-06   -3.5587528026085173e-05
-1.093555497066953e-05   2.0983206272122998e-06   -3.5587528026085173e-05
-1.093555497066953e-05   2.0983206272122998e-06   -3.5587528026085173e-05
-1.093555497066953e-05   2.0983206272122998e-06   -3.5587528026085173e-05
-2.0724802500270243e-05   2.8226545990796747e-06   -5.215718889179546e-05
-2.0724802500270243e-05   2.8226545990796747e-06   -5.215718889179546e-05
-2.0724802500270243e-05   2.8226545990796747e-06   -5.215718889179546e-05
-2.0724802500270243e-05   2.8226545990796747e-06   -5.215718889179546e-05
-1.2815264222945174e-06   2.8976761023540845e-06   -1.970671585987114e-05
-1.2815264222945174e-06   2.8976761023540845e-06   -1.970671585987114e-05
-1.2815264222945174e-06   2.8976761023540845e-06   -1.970671585987114e-05
-1.2815264222945174e-06   2.8976761023540845e-06   -1.970671585987114e-05
-1.5063047002977702e-06   4.338789104903218e-06   -5.2782636533327834e-05
-1.5063047002977702e-06   4.338789104903218e-06   -5.2782636533327834e-05
-1.5063047002977702e-06   4.338789104903218e-06   -5.2782636533327834e-05
-1.5063047002977702e-06   4.338789104903218e-06   -5.2782636533327834e-05
-2.093185917564505e-05   4.287006810316479e-06   -2.0375643030997096e-05
-2.093185917564505e-05   4.287006810316479e-06   -2.0375643030997096e-05
-2.093185917564505e-05   4.287006810316479e-06   -2.0375643030997096e-05
-2.093185917564505e-05   4.287006810316479e-06   -2.0375643030997096e-05
-1.1207029027407724e-05   3.313613892724917e-06   -3.599965752750414e-05
-1.1207029027407724e-05   3.313613892724917e-06   -3.599965752750414e-05
-1.1207029027407724e-05   3.313613892724917e-06   -3.599965752750414e-05
-1.1207029027407724e-05   3.313613892724917e-06   -3.599965752750414e-05
-9.404881290675112e-07   -4.175293708438138e-06   -4.687657796035666e-05
-9.404881290675112e-07   -4.175293708438138e-06   -4.687657796035666e-05
-9.404881290675112e-07   -4.175293708438138e-06   -4.687657796035666e-05
-9.404881290675112e-07   -4.175293708438138e-06   -4.687657796035666e-05
1.833878868125873e-05   -2.7989918694089084e-06   -1.3918668839728852e-05
1.833878868125873e-05   -2.7989918694089084e-06   -1.3918668839728852e-05
1.833878868125873e-05   -2.7989918694089084e-06   -1.3918668839728852e-05
1.833878868125873e-05   -2.7989918694089084e-06   -1.3918668839728852e-05
1.83247397285915e-05   -2.821943933331637e-06   -4.6337359866086177e-05
1.83247397285915e-05   -2.821943933331637e-06   -4.6337359866086177e-05
1.83247397285915e-05   -2.821943933331637e-06   -4.6337359866086177e-05
1.83247397285915e-05   -2.821943933331637e-06   -4.6337359866086177e-05
-1.13847323489475e-06   -1.5505351764499332e-06   -1.4661516847738018e-05
-1.13847323489475e-06   -1.5505351764499332e-06   -1.4661516847738018e-05
-1.13847323489475e-06   -1.5505351764499332e-06   -1.4661516847738018e-05
-1.13847323489475e-06   -1.5505351764499332e-06   -1.4661516847738018e-05
8.58020908117756e-06   -2.738390635147127e-06   -3.0146607432640258e-05
8.58020908117756e-06   -2.738390635147127e-06   -3.0146607432640258e-05
8.58020908117756e-06   -2.738390635147127e-06   -3.0146607432640258e-05
8.58020908117756e-06   -2.738390635147127e-06   -3.0146607432640258e-05
-1.13847323489475e-06   -2.821943933331637e-06   -4.7100205120215036e-05
-1.13847323489475e-06   -2.821943933331637e-06   -4.7100205120215036e-05
-1.13847323489475e-06   -2.821943933331637e-06   -4.7100205120215036e-05
-1.13847323489475e-06   -2.821943933331637e-06   -4.7100205120215036e-05
1.83247397285915e-05   -1.5505351764500417e-06   -1.389867159360894e-05
1.83247397285915e-05   -1.5505351764500417e-06   -1.389867159360894e-05
1.83247397285915e-05   -1.5505351764500417e-06   -1.389867159360894e-05
1.83247397285915e-05   -1.5505351764500417e-06   -1.389867159360894e-05
1.841147947006876e-05   -1.4963762699296839e-06   -4.756260670170663e-05
1.841147947006876e-05   -1.4963762699296839e-06   -4.756260670170663e-05
1.841147947006876e-05   -1.4963762699296839e-06   -4.756260670170663e-05
1.841147947006876e-05   -1.4963762699296839e-06   -4.756260670170663e-05
-1.2815264222945191e-06   -3.2391367851857585e-07   -1.5444407769281296e-05
-1.2815264222945191e-06   -3.2391367851857585e-07   -1.5444407769281296e-05
-1.2815264222945191e-06   -3.2391367851857585e-07   -1.5444407769281296e-05
-1.2815264222945191e-06   -3.2391367851857585e-07   -1.5444407769281296e-05
8.316603202086651e-06   -1.655883876483489e-06   -3.064210835780402e-05
8.316603202086651e-06   -1.655883876483489e-06   -3.064210835780402e-05
8.316603202086651e-06   -1.655883876483489e-06   -3.064210835780402e-05
8.316603202086651e-06   -1.655883876483489e-06   -3.064210835780402e-05
-1.2815264222945166e-06   -1.4963762699296839e-06   -4.826608425655306e-05
-1.2815264222945166e-06   -1.4963762699296839e-06   -4.826608425655306e-05
-1.2815264222945166e-06   -1.4963762699296839e-06   -4.826608425655306e-05
-1.2815264222945166e-06   -1.4963762699296839e-06   -4.826608425655306e-05
1.841147947006876e-05   -3.2391367851857585e-07   -1.4740930214434409e-05
1.841147947006876e-05   -3.2391367851857585e-07   -1.4740930214434409e-05
1.841147947006876e-05   -3.2391367851857585e-07   -1.4740930214434409e-05
1.841147947006876e-05   -3.2391367851857585e-07   -1.4740930214434409e-05
1.827015677084926e-05   1.4305624680606985e-07   -4.8951960338525566e-05
1.827015677084926e-05   1.4305624680606985e-07   -4.8951960338525566e-05
1.827015677084926e-05   1.4305624680606985e-07   -4.8951960338525566e-05
1.827015677084926e-05   1.4305624680606985e-07   -4.8951960338525566e-05
-1.5063047002977727e-06   1.1101307577214038e-06   -1.657143592649646e-05
-1.5063047002977727e-06   1.1101307577214038e-06   -1.657143592649646e-05
-1.5063047002977727e-06   1.1101307577214038e-06   -1.657143592649646e-05
-1.5063047002977727e-06   1.1101307577214038e-06   -1.657143592649646e-05
8.224141673646315e-06   -4.977414670078741e-07   -3.182412321489884e-05
8.224141673646315e-06   -4.977414670078741e-07   -3.182412321489884e-05
8.224141673646315e-06   -4.977414670078741e-07   -3.182412321489884e-05
8.224141673646315e-06   -4.977414670078741e-07   -3.182412321489884e-05
1.83387886812587e-05   -7.759839568671886e-06   -2.6225652475657786e-05
1.83387886812587e-05   -7.759839568671886e-06   -2.6225652475657786e-05
1.83387886812587e-05   -7.759839568671886e-06   -2.6225652475657786e-05
1.83387886812587e-05   -7.759839568671886e-06   -2.6225652475657786e-05
3.638908031569372e-05   -5.075316537518637e-06   5.468880733759316e-06
3.638908031569372e-05   -5.075316537518637e-06   5.468880733759316e-06
3.638908031569372e-05   -5.075316537518637e-06   5.468880733759316e-06
3.638908031569372e-05   -5.075316537518637e-06   5.468880733759316e-06
3.761678795614356e-05   -7.039111034419694e-06   -2.950533259080821e-05
3.761678795614356e-05   -7.039111034419694e-06   -2.950533259080821e-05
3.761678795614356e-05   -7.039111034419694e-06   -2.950533259080821e-05
3.761678795614356e-05   -7.039111034419694e-06   -2.950533259080821e-05
1.832473972859146e-05   -4.3556036591985235e-06   1.037976696645934e-06
1.832473972859146e-05   -4.3556036591985235e-06   1.037976696645934e-06
1.832473972859146e-05   -4.3556036591985235e-06   1.037976696645934e-06
1.832473972859146e-05   -4.3556036591985235e-06   1.037976696645934e-06
2.6484905140775813e-05   -5.985644347712032e-06   -1.1584274577219905e-05
2.6484905140775813e-05   -5.985644347712032e-06   -1.1584274577219905e-05
2.6484905140775813e-05   -5.985644347712032e-06   -1.1584274577219905e-05
2.6484905140775813e-05   -5.985644347712032e-06   -1.1584274577219905e-05
1.8324739728591447e-05   -7.039111034419694e-06   -3.111543701594087e-05
1.8324739728591447e-05   -7.039111034419694e-06   -3.111543701594087e-05
1.8324739728591447e-05   -7.039111034419694e-06   -3.111543701594087e-05
1.8324739728591447e-05   -7.039111034419694e-06   -3.111543701594087e-05
3.761678795614356e-05   -4.355603659198415e-06   2.648081121778788e-06
3.761678795614356e-05   -4.355603659198415e-06   2.648081121778788e-06
3.761678795614356e-05   -4.355603659198415e-06   2.648081121778788e-06
3.761678795614356e-05   -4.355603659198415e-06   2.648081121778788e-06
3.8560617756052947e-05   -6.276297304535204e-06   -3.327694241968629e-05
3.8560617756052947e-05   -6.276297304535204e-06   -3.327694241968629e-05
3.8560617756052947e-05   -6.276297304535204e-06   -3.327694241968629e-05
3.8560617756052947e-05   -6.276297304535204e-06   -3.327694241968629e-05
1.8411479470068707e-05   -3.738678892643908e-06   -1.2176163235141956e-06
1.8411479470068707e-05   -3.738678892643908e-06   -1.2176163235141956e-06
1.8411479470068707e-05   -3.738678892643908e-06   -1.2176163235141956e-06
1.8411479470068707e-05   -3.738678892643908e-06   -1.2176163235141956e-06
2.7385129942243905e-05   -5.5213231168254814e-06   -1.5104113909297084e-05
2.7385129942243905e-05   -5.5213231168254814e-06   -1.5104113909297084e-05
2.7385129942243905e-05   -5.5213231168254814e-06   -1.5104113909297084e-05
2.7385129942243905e-05   -5.5213231168254814e-06   -1.5104113909297084e-05
1.8411479470068734e-05   -6.276297304535204e-06   -3.4799513466821026e-05
1.8411479470068734e-05   -6.276297304535204e-06   -3.4799513466821026e-05
1.8411479470068734e-05   -6.276297304535204e-06   -3.4799513466821026e-05
1.8411479470068734e-05   -6.276297304535204e-06   -3.4799513466821026e-05
3.8560617756052865e-05   -3.7386788926440165e-06   3.049547236208148e-07
3.8560617756052865e-05   -3.7386788926440165e-06   3.049547236208148e-07
3.8560617756052865e-05   -3.7386788926440165e-06   3.049547236208148e-07
3.8560617756052865e-05   -3.7386788926440165e-06   3.049547236208148e-07
3.956656598219795e-05   -4.6348063000459325e-06   -3.969453045905715e-05
3.956656598219795e-05   -4.6348063000459325e-06   -3.969453045905715e-05
3.956656598219795e-05   -4.6348063000459325e-06   -3.969453045905715e-05
3.956656598219795e-05   -4.6348063000459325e-06   -3.969453045905715e-05
1.827015677084919e-05   -2.4211060431015554e-06   -5.528735260976024e-06
1.827015677084919e-05   -2.4211060431015554e-06   -5.528735260976024e-06
1.827015677084919e-05   -2.4211060431015554e-06   -5.528735260976024e-06
1.827015677084919e-05   -2.4211060431015554e-06   -5.528735260976024e-06
2.72686841726272e-05   -4.756014424970028e-06   -1.9125335901484813e-05
2.72686841726272e-05   -4.756014424970028e-06   -1.9125335901484813e-05
2.72686841726272e-05   -4.756014424970028e-06   -1.9125335901484813e-05
2.72686841726272e-05   -4.756014424970028e-06   -1.9125335901484813e-05
-4.3738474496075115e-05   6.704309688606962e-06   -3.328292188876686e-05
-4.3738474496075115e-05   6.704309688606962e-06   -3.328292188876686e-05
-4.3738474496075115e-05   6.704309688606962e-06   -3.328292188876686e-05
-4.3738474496075115e-05   6.704309688606962e-06   -3.328292188876686e-05
-2.978575393659157e-05   4.263841170902799e-06   -1.1492668733583294e-05
-2.978575393659157e-05   4.263841170902799e-06   -1.1492668733583294e-05
-2.978575393659157e-05   4.263841170902799e-06   -1.1492668733583294e-05
-2.978575393659157e-05   4.263841170902799e-06   -1.1492668733583294e-05
-2.9677246473340632e-05   8.110807860672539e-06   -2.8275421358650468e-05
-2.9677246473340632e-05   8.110807860672539e-06   -2.8275421358650468e-05
-2.9677246473340632e-05   8.110807860672539e-06   -2.8275421358650468e-05
-2.9677246473340632e-05   8.110807860672539e-06   -2.8275421358650468e-05
-4.24292252439274e-05   5.427816631431112e-06   -5.41232867012773e-06
-4.24292252439274e-05   5.427816631431112e-06   -5.41232867012773e-06
-4.24292252439274e-05   5.427816631431112e-06   -5.41232867012773e-06
-4.24292252439274e-05   5.427816631431112e-06   -5.41232867012773e-06
-3.486306228904844e-05   6.456036450682703e-06   -1.863953215314358e-05
-3.486306228904844e-05   6.456036450682703e-06   -1.863953215314358e-05
-3.486306228904844e-05   6.456036450682703e-06   -1.863953215314358e-05
-3.486306228904844e-05   6.456036450682703e-06   -1.863953215314358e-05
-4.24292252439274e-05   8.110807860672539e-06   -2.6665626621105634e-05
-4.24292252439274e-05   8.110807860672539e-06   -2.6665626621105634e-05
-4.24292252439274e-05   8.110807860672539e-06   -2.6665626621105634e-05
-4.24292252439274e-05   8.110807860672539e-06   -2.6665626621105634e-05
-2.967724647334066e-05   5.427816631431112e-06   -7.02212340767258e-06
-2.967724647334066e-05   5.427816631431112e-06   -7.02212340767258e-06
-2.967724647334066e-05   5.427816631431112e-06   -7.02212340767258e-06
-2.967724647334066e-05   5.427816631431112e-06   -7.02212340767258e-06
-2.945212319973827e-05   8.728857552047658e-06   -2.465613513965366e-05
-2.945212319973827e-05   8.728857552047658e-06   -2.465613513965366e-05
-2.945212319973827e-05   8.728857552047658e-06   -2.465613513965366e-05
-2.945212319973827e-05   8.728857552047658e-06   -2.465613513965366e-05
-4.145071722916235e-05   5.97031778570335e-06   -3.0033545641403752e-06
-4.145071722916235e-05   5.97031778570335e-06   -3.0033545641403752e-06
-4.145071722916235e-05   5.97031778570335e-06   -3.0033545641403752e-06
-4.145071722916235e-05   5.97031778570335e-06   -3.0033545641403752e-06
-3.486469141678499e-05   7.105567815770294e-06   -1.4661214269476308e-05
-3.486469141678499e-05   7.105567815770294e-06   -1.4661214269476308e-05
-3.486469141678499e-05   7.105567815770294e-06   -1.4661214269476308e-05
-3.486469141678499e-05   7.105567815770294e-06   -1.4661214269476308e-05
-4.145071722916235e-05   8.728857552047658e-06   -2.3001011279847152e-05
-4.145071722916235e-05   8.728857552047658e-06   -2.3001011279847152e-05
-4.145071722916235e-05   8.728857552047658e-06   -2.3001011279847152e-05
-4.145071722916235e-05   8.728857552047658e-06   -2.3001011279847152e-05
-2.9452123199738323e-05   5.97031778570335e-06   -4.658478423946793e-06
-2.9452123199738323e-05   5.97031778570335e-06   -4.658478423946793e-06
-2.9452123199738323e-05   5.97031778570335e-06   -4.658478423946793e-06
-2.9452123199738323e-05   5.97031778570335e-06   -4.658478423946793e-06
-2.9362130386911372e-05   9.337514455769105e-06   -1.9646756428815535e-05
-2.9362130386911372e-05   9.337514455769105e-06   -1.9646756428815535e-05
-2.9362130386911372e-05   9.337514455769105e-06   -1.9646756428815535e-05
-2.9362130386911372e-05   9.337514455769105e-06   -1.9646756428815535e-05
-4.0170642752794636e-05   6.65277256166677e-06   -2.1724015881866877e-08
-4.0170642752794636e-05   6.65277256166677e-06   -2.1724015881866877e-08
-4.0170642752794636e-05   6.65277256166677e-06   -2.1724015881866877e-08
-4.0170642752794636e-05   6.65277256166677e-06   -2.1724015881866877e-08
-3.38330277902069e-05   7.457853885796048e-06   -1.1067464414672267e-05
-3.38330277902069e-05   7.457853885796048e-06   -1.1067464414672267e-05
-3.38330277902069e-05   7.457853885796048e-06   -1.1067464414672267e-05
-3.38330277902069e-05   7.457853885796048e-06   -1.1067464414672267e-05
-2.9785753936591516e-05   3.3433366775256464e-06   -4.242114510881565e-05
-2.9785753936591516e-05   3.3433366775256464e-06   -4.242114510881565e-05
-2.9785753936591516e-05   3.3433366775256464e-06   -4.242114510881565e-05
-2.9785753936591516e-05   3.3433366775256464e-06   -4.242114510881565e-05
-1.713754238733991e-05   2.205156420689901e-06   -2.2023700680831094e-05
-1.713754238733991e-05   2.205156420689901e-06   -2.2023700680831094e-05
-1.713754238733991e-05   2.205156420689901e-06   -2.2023700680831094e-05
-1.713754238733991e-05   2.205156420689901e-06   -2.2023700680831094e-05
-1.7145909326959325e-05   4.7266935502851635e-06   -4.205645746113685e-05
-1.7145909326959325e-05   4.7266935502851635e-06   -4.205645746113685e-05
-1.7145909326959325e-05   4.7266935502851635e-06   -4.205645746113685e-05
-1.7145909326959325e-05   4.7266935502851635e-06   -4.205645746113685e-05
-2.9677246473340632e-05   3.43411848931067e-06   -2.0395350513916486e-05
-2.9677246473340632e-05   3.43411848931067e-06   -2.0395350513916486e-05
-2.9677246473340632e-05   3.43411848931067e-06   -2.0395350513916486e-05
-2.9677246473340632e-05   3.43411848931067e-06   -2.0395350513916486e-05
-2.3220498123058566e-05   3.6574395183132467e-06   -3.129059038178817e-05
-2.3220498123058566e-05   3.6574395183132467e-06   -3.129059038178817e-05
-2.3220498123058566e-05   3.6574395183132467e-06   -3.129059038178817e-05
-2.3220498123058566e-05   3.6574395183132467e-06   -3.129059038178817e-05
-2.9677246473340578e-05   4.7266935502851635e-06   -4.128091242455191e-05
-2.9677246473340578e-05   4.7266935502851635e-06   -4.128091242455191e-05
-2.9677246473340578e-05   4.7266935502851635e-06   -4.128091242455191e-05
-2.9677246473340578e-05   4.7266935502851635e-06   -4.128091242455191e-05
-1.7145909326959325e-05   3.43411848931067e-06   -2.117089555050123e-05
-1.7145909326959325e-05   3.43411848931067e-06   -2.117089555050123e-05
-1.7145909326959325e-05   3.43411848931067e-06   -2.117089555050123e-05
-1.7145909326959325e-05   3.43411848931067e-06   -2.117089555050123e-05
-1.7133277285757818e-05   5.955811832990135e-06   -4.111386586900178e-05
-1.7133277285757818e-05   5.955811832990135e-06   -4.111386586900178e-05
-1.7133277285757818e-05   5.955811832990135e-06   -4.111386586900178e-05
-1.7133277285757818e-05   5.955811832990135e-06   -4.111386586900178e-05
-2.945212319973827e-05   4.552566362941361e-06   -1.974050873033837e-05
-2.945212319973827e-05   4.552566362941361e-06   -1.974050873033837e-05
-2.945212319973827e-05   4.552566362941361e-06   -1.974050873033837e-05
-2.945212319973827e-05   4.552566362941361e-06   -1.974050873033837e-05
-2.3112366788926432e-05   4.6668606806441176e-06   -3.0375346005646192e-05
-2.3112366788926432e-05   4.6668606806441176e-06   -3.0375346005646192e-05
-2.3112366788926432e-05   4.6668606806441176e-06   -3.0375346005646192e-05
-2.3112366788926432e-05   4.6668606806441176e-06   -3.0375346005646192e-05
-2.945212319973827e-05   5.955811832990135e-06   -4.027191858697242e-05
-2.945212319973827e-05   5.955811832990135e-06   -4.027191858697242e-05
-2.945212319973827e-05   5.955811832990135e-06   -4.027191858697242e-05
-2.945212319973827e-05   5.955811832990135e-06   -4.027191858697242e-05
-1.7133277285757845e-05   4.552566362941361e-06   -2.058245601236757e-05
-1.7133277285757845e-05   4.552566362941361e-06   -2.058245601236757e-05
-1.7133277285757845e-05   4.552566362941361e-06   -2.058245601236757e-05
-1.7133277285757845e-05   4.552566362941361e-06   -2.058245601236757e-05
-1.7147050783793014e-05   7.2634151276527135e-06   -4.127964346994949e-05
-1.7147050783793014e-05   7.2634151276527135e-06   -4.127964346994949e-05
-1.7147050783793014e-05   7.2634151276527135e-06   -4.127964346994949e-05
-1.7147050783793014e-05   7.2634151276527135e-06   -4.127964346994949e-05
-2.9362130386911372e-05   5.76761876888059e-06   -2.002369964948877e-05
-2.9362130386911372e-05   5.76761876888059e-06   -2.002369964948877e-05
-2.9362130386911372e-05   5.76761876888059e-06   -2.002369964948877e-05
-2.9362130386911372e-05   5.76761876888059e-06   -2.002369964948877e-05
-2.3262078707501252e-05   5.665653065995129e-06   -3.012927302677436e-05
-2.3262078707501252e-05   5.665653065995129e-06   -3.012927302677436e-05
-2.3262078707501252e-05   5.665653065995129e-06   -3.012927302677436e-05
-2.3262078707501252e-05   5.665653065995129e-06   -3.012927302677436e-05
-1.7137542387339884e-05   1.780705170359876e-07   -4.6821057492142236e-05
-1.7137542387339884e-05   1.780705170359876e-07   -4.6821057492142236e-05
-1.7137542387339884e-05   1.780705170359876e-07   -4.6821057492142236e-05
-1.7137542387339884e-05   1.780705170359876e-07   -4.6821057492142236e-05
-4.664399304550891e-06   3.8011002082482745e-07   -2.5911261985220725e-05
-4.664399304550891e-06   3.8011002082482745e-07   -2.5911261985220725e-05
-4.664399304550891e-06   3.8011002082482745e-07   -2.5911261985220725e-05
-4.664399304550891e-06   3.8011002082482745e-07   -2.5911261985220725e-05
-4.673326113430526e-06   1.5398967964616898e-06   -4.630352876417652e-05
-4.673326113430526e-06   1.5398967964616898e-06   -4.630352876417652e-05
-4.673326113430526e-06   1.5398967964616898e-06   -4.630352876417652e-05
-4.673326113430526e-06   1.5398967964616898e-06   -4.630352876417652e-05
-1.7145909326959284e-05   1.615923270869863e-06   -2.5561505959606848e-05
-1.7145909326959284e-05   1.615923270869863e-06   -2.5561505959606848e-05
-1.7145909326959284e-05   1.615923270869863e-06   -2.5561505959606848e-05
-1.7145909326959284e-05   1.615923270869863e-06   -2.5561505959606848e-05
-1.0832805629206207e-05   1.0885114267786397e-06   -3.576689834940724e-05
-1.0832805629206207e-05   1.0885114267786397e-06   -3.576689834940724e-05
-1.0832805629206207e-05   1.0885114267786397e-06   -3.576689834940724e-05
-1.0832805629206207e-05   1.0885114267786397e-06   -3.576689834940724e-05
-1.7145909326959284e-05   1.5398967964616898e-06   -4.634914464882146e-05
-1.7145909326959284e-05   1.5398967964616898e-06   -4.634914464882146e-05
-1.7145909326959284e-05   1.5398967964616898e-06   -4.634914464882146e-05
-1.7145909326959284e-05   1.5398967964616898e-06   -4.634914464882146e-05
-4.673326113430526e-06   1.615923270869863e-06   -2.551589007496191e-05
-4.673326113430526e-06   1.615923270869863e-06   -2.551589007496191e-05
-4.673326113430526e-06   1.615923270869863e-06   -2.551589007496191e-05
-4.673326113430526e-06   1.615923270869863e-06   -2.551589007496191e-05
-4.65693752894036e-06   2.8976761023540845e-06   -4.642111862383173e-05
-4.65693752894036e-06   2.8976761023540845e-06   -4.642111862383173e-05
-4.65693752894036e-06   2.8976761023540845e-06   -4.642111862383173e-05
-4.65693752894036e-06   2.8976761023540845e-06   -4.642111862383173e-05
-1.7133277285757818e-05   2.8556901221660777e-06   -2.5602027441023307e-05
-1.7133277285757818e-05   2.8556901221660777e-06   -2.5602027441023307e-05
-1.7133277285757818e-05   2.8556901221660777e-06   -2.5602027441023307e-05
-1.7133277285757818e-05   2.8556901221660777e-06   -2.5602027441023307e-05
-1.0905340531036859e-05   2.1696889788075987e-06   -3.557032134620983e-05
-1.0905340531036859e-05   2.1696889788075987e-06   -3.557032134620983e-05
-1.0905340531036859e-05   2.1696889788075987e-06   -3.557032134620983e-05
-1.0905340531036859e-05   2.1696889788075987e-06   -3.557032134620983e-05
-1.7133277285757818e-05   2.897676102353976e-06   -4.639592703571904e-05
-1.7133277285757818e-05   2.897676102353976e-06   -4.639592703571904e-05
-1.7133277285757818e-05   2.897676102353976e-06   -4.639592703571904e-05
-1.7133277285757818e-05   2.897676102353976e-06   -4.639592703571904e-05
-4.6569375289403675e-06   2.8556901221660777e-06   -2.5627219029135937e-05
-4.6569375289403675e-06   2.8556901221660777e-06   -2.5627219029135937e-05
-4.6569375289403675e-06   2.8556901221660777e-06   -2.5627219029135937e-05
-4.6569375289403675e-06   2.8556901221660777e-06   -2.5627219029135937e-05
-4.66426669123787e-06   4.287006810316479e-06   -4.7123110655773704e-05
-4.66426669123787e-06   4.287006810316479e-06   -4.7123110655773704e-05
-4.66426669123787e-06   4.287006810316479e-06   -4.7123110655773704e-05
-4.66426669123787e-06   4.287006810316479e-06   -4.7123110655773704e-05
-1.7147050783793e-05   4.1171329601511234e-06   -2.6216546191415685e-05
-1.7147050783793e-05   4.1171329601511234e-06   -2.6216546191415685e-05
-1.7147050783793e-05   4.1171329601511234e-06   -2.6216546191415685e-05
-1.7147050783793e-05   4.1171329601511234e-06   -2.6216546191415685e-05
-1.099910821693578e-05   3.26506685195075e-06   -3.5951877471257596e-05
-1.099910821693578e-05   3.26506685195075e-06   -3.5951877471257596e-05
-1.099910821693578e-05   3.26506685195075e-06   -3.5951877471257596e-05
-1.099910821693578e-05   3.26506685195075e-06   -3.5951877471257596e-05
-4.664399304550884e-06   -2.798991869409017e-06   -4.14586469954182e-05
-4.664399304550884e-06   -2.798991869409017e-06   -4.14586469954182e-05
-4.664399304550884e-06   -2.798991869409017e-06   -4.14586469954182e-05
-4.664399304550884e-06   -2.798991869409017e-06   -4.14586469954182e-05
7.626121186837134e-06   -1.2888480460185054e-06   -2.006835988240392e-05
7.626121186837134e-06   -1.2888480460185054e-06   -2.006835988240392e-05
7.626121186837134e-06   -1.2888480460185054e-06   -2.006835988240392e-05
7.626121186837134e-06   -1.2888480460185054e-06   -2.006835988240392e-05
7.726433138271113e-06   -1.5505351764500417e-06   -4.051540332028589e-05
7.726433138271113e-06   -1.5505351764500417e-06   -4.051540332028589e-05
7.726433138271113e-06   -1.5505351764500417e-06   -4.051540332028589e-05
7.726433138271113e-06   -1.5505351764500417e-06   -4.051540332028589e-05
-4.673326113430526e-06   -1.2465263192018659e-07   -2.0704667427500986e-05
-4.673326113430526e-06   -1.2465263192018659e-07   -2.0704667427500986e-05
-4.673326113430526e-06   -1.2465263192018659e-07   -2.0704667427500986e-05
-4.673326113430526e-06   -1.2465263192018659e-07   -2.0704667427500986e-05
1.5110682748557126e-06   -1.3333142325292749e-06   -3.028679444761265e-05
1.5110682748557126e-06   -1.3333142325292749e-06   -3.028679444761265e-05
1.5110682748557126e-06   -1.3333142325292749e-06   -3.028679444761265e-05
1.5110682748557126e-06   -1.3333142325292749e-06   -3.028679444761265e-05
-4.673326113430526e-06   -1.5505351764499332e-06   -4.1370932847003736e-05
-4.673326113430526e-06   -1.5505351764499332e-06   -4.1370932847003736e-05
-4.673326113430526e-06   -1.5505351764499332e-06   -4.1370932847003736e-05
-4.673326113430526e-06   -1.5505351764499332e-06   -4.1370932847003736e-05
7.72643313827114e-06   -1.2465263192018659e-07   -1.9849137900783192e-05
7.72643313827114e-06   -1.2465263192018659e-07   -1.9849137900783192e-05
7.72643313827114e-06   -1.2465263192018659e-07   -1.9849137900783192e-05
7.72643313827114e-06   -1.2465263192018659e-07   -1.9849137900783192e-05
7.963135835912063e-06   -3.2391367851857585e-07   -4.1367357219805655e-05
7.963135835912063e-06   -3.2391367851857585e-07   -4.1367357219805655e-05
7.963135835912063e-06   -3.2391367851857585e-07   -4.1367357219805655e-05
7.963135835912063e-06   -3.2391367851857585e-07   -4.1367357219805655e-05
-4.6569375289403675e-06   9.951751772080799e-07   -2.1125354925154322e-05
-4.6569375289403675e-06   9.951751772080799e-07   -2.1125354925154322e-05
-4.6569375289403675e-06   9.951751772080799e-07   -2.1125354925154322e-05
-4.6569375289403675e-06   9.951751772080799e-07   -2.1125354925154322e-05
1.4399014101789541e-06   -3.6479070742519333e-07   -3.047077362623981e-05
1.4399014101789541e-06   -3.6479070742519333e-07   -3.047077362623981e-05
1.4399014101789541e-06   -3.6479070742519333e-07   -3.047077362623981e-05
1.4399014101789541e-06   -3.6479070742519333e-07   -3.047077362623981e-05
-4.656937528940364e-06   -3.2391367851846743e-07   -4.2158810533241475e-05
-4.656937528940364e-06   -3.2391367851846743e-07   -4.2158810533241475e-05
-4.656937528940364e-06   -3.2391367851846743e-07   -4.2158810533241475e-05
-4.656937528940364e-06   -3.2391367851846743e-07   -4.2158810533241475e-05
7.963135835912103e-06   9.951751772080799e-07   -2.033390161171821e-05
7.963135835912103e-06   9.951751772080799e-07   -2.033390161171821e-05
7.963135835912103e-06   9.951751772080799e-07   -2.033390161171821e-05
7.963135835912103e-06   9.951751772080799e-07   -2.033390161171821e-05
8.079054603410296e-06   1.1101307577212954e-06   -4.2586833310433246e-05
8.079054603410296e-06   1.1101307577212954e-06   -4.2586833310433246e-05
8.079054603410296e-06   1.1101307577212954e-06   -4.2586833310433246e-05
8.079054603410296e-06   1.1101307577212954e-06   -4.2586833310433246e-05
-4.664266691237861e-06   2.2784655312005917e-06   -2.2048965350107143e-05
-4.664266691237861e-06   2.2784655312005917e-06   -2.2048965350107143e-05
-4.664266691237861e-06   2.2784655312005917e-06   -2.2048965350107143e-05
-4.664266691237861e-06   2.2784655312005917e-06   -2.2048965350107143e-05
1.4826128259957781e-06   6.709943120504795e-07   -3.13292818140064e-05
1.4826128259957781e-06   6.709943120504795e-07   -3.13292818140064e-05
1.4826128259957781e-06   6.709943120504795e-07   -3.13292818140064e-05
1.4826128259957781e-06   6.709943120504795e-07   -3.13292818140064e-05
7.626121186837107e-06   -5.075316537518637e-06   -2.277572494658773e-05
7.626121186837107e-06   -5.075316537518637e-06   -2.277572494658773e-05
7.626121186837107e-06   -5.075316537518637e-06   -2.277572494658773e-05
7.626121186837107e-06   -5.075316537518637e-06   -2.277572494658773e-05
1.8537594582121903e-05   -2.3672996721937163e-06   -2.9651258352514625e-06
1.8537594582121903e-05   -2.3672996721937163e-06   -2.9651258352514625e-06
1.8537594582121903e-05   -2.3672996721937163e-06   -2.9651258352514625e-06
1.8537594582121903e-05   -2.3672996721937163e-06   -2.9651258352514625e-06
1.9835127834450195e-05   -4.3556036591985235e-06   -2.3912510316816837e-05
1.9835127834450195e-05   -4.3556036591985235e-06   -2.3912510316816837e-05
1.9835127834450195e-05   -4.3556036591985235e-06   -2.3912510316816837e-05
1.9835127834450195e-05   -4.3556036591985235e-06   -2.3912510316816837e-05
7.72643313827114e-06   -1.5785291371749575e-06   -5.397597203065865e-06
7.72643313827114e-06   -1.5785291371749575e-06   -5.397597203065865e-06
7.72643313827114e-06   -1.5785291371749575e-06   -5.397597203065865e-06
7.72643313827114e-06   -1.5785291371749575e-06   -5.397597203065865e-06
1.2858619629276881e-05   -3.240545458641853e-06   -1.2954031561861928e-05
1.2858619629276881e-05   -3.240545458641853e-06   -1.2954031561861928e-05
1.2858619629276881e-05   -3.240545458641853e-06   -1.2954031561861928e-05
1.2858619629276881e-05   -3.240545458641853e-06   -1.2954031561861928e-05
7.726433138271127e-06   -4.3556036591985235e-06   -2.5578755030030798e-05
7.726433138271127e-06   -4.3556036591985235e-06   -2.5578755030030798e-05
7.726433138271127e-06   -4.3556036591985235e-06   -2.5578755030030798e-05
7.726433138271127e-06   -4.3556036591985235e-06   -2.5578755030030798e-05
1.983512783445014e-05   -1.5785291371748491e-06   -3.7313524898518503e-06
1.983512783445014e-05   -1.5785291371748491e-06   -3.7313524898518503e-06
1.983512783445014e-05   -1.5785291371748491e-06   -3.7313524898518503e-06
1.983512783445014e-05   -1.5785291371748491e-06   -3.7313524898518503e-06
2.0834064837490558e-05   -3.738678892643908e-06   -2.622135433271499e-05
2.0834064837490558e-05   -3.738678892643908e-06   -2.622135433271499e-05
2.0834064837490558e-05   -3.738678892643908e-06   -2.622135433271499e-05
2.0834064837490558e-05   -3.738678892643908e-06   -2.622135433271499e-05
7.963135835912103e-06   -1.034197232360019e-06   -6.3924949929213015e-06
7.963135835912103e-06   -1.034197232360019e-06   -6.3924949929213015e-06
7.963135835912103e-06   -1.034197232360019e-06   -6.3924949929213015e-06
7.963135835912103e-06   -1.034197232360019e-06   -6.3924949929213015e-06
1.365124521701854e-05   -2.8354079979851917e-06   -1.4791950835390242e-05
1.365124521701854e-05   -2.8354079979851917e-06   -1.4791950835390242e-05
1.365124521701854e-05   -2.8354079979851917e-06   -1.4791950835390242e-05
1.365124521701854e-05   -2.8354079979851917e-06   -1.4791950835390242e-05
7.963135835912076e-06   -3.7386788926440165e-06   -2.7844043328885306e-05
7.963135835912076e-06   -3.7386788926440165e-06   -2.7844043328885306e-05
7.963135835912076e-06   -3.7386788926440165e-06   -2.7844043328885306e-05
7.963135835912076e-06   -3.7386788926440165e-06   -2.7844043328885306e-05
2.0834064837490477e-05   -1.0341972323601274e-06   -4.769805996750849e-06
2.0834064837490477e-05   -1.0341972323601274e-06   -4.769805996750849e-06
2.0834064837490477e-05   -1.0341972323601274e-06   -4.769805996750849e-06
2.0834064837490477e-05   -1.0341972323601274e-06   -4.769805996750849e-06
2.2161889108524252e-05   -2.4211060431015554e-06   -3.06504257632175e-05
2.2161889108524252e-05   -2.4211060431015554e-06   -3.06504257632175e-05
2.2161889108524252e-05   -2.4211060431015554e-06   -3.06504257632175e-05
2.2161889108524252e-05   -2.4211060431015554e-06   -3.06504257632175e-05
8.079054603410296e-06   3.547993730616036e-08   -8.652986509605394e-06
8.079054603410296e-06   3.547993730616036e-08   -8.652986509605394e-06
8.079054603410296e-06   3.547993730616036e-08   -8.652986509605394e-06
8.079054603410296e-06   3.547993730616036e-08   -8.652986509605394e-06
1.3915809381394289e-05   -2.2332581330831904e-06   -1.7019668297345178e-05
1.3915809381394289e-05   -2.2332581330831904e-06   -1.7019668297345178e-05
1.3915809381394289e-05   -2.2332581330831904e-06   -1.7019668297345178e-05
1.3915809381394289e-05   -2.2332581330831904e-06   -1.7019668297345178e-05
-2.6465283413255034e-05   4.263841170902799e-06   -2.4809639588202373e-05
-2.6465283413255034e-05   4.263841170902799e-06   -2.4809639588202373e-05
-2.6465283413255034e-05   4.263841170902799e-06   -2.4809639588202373e-05
-2.6465283413255034e-05   4.263841170902799e-06   -2.4809639588202373e-05
-1.9549030289263934e-05   1.7359566004109678e-06   -1.4799281790512357e-05
-1.9549030289263934e-05   1.7359566004109678e-06   -1.4799281790512357e-05
-1.9549030289263934e-05   1.7359566004109678e-06   -1.4799281790512357e-05
-1.9549030289263934e-05   1.7359566004109678e-06   -1.4799281790512357e-05
-1.9261927268211017e-05   5.427816631431003e-06   -2.1886635409527335e-05
-1.9261927268211017e-05   5.427816631431003e-06   -2.1886635409527335e-05
-1.9261927268211017e-05   5.427816631431003e-06   -2.1886635409527335e-05
-1.9261927268211017e-05   5.427816631431003e-06   -2.1886635409527335e-05
-2.5026295995663026e-05   2.7042319483523095e-06   -1.0645203387259932e-05
-2.5026295995663026e-05   2.7042319483523095e-06   -1.0645203387259932e-05
-2.5026295995663026e-05   2.7042319483523095e-06   -1.0645203387259932e-05
-2.5026295995663026e-05   2.7042319483523095e-06   -1.0645203387259932e-05
-2.1619178039522087e-05   3.824923213364734e-06   -1.6996148073170124e-05
-2.1619178039522087e-05   3.824923213364734e-06   -1.6996148073170124e-05
-2.1619178039522087e-05   3.824923213364734e-06   -1.6996148073170124e-05
-2.1619178039522087e-05   3.824923213364734e-06   -1.6996148073170124e-05
-2.5026295995663026e-05   5.427816631431003e-06   -2.025248459968011e-05
-2.5026295995663026e-05   5.427816631431003e-06   -2.025248459968011e-05
-2.5026295995663026e-05   5.427816631431003e-06   -2.025248459968011e-05
-2.5026295995663026e-05   5.427816631431003e-06   -2.025248459968011e-05
-1.9261927268211072e-05   2.7042319483523095e-06   -1.2279354197107268e-05
-1.9261927268211072e-05   2.7042319483523095e-06   -1.2279354197107268e-05
-1.9261927268211072e-05   2.7042319483523095e-06   -1.2279354197107268e-05
-1.9261927268211072e-05   2.7042319483523095e-06   -1.2279354197107268e-05
-1.8852033720761645e-05   5.97031778570335e-06   -1.95434001572859e-05
-1.8852033720761645e-05   5.97031778570335e-06   -1.95434001572859e-05
-1.8852033720761645e-05   5.97031778570335e-06   -1.95434001572859e-05
-1.8852033720761645e-05   5.97031778570335e-06   -1.95434001572859e-05
-2.3878849024083532e-05   3.1937010434607716e-06   -9.499404606403772e-06
-2.3878849024083532e-05   3.1937010434607716e-06   -9.499404606403772e-06
-2.3878849024083532e-05   3.1937010434607716e-06   -9.499404606403772e-06
-2.3878849024083532e-05   3.1937010434607716e-06   -9.499404606403772e-06
-2.123987442374579e-05   4.347497481488652e-06   -1.4589973469783589e-05
-2.123987442374579e-05   4.347497481488652e-06   -1.4589973469783589e-05
-2.123987442374579e-05   4.347497481488652e-06   -1.4589973469783589e-05
-2.123987442374579e-05   4.347497481488652e-06   -1.4589973469783589e-05
-2.3878849024083532e-05   5.97031778570335e-06   -1.7877430111940278e-05
-2.3878849024083532e-05   5.97031778570335e-06   -1.7877430111940278e-05
-2.3878849024083532e-05   5.97031778570335e-06   -1.7877430111940278e-05
-2.3878849024083532e-05   5.97031778570335e-06   -1.7877430111940278e-05
-1.8852033720761672e-05   3.1937010434607716e-06   -1.116537465174934e-05
-1.8852033720761672e-05   3.1937010434607716e-06   -1.116537465174934e-05
-1.8852033720761672e-05   3.1937010434607716e-06   -1.116537465174934e-05
-1.8852033720761672e-05   3.1937010434607716e-06   -1.116537465174934e-05
-1.8573121863488918e-05   6.65277256166677e-06   -1.653787933980058e-05
-1.8573121863488918e-05   6.65277256166677e-06   -1.653787933980058e-05
-1.8573121863488918e-05   6.65277256166677e-06   -1.653787933980058e-05
-1.8573121863488918e-05   6.65277256166677e-06   -1.653787933980058e-05
-2.2417833146743543e-05   3.969164190458906e-06   -8.519862178318015e-06
-2.2417833146743543e-05   3.969164190458906e-06   -8.519862178318015e-06
-2.2417833146743543e-05   3.969164190458906e-06   -8.519862178318015e-06
-2.2417833146743543e-05   3.969164190458906e-06   -8.519862178318015e-06
-2.0247630257726702e-05   4.71018418919146e-06   -1.2581478992586108e-05
-2.0247630257726702e-05   4.71018418919146e-06   -1.2581478992586108e-05
-2.0247630257726702e-05   4.71018418919146e-06   -1.2581478992586108e-05
-2.0247630257726702e-05   4.71018418919146e-06   -1.2581478992586108e-05
-1.9549030289263934e-05   2.2051564206897927e-06   -3.617449412364384e-05
-1.9549030289263934e-05   2.2051564206897927e-06   -3.617449412364384e-05
-1.9549030289263934e-05   2.2051564206897927e-06   -3.617449412364384e-05
-1.9549030289263934e-05   2.2051564206897927e-06   -3.617449412364384e-05
-1.392852481895333e-05   9.979788442428337e-07   -2.7531291552327817e-05
-1.392852481895333e-05   9.979788442428337e-07   -2.7531291552327817e-05
-1.392852481895333e-05   9.979788442428337e-07   -2.7531291552327817e-05
-1.392852481895333e-05   9.979788442428337e-07   -2.7531291552327817e-05
-1.3740836345616813e-05   3.43411848931067e-06   -3.6055298133866776e-05
-1.3740836345616813e-05   3.43411848931067e-06   -3.6055298133866776e-05
-1.3740836345616813e-05   3.43411848931067e-06   -3.6055298133866776e-05
-1.3740836345616813e-05   3.43411848931067e-06   -3.6055298133866776e-05
-1.9261927268211072e-05   2.108392459151563e-06   -2.6058044311447388e-05
-1.9261927268211072e-05   2.108392459151563e-06   -2.6058044311447388e-05
-1.9261927268211072e-05   2.108392459151563e-06   -2.6058044311447388e-05
-1.9261927268211072e-05   2.108392459151563e-06   -2.6058044311447388e-05
-1.6458037010158668e-05   2.399811037364589e-06   -3.090604588846331e-05
-1.6458037010158668e-05   2.399811037364589e-06   -3.090604588846331e-05
-1.6458037010158668e-05   2.399811037364589e-06   -3.090604588846331e-05
-1.6458037010158668e-05   2.399811037364589e-06   -3.090604588846331e-05
-1.9261927268211017e-05   3.43411848931067e-06   -3.5259862515771095e-05
-1.9261927268211017e-05   3.43411848931067e-06   -3.5259862515771095e-05
-1.9261927268211017e-05   3.43411848931067e-06   -3.5259862515771095e-05
-1.9261927268211017e-05   3.43411848931067e-06   -3.5259862515771095e-05
-1.3740836345616813e-05   2.1083924591517797e-06   -2.6853479929542907e-05
-1.3740836345616813e-05   2.1083924591517797e-06   -2.6853479929542907e-05
-1.3740836345616813e-05   2.1083924591517797e-06   -2.6853479929542907e-05
-1.3740836345616813e-05   2.1083924591517797e-06   -2.6853479929542907e-05
-1.3533511075168453e-05   4.552566362941253e-06   -3.547230388622276e-05
-1.3533511075168453e-05   4.552566362941253e-06   -3.547230388622276e-05
-1.3533511075168453e-05   4.552566362941253e-06   -3.547230388622276e-05
-1.3533511075168453e-05   4.552566362941253e-06   -3.547230388622276e-05
-1.88520337207617e-05   3.1411106586989087e-06   -2.5761226054355152e-05
-1.88520337207617e-05   3.1411106586989087e-06   -2.5761226054355152e-05
-1.88520337207617e-05   3.1411106586989087e-06   -2.5761226054355152e-05
-1.88520337207617e-05   3.1411106586989087e-06   -2.5761226054355152e-05
-1.6211069697267425e-05   3.297837188465558e-06   -3.025686867803878e-05
-1.6211069697267425e-05   3.297837188465558e-06   -3.025686867803878e-05
-1.6211069697267425e-05   3.297837188465558e-06   -3.025686867803878e-05
-1.6211069697267425e-05   3.297837188465558e-06   -3.025686867803878e-05
-1.8852033720761645e-05   4.552566362941253e-06   -3.462543046367728e-05
-1.8852033720761645e-05   4.552566362941253e-06   -3.462543046367728e-05
-1.8852033720761645e-05   4.552566362941253e-06   -3.462543046367728e-05
-1.8852033720761645e-05   4.552566362941253e-06   -3.462543046367728e-05
-1.3533511075168426e-05   3.1411106586989087e-06   -2.6608099476900526e-05
-1.3533511075168426e-05   3.1411106586989087e-06   -2.6608099476900526e-05
-1.3533511075168426e-05   3.1411106586989087e-06   -2.6608099476900526e-05
-1.3533511075168426e-05   3.1411106586989087e-06   -2.6608099476900526e-05
-1.334924856747125e-05   5.767618768880698e-06   -3.581627610885934e-05
-1.334924856747125e-05   5.767618768880698e-06   -3.581627610885934e-05
-1.334924856747125e-05   5.767618768880698e-06   -3.581627610885934e-05
-1.334924856747125e-05   5.767618768880698e-06   -3.581627610885934e-05
-1.8573121863489e-05   4.288841649025075e-06   -2.6222554343582872e-05
-1.8573121863489e-05   4.288841649025075e-06   -2.6222554343582872e-05
-1.8573121863489e-05   4.288841649025075e-06   -2.6222554343582872e-05
-1.8573121863489e-05   4.288841649025075e-06   -2.6222554343582872e-05
-1.6115016015283105e-05   4.207651392610853e-06   -3.027068327007777e-05
-1.6115016015283105e-05   4.207651392610853e-06   -3.027068327007777e-05
-1.6115016015283105e-05   4.207651392610853e-06   -3.027068327007777e-05
-1.6115016015283105e-05   4.207651392610853e-06   -3.027068327007777e-05
-1.3928524818953276e-05   3.8011002082482745e-07   -4.090758567617495e-05
-1.3928524818953276e-05   3.8011002082482745e-07   -4.090758567617495e-05
-1.3928524818953276e-05   3.8011002082482745e-07   -4.090758567617495e-05
-1.3928524818953276e-05   3.8011002082482745e-07   -4.090758567617495e-05
-8.450791347187622e-06   5.728485532362562e-07   -3.1662386770452047e-05
-8.450791347187622e-06   5.728485532362562e-07   -3.1662386770452047e-05
-8.450791347187622e-06   5.728485532362562e-07   -3.1662386770452047e-05
-8.450791347187622e-06   5.728485532362562e-07   -3.1662386770452047e-05
-8.26794676704371e-06   1.6159232708699714e-06   -4.03930274134437e-05
-8.26794676704371e-06   1.6159232708699714e-06   -4.03930274134437e-05
-8.26794676704371e-06   1.6159232708699714e-06   -4.03930274134437e-05
-8.26794676704371e-06   1.6159232708699714e-06   -4.03930274134437e-05
-1.3740836345616813e-05   1.7040584867514079e-06   -3.1324425912016945e-05
-1.3740836345616813e-05   1.7040584867514079e-06   -3.1324425912016945e-05
-1.3740836345616813e-05   1.7040584867514079e-06   -3.1324425912016945e-05
-1.3740836345616813e-05   1.7040584867514079e-06   -3.1324425912016945e-05
-1.1025887106449643e-05   1.225846624376063e-06   -3.55624141932045e-05
-1.1025887106449643e-05   1.225846624376063e-06   -3.55624141932045e-05
-1.1025887106449643e-05   1.225846624376063e-06   -3.55624141932045e-05
-1.1025887106449643e-05   1.225846624376063e-06   -3.55624141932045e-05
-1.3740836345616799e-05   1.6159232708699714e-06   -4.0445908542972365e-05
-1.3740836345616799e-05   1.6159232708699714e-06   -4.0445908542972365e-05
-1.3740836345616799e-05   1.6159232708699714e-06   -4.0445908542972365e-05
-1.3740836345616799e-05   1.6159232708699714e-06   -4.0445908542972365e-05
-8.26794676704371e-06   1.7040584867514079e-06   -3.12715447824882e-05
-8.26794676704371e-06   1.7040584867514079e-06   -3.12715447824882e-05
-8.26794676704371e-06   1.7040584867514079e-06   -3.12715447824882e-05
-8.26794676704371e-06   1.7040584867514079e-06   -3.12715447824882e-05
-8.062097860193556e-06   2.8556901221660777e-06   -4.0498188790268606e-05
-8.062097860193556e-06   2.8556901221660777e-06   -4.0498188790268606e-05
-8.062097860193556e-06   2.8556901221660777e-06   -4.0498188790268606e-05
-8.062097860193556e-06   2.8556901221660777e-06   -4.0498188790268606e-05
-1.3533511075168426e-05   2.8451676631824005e-06   -3.137285328992022e-05
-1.3533511075168426e-05   2.8451676631824005e-06   -3.137285328992022e-05
-1.3533511075168426e-05   2.8451676631824005e-06   -3.137285328992022e-05
-1.3533511075168426e-05   2.8451676631824005e-06   -3.137285328992022e-05
-1.0903505934347872e-05   2.1979032444453903e-06   -3.53678365400455e-05
-1.0903505934347872e-05   2.1979032444453903e-06   -3.53678365400455e-05
-1.0903505934347872e-05   2.1979032444453903e-06   -3.53678365400455e-05
-1.0903505934347872e-05   2.1979032444453903e-06   -3.53678365400455e-05
-1.3533511075168413e-05   2.8556901221660777e-06   -4.049187531487828e-05
-1.3533511075168413e-05   2.8556901221660777e-06   -4.049187531487828e-05
-1.3533511075168413e-05   2.8556901221660777e-06   -4.049187531487828e-05
-1.3533511075168413e-05   2.8556901221660777e-06   -4.049187531487828e-05
-8.06209786019357e-06   2.8451676631826173e-06   -3.137916676531033e-05
-8.06209786019357e-06   2.8451676631826173e-06   -3.137916676531033e-05
-8.06209786019357e-06   2.8451676631826173e-06   -3.137916676531033e-05
-8.06209786019357e-06   2.8451676631826173e-06   -3.137916676531033e-05
-7.877197234751085e-06   4.1171329601511234e-06   -4.117981838344469e-05
-7.877197234751085e-06   4.1171329601511234e-06   -4.117981838344469e-05
-7.877197234751085e-06   4.1171329601511234e-06   -4.117981838344469e-05
-7.877197234751085e-06   4.1171329601511234e-06   -4.117981838344469e-05
-1.3349248567471263e-05   4.00351038028191e-06   -3.199155928098918e-05
-1.3349248567471263e-05   4.00351038028191e-06   -3.199155928098918e-05
-1.3349248567471263e-05   4.00351038028191e-06   -3.199155928098918e-05
-1.3349248567471263e-05   4.00351038028191e-06   -3.199155928098918e-05
-1.0802468215528844e-05   3.1828869300451522e-06   -3.574381913075151e-05
-1.0802468215528844e-05   3.1828869300451522e-06   -3.574381913075151e-05
-1.0802468215528844e-05   3.1828869300451522e-06   -3.574381913075151e-05
-1.0802468215528844e-05   3.1828869300451522e-06   -3.574381913075151e-05
-8.450791347187591e-06   -1.2888480460185054e-06   -3.5855126747945637e-05
-8.450791347187591e-06   -1.2888480460185054e-06   -3.5855126747945637e-05
-8.450791347187591e-06   -1.2888480460185054e-06   -3.5855126747945637e-05
-8.450791347187591e-06   -1.2888480460185054e-06   -3.5855126747945637e-05
-3.1400949892902512e-06   2.464618334692241e-07   -2.6082780223757535e-05
-3.1400949892902512e-06   2.464618334692241e-07   -2.6082780223757535e-05
-3.1400949892902512e-06   2.464618334692241e-07   -2.6082780223757535e-05
-3.1400949892902512e-06   2.464618334692241e-07   -2.6082780223757535e-05
-2.866574545261623e-06   -1.24652631920295e-07   -3.4701570804770196e-05
-2.866574545261623e-06   -1.24652631920295e-07   -3.4701570804770196e-05
-2.866574545261623e-06   -1.24652631920295e-07   -3.4701570804770196e-05
-2.866574545261623e-06   -1.24652631920295e-07   -3.4701570804770196e-05
-8.267946767043694e-06   1.3424039701005232e-06   -2.6579517729678923e-05
-8.267946767043694e-06   1.3424039701005232e-06   -2.6579517729678923e-05
-8.267946767043694e-06   1.3424039701005232e-06   -2.6579517729678923e-05
-8.267946767043694e-06   1.3424039701005232e-06   -2.6579517729678923e-05
-5.6240122080721936e-06   1.582386743639039e-07   -3.027557615052336e-05
-5.6240122080721936e-06   1.582386743639039e-07   -3.027557615052336e-05
-5.6240122080721936e-06   1.582386743639039e-07   -3.027557615052336e-05
-5.6240122080721936e-06   1.582386743639039e-07   -3.027557615052336e-05
-8.26794676704368e-06   -1.24652631920295e-07   -3.5581804765982556e-05
-8.26794676704368e-06   -1.24652631920295e-07   -3.5581804765982556e-05
-8.26794676704368e-06   -1.24652631920295e-07   -3.5581804765982556e-05
-8.26794676704368e-06   -1.24652631920295e-07   -3.5581804765982556e-05
-2.866574545261623e-06   1.3424039701005232e-06   -2.5699283768466637e-05
-2.866574545261623e-06   1.3424039701005232e-06   -2.5699283768466637e-05
-2.866574545261623e-06   1.3424039701005232e-06   -2.5699283768466637e-05
-2.866574545261623e-06   1.3424039701005232e-06   -2.5699283768466637e-05
-2.459945809735257e-06   9.951751772080799e-07   -3.51684372125681e-05
-2.459945809735257e-06   9.951751772080799e-07   -3.51684372125681e-05
-2.459945809735257e-06   9.951751772080799e-07   -3.51684372125681e-05
-2.459945809735257e-06   9.951751772080799e-07   -3.51684372125681e-05
-8.062097860193556e-06   2.374987633405913e-06   -2.6659404602189436e-05
-8.062097860193556e-06   2.374987633405913e-06   -2.6659404602189436e-05
-8.062097860193556e-06   2.374987633405913e-06   -2.6659404602189436e-05
-8.062097860193556e-06   2.374987633405913e-06   -2.6659404602189436e-05
-5.458792682875908e-06   1.043196440729294e-06   -3.0199171848779768e-05
-5.458792682875908e-06   1.043196440729294e-06   -3.0199171848779768e-05
-5.458792682875908e-06   1.043196440729294e-06   -3.0199171848779768e-05
-5.458792682875908e-06   1.043196440729294e-06   -3.0199171848779768e-05
-8.062097860193534e-06   9.951751772080799e-07   -3.599632468628659e-05
-8.062097860193534e-06   9.951751772080799e-07   -3.599632468628659e-05
-8.062097860193534e-06   9.951751772080799e-07   -3.599632468628659e-05
-8.062097860193534e-06   9.951751772080799e-07   -3.599632468628659e-05
-2.4599458097352708e-06   2.3749876334056962e-06   -2.5831517128470935e-05
-2.4599458097352708e-06   2.3749876334056962e-06   -2.5831517128470935e-05
-2.4599458097352708e-06   2.3749876334056962e-06   -2.5831517128470935e-05
-2.4599458097352708e-06   2.3749876334056962e-06   -2.5831517128470935e-05
-2.176128033510349e-06   2.2784655312007e-06   -3.6151988943722594e-05
-2.176128033510349e-06   2.2784655312007e-06   -3.6151988943722594e-05
-2.176128033510349e-06   2.2784655312007e-06   -3.6151988943722594e-05
-2.176128033510349e-06   2.2784655312007e-06   -3.6151988943722594e-05
-7.877197234751085e-06   3.542339345057521e-06   -2.740853122996874e-05
-7.877197234751085e-06   3.542339345057521e-06   -2.740853122996874e-05
-7.877197234751085e-06   3.542339345057521e-06   -2.740853122996874e-05
-7.877197234751085e-06   3.542339345057521e-06   -2.740853122996874e-05
-5.285934693193282e-06   1.970493879510974e-06   -3.0784194853237205e-05
-5.285934693193282e-06   1.970493879510974e-06   -3.0784194853237205e-05
-5.285934693193282e-06   1.970493879510974e-06   -3.0784194853237205e-05
-5.285934693193282e-06   1.970493879510974e-06   -3.0784194853237205e-05
-3.1400949892902377e-06   -2.3672996721937163e-06   -1.945551689229555e-05
-3.1400949892902377e-06   -2.3672996721937163e-06   -1.945551689229555e-05
-3.1400949892902377e-06   -2.3672996721937163e-06   -1.945551689229555e-05
-3.1400949892902377e-06   -2.3672996721937163e-06   -1.945551689229555e-05
7.813101601317272e-07   3.4355406100614744e-07   -1.1293329403339026e-05
7.813101601317272e-07   3.4355406100614744e-07   -1.1293329403339026e-05
7.813101601317272e-07   3.4355406100614744e-07   -1.1293329403339026e-05
7.813101601317272e-07   3.4355406100614744e-07   -1.1293329403339026e-05
2.2279728629845527e-06   -1.5785291371748491e-06   -1.8576914775319912e-05
2.2279728629845527e-06   -1.5785291371748491e-06   -1.8576914775319912e-05
2.2279728629845527e-06   -1.5785291371748491e-06   -1.8576914775319912e-05
2.2279728629845527e-06   -1.5785291371748491e-06   -1.8576914775319912e-05
-2.866574545261623e-06   1.2099964157134564e-06   -1.1759117759975674e-05
-2.866574545261623e-06   1.2099964157134564e-06   -1.1759117759975674e-05
-2.866574545261623e-06   1.2099964157134564e-06   -1.1759117759975674e-05
-2.866574545261623e-06   1.2099964157134564e-06   -1.1759117759975674e-05
-7.294552940725096e-07   -4.813175546506364e-07   -1.4306194796406146e-05
-7.294552940725096e-07   -4.813175546506364e-07   -1.4306194796406146e-05
-7.294552940725096e-07   -4.813175546506364e-07   -1.4306194796406146e-05
-7.294552940725096e-07   -4.813175546506364e-07   -1.4306194796406146e-05
-2.866574545261623e-06   -1.5785291371748491e-06   -2.0250030107052733e-05
-2.866574545261623e-06   -1.5785291371748491e-06   -2.0250030107052733e-05
-2.866574545261623e-06   -1.5785291371748491e-06   -2.0250030107052733e-05
-2.866574545261623e-06   -1.5785291371748491e-06   -2.0250030107052733e-05
2.2279728629845256e-06   1.2099964157136732e-06   -1.0086002428242799e-05
2.2279728629845256e-06   1.2099964157136732e-06   -1.0086002428242799e-05
2.2279728629845256e-06   1.2099964157136732e-06   -1.0086002428242799e-05
2.2279728629845256e-06   1.2099964157136732e-06   -1.0086002428242799e-05
3.3703321907907068e-06   -1.0341972323601274e-06   -1.9588209028143552e-05
3.3703321907907068e-06   -1.0341972323601274e-06   -1.9588209028143552e-05
3.3703321907907068e-06   -1.0341972323601274e-06   -1.9588209028143552e-05
3.3703321907907068e-06   -1.0341972323601274e-06   -1.9588209028143552e-05
-2.459945809735257e-06   1.697172043685878e-06   -1.150990059289441e-05
-2.459945809735257e-06   1.697172043685878e-06   -1.150990059289441e-05
-2.459945809735257e-06   1.697172043685878e-06   -1.150990059289441e-05
-2.459945809735257e-06   1.697172043685878e-06   -1.150990059289441e-05
3.992204601960454e-09   -6.627167966916786e-08   -1.4558397716109739e-05
3.992204601960454e-09   -6.627167966916786e-08   -1.4558397716109739e-05
3.992204601960454e-09   -6.627167966916786e-08   -1.4558397716109739e-05
3.992204601960454e-09   -6.627167966916786e-08   -1.4558397716109739e-05
-2.459945809735257e-06   -1.034197232360019e-06   -2.1227030593771133e-05
-2.459945809735257e-06   -1.034197232360019e-06   -2.1227030593771133e-05
-2.459945809735257e-06   -1.034197232360019e-06   -2.1227030593771133e-05
-2.459945809735257e-06   -1.034197232360019e-06   -2.1227030593771133e-05
3.3703321907907068e-06   1.697172043686095e-06   -9.871079027266774e-06
3.3703321907907068e-06   1.697172043686095e-06   -9.871079027266774e-06
3.3703321907907068e-06   1.697172043686095e-06   -9.871079027266774e-06
3.3703321907907068e-06   1.697172043686095e-06   -9.871079027266774e-06
4.812240152441669e-06   3.547993730605194e-08   -2.1941936833620376e-05
4.812240152441669e-06   3.547993730605194e-08   -2.1941936833620376e-05
4.812240152441669e-06   3.547993730605194e-08   -2.1941936833620376e-05
4.812240152441669e-06   3.547993730605194e-08   -2.1941936833620376e-05
-2.176128033510349e-06   2.560603493452886e-06   -1.1809730657388103e-05
-2.176128033510349e-06   2.560603493452886e-06   -1.1809730657388103e-05
-2.176128033510349e-06   2.560603493452886e-06   -1.1809730657388103e-05
-2.176128033510349e-06   2.560603493452886e-06   -1.1809730657388103e-05
6.353968322970471e-07   4.0697042775431763e-07   -1.5203425594314981e-05
6.353968322970471e-07   4.0697042775431763e-07   -1.5203425594314981e-05
6.353968322970471e-07   4.0697042775431763e-07   -1.5203425594314981e-05
6.353968322970471e-07   4.0697042775431763e-07   -1.5203425594314981e-05
-9.206871504834329e-06   1.7359566004109678e-06   -1.6526981842701757e-05
-9.206871504834329e-06   1.7359566004109678e-06   -1.6526981842701757e-05
-9.206871504834329e-06   1.7359566004109678e-06   -1.6526981842701757e-05
-9.206871504834329e-06   1.7359566004109678e-06   -1.6526981842701757e-05
-9.343248863505522e-06   -8.093037878981017e-07   -1.8281433673472387e-05
-9.343248863505522e-06   -8.093037878981017e-07   -1.8281433673472387e-05
-9.343248863505522e-06   -8.093037878981017e-07   -1.8281433673472387e-05
-9.343248863505522e-06   -8.093037878981017e-07   -1.8281433673472387e-05
-8.875995878196706e-06   2.7042319483523095e-06   -1.5528613584408005e-05
-8.875995878196706e-06   2.7042319483523095e-06   -1.5528613584408005e-05
-8.875995878196706e-06   2.7042319483523095e-06   -1.5528613584408005e-05
-8.875995878196706e-06   2.7042319483523095e-06   -1.5528613584408005e-05
-7.5962398626168155e-06   -2.6255234647628786e-08   -1.6023247967240808e-05
-7.5962398626168155e-06   -2.6255234647628786e-08   -1.6023247967240808e-05
-7.5962398626168155e-06   -2.6255234647628786e-08   -1.6023247967240808e-05
-7.5962398626168155e-06   -2.6255234647628786e-08   -1.6023247967240808e-05
-8.372948588574112e-06   1.1951647592330084e-06   -1.546158542030775e-05
-8.372948588574112e-06   1.1951647592330084e-06   -1.546158542030775e-05
-8.372948588574112e-06   1.1951647592330084e-06   -1.546158542030775e-05
-8.372948588574112e-06   1.1951647592330084e-06   -1.546158542030775e-05
-7.5962398626168155e-06   2.7042319483523095e-06   -1.3890321274607955e-05
-7.5962398626168155e-06   2.7042319483523095e-06   -1.3890321274607955e-05
-7.5962398626168155e-06   2.7042319483523095e-06   -1.3890321274607955e-05
-7.5962398626168155e-06   2.7042319483523095e-06   -1.3890321274607955e-05
-8.875995878196706e-06   -2.6255234647845627e-08   -1.7661540277041075e-05
-8.875995878196706e-06   -2.6255234647845627e-08   -1.7661540277041075e-05
-8.875995878196706e-06   -2.6255234647845627e-08   -1.7661540277041075e-05
-8.875995878196706e-06   -2.6255234647845627e-08   -1.7661540277041075e-05
-8.286430339611366e-06   3.1937010434605548e-06   -1.4410551968802119e-05
-8.286430339611366e-06   3.1937010434605548e-06   -1.4410551968802119e-05
-8.286430339611366e-06   3.1937010434605548e-06   -1.4410551968802119e-05
-8.286430339611366e-06   3.1937010434605548e-06   -1.4410551968802119e-05
-6.264759943920041e-06   4.1699018401794054e-07   -1.6113976112622046e-05
-6.264759943920041e-06   4.1699018401794054e-07   -1.6113976112622046e-05
-6.264759943920041e-06   4.1699018401794054e-07   -1.6113976112622046e-05
-6.264759943920041e-06   4.1699018401794054e-07   -1.6113976112622046e-05
-7.610821378712594e-06   1.5973472440730056e-06   -1.4578754624001587e-05
-7.610821378712594e-06   1.5973472440730056e-06   -1.4578754624001587e-05
-7.610821378712594e-06   1.5973472440730056e-06   -1.4578754624001587e-05
-7.610821378712594e-06   1.5973472440730056e-06   -1.4578754624001587e-05
-6.264759943920041e-06   3.1937010434605548e-06   -1.2744525453136594e-05
-6.264759943920041e-06   3.1937010434605548e-06   -1.2744525453136594e-05
-6.264759943920041e-06   3.1937010434605548e-06   -1.2744525453136594e-05
-6.264759943920041e-06   3.1937010434605548e-06   -1.2744525453136594e-05
-8.286430339611393e-06   4.1699018401794054e-07   -1.7780002628287625e-05
-8.286430339611393e-06   4.1699018401794054e-07   -1.7780002628287625e-05
-8.286430339611393e-06   4.1699018401794054e-07   -1.7780002628287625e-05
-8.286430339611393e-06   4.1699018401794054e-07   -1.7780002628287625e-05
-7.826945967131344e-06   3.969164190458906e-06   -1.3371480065961028e-05
-7.826945967131344e-06   3.969164190458906e-06   -1.3371480065961028e-05
-7.826945967131344e-06   3.969164190458906e-06   -1.3371480065961028e-05
-7.826945967131344e-06   3.969164190458906e-06   -1.3371480065961028e-05
-4.620809301700843e-06   1.300915145086099e-06   -1.7114091747788334e-05
-4.620809301700843e-06   1.300915145086099e-06   -1.7114091747788334e-05
-4.620809301700843e-06   1.300915145086099e-06   -1.7114091747788334e-05
-4.620809301700843e-06   1.300915145086099e-06   -1.7114091747788334e-05
-6.658549779499815e-06   1.9831282839785982e-06   -1.4127185501458712e-05
-6.658549779499815e-06   1.9831282839785982e-06   -1.4127185501458712e-05
-6.658549779499815e-06   1.9831282839785982e-06   -1.4127185501458712e-05
-6.658549779499815e-06   1.9831282839785982e-06   -1.4127185501458712e-05
-9.343248863505495e-06   9.979788442426168e-07   -3.006184129163397e-05
-9.343248863505495e-06   9.979788442426168e-07   -3.006184129163397e-05
-9.343248863505495e-06   9.979788442426168e-07   -3.006184129163397e-05
-9.343248863505495e-06   9.979788442426168e-07   -3.006184129163397e-05
-1.0775105646536486e-05   -1.743838449349243e-07   -3.315168687685914e-05
-1.0775105646536486e-05   -1.743838449349243e-07   -3.315168687685914e-05
-1.0775105646536486e-05   -1.743838449349243e-07   -3.315168687685914e-05
-1.0775105646536486e-05   -1.743838449349243e-07   -3.315168687685914e-05
-1.0397867448546237e-05   2.108392459151563e-06   -3.008405290510748e-05
-1.0397867448546237e-05   2.108392459151563e-06   -3.008405290510748e-05
-1.0397867448546237e-05   2.108392459151563e-06   -3.008405290510748e-05
-1.0397867448546237e-05   2.108392459151563e-06   -3.008405290510748e-05
-8.875995878196733e-06   8.138104485530019e-07   -3.184375631599712e-05
-8.875995878196733e-06   8.138104485530019e-07   -3.184375631599712e-05
-8.875995878196733e-06   8.138104485530019e-07   -3.184375631599712e-05
-8.875995878196733e-06   8.138104485530019e-07   -3.184375631599712e-05
-9.733369122602374e-06   1.1535953254038223e-06   -3.061867183476544e-05
-9.733369122602374e-06   1.1535953254038223e-06   -3.061867183476544e-05
-9.733369122602374e-06   1.1535953254038223e-06   -3.061867183476544e-05
-9.733369122602374e-06   1.1535953254038223e-06   -3.061867183476544e-05
-8.87599587819668e-06   2.1083924591517797e-06   -2.93073036987478e-05
-8.87599587819668e-06   2.1083924591517797e-06   -2.93073036987478e-05
-8.87599587819668e-06   2.1083924591517797e-06   -2.93073036987478e-05
-8.87599587819668e-06   2.1083924591517797e-06   -2.93073036987478e-05
-1.0397867448546223e-05   8.138104485530019e-07   -3.262050552235653e-05
-1.0397867448546223e-05   8.138104485530019e-07   -3.262050552235653e-05
-1.0397867448546223e-05   8.138104485530019e-07   -3.262050552235653e-05
-1.0397867448546223e-05   8.138104485530019e-07   -3.262050552235653e-05
-1.0005496807918545e-05   3.141110658698692e-06   -2.983182437379646e-05
-1.0005496807918545e-05   3.141110658698692e-06   -2.983182437379646e-05
-1.0005496807918545e-05   3.141110658698692e-06   -2.983182437379646e-05
-1.0005496807918545e-05   3.141110658698692e-06   -2.983182437379646e-05
-8.28643033961142e-06   1.7654089880516852e-06   -3.187151415191987e-05
-8.28643033961142e-06   1.7654089880516852e-06   -3.187151415191987e-05
-8.28643033961142e-06   1.7654089880516852e-06   -3.187151415191987e-05
-8.28643033961142e-06   1.7654089880516852e-06   -3.187151415191987e-05
-9.355381007135788e-06   1.9505250632681666e-06   -3.020099935117606e-05
-9.355381007135788e-06   1.9505250632681666e-06   -3.020099935117606e-05
-9.355381007135788e-06   1.9505250632681666e-06   -3.020099935117606e-05
-9.355381007135788e-06   1.9505250632681666e-06   -3.020099935117606e-05
-8.286430339611366e-06   3.1411106586989087e-06   -2.900640337140793e-05
-8.286430339611366e-06   3.1411106586989087e-06   -2.900640337140793e-05
-8.286430339611366e-06   3.1411106586989087e-06   -2.900640337140793e-05
-8.286430339611366e-06   3.1411106586989087e-06   -2.900640337140793e-05
-1.0005496807918504e-05   1.7654089880516852e-06   -3.2696935154308076e-05
-1.0005496807918504e-05   1.7654089880516852e-06   -3.2696935154308076e-05
-1.0005496807918504e-05   1.7654089880516852e-06   -3.2696935154308076e-05
-1.0005496807918504e-05   1.7654089880516852e-06   -3.2696935154308076e-05
-9.636056978890045e-06   4.288841649025292e-06   -3.0325977140765537e-05
-9.636056978890045e-06   4.288841649025292e-06   -3.0325977140765537e-05
-9.636056978890045e-06   4.288841649025292e-06   -3.0325977140765537e-05
-9.636056978890045e-06   4.288841649025292e-06   -3.0325977140765537e-05
-7.826945967131344e-06   2.8522250952517023e-06   -3.247919222809908e-05
-7.826945967131344e-06   2.8522250952517023e-06   -3.247919222809908e-05
-7.826945967131344e-06   2.8522250952517023e-06   -3.247919222809908e-05
-7.826945967131344e-06   2.8522250952517023e-06   -3.247919222809908e-05
-9.022943205205152e-06   2.7867189737152635e-06   -3.0446559825054423e-05
-9.022943205205152e-06   2.7867189737152635e-06   -3.0446559825054423e-05
-9.022943205205152e-06   2.7867189737152635e-06   -3.0446559825054423e-05
-9.022943205205152e-06   2.7867189737152635e-06   -3.0446559825054423e-05
-1.0775105646536445e-05   5.728485532364731e-07   -3.501199724271196e-05
-1.0775105646536445e-05   5.728485532364731e-07   -3.501199724271196e-05
-1.0775105646536445e-05   5.728485532364731e-07   -3.501199724271196e-05
-1.0775105646536445e-05   5.728485532364731e-07   -3.501199724271196e-05
-1.2281524763799986e-05   8.207857206884994e-07   -3.737393347101321e-05
-1.2281524763799986e-05   8.207857206884994e-07   -3.737393347101321e-05
-1.2281524763799986e-05   8.207857206884994e-07   -3.737393347101321e-05
-1.2281524763799986e-05   8.207857206884994e-07   -3.737393347101321e-05
-1.1910859071598597e-05   1.7040584867514079e-06   -3.447198870253868e-05
-1.1910859071598597e-05   1.7040584867514079e-06   -3.447198870253868e-05
-1.1910859071598597e-05   1.7040584867514079e-06   -3.447198870253868e-05
-1.1910859071598597e-05   1.7040584867514079e-06   -3.447198870253868e-05
-1.0397867448546223e-05   1.8424087951560923e-06   -3.707665159266872e-05
-1.0397867448546223e-05   1.8424087951560923e-06   -3.707665159266872e-05
-1.0397867448546223e-05   1.8424087951560923e-06   -3.707665159266872e-05
-1.0397867448546223e-05   1.8424087951560923e-06   -3.707665159266872e-05
-1.127305561911494e-05   1.3942196924916772e-06   -3.5349091180122646e-05
-1.127305561911494e-05   1.3942196924916772e-06   -3.5349091180122646e-05
-1.127305561911494e-05   1.3942196924916772e-06   -3.5349091180122646e-05
-1.127305561911494e-05   1.3942196924916772e-06   -3.5349091180122646e-05
-1.0397867448546196e-05   1.7040584867514079e-06   -3.455499888758149e-05
-1.0397867448546196e-05   1.7040584867514079e-06   -3.455499888758149e-05
-1.0397867448546196e-05   1.7040584867514079e-06   -3.455499888758149e-05
-1.0397867448546196e-05   1.7040584867514079e-06   -3.455499888758149e-05
-1.1910859071598617e-05   1.8424087951560923e-06   -3.699364140762615e-05
-1.1910859071598617e-05   1.8424087951560923e-06   -3.699364140762615e-05
-1.1910859071598617e-05   1.8424087951560923e-06   -3.699364140762615e-05
-1.1910859071598617e-05   1.8424087951560923e-06   -3.699364140762615e-05
-1.1520895721064516e-05   2.8451676631826173e-06   -3.4571807633725906e-05
-1.1520895721064516e-05   2.8451676631826173e-06   -3.4571807633725906e-05
-1.1520895721064516e-05   2.8451676631826173e-06   -3.4571807633725906e-05
-1.1520895721064516e-05   2.8451676631826173e-06   -3.4571807633725906e-05
-1.0005496807918545e-05   2.886451918332738e-06   -3.712224304205922e-05
-1.0005496807918545e-05   2.886451918332738e-06   -3.712224304205922e-05
-1.0005496807918545e-05   2.886451918332738e-06   -3.712224304205922e-05
-1.0005496807918545e-05   2.886451918332738e-06   -3.712224304205922e-05
-1.0962158598047187e-05   2.2683197121843926e-06   -3.5156927401489696e-05
-1.0962158598047187e-05   2.2683197121843926e-06   -3.5156927401489696e-05
-1.0962158598047187e-05   2.2683197121843926e-06   -3.5156927401489696e-05
-1.0962158598047187e-05   2.2683197121843926e-06   -3.5156927401489696e-05
-1.0005496807918504e-05   2.8451676631826173e-06   -3.4596578186816044e-05
-1.0005496807918504e-05   2.8451676631826173e-06   -3.4596578186816044e-05
-1.0005496807918504e-05   2.8451676631826173e-06   -3.4596578186816044e-05
-1.0005496807918504e-05   2.8451676631826173e-06   -3.4596578186816044e-05
-1.1520895721064516e-05   2.886451918332738e-06   -3.709747248896911e-05
-1.1520895721064516e-05   2.886451918332738e-06   -3.709747248896911e-05
-1.1520895721064516e-05   2.886451918332738e-06   -3.709747248896911e-05
-1.1520895721064516e-05   2.886451918332738e-06   -3.709747248896911e-05
-1.1153135250923759e-05   4.00351038028191e-06   -3.5242844382299106e-05
-1.1153135250923759e-05   4.00351038028191e-06   -3.5242844382299106e-05
-1.1153135250923759e-05   4.00351038028191e-06   -3.5242844382299106e-05
-1.1153135250923759e-05   4.00351038028191e-06   -3.5242844382299106e-05
-9.636056978890058e-06   3.944962753547757e-06   -3.7736179592981375e-05
-9.636056978890058e-06   3.944962753547757e-06   -3.7736179592981375e-05
-9.636056978890058e-06   3.944962753547757e-06   -3.7736179592981375e-05
-9.636056978890058e-06   3.944962753547757e-06   -3.7736179592981375e-05
-1.06761110311176e-05   3.1546588635420706e-06   -3.552857383859866e-05
-1.06761110311176e-05   3.1546588635420706e-06   -3.552857383859866e-05
-1.06761110311176e-05   3.1546588635420706e-06   -3.552857383859866e-05
-1.06761110311176e-05   3.1546588635420706e-06   -3.552857383859866e-05
-1.2281524763799942e-05   2.464618334692241e-07   -3.020481432323876e-05
-1.2281524763799942e-05   2.464618334692241e-07   -3.020481432323876e-05
-1.2281524763799942e-05   2.464618334692241e-07   -3.020481432323876e-05
-1.2281524763799942e-05   2.464618334692241e-07   -3.020481432323876e-05
-1.3873173764282078e-05   1.8237779873221064e-06   -3.191117296506385e-05
-1.3873173764282078e-05   1.8237779873221064e-06   -3.191117296506385e-05
-1.3873173764282078e-05   1.8237779873221064e-06   -3.191117296506385e-05
-1.3873173764282078e-05   1.8237779873221064e-06   -3.191117296506385e-05
-1.3424465148962762e-05   1.3424039701005232e-06   -2.8876017077437283e-05
-1.3424465148962762e-05   1.3424039701005232e-06   -2.8876017077437283e-05
-1.3424465148962762e-05   1.3424039701005232e-06   -2.8876017077437283e-05
-1.3424465148962762e-05   1.3424039701005232e-06   -2.8876017077437283e-05
-1.1910859071598597e-05   2.848978257254456e-06   -3.230263844533627e-05
-1.1910859071598597e-05   2.848978257254456e-06   -3.230263844533627e-05
-1.1910859071598597e-05   2.848978257254456e-06   -3.230263844533627e-05
-1.1910859071598597e-05   2.848978257254456e-06   -3.230263844533627e-05
-1.2772986286286602e-05   1.6795176341335635e-06   -3.016408338031752e-05
-1.2772986286286602e-05   1.6795176341335635e-06   -3.016408338031752e-05
-1.2772986286286602e-05   1.6795176341335635e-06   -3.016408338031752e-05
-1.2772986286286602e-05   1.6795176341335635e-06   -3.016408338031752e-05
-1.1910859071598576e-05   1.3424039701005232e-06   -2.9779961649729534e-05
-1.1910859071598576e-05   1.3424039701005232e-06   -2.9779961649729534e-05
-1.1910859071598576e-05   1.3424039701005232e-06   -2.9779961649729534e-05
-1.1910859071598576e-05   1.3424039701005232e-06   -2.9779961649729534e-05
-1.3424465148962762e-05   2.848978257254456e-06   -3.139869387304417e-05
-1.3424465148962762e-05   2.848978257254456e-06   -3.139869387304417e-05
-1.3424465148962762e-05   2.848978257254456e-06   -3.139869387304417e-05
-1.3424465148962762e-05   2.848978257254456e-06   -3.139869387304417e-05
-1.2844108917839253e-05   2.3749876334056962e-06   -2.9000285504357623e-05
-1.2844108917839253e-05   2.3749876334056962e-06   -2.9000285504357623e-05
-1.2844108917839253e-05   2.3749876334056962e-06   -2.9000285504357623e-05
-1.2844108917839253e-05   2.3749876334056962e-06   -2.9000285504357623e-05
-1.1520895721064494e-05   3.794587577151537e-06   -3.205740079856285e-05
-1.1520895721064494e-05   3.794587577151537e-06   -3.205740079856285e-05
-1.1520895721064494e-05   3.794587577151537e-06   -3.205740079856285e-05
-1.1520895721064494e-05   3.794587577151537e-06   -3.205740079856285e-05
-1.2371940474867243e-05   2.493027256641068e-06   -2.985805668325245e-05
-1.2371940474867243e-05   2.493027256641068e-06   -2.985805668325245e-05
-1.2371940474867243e-05   2.493027256641068e-06   -2.985805668325245e-05
-1.2371940474867243e-05   2.493027256641068e-06   -2.985805668325245e-05
-1.1520895721064464e-05   2.3749876334056962e-06   -2.9852045470604846e-05
-1.1520895721064464e-05   2.3749876334056962e-06   -2.9852045470604846e-05
-1.1520895721064464e-05   2.3749876334056962e-06   -2.9852045470604846e-05
-1.1520895721064464e-05   2.3749876334056962e-06   -2.9852045470604846e-05
-1.2844108917839267e-05   3.794587577151537e-06   -3.120564083231546e-05
-1.2844108917839267e-05   3.794587577151537e-06   -3.120564083231546e-05
-1.2844108917839267e-05   3.794587577151537e-06   -3.120564083231546e-05
-1.2844108917839267e-05   3.794587577151537e-06   -3.120564083231546e-05
-1.2388308386422644e-05   3.542339345057521e-06   -2.980459650511703e-05
-1.2388308386422644e-05   3.542339345057521e-06   -2.980459650511703e-05
-1.2388308386422644e-05   3.542339345057521e-06   -2.980459650511703e-05
-1.2388308386422644e-05   3.542339345057521e-06   -2.980459650511703e-05
-1.1153135250923759e-05   4.854083142124361e-06   -3.2650264675854985e-05
-1.1153135250923759e-05   4.854083142124361e-06   -3.2650264675854985e-05
-1.1153135250923759e-05   4.854083142124361e-06   -3.2650264675854985e-05
-1.1153135250923759e-05   4.854083142124361e-06   -3.2650264675854985e-05
-1.2071965224693673e-05   3.3242131019998837e-06   -3.020095936216347e-05
-1.2071965224693673e-05   3.3242131019998837e-06   -3.020095936216347e-05
-1.2071965224693673e-05   3.3242131019998837e-06   -3.020095936216347e-05
-1.2071965224693673e-05   3.3242131019998837e-06   -3.020095936216347e-05
-1.3873173764282024e-05   3.4355406100614744e-07   -1.6095486050428463e-05
-1.3873173764282024e-05   3.4355406100614744e-07   -1.6095486050428463e-05
-1.3873173764282024e-05   3.4355406100614744e-07   -1.6095486050428463e-05
-1.3873173764282024e-05   3.4355406100614744e-07   -1.6095486050428463e-05
-1.6810944515939958e-05   3.065686609040252e-06   -1.9358491107704552e-05
-1.6810944515939958e-05   3.065686609040252e-06   -1.9358491107704552e-05
-1.6810944515939958e-05   3.065686609040252e-06   -1.9358491107704552e-05
-1.6810944515939958e-05   3.065686609040252e-06   -1.9358491107704552e-05
-1.5214116000059486e-05   1.2099964157136732e-06   -1.3264644022537475e-05
-1.5214116000059486e-05   1.2099964157136732e-06   -1.3264644022537475e-05
-1.5214116000059486e-05   1.2099964157136732e-06   -1.3264644022537475e-05
-1.5214116000059486e-05   1.2099964157136732e-06   -1.3264644022537475e-05
-1.3424465148962749e-05   3.995341493061603e-06   -1.7918602487440905e-05
-1.3424465148962749e-05   3.995341493061603e-06   -1.7918602487440905e-05
-1.3424465148962749e-05   3.995341493061603e-06   -1.7918602487440905e-05
-1.3424465148962749e-05   3.995341493061603e-06   -1.7918602487440905e-05
-1.423046798367833e-05   2.265874432456124e-06   -1.5537584193218523e-05
-1.423046798367833e-05   2.265874432456124e-06   -1.5537584193218523e-05
-1.423046798367833e-05   2.265874432456124e-06   -1.5537584193218523e-05
-1.423046798367833e-05   2.265874432456124e-06   -1.5537584193218523e-05
-1.3424465148962708e-05   1.2099964157134564e-06   -1.4935851068946103e-05
-1.3424465148962708e-05   1.2099964157134564e-06   -1.4935851068946103e-05
-1.3424465148962708e-05   1.2099964157134564e-06   -1.4935851068946103e-05
-1.3424465148962708e-05   1.2099964157134564e-06   -1.4935851068946103e-05
-1.5214116000059486e-05   3.99534149306182e-06   -1.6247395441031966e-05
-1.5214116000059486e-05   3.99534149306182e-06   -1.6247395441031966e-05
-1.5214116000059486e-05   3.99534149306182e-06   -1.6247395441031966e-05
-1.5214116000059486e-05   3.99534149306182e-06   -1.6247395441031966e-05
-1.3915319738852695e-05   1.697172043686095e-06   -1.304438175732598e-05
-1.3915319738852695e-05   1.697172043686095e-06   -1.304438175732598e-05
-1.3915319738852695e-05   1.697172043686095e-06   -1.304438175732598e-05
-1.3915319738852695e-05   1.697172043686095e-06   -1.304438175732598e-05
-1.2844108917839253e-05   4.420984062777867e-06   -1.646402033713673e-05
-1.2844108917839253e-05   4.420984062777867e-06   -1.646402033713673e-05
-1.2844108917839253e-05   4.420984062777867e-06   -1.646402033713673e-05
-1.2844108917839253e-05   4.420984062777867e-06   -1.646402033713673e-05
-1.354991376593041e-05   2.696534550556762e-06   -1.4253009216318939e-05
-1.354991376593041e-05   2.696534550556762e-06   -1.4253009216318939e-05
-1.354991376593041e-05   2.696534550556762e-06   -1.4253009216318939e-05
-1.354991376593041e-05   2.696534550556762e-06   -1.4253009216318939e-05
-1.2844108917839226e-05   1.697172043686095e-06   -1.467866896878126e-05
-1.2844108917839226e-05   1.697172043686095e-06   -1.467866896878126e-05
-1.2844108917839226e-05   1.697172043686095e-06   -1.467866896878126e-05
-1.2844108917839226e-05   1.697172043686095e-06   -1.467866896878126e-05
-1.3915319738852695e-05   4.420984062777867e-06   -1.4829733125681639e-05
-1.3915319738852695e-05   4.420984062777867e-06   -1.4829733125681639e-05
-1.3915319738852695e-05   4.420984062777867e-06   -1.4829733125681639e-05
-1.3915319738852695e-05   4.420984062777867e-06   -1.4829733125681639e-05
-1.2326290346679239e-05   2.560603493452886e-06   -1.3452521723574559e-05
-1.2326290346679239e-05   2.560603493452886e-06   -1.3452521723574559e-05
-1.2326290346679239e-05   2.560603493452886e-06   -1.3452521723574559e-05
-1.2326290346679239e-05   2.560603493452886e-06   -1.3452521723574559e-05
-1.238830838642263e-05   5.0799343222463714e-06   -1.4860756821278095e-05
-1.238830838642263e-05   5.0799343222463714e-06   -1.4860756821278095e-05
-1.238830838642263e-05   5.0799343222463714e-06   -1.4860756821278095e-05
-1.238830838642263e-05   5.0799343222463714e-06   -1.4860756821278095e-05
-1.2546904878602371e-05   3.0443028238612627e-06   -1.3375050435280992e-05
-1.2546904878602371e-05   3.0443028238612627e-06   -1.3375050435280992e-05
-1.2546904878602371e-05   3.0443028238612627e-06   -1.3375050435280992e-05
-1.2546904878602371e-05   3.0443028238612627e-06   -1.3375050435280992e-05
8.183374358109927e-06   -8.093037878981017e-07   -8.356214619776973e-06
8.183374358109927e-06   -8.093037878981017e-07   -8.356214619776973e-06
8.183374358109927e-06   -8.093037878981017e-07   -8.356214619776973e-06
8.183374358109927e-06   -8.093037878981017e-07   -8.356214619776973e-06
8.419758801310863e-07   -3.3987595462984122e-06   -2.21455522047819e-05
8.419758801310863e-07   -3.3987595462984122e-06   -2.21455522047819e-05
8.419758801310863e-07   -3.3987595462984122e-06   -2.21455522047819e-05
8.419758801310863e-07   -3.3987595462984122e-06   -2.21455522047819e-05
1.482391727244389e-06   -2.6255234647628786e-08   -9.23463077419774e-06
1.482391727244389e-06   -2.6255234647628786e-08   -9.23463077419774e-06
1.482391727244389e-06   -2.6255234647628786e-08   -9.23463077419774e-06
1.482391727244389e-06   -2.6255234647628786e-08   -9.23463077419774e-06
9.974843163790953e-06   -2.7933599569410564e-06   -2.1728453668399335e-05
9.974843163790953e-06   -2.7933599569410564e-06   -2.1728453668399335e-05
9.974843163790953e-06   -2.7933599569410564e-06   -2.1728453668399335e-05
9.974843163790953e-06   -2.7933599569410564e-06   -2.1728453668399335e-05
4.929678817164215e-06   -1.4186701246430514e-06   -1.414466032340024e-05
4.929678817164215e-06   -1.4186701246430514e-06   -1.414466032340024e-05
4.929678817164215e-06   -1.4186701246430514e-06   -1.414466032340024e-05
4.929678817164215e-06   -1.4186701246430514e-06   -1.414466032340024e-05
9.974843163790953e-06   -2.6255234647628786e-08   -7.5743679408215745e-06
9.974843163790953e-06   -2.6255234647628786e-08   -7.5743679408215745e-06
9.974843163790953e-06   -2.6255234647628786e-08   -7.5743679408215745e-06
9.974843163790953e-06   -2.6255234647628786e-08   -7.5743679408215745e-06
1.482391727244389e-06   -2.7933599569410564e-06   -2.33887165017755e-05
1.482391727244389e-06   -2.7933599569410564e-06   -2.33887165017755e-05
1.482391727244389e-06   -2.7933599569410564e-06   -2.33887165017755e-05
1.482391727244389e-06   -2.7933599569410564e-06   -2.33887165017755e-05
2.2374736493788996e-06   4.1699018401794054e-07   -9.306320319579179e-06
2.2374736493788996e-06   4.1699018401794054e-07   -9.306320319579179e-06
2.2374736493788996e-06   4.1699018401794054e-07   -9.306320319579179e-06
2.2374736493788996e-06   4.1699018401794054e-07   -9.306320319579179e-06
1.1488637628675048e-05   -2.389427314452913e-06   -2.3041076452656826e-05
1.1488637628675048e-05   -2.389427314452913e-06   -2.3041076452656826e-05
1.1488637628675048e-05   -2.389427314452913e-06   -2.3041076452656826e-05
1.1488637628675048e-05   -2.389427314452913e-06   -2.3041076452656826e-05
6.06571493893072e-06   -1.1355832085740807e-06   -1.4755178433277678e-05
6.06571493893072e-06   -1.1355832085740807e-06   -1.4755178433277678e-05
6.06571493893072e-06   -1.1355832085740807e-06   -1.4755178433277678e-05
6.06571493893072e-06   -1.1355832085740807e-06   -1.4755178433277678e-05
1.1488637628675048e-05   4.1699018401794054e-07   -7.6224698204966235e-06
1.1488637628675048e-05   4.1699018401794054e-07   -7.6224698204966235e-06
1.1488637628675048e-05   4.1699018401794054e-07   -7.6224698204966235e-06
1.1488637628675048e-05   4.1699018401794054e-07   -7.6224698204966235e-06
2.2374736493788725e-06   -2.389427314452913e-06   -2.472492695173949e-05
2.2374736493788725e-06   -2.389427314452913e-06   -2.472492695173949e-05
2.2374736493788725e-06   -2.389427314452913e-06   -2.472492695173949e-05
2.2374736493788725e-06   -2.389427314452913e-06   -2.472492695173949e-05
2.8586963267156673e-06   1.300915145086099e-06   -1.0199823267087547e-05
2.8586963267156673e-06   1.300915145086099e-06   -1.0199823267087547e-05
2.8586963267156673e-06   1.300915145086099e-06   -1.0199823267087547e-05
2.8586963267156673e-06   1.300915145086099e-06   -1.0199823267087547e-05
1.3307125254822085e-05   -1.371933594399282e-06   -2.6010162236906774e-05
1.3307125254822085e-05   -1.371933594399282e-06   -2.6010162236906774e-05
1.3307125254822085e-05   -1.371933594399282e-06   -2.6010162236906774e-05
1.3307125254822085e-05   -1.371933594399282e-06   -2.6010162236906774e-05
6.968737018851675e-06   -7.19591988597619e-07   -1.583758680710469e-05
6.968737018851675e-06   -7.19591988597619e-07   -1.583758680710469e-05
6.968737018851675e-06   -7.19591988597619e-07   -1.583758680710469e-05
6.968737018851675e-06   -7.19591988597619e-07   -1.583758680710469e-05
8.419758801310863e-07   -1.743838449349243e-07   -2.4076723664697222e-05
8.419758801310863e-07   -1.743838449349243e-07   -2.4076723664697222e-05
8.419758801310863e-07   -1.743838449349243e-07   -2.4076723664697222e-05
8.419758801310863e-07   -1.743838449349243e-07   -2.4076723664697222e-05
-7.719458115548479e-06   -1.3430486347362162e-06   -3.9046979198043875e-05
-7.719458115548479e-06   -1.3430486347362162e-06   -3.9046979198043875e-05
-7.719458115548479e-06   -1.3430486347362162e-06   -3.9046979198043875e-05
-7.719458115548479e-06   -1.3430486347362162e-06   -3.9046979198043875e-05
-7.157974436063224e-06   8.138104485527851e-07   -2.4212739803574105e-05
-7.157974436063224e-06   8.138104485527851e-07   -2.4212739803574105e-05
-7.157974436063224e-06   8.138104485527851e-07   -2.4212739803574105e-05
-7.157974436063224e-06   8.138104485527851e-07   -2.4212739803574105e-05
1.482391727244389e-06   -5.126778688142875e-07   -3.781745708533317e-05
1.482391727244389e-06   -5.126778688142875e-07   -3.781745708533317e-05
1.482391727244389e-06   -5.126778688142875e-07   -3.781745708533317e-05
1.482391727244389e-06   -5.126778688142875e-07   -3.781745708533317e-05
-3.0658176382018397e-06   -4.9693591044853644e-08   -3.0514898709584494e-05
-3.0658176382018397e-06   -4.9693591044853644e-08   -3.0514898709584494e-05
-3.0658176382018397e-06   -4.9693591044853644e-08   -3.0514898709584494e-05
-3.0658176382018397e-06   -4.9693591044853644e-08   -3.0514898709584494e-05
1.482391727244362e-06   8.138104485530019e-07   -2.341684681315384e-05
1.482391727244362e-06   8.138104485530019e-07   -2.341684681315384e-05
1.482391727244362e-06   8.138104485530019e-07   -2.341684681315384e-05
1.482391727244362e-06   8.138104485530019e-07   -2.341684681315384e-05
-7.157974436063224e-06   -5.126778688142875e-07   -3.861335007575371e-05
-7.157974436063224e-06   -5.126778688142875e-07   -3.861335007575371e-05
-7.157974436063224e-06   -5.126778688142875e-07   -3.861335007575371e-05
-7.157974436063224e-06   -5.126778688142875e-07   -3.861335007575371e-05
-6.593276852766118e-06   1.7654089880514683e-06   -2.424944268415545e-05
-6.593276852766118e-06   1.7654089880514683e-06   -2.424944268415545e-05
-6.593276852766118e-06   1.7654089880514683e-06   -2.424944268415545e-05
-6.593276852766118e-06   1.7654089880514683e-06   -2.424944268415545e-05
2.2374736493788996e-06   3.460575864777139e-07   -3.811574934678625e-05
2.2374736493788996e-06   3.460575864777139e-07   -3.811574934678625e-05
2.2374736493788996e-06   3.460575864777139e-07   -3.811574934678625e-05
2.2374736493788996e-06   3.460575864777139e-07   -3.811574934678625e-05
-2.5686746758178173e-06   6.325356954029436e-07   -3.0277389003480247e-05
-2.5686746758178173e-06   6.325356954029436e-07   -3.0277389003480247e-05
-2.5686746758178173e-06   6.325356954029436e-07   -3.0277389003480247e-05
-2.5686746758178173e-06   6.325356954029436e-07   -3.0277389003480247e-05
2.2374736493788996e-06   1.7654089880516852e-06   -2.339783184321137e-05
2.2374736493788996e-06   1.7654089880516852e-06   -2.339783184321137e-05
2.2374736493788996e-06   1.7654089880516852e-06   -2.339783184321137e-05
2.2374736493788996e-06   1.7654089880516852e-06   -2.339783184321137e-05
-6.593276852766118e-06   3.460575864777139e-07   -3.8967360187730656e-05
-6.593276852766118e-06   3.460575864777139e-07   -3.8967360187730656e-05
-6.593276852766118e-06   3.460575864777139e-07   -3.8967360187730656e-05
-6.593276852766118e-06   3.460575864777139e-07   -3.8967360187730656e-05
-6.053818712283262e-06   2.8522250952517023e-06   -2.485739328851838e-05
-6.053818712283262e-06   2.8522250952517023e-06   -2.485739328851838e-05
-6.053818712283262e-06   2.8522250952517023e-06   -2.485739328851838e-05
-6.053818712283262e-06   2.8522250952517023e-06   -2.485739328851838e-05
2.8586963267156944e-06   1.3631934813451967e-06   -3.881816605183952e-05
2.8586963267156944e-06   1.3631934813451967e-06   -3.881816605183952e-05
2.8586963267156944e-06   1.3631934813451967e-06   -3.881816605183952e-05
2.8586963267156944e-06   1.3631934813451967e-06   -3.881816605183952e-05
-2.0148943491323816e-06   1.3889653307842288e-06   -3.071097803509018e-05
-2.0148943491323816e-06   1.3889653307842288e-06   -3.071097803509018e-05
-2.0148943491323816e-06   1.3889653307842288e-06   -3.071097803509018e-05
-2.0148943491323816e-06   1.3889653307842288e-06   -3.071097803509018e-05
-7.719458115548479e-06   8.207857206884994e-07   -2.9148931433203352e-05
-7.719458115548479e-06   8.207857206884994e-07   -2.9148931433203352e-05
-7.719458115548479e-06   8.207857206884994e-07   -2.9148931433203352e-05
-7.719458115548479e-06   8.207857206884994e-07   -2.9148931433203352e-05
-1.6206045437879215e-05   1.034580321504627e-06   -4.316496687659815e-05
-1.6206045437879215e-05   1.034580321504627e-06   -4.316496687659815e-05
-1.6206045437879215e-05   1.034580321504627e-06   -4.316496687659815e-05
-1.6206045437879215e-05   1.034580321504627e-06   -4.316496687659815e-05
-1.5640634751491805e-05   1.8424087951560923e-06   -2.862631650876789e-05
-1.5640634751491805e-05   1.8424087951560923e-06   -2.862631650876789e-05
-1.5640634751491805e-05   1.8424087951560923e-06   -2.862631650876789e-05
-1.5640634751491805e-05   1.8424087951560923e-06   -2.862631650876789e-05
-7.157974436063238e-06   1.9133577370202166e-06   -4.280665306626759e-05
-7.157974436063238e-06   1.9133577370202166e-06   -4.280665306626759e-05
-7.157974436063238e-06   1.9133577370202166e-06   -4.280665306626759e-05
-7.157974436063238e-06   1.9133577370202166e-06   -4.280665306626759e-05
-1.1613405946462006e-05   1.58199723090122e-06   -3.5182117578598147e-05
-1.1613405946462006e-05   1.58199723090122e-06   -3.5182117578598147e-05
-1.1613405946462006e-05   1.58199723090122e-06   -3.5182117578598147e-05
-1.1613405946462006e-05   1.58199723090122e-06   -3.5182117578598147e-05
-7.157974436063238e-06   1.8424087951560923e-06   -2.8668885873886648e-05
-7.157974436063238e-06   1.8424087951560923e-06   -2.8668885873886648e-05
-7.157974436063238e-06   1.8424087951560923e-06   -2.8668885873886648e-05
-7.157974436063238e-06   1.8424087951560923e-06   -2.8668885873886648e-05
-1.5640634751491805e-05   1.9133577370202166e-06   -4.276408370114913e-05
-1.5640634751491805e-05   1.9133577370202166e-06   -4.276408370114913e-05
-1.5640634751491805e-05   1.9133577370202166e-06   -4.276408370114913e-05
-1.5640634751491805e-05   1.9133577370202166e-06   -4.276408370114913e-05
-1.5066049747188568e-05   2.886451918332738e-06   -2.870043971605501e-05
-1.5066049747188568e-05   2.886451918332738e-06   -2.870043971605501e-05
-1.5066049747188568e-05   2.886451918332738e-06   -2.870043971605501e-05
-1.5066049747188568e-05   2.886451918332738e-06   -2.870043971605501e-05
-6.593276852766118e-06   2.843636678085239e-06   -4.2796038729277355e-05
-6.593276852766118e-06   2.843636678085239e-06   -4.2796038729277355e-05
-6.593276852766118e-06   2.843636678085239e-06   -4.2796038729277355e-05
-6.593276852766118e-06   2.843636678085239e-06   -4.2796038729277355e-05
-1.1115992749914509e-05   2.3491928724051273e-06   -3.496151261728913e-05
-1.1115992749914509e-05   2.3491928724051273e-06   -3.496151261728913e-05
-1.1115992749914509e-05   2.3491928724051273e-06   -3.496151261728913e-05
-1.1115992749914509e-05   2.3491928724051273e-06   -3.496151261728913e-05
-6.593276852766118e-06   2.886451918332738e-06   -2.867475057190651e-05
-6.593276852766118e-06   2.886451918332738e-06   -2.867475057190651e-05
-6.593276852766118e-06   2.886451918332738e-06   -2.867475057190651e-05
-6.593276852766118e-06   2.886451918332738e-06   -2.867475057190651e-05
-1.506604974718854e-05   2.843636678085239e-06   -4.282172787342588e-05
-1.506604974718854e-05   2.843636678085239e-06   -4.282172787342588e-05
-1.506604974718854e-05   2.843636678085239e-06   -4.282172787342588e-05
-1.506604974718854e-05   2.843636678085239e-06   -4.282172787342588e-05
-1.451816582684305e-05   3.944962753547757e-06   -2.934538433679401e-05
-1.451816582684305e-05   3.944962753547757e-06   -2.934538433679401e-05
-1.451816582684305e-05   3.944962753547757e-06   -2.934538433679401e-05
-1.451816582684305e-05   3.944962753547757e-06   -2.934538433679401e-05
-6.053818712283275e-06   3.790006727451972e-06   -4.335965591206959e-05
-6.053818712283275e-06   3.790006727451972e-06   -4.335965591206959e-05
-6.053818712283275e-06   3.790006727451972e-06   -4.335965591206959e-05
-6.053818712283275e-06   3.790006727451972e-06   -4.335965591206959e-05
-1.0653356020944897e-05   3.128053312811876e-06   -3.529658834884993e-05
-1.0653356020944897e-05   3.128053312811876e-06   -3.529658834884993e-05
-1.0653356020944897e-05   3.128053312811876e-06   -3.529658834884993e-05
-1.0653356020944897e-05   3.128053312811876e-06   -3.529658834884993e-05
-1.6206045437879246e-05   1.8237779873221064e-06   -2.4504283859076064e-05
-1.6206045437879246e-05   1.8237779873221064e-06   -2.4504283859076064e-05
-1.6206045437879246e-05   1.8237779873221064e-06   -2.4504283859076064e-05
-1.6206045437879246e-05   1.8237779873221064e-06   -2.4504283859076064e-05
-2.459363312053606e-05   3.3428622255773227e-06   -3.757214612055103e-05
-2.459363312053606e-05   3.3428622255773227e-06   -3.757214612055103e-05
-2.459363312053606e-05   3.3428622255773227e-06   -3.757214612055103e-05
-2.459363312053606e-05   3.3428622255773227e-06   -3.757214612055103e-05
-2.3947436524859906e-05   2.848978257254456e-06   -2.30761664907793e-05
-2.3947436524859906e-05   2.848978257254456e-06   -2.30761664907793e-05
-2.3947436524859906e-05   2.848978257254456e-06   -2.30761664907793e-05
-2.3947436524859906e-05   2.848978257254456e-06   -2.30761664907793e-05
-1.5640634751491805e-05   4.280890016753174e-06   -3.777998316875865e-05
-1.5640634751491805e-05   4.280890016753174e-06   -3.777998316875865e-05
-1.5640634751491805e-05   4.280890016753174e-06   -3.777998316875865e-05
-1.5640634751491805e-05   4.280890016753174e-06   -3.777998316875865e-05
-1.995771084971582e-05   3.195836674608609e-06   -2.9933824333098417e-05
-1.995771084971582e-05   3.195836674608609e-06   -2.9933824333098417e-05
-1.995771084971582e-05   3.195836674608609e-06   -2.9933824333098417e-05
-1.995771084971582e-05   3.195836674608609e-06   -2.9933824333098417e-05
-1.5640634751491832e-05   2.848978257254239e-06   -2.3935313546478596e-05
-1.5640634751491832e-05   2.848978257254239e-06   -2.3935313546478596e-05
-1.5640634751491832e-05   2.848978257254239e-06   -2.3935313546478596e-05
-1.5640634751491832e-05   2.848978257254239e-06   -2.3935313546478596e-05
-2.3947436524859953e-05   4.280890016753174e-06   -3.692083611305961e-05
-2.3947436524859953e-05   4.280890016753174e-06   -3.692083611305961e-05
-2.3947436524859953e-05   4.280890016753174e-06   -3.692083611305961e-05
-2.3947436524859953e-05   4.280890016753174e-06   -3.692083611305961e-05
-2.317329549675735e-05   3.794587577151537e-06   -2.286170022913856e-05
-2.317329549675735e-05   3.794587577151537e-06   -2.286170022913856e-05
-2.317329549675735e-05   3.794587577151537e-06   -2.286170022913856e-05
-2.317329549675735e-05   3.794587577151537e-06   -2.286170022913856e-05
-1.5066049747188568e-05   5.125700571335457e-06   -3.7172444274930256e-05
-1.5066049747188568e-05   5.125700571335457e-06   -3.7172444274930256e-05
-1.5066049747188568e-05   5.125700571335457e-06   -3.7172444274930256e-05
-1.5066049747188568e-05   5.125700571335457e-06   -3.7172444274930256e-05
-1.9306225163978213e-05   3.936627459023498e-06   -2.939204137956074e-05
-1.9306225163978213e-05   3.936627459023498e-06   -2.939204137956074e-05
-1.9306225163978213e-05   3.936627459023498e-06   -2.939204137956074e-05
-1.9306225163978213e-05   3.936627459023498e-06   -2.939204137956074e-05
-1.506604974718855e-05   3.794587577151537e-06   -2.3660368025648693e-05
-1.506604974718855e-05   3.794587577151537e-06   -2.3660368025648693e-05
-1.506604974718855e-05   3.794587577151537e-06   -2.3660368025648693e-05
-1.506604974718855e-05   3.794587577151537e-06   -2.3660368025648693e-05
-2.317329549675735e-05   5.125700571335457e-06   -3.637377647842011e-05
-2.317329549675735e-05   5.125700571335457e-06   -3.637377647842011e-05
-2.317329549675735e-05   5.125700571335457e-06   -3.637377647842011e-05
-2.317329549675735e-05   5.125700571335457e-06   -3.637377647842011e-05
-2.252845274100749e-05   4.854083142124361e-06   -2.349440375755353e-05
-2.252845274100749e-05   4.854083142124361e-06   -2.349440375755353e-05
-2.252845274100749e-05   4.854083142124361e-06   -2.349440375755353e-05
-2.252845274100749e-05   4.854083142124361e-06   -2.349440375755353e-05
-1.451816582684305e-05   6.0706449522471544e-06   -3.757481903390145e-05
-1.451816582684305e-05   6.0706449522471544e-06   -3.757481903390145e-05
-1.451816582684305e-05   6.0706449522471544e-06   -3.757481903390145e-05
-1.451816582684305e-05   6.0706449522471544e-06   -3.757481903390145e-05
-1.8870594384410195e-05   4.666369861694832e-06   -2.9478206383624808e-05
-1.8870594384410195e-05   4.666369861694832e-06   -2.9478206383624808e-05
-1.8870594384410195e-05   4.666369861694832e-06   -2.9478206383624808e-05
-1.8870594384410195e-05   4.666369861694832e-06   -2.9478206383624808e-05
-2.459363312053606e-05   3.065686609040252e-06   -1.26734309875841e-05
-2.459363312053606e-05   3.065686609040252e-06   -1.26734309875841e-05
-2.459363312053606e-05   3.065686609040252e-06   -1.26734309875841e-05
-2.459363312053606e-05   3.065686609040252e-06   -1.26734309875841e-05
-3.415512998960888e-05   5.747579758409423e-06   -2.7000123213084164e-05
-3.415512998960888e-05   5.747579758409423e-06   -2.7000123213084164e-05
-3.415512998960888e-05   5.747579758409423e-06   -2.7000123213084164e-05
-3.415512998960888e-05   5.747579758409423e-06   -2.7000123213084164e-05
-3.2376498904962214e-05   3.99534149306182e-06   -7.96027642877787e-06
-3.2376498904962214e-05   3.99534149306182e-06   -7.96027642877787e-06
-3.2376498904962214e-05   3.99534149306182e-06   -7.96027642877787e-06
-3.2376498904962214e-05   3.99534149306182e-06   -7.96027642877787e-06
-2.3947436524859906e-05   6.721672620392223e-06   -2.3644512405346444e-05
-2.3947436524859906e-05   6.721672620392223e-06   -2.3644512405346444e-05
-2.3947436524859906e-05   6.721672620392223e-06   -2.3644512405346444e-05
-2.3947436524859906e-05   6.721672620392223e-06   -2.3644512405346444e-05
-2.7597829163976107e-05   4.9935960479089575e-06   -1.652367872999631e-05
-2.7597829163976107e-05   4.9935960479089575e-06   -1.652367872999631e-05
-2.7597829163976107e-05   4.9935960479089575e-06   -1.652367872999631e-05
-2.7597829163976107e-05   4.9935960479089575e-06   -1.652367872999631e-05
-2.3947436524859933e-05   3.99534149306182e-06   -9.596075105176155e-06
-2.3947436524859933e-05   3.99534149306182e-06   -9.596075105176155e-06
-2.3947436524859933e-05   3.99534149306182e-06   -9.596075105176155e-06
-2.3947436524859933e-05   3.99534149306182e-06   -9.596075105176155e-06
-3.237649890496208e-05   6.721672620392223e-06   -2.200871372894835e-05
-3.237649890496208e-05   6.721672620392223e-06   -2.200871372894835e-05
-3.237649890496208e-05   6.721672620392223e-06   -2.200871372894835e-05
-3.237649890496208e-05   6.721672620392223e-06   -2.200871372894835e-05
-3.090646340845056e-05   4.420984062777867e-06   -6.53020593067424e-06
-3.090646340845056e-05   4.420984062777867e-06   -6.53020593067424e-06
-3.090646340845056e-05   4.420984062777867e-06   -6.53020593067424e-06
-3.090646340845056e-05   4.420984062777867e-06   -6.53020593067424e-06
-2.3173295496757302e-05   7.070773734920615e-06   -2.1008692920115396e-05
-2.3173295496757302e-05   7.070773734920615e-06   -2.1008692920115396e-05
-2.3173295496757302e-05   7.070773734920615e-06   -2.1008692920115396e-05
-2.3173295496757302e-05   7.070773734920615e-06   -2.1008692920115396e-05
-2.694775127363626e-05   5.431946276062251e-06   -1.373463681666868e-05
-2.694775127363626e-05   5.431946276062251e-06   -1.373463681666868e-05
-2.694775127363626e-05   5.431946276062251e-06   -1.373463681666868e-05
-2.694775127363626e-05   5.431946276062251e-06   -1.373463681666868e-05
-2.317329549675735e-05   4.420984062777867e-06   -8.120079733960018e-06
-2.317329549675735e-05   4.420984062777867e-06   -8.120079733960018e-06
-2.317329549675735e-05   4.420984062777867e-06   -8.120079733960018e-06
-2.317329549675735e-05   4.420984062777867e-06   -8.120079733960018e-06
-3.0906463408450534e-05   7.070773734920615e-06   -1.94188191168297e-05
-3.0906463408450534e-05   7.070773734920615e-06   -1.94188191168297e-05
-3.0906463408450534e-05   7.070773734920615e-06   -1.94188191168297e-05
-3.0906463408450534e-05   7.070773734920615e-06   -1.94188191168297e-05
-2.916742135930308e-05   5.0799343222463714e-06   -5.032185550531403e-06
-2.916742135930308e-05   5.0799343222463714e-06   -5.032185550531403e-06
-2.916742135930308e-05   5.0799343222463714e-06   -5.032185550531403e-06
-2.916742135930308e-05   5.0799343222463714e-06   -5.032185550531403e-06
-2.252845274100749e-05   7.512862040055107e-06   -1.75568898783758e-05
-2.252845274100749e-05   7.512862040055107e-06   -1.75568898783758e-05
-2.252845274100749e-05   7.512862040055107e-06   -1.75568898783758e-05
-2.252845274100749e-05   7.512862040055107e-06   -1.75568898783758e-05
-2.5565449243994845e-05   5.6434010563815185e-06   -1.1373552449859853e-05
-2.5565449243994845e-05   5.6434010563815185e-06   -1.1373552449859853e-05
-2.5565449243994845e-05   5.6434010563815185e-06   -1.1373552449859853e-05
-2.5565449243994845e-05   5.6434010563815185e-06   -1.1373552449859853e-05
2.5916266639106316e-05   -3.3987595462984122e-06   -1.7680057958890244e-07
2.5916266639106316e-05   -3.3987595462984122e-06   -1.7680057958890244e-07
2.5916266639106316e-05   -3.3987595462984122e-06   -1.7680057958890244e-07
2.5916266639106316e-05   -3.3987595462984122e-06   -1.7680057958890244e-07
1.1041770778850052e-05   -6.128420260147205e-06   -2.660542344165844e-05
1.1041770778850052e-05   -6.128420260147205e-06   -2.660542344165844e-05
1.1041770778850052e-05   -6.128420260147205e-06   -2.660542344165844e-05
1.1041770778850052e-05   -6.128420260147205e-06   -2.660542344165844e-05
1.1822753827942406e-05   -2.7933599569410564e-06   -2.905042843422481e-06
1.1822753827942406e-05   -2.7933599569410564e-06   -2.905042843422481e-06
1.1822753827942406e-05   -2.7933599569410564e-06   -2.905042843422481e-06
1.1822753827942406e-05   -2.7933599569410564e-06   -2.905042843422481e-06
2.7874234852454268e-05   -5.699742989506793e-06   -2.7913681398069386e-05
2.7874234852454268e-05   -5.699742989506793e-06   -2.7913681398069386e-05
2.7874234852454268e-05   -5.699742989506793e-06   -2.7913681398069386e-05
2.7874234852454268e-05   -5.699742989506793e-06   -2.7913681398069386e-05
1.839077952872753e-05   -4.039787458156793e-06   -1.3103895844001777e-05
1.839077952872753e-05   -4.039787458156793e-06   -1.3103895844001777e-05
1.839077952872753e-05   -4.039787458156793e-06   -1.3103895844001777e-05
1.839077952872753e-05   -4.039787458156793e-06   -1.3103895844001777e-05
2.7874234852454322e-05   -2.7933599569410564e-06   -1.1612130238829958e-06
2.7874234852454322e-05   -2.7933599569410564e-06   -1.1612130238829958e-06
2.7874234852454322e-05   -2.7933599569410564e-06   -1.1612130238829958e-06
2.7874234852454322e-05   -2.7933599569410564e-06   -1.1612130238829958e-06
1.1822753827942406e-05   -5.699742989506793e-06   -2.9657511217609034e-05
1.1822753827942406e-05   -5.699742989506793e-06   -2.9657511217609034e-05
1.1822753827942406e-05   -5.699742989506793e-06   -2.9657511217609034e-05
1.1822753827942406e-05   -5.699742989506793e-06   -2.9657511217609034e-05
1.268799067593199e-05   -2.389427314452913e-06   -4.101632543334829e-06
1.268799067593199e-05   -2.389427314452913e-06   -4.101632543334829e-06
1.268799067593199e-05   -2.389427314452913e-06   -4.101632543334829e-06
1.268799067593199e-05   -2.389427314452913e-06   -4.101632543334829e-06
2.9518734097551435e-05   -5.3310047102932655e-06   -3.038792514186274e-05
2.9518734097551435e-05   -5.3310047102932655e-06   -3.038792514186274e-05
2.9518734097551435e-05   -5.3310047102932655e-06   -3.038792514186274e-05
2.9518734097551435e-05   -5.3310047102932655e-06   -3.038792514186274e-05
1.986131302516413e-05   -3.875632849048311e-06   -1.5165446471297576e-05
1.986131302516413e-05   -3.875632849048311e-06   -1.5165446471297576e-05
1.986131302516413e-05   -3.875632849048311e-06   -1.5165446471297576e-05
1.986131302516413e-05   -3.875632849048311e-06   -1.5165446471297576e-05
2.9518734097551435e-05   -2.389427314452913e-06   -2.3366861058304877e-06
2.9518734097551435e-05   -2.389427314452913e-06   -2.3366861058304877e-06
2.9518734097551435e-05   -2.389427314452913e-06   -2.3366861058304877e-06
2.9518734097551435e-05   -2.389427314452913e-06   -2.3366861058304877e-06
1.268799067593199e-05   -5.3310047102932655e-06   -3.215287157936719e-05
1.268799067593199e-05   -5.3310047102932655e-06   -3.215287157936719e-05
1.268799067593199e-05   -5.3310047102932655e-06   -3.215287157936719e-05
1.268799067593199e-05   -5.3310047102932655e-06   -3.215287157936719e-05
1.340295999637927e-05   -1.371933594399282e-06   -6.8622608161976895e-06
1.340295999637927e-05   -1.371933594399282e-06   -6.8622608161976895e-06
1.340295999637927e-05   -1.371933594399282e-06   -6.8622608161976895e-06
1.340295999637927e-05   -1.371933594399282e-06   -6.8622608161976895e-06
3.1428224836662646e-05   -4.1652721610272066e-06   -3.522836574335969e-05
3.1428224836662646e-05   -4.1652721610272066e-06   -3.522836574335969e-05
3.1428224836662646e-05   -4.1652721610272066e-06   -3.522836574335969e-05
3.1428224836662646e-05   -4.1652721610272066e-06   -3.522836574335969e-05
2.065728461371655e-05   -3.419874842930685e-06   -1.7724037095974996e-05
2.065728461371655e-05   -3.419874842930685e-06   -1.7724037095974996e-05
2.065728461371655e-05   -3.419874842930685e-06   -1.7724037095974996e-05
2.065728461371655e-05   -3.419874842930685e-06   -1.7724037095974996e-05
1.1041770778850052e-05   -1.3430486347362162e-06   -1.801482512727966e-05
1.1041770778850052e-05   -1.3430486347362162e-06   -1.801482512727966e-05
1.1041770778850052e-05   -1.3430486347362162e-06   -1.801482512727966e-05
1.1041770778850052e-05   -1.3430486347362162e-06   -1.801482512727966e-05
-4.700143308478358e-06   -2.8682810223582163e-06   -4.5166488038733254e-05
-4.700143308478358e-06   -2.8682810223582163e-06   -4.5166488038733254e-05
-4.700143308478358e-06   -2.8682810223582163e-06   -4.5166488038733254e-05
-4.700143308478358e-06   -2.8682810223582163e-06   -4.5166488038733254e-05
-3.973670748892624e-06   -5.126778688142875e-07   -1.8389569487617385e-05
-3.973670748892624e-06   -5.126778688142875e-07   -1.8389569487617385e-05
-3.973670748892624e-06   -5.126778688142875e-07   -1.8389569487617385e-05
-3.973670748892624e-06   -5.126778688142875e-07   -1.8389569487617385e-05
1.1822753827942406e-05   -2.2723213032090767e-06   -4.366115772170534e-05
1.1822753827942406e-05   -2.2723213032090767e-06   -4.366115772170534e-05
1.1822753827942406e-05   -2.2723213032090767e-06   -4.366115772170534e-05
1.1822753827942406e-05   -2.2723213032090767e-06   -4.366115772170534e-05
3.586765570928926e-06   -1.3865823185852007e-06   -3.046595401745729e-05
3.586765570928926e-06   -1.3865823185852007e-06   -3.046595401745729e-05
3.586765570928926e-06   -1.3865823185852007e-06   -3.046595401745729e-05
3.586765570928926e-06   -1.3865823185852007e-06   -3.046595401745729e-05
1.1822753827942406e-05   -5.126778688142875e-07   -1.733378342698021e-05
1.1822753827942406e-05   -5.126778688142875e-07   -1.733378342698021e-05
1.1822753827942406e-05   -5.126778688142875e-07   -1.733378342698021e-05
1.1822753827942406e-05   -5.126778688142875e-07   -1.733378342698021e-05
-3.97367074889261e-06   -2.2723213032090767e-06   -4.471694378234241e-05
-3.97367074889261e-06   -2.2723213032090767e-06   -4.471694378234241e-05
-3.97367074889261e-06   -2.2723213032090767e-06   -4.471694378234241e-05
-3.97367074889261e-06   -2.2723213032090767e-06   -4.471694378234241e-05
-3.2800456069833955e-06   3.460575864777139e-07   -1.8626425339364526e-05
-3.2800456069833955e-06   3.460575864777139e-07   -1.8626425339364526e-05
-3.2800456069833955e-06   3.460575864777139e-07   -1.8626425339364526e-05
-3.2800456069833955e-06   3.460575864777139e-07   -1.8626425339364526e-05
1.268799067593199e-05   -1.5438930818269248e-06   -4.410584874324058e-05
1.268799067593199e-05   -1.5438930818269248e-06   -4.410584874324058e-05
1.268799067593199e-05   -1.5438930818269248e-06   -4.410584874324058e-05
1.268799067593199e-05   -1.5438930818269248e-06   -4.410584874324058e-05
4.162929828003864e-06   -8.593331723891727e-07   -3.030814994235578e-05
4.162929828003864e-06   -8.593331723891727e-07   -3.030814994235578e-05
4.162929828003864e-06   -8.593331723891727e-07   -3.030814994235578e-05
4.162929828003864e-06   -8.593331723891727e-07   -3.030814994235578e-05
1.268799067593199e-05   3.460575864777139e-07   -1.74924549383817e-05
1.268799067593199e-05   3.460575864777139e-07   -1.74924549383817e-05
1.268799067593199e-05   3.460575864777139e-07   -1.74924549383817e-05
1.268799067593199e-05   3.460575864777139e-07   -1.74924549383817e-05
-3.2800456069833955e-06   -1.5438930818269248e-06   -4.523981914422357e-05
-3.2800456069833955e-06   -1.5438930818269248e-06   -4.523981914422357e-05
-3.2800456069833955e-06   -1.5438930818269248e-06   -4.523981914422357e-05
-3.2800456069833955e-06   -1.5438930818269248e-06   -4.523981914422357e-05
-2.6285839908401587e-06   1.3631934813451967e-06   -1.926081889008324e-05
-2.6285839908401587e-06   1.3631934813451967e-06   -1.926081889008324e-05
-2.6285839908401587e-06   1.3631934813451967e-06   -1.926081889008324e-05
-2.6285839908401587e-06   1.3631934813451967e-06   -1.926081889008324e-05
1.3402959996379243e-05   -6.272456897281169e-07   -4.478579536613828e-05
1.3402959996379243e-05   -6.272456897281169e-07   -4.478579536613828e-05
1.3402959996379243e-05   -6.272456897281169e-07   -4.478579536613828e-05
1.3402959996379243e-05   -6.272456897281169e-07   -4.478579536613828e-05
4.882099256438719e-06   -2.0899974220961286e-07   -3.083530836808253e-05
4.882099256438719e-06   -2.0899974220961286e-07   -3.083530836808253e-05
4.882099256438719e-06   -2.0899974220961286e-07   -3.083530836808253e-05
4.882099256438719e-06   -2.0899974220961286e-07   -3.083530836808253e-05
-4.700143308478371e-06   1.034580321504627e-06   -2.3176228998896637e-05
-4.700143308478371e-06   1.034580321504627e-06   -2.3176228998896637e-05
-4.700143308478371e-06   1.034580321504627e-06   -2.3176228998896637e-05
-4.700143308478371e-06   1.034580321504627e-06   -2.3176228998896637e-05
-2.0164769280735154e-05   5.254300980911744e-07   -4.9256095753372696e-05
-2.0164769280735154e-05   5.254300980911744e-07   -4.9256095753372696e-05
-2.0164769280735154e-05   5.254300980911744e-07   -4.9256095753372696e-05
-2.0164769280735154e-05   5.254300980911744e-07   -4.9256095753372696e-05
-1.938285329946801e-05   1.9133577370202166e-06   -2.3013930741272795e-05
-1.938285329946801e-05   1.9133577370202166e-06   -2.3013930741272795e-05
-1.938285329946801e-05   1.9133577370202166e-06   -2.3013930741272795e-05
-1.938285329946801e-05   1.9133577370202166e-06   -2.3013930741272795e-05
-3.97367074889261e-06   1.1949272984510678e-06   -4.8264843395756944e-05
-3.97367074889261e-06   1.1949272984510678e-06   -4.8264843395756944e-05
-3.97367074889261e-06   1.1949272984510678e-06   -4.8264843395756944e-05
-3.97367074889261e-06   1.1949272984510678e-06   -4.8264843395756944e-05
-1.1972894313463951e-05   1.418650936979007e-06   -3.5067038304588025e-05
-1.1972894313463951e-05   1.418650936979007e-06   -3.5067038304588025e-05
-1.1972894313463951e-05   1.418650936979007e-06   -3.5067038304588025e-05
-1.1972894313463951e-05   1.418650936979007e-06   -3.5067038304588025e-05
-3.973670748892624e-06   1.9133577370202166e-06   -2.258287247813135e-05
-3.973670748892624e-06   1.9133577370202166e-06   -2.258287247813135e-05
-3.973670748892624e-06   1.9133577370202166e-06   -2.258287247813135e-05
-3.973670748892624e-06   1.9133577370202166e-06   -2.258287247813135e-05
-1.938285329946801e-05   1.1949272984510678e-06   -4.8695901658898336e-05
-1.938285329946801e-05   1.1949272984510678e-06   -4.8695901658898336e-05
-1.938285329946801e-05   1.1949272984510678e-06   -4.8695901658898336e-05
-1.938285329946801e-05   1.1949272984510678e-06   -4.8695901658898336e-05
-1.8628634386820546e-05   2.843636678085239e-06   -2.297928129055423e-05
-1.8628634386820546e-05   2.843636678085239e-06   -2.297928129055423e-05
-1.8628634386820546e-05   2.843636678085239e-06   -2.297928129055423e-05
-1.8628634386820546e-05   2.843636678085239e-06   -2.297928129055423e-05
-3.280045606983409e-06   1.970007662013395e-06   -4.803608518063994e-05
-3.280045606983409e-06   1.970007662013395e-06   -4.803608518063994e-05
-3.280045606983409e-06   1.970007662013395e-06   -4.803608518063994e-05
-3.280045606983409e-06   1.970007662013395e-06   -4.803608518063994e-05
-1.1300189515642105e-05   2.0454813854933144e-06   -3.471446290029663e-05
-1.1300189515642105e-05   2.0454813854933144e-06   -3.471446290029663e-05
-1.1300189515642105e-05   2.0454813854933144e-06   -3.471446290029663e-05
-1.1300189515642105e-05   2.0454813854933144e-06   -3.471446290029663e-05
-3.280045606983409e-06   2.843636678085239e-06   -2.2455103880911252e-05
-3.280045606983409e-06   2.843636678085239e-06   -2.2455103880911252e-05
-3.280045606983409e-06   2.843636678085239e-06   -2.2455103880911252e-05
-3.280045606983409e-06   2.843636678085239e-06   -2.2455103880911252e-05
-1.8628634386820546e-05   1.970007662013395e-06   -4.856026259028286e-05
-1.8628634386820546e-05   1.970007662013395e-06   -4.856026259028286e-05
-1.8628634386820546e-05   1.970007662013395e-06   -4.856026259028286e-05
-1.8628634386820546e-05   1.970007662013395e-06   -4.856026259028286e-05
-1.793170353797756e-05   3.790006727451972e-06   -2.35203012526376e-05
-1.793170353797756e-05   3.790006727451972e-06   -2.35203012526376e-05
-1.793170353797756e-05   3.790006727451972e-06   -2.35203012526376e-05
-1.793170353797756e-05   3.790006727451972e-06   -2.35203012526376e-05
-2.6285839908401723e-06   2.7709876096711564e-06   -4.841408902719844e-05
-2.6285839908401723e-06   2.7709876096711564e-06   -4.841408902719844e-05
-2.6285839908401723e-06   2.7709876096711564e-06   -4.841408902719844e-05
-2.6285839908401723e-06   2.7709876096711564e-06   -4.841408902719844e-05
-1.0699296363689463e-05   2.6886622019098826e-06   -3.4913506494459515e-05
-1.0699296363689463e-05   2.6886622019098826e-06   -3.4913506494459515e-05
-1.0699296363689463e-05   2.6886622019098826e-06   -3.4913506494459515e-05
-1.0699296363689463e-05   2.6886622019098826e-06   -3.4913506494459515e-05
-2.016476928073518e-05   3.3428622255773227e-06   -1.88003489198505e-05
-2.016476928073518e-05   3.3428622255773227e-06   -1.88003489198505e-05
-2.016476928073518e-05   3.3428622255773227e-06   -1.88003489198505e-05
-2.016476928073518e-05   3.3428622255773227e-06   -1.88003489198505e-05
-3.534493363110016e-05   4.040641275961012e-06   -4.368195540689493e-05
-3.534493363110016e-05   4.040641275961012e-06   -4.368195540689493e-05
-3.534493363110016e-05   4.040641275961012e-06   -4.368195540689493e-05
-3.534493363110016e-05   4.040641275961012e-06   -4.368195540689493e-05
-3.440235258520614e-05   4.280890016753174e-06   -1.766402571498735e-05
-3.440235258520614e-05   4.280890016753174e-06   -1.766402571498735e-05
-3.440235258520614e-05   4.280890016753174e-06   -1.766402571498735e-05
-3.440235258520614e-05   4.280890016753174e-06   -1.766402571498735e-05
-1.9382853299468043e-05   4.8905641732450295e-06   -4.3062329018445994e-05
-1.9382853299468043e-05   4.8905641732450295e-06   -4.3062329018445994e-05
-1.9382853299468043e-05   4.8905641732450295e-06   -4.3062329018445994e-05
-1.9382853299468043e-05   4.8905641732450295e-06   -4.3062329018445994e-05
-2.71241378466726e-05   4.3159702188344876e-06   -2.981543173379193e-05
-2.71241378466726e-05   4.3159702188344876e-06   -2.981543173379193e-05
-2.71241378466726e-05   4.3159702188344876e-06   -2.981543173379193e-05
-2.71241378466726e-05   4.3159702188344876e-06   -2.981543173379193e-05
-1.9382853299468043e-05   4.280890016753174e-06   -1.8029830208882462e-05
-1.9382853299468043e-05   4.280890016753174e-06   -1.8029830208882462e-05
-1.9382853299468043e-05   4.280890016753174e-06   -1.8029830208882462e-05
-1.9382853299468043e-05   4.280890016753174e-06   -1.8029830208882462e-05
-3.44023525852062e-05   4.8905641732450295e-06   -4.26965245245508e-05
-3.44023525852062e-05   4.8905641732450295e-06   -4.26965245245508e-05
-3.44023525852062e-05   4.8905641732450295e-06   -4.26965245245508e-05
-3.44023525852062e-05   4.8905641732450295e-06   -4.26965245245508e-05
-3.33590610175082e-05   5.125700571335457e-06   -1.7031931981225734e-05
-3.33590610175082e-05   5.125700571335457e-06   -1.7031931981225734e-05
-3.33590610175082e-05   5.125700571335457e-06   -1.7031931981225734e-05
-3.33590610175082e-05   5.125700571335457e-06   -1.7031931981225734e-05
-1.862863438682058e-05   5.622476756056774e-06   -4.188070874320487e-05
-1.862863438682058e-05   5.622476756056774e-06   -4.188070874320487e-05
-1.862863438682058e-05   5.622476756056774e-06   -4.188070874320487e-05
-1.862863438682058e-05   5.622476756056774e-06   -4.188070874320487e-05
-2.617043918644207e-05   4.9778827836302435e-06   -2.892427769371302e-05
-2.617043918644207e-05   4.9778827836302435e-06   -2.892427769371302e-05
-2.617043918644207e-05   4.9778827836302435e-06   -2.892427769371302e-05
-2.617043918644207e-05   4.9778827836302435e-06   -2.892427769371302e-05
-1.8628634386820566e-05   5.125700571335457e-06   -1.732999769205848e-05
-1.8628634386820566e-05   5.125700571335457e-06   -1.732999769205848e-05
-1.8628634386820566e-05   5.125700571335457e-06   -1.732999769205848e-05
-1.8628634386820566e-05   5.125700571335457e-06   -1.732999769205848e-05
-3.33590610175082e-05   5.622476756057208e-06   -4.1582643032372e-05
-3.33590610175082e-05   5.622476756057208e-06   -4.1582643032372e-05
-3.33590610175082e-05   5.622476756057208e-06   -4.1582643032372e-05
-3.33590610175082e-05   5.622476756057208e-06   -4.1582643032372e-05
-3.2477555560311284e-05   6.0706449522471544e-06   -1.7425696455523627e-05
-3.2477555560311284e-05   6.0706449522471544e-06   -1.7425696455523627e-05
-3.2477555560311284e-05   6.0706449522471544e-06   -1.7425696455523627e-05
-3.2477555560311284e-05   6.0706449522471544e-06   -1.7425696455523627e-05
-1.7931703537977592e-05   6.431968791061147e-06   -4.188557746270139e-05
-1.7931703537977592e-05   6.431968791061147e-06   -4.188557746270139e-05
-1.7931703537977592e-05   6.431968791061147e-06   -4.188557746270139e-05
-1.7931703537977592e-05   6.431968791061147e-06   -4.188557746270139e-05
-2.5577958696175915e-05   5.587489688374959e-06   -2.863513140409263e-05
-2.5577958696175915e-05   5.587489688374959e-06   -2.863513140409263e-05
-2.5577958696175915e-05   5.587489688374959e-06   -2.863513140409263e-05
-2.5577958696175915e-05   5.587489688374959e-06   -2.863513140409263e-05
-3.534493363110016e-05   5.747579758409206e-06   -9.418794471775013e-06
-3.534493363110016e-05   5.747579758409206e-06   -9.418794471775013e-06
-3.534493363110016e-05   5.747579758409206e-06   -9.418794471775013e-06
-3.534493363110016e-05   5.747579758409206e-06   -9.418794471775013e-06
-5.133721330284113e-05   7.93864582708699e-06   -3.4757954283470014e-05
-5.133721330284113e-05   7.93864582708699e-06   -3.4757954283470014e-05
-5.133721330284113e-05   7.93864582708699e-06   -3.4757954283470014e-05
-5.133721330284113e-05   7.93864582708699e-06   -3.4757954283470014e-05
-4.917023755218515e-05   6.721672620392223e-06   -2.9799299948981076e-06
-4.917023755218515e-05   6.721672620392223e-06   -2.9799299948981076e-06
-4.917023755218515e-05   6.721672620392223e-06   -2.9799299948981076e-06
-4.917023755218515e-05   6.721672620392223e-06   -2.9799299948981076e-06
-3.440235258520614e-05   9.067959307685995e-06   -2.9000843618905995e-05
-3.440235258520614e-05   9.067959307685995e-06   -2.9000843618905995e-05
-3.440235258520614e-05   9.067959307685995e-06   -2.9000843618905995e-05
-3.440235258520614e-05   9.067959307685995e-06   -2.9000843618905995e-05
-4.080413149838424e-05   7.562974105524778e-06   -1.7428220975645873e-05
-4.080413149838424e-05   7.562974105524778e-06   -1.7428220975645873e-05
-4.080413149838424e-05   7.562974105524778e-06   -1.7428220975645873e-05
-4.080413149838424e-05   7.562974105524778e-06   -1.7428220975645873e-05
-3.440235258520617e-05   6.721672620392223e-06   -4.387702007274154e-06
-3.440235258520617e-05   6.721672620392223e-06   -4.387702007274154e-06
-3.440235258520617e-05   6.721672620392223e-06   -4.387702007274154e-06
-3.440235258520617e-05   6.721672620392223e-06   -4.387702007274154e-06
-4.917023755218507e-05   9.067959307685778e-06   -2.7593071606529752e-05
-4.917023755218507e-05   9.067959307685778e-06   -2.7593071606529752e-05
-4.917023755218507e-05   9.067959307685778e-06   -2.7593071606529752e-05
-4.917023755218507e-05   9.067959307685778e-06   -2.7593071606529752e-05
-4.73870919088441e-05   7.0707737349208315e-06   -2.9023699297972376e-07
-4.73870919088441e-05   7.0707737349208315e-06   -2.9023699297972376e-07
-4.73870919088441e-05   7.0707737349208315e-06   -2.9023699297972376e-07
-4.73870919088441e-05   7.0707737349208315e-06   -2.9023699297972376e-07
-3.33590610175082e-05   9.365126118156611e-06   -2.504689990848106e-05
-3.33590610175082e-05   9.365126118156611e-06   -2.504689990848106e-05
-3.33590610175082e-05   9.365126118156611e-06   -2.504689990848106e-05
-3.33590610175082e-05   9.365126118156611e-06   -2.504689990848106e-05
-4.006757631980165e-05   8.013149780614418e-06   -1.305485526879955e-05
-4.006757631980165e-05   8.013149780614418e-06   -1.305485526879955e-05
-4.006757631980165e-05   8.013149780614418e-06   -1.305485526879955e-05
-4.006757631980165e-05   8.013149780614418e-06   -1.305485526879955e-05
-3.33590610175082e-05   7.0707737349208315e-06   -1.6668484229211047e-06
-3.33590610175082e-05   7.0707737349208315e-06   -1.6668484229211047e-06
-3.33590610175082e-05   7.0707737349208315e-06   -1.6668484229211047e-06
-3.33590610175082e-05   7.0707737349208315e-06   -1.6668484229211047e-06
-4.7387091908843924e-05   9.365126118156611e-06   -2.367028847853961e-05
-4.7387091908843924e-05   9.365126118156611e-06   -2.367028847853961e-05
-4.7387091908843924e-05   9.365126118156611e-06   -2.367028847853961e-05
-4.7387091908843924e-05   9.365126118156611e-06   -2.367028847853961e-05
-4.546286701325112e-05   7.512862040055107e-06   3.126851614801136e-06
-4.546286701325112e-05   7.512862040055107e-06   3.126851614801136e-06
-4.546286701325112e-05   7.512862040055107e-06   3.126851614801136e-06
-4.546286701325112e-05   7.512862040055107e-06   3.126851614801136e-06
-3.2477555560311284e-05   9.620455374843634e-06   -1.9779890140971872e-05
-3.2477555560311284e-05   9.620455374843634e-06   -1.9779890140971872e-05
-3.2477555560311284e-05   9.620455374843634e-06   -1.9779890140971872e-05
-3.2477555560311284e-05   9.620455374843634e-06   -1.9779890140971872e-05
-3.82589551846455e-05   8.086543389105227e-06   -9.223876908972238e-06
-3.82589551846455e-05   8.086543389105227e-06   -9.223876908972238e-06
-3.82589551846455e-05   8.086543389105227e-06   -9.223876908972238e-06
-3.82589551846455e-05   8.086543389105227e-06   -9.223876908972238e-06
4.3956893368623894e-05   -6.128420260147422e-06   8.731986660728917e-06
4.3956893368623894e-05   -6.128420260147422e-06   8.731986660728917e-06
4.3956893368623894e-05   -6.128420260147422e-06   8.731986660728917e-06
4.3956893368623894e-05   -6.128420260147422e-06   8.731986660728917e-06
2.117962849043989e-05   -9.071795085088732e-06   -3.0996146364542705e-05
2.117962849043989e-05   -9.071795085088732e-06   -3.0996146364542705e-05
2.117962849043989e-05   -9.071795085088732e-06   -3.0996146364542705e-05
2.117962849043989e-05   -9.071795085088732e-06   -3.0996146364542705e-05
2.204505123404909e-05   -5.699742989507227e-06   4.219998207975013e-06
2.204505123404909e-05   -5.699742989507227e-06   4.219998207975013e-06
2.204505123404909e-05   -5.699742989507227e-06   4.219998207975013e-06
2.204505123404909e-05   -5.699742989507227e-06   4.219998207975013e-06
4.596753195126348e-05   -8.860241586341067e-06   -3.375450382928216e-05
4.596753195126348e-05   -8.860241586341067e-06   -3.375450382928216e-05
4.596753195126348e-05   -8.860241586341067e-06   -3.375450382928216e-05
4.596753195126348e-05   -8.860241586341067e-06   -3.375450382928216e-05
3.193374901441182e-05   -6.7095628717758066e-06   -1.1655272829935032e-05
3.193374901441182e-05   -6.7095628717758066e-06   -1.1655272829935032e-05
3.193374901441182e-05   -6.7095628717758066e-06   -1.1655272829935032e-05
3.193374901441182e-05   -6.7095628717758066e-06   -1.1655272829935032e-05
4.596753195126353e-05   -5.699742989507227e-06   6.116297366075361e-06
4.596753195126353e-05   -5.699742989507227e-06   6.116297366075361e-06
4.596753195126353e-05   -5.699742989507227e-06   6.116297366075361e-06
4.596753195126353e-05   -5.699742989507227e-06   6.116297366075361e-06
2.2045051234049036e-05   -8.860241586341067e-06   -3.565080298738245e-05
2.2045051234049036e-05   -8.860241586341067e-06   -3.565080298738245e-05
2.2045051234049036e-05   -8.860241586341067e-06   -3.565080298738245e-05
2.2045051234049036e-05   -8.860241586341067e-06   -3.565080298738245e-05
2.2906000180778895e-05   -5.331004710293699e-06   2.0118387537065765e-06
2.2906000180778895e-05   -5.331004710293699e-06   2.0118387537065765e-06
2.2906000180778895e-05   -5.331004710293699e-06   2.0118387537065765e-06
2.2906000180778895e-05   -5.331004710293699e-06   2.0118387537065765e-06
4.751062187337765e-05   -8.552536445150232e-06   -3.7062945026377226e-05
4.751062187337765e-05   -8.552536445150232e-06   -3.7062945026377226e-05
4.751062187337765e-05   -8.552536445150232e-06   -3.7062945026377226e-05
4.751062187337765e-05   -8.552536445150232e-06   -3.7062945026377226e-05
3.362733512843842e-05   -6.687336755810749e-06   -1.5043253598415391e-05
3.362733512843842e-05   -6.687336755810749e-06   -1.5043253598415391e-05
3.362733512843842e-05   -6.687336755810749e-06   -1.5043253598415391e-05
3.362733512843842e-05   -6.687336755810749e-06   -1.5043253598415391e-05
4.751062187337765e-05   -5.331004710293699e-06   3.94475779462054e-06
4.751062187337765e-05   -5.331004710293699e-06   3.94475779462054e-06
4.751062187337765e-05   -5.331004710293699e-06   3.94475779462054e-06
4.751062187337765e-05   -5.331004710293699e-06   3.94475779462054e-06
2.2906000180778895e-05   -8.552536445150232e-06   -3.899586406729135e-05
2.2906000180778895e-05   -8.552536445150232e-06   -3.899586406729135e-05
2.2906000180778895e-05   -8.552536445150232e-06   -3.899586406729135e-05
2.2906000180778895e-05   -8.552536445150232e-06   -3.899586406729135e-05
2.3490502381868697e-05   -4.1652721610272066e-06   -2.4346749263608365e-06
2.3490502381868697e-05   -4.1652721610272066e-06   -2.4346749263608365e-06
2.3490502381868697e-05   -4.1652721610272066e-06   -2.4346749263608365e-06
2.3490502381868697e-05   -4.1652721610272066e-06   -2.4346749263608365e-06
4.914242341335273e-05   -7.352714047565833e-06   -4.327541151357821e-05
4.914242341335273e-05   -7.352714047565833e-06   -4.327541151357821e-05
4.914242341335273e-05   -7.352714047565833e-06   -4.327541151357821e-05
4.914242341335273e-05   -7.352714047565833e-06   -4.327541151357821e-05
3.409973898504246e-05   -6.173156973755117e-06   -1.8912005044014737e-05
3.409973898504246e-05   -6.173156973755117e-06   -1.8912005044014737e-05
3.409973898504246e-05   -6.173156973755117e-06   -1.8912005044014737e-05
3.409973898504246e-05   -6.173156973755117e-06   -1.8912005044014737e-05
2.1179628490439916e-05   -2.8682810223582163e-06   -1.0679963398737505e-05
2.1179628490439916e-05   -2.8682810223582163e-06   -1.0679963398737505e-05
2.1179628490439916e-05   -2.8682810223582163e-06   -1.0679963398737505e-05
2.1179628490439916e-05   -2.8682810223582163e-06   -1.0679963398737505e-05
-1.2882878173335838e-06   -5.875205825606796e-06   -4.9930645460309554e-05
-1.2882878173335838e-06   -5.875205825606796e-06   -4.9930645460309554e-05
-1.2882878173335838e-06   -5.875205825606796e-06   -4.9930645460309554e-05
-1.2882878173335838e-06   -5.875205825606796e-06   -4.9930645460309554e-05
-4.0007645123739963e-07   -2.2723213032090767e-06   -1.1776309233877888e-05
-4.0007645123739963e-07   -2.2723213032090767e-06   -1.1776309233877888e-05
-4.0007645123739963e-07   -2.2723213032090767e-06   -1.1776309233877888e-05
-4.0007645123739963e-07   -2.2723213032090767e-06   -1.1776309233877888e-05
2.204505123404909e-05   -5.5934228661365555e-06   -4.719219443826583e-05
2.204505123404909e-05   -5.5934228661365555e-06   -4.719219443826583e-05
2.204505123404909e-05   -5.5934228661365555e-06   -4.719219443826583e-05
2.204505123404909e-05   -5.5934228661365555e-06   -4.719219443826583e-05
1.041523633079816e-05   -3.55464577872543e-06   -2.9032435851960876e-05
1.041523633079816e-05   -3.55464577872543e-06   -2.9032435851960876e-05
1.041523633079816e-05   -3.55464577872543e-06   -2.9032435851960876e-05
1.041523633079816e-05   -3.55464577872543e-06   -2.9032435851960876e-05
2.2045051234049064e-05   -2.2723213032090767e-06   -9.783648296121618e-06
2.2045051234049064e-05   -2.2723213032090767e-06   -9.783648296121618e-06
2.2045051234049064e-05   -2.2723213032090767e-06   -9.783648296121618e-06
2.2045051234049064e-05   -2.2723213032090767e-06   -9.783648296121618e-06
-4.0007645123739963e-07   -5.5934228661365555e-06   -4.918485537602215e-05
-4.0007645123739963e-07   -5.5934228661365555e-06   -4.918485537602215e-05
-4.0007645123739963e-07   -5.5934228661365555e-06   -4.918485537602215e-05
-4.0007645123739963e-07   -5.5934228661365555e-06   -4.918485537602215e-05
3.824667866798902e-07   -1.5438930818269248e-06   -1.205631106396981e-05
3.824667866798902e-07   -1.5438930818269248e-06   -1.205631106396981e-05
3.824667866798902e-07   -1.5438930818269248e-06   -1.205631106396981e-05
3.824667866798902e-07   -1.5438930818269248e-06   -1.205631106396981e-05
2.2906000180778895e-05   -5.069180838165096e-06   -4.748036073366524e-05
2.2906000180778895e-05   -5.069180838165096e-06   -4.748036073366524e-05
2.2906000180778895e-05   -5.069180838165096e-06   -4.748036073366524e-05
2.2906000180778895e-05   -5.069180838165096e-06   -4.748036073366524e-05
1.1019528874848637e-05   -3.262464678180886e-06   -2.8753604919771352e-05
1.1019528874848637e-05   -3.262464678180886e-06   -2.8753604919771352e-05
1.1019528874848637e-05   -3.262464678180886e-06   -2.8753604919771352e-05
1.1019528874848637e-05   -3.262464678180886e-06   -2.8753604919771352e-05
2.2906000180778895e-05   -1.5438930818269248e-06   -9.941138410166864e-06
2.2906000180778895e-05   -1.5438930818269248e-06   -9.941138410166864e-06
2.2906000180778895e-05   -1.5438930818269248e-06   -9.941138410166864e-06
2.2906000180778895e-05   -1.5438930818269248e-06   -9.941138410166864e-06
3.824667866798902e-07   -5.069180838164662e-06   -4.959553338746824e-05
3.824667866798902e-07   -5.069180838164662e-06   -4.959553338746824e-05
3.824667866798902e-07   -5.069180838164662e-06   -4.959553338746824e-05
3.824667866798902e-07   -5.069180838164662e-06   -4.959553338746824e-05
9.39519324498131e-07   -6.272456897281169e-07   -1.2533718309044525e-05
9.39519324498131e-07   -6.272456897281169e-07   -1.2533718309044525e-05
9.39519324498131e-07   -6.272456897281169e-07   -1.2533718309044525e-05
9.39519324498131e-07   -6.272456897281169e-07   -1.2533718309044525e-05
2.349050238186875e-05   -4.323273856197789e-06   -4.790107317144719e-05
2.349050238186875e-05   -4.323273856197789e-06   -4.790107317144719e-05
2.349050238186875e-05   -4.323273856197789e-06   -4.790107317144719e-05
2.349050238186875e-05   -4.323273856197789e-06   -4.790107317144719e-05
1.1743401814379329e-05   -2.7478361396787547e-06   -2.926783485554356e-05
1.1743401814379329e-05   -2.7478361396787547e-06   -2.926783485554356e-05
1.1743401814379329e-05   -2.7478361396787547e-06   -2.926783485554356e-05
1.1743401814379329e-05   -2.7478361396787547e-06   -2.926783485554356e-05
-1.2882878173335838e-06   5.254300980911744e-07   -1.6268235861278263e-05
-1.2882878173335838e-06   5.254300980911744e-07   -1.6268235861278263e-05
-1.2882878173335838e-06   5.254300980911744e-07   -1.6268235861278263e-05
-1.2882878173335838e-06   5.254300980911744e-07   -1.6268235861278263e-05
-2.3424319225730754e-05   -3.079414973699516e-06   -5.5324528585014776e-05
-2.3424319225730754e-05   -3.079414973699516e-06   -5.5324528585014776e-05
-2.3424319225730754e-05   -3.079414973699516e-06   -5.5324528585014776e-05
-2.3424319225730754e-05   -3.079414973699516e-06   -5.5324528585014776e-05
-2.2358581655338374e-05   1.1949272984510678e-06   -1.7689511784425805e-05
-2.2358581655338374e-05   1.1949272984510678e-06   -1.7689511784425805e-05
-2.2358581655338374e-05   1.1949272984510678e-06   -1.7689511784425805e-05
-2.2358581655338374e-05   1.1949272984510678e-06   -1.7689511784425805e-05
-4.0007645123739963e-07   -2.7472442634371604e-06   -5.1921717520794184e-05
-4.0007645123739963e-07   -2.7472442634371604e-06   -5.1921717520794184e-05
-4.0007645123739963e-07   -2.7472442634371604e-06   -5.1921717520794184e-05
-4.0007645123739963e-07   -2.7472442634371604e-06   -5.1921717520794184e-05
-1.1727109034986035e-05   -5.917892969909203e-07   -3.4336602861081414e-05
-1.1727109034986035e-05   -5.917892969909203e-07   -3.4336602861081414e-05
-1.1727109034986035e-05   -5.917892969909203e-07   -3.4336602861081414e-05
-1.1727109034986035e-05   -5.917892969909203e-07   -3.4336602861081414e-05
-4.0007645123739963e-07   1.1949272984510678e-06   -1.5324208847292478e-05
-4.0007645123739963e-07   1.1949272984510678e-06   -1.5324208847292478e-05
-4.0007645123739963e-07   1.1949272984510678e-06   -1.5324208847292478e-05
-4.0007645123739963e-07   1.1949272984510678e-06   -1.5324208847292478e-05
-2.2358581655338374e-05   -2.747244263437594e-06   -5.428702045792754e-05
-2.2358581655338374e-05   -2.747244263437594e-06   -5.428702045792754e-05
-2.2358581655338374e-05   -2.747244263437594e-06   -5.428702045792754e-05
-2.2358581655338374e-05   -2.747244263437594e-06   -5.428702045792754e-05
-2.1380828041229187e-05   1.970007662013395e-06   -1.7372986250933226e-05
-2.1380828041229187e-05   1.970007662013395e-06   -1.7372986250933226e-05
-2.1380828041229187e-05   1.970007662013395e-06   -1.7372986250933226e-05
-2.1380828041229187e-05   1.970007662013395e-06   -1.7372986250933226e-05
3.824667866798902e-07   -2.23067425556521e-06   -5.112473514690119e-05
3.824667866798902e-07   -2.23067425556521e-06   -5.112473514690119e-05
3.824667866798902e-07   -2.23067425556521e-06   -5.112473514690119e-05
3.824667866798902e-07   -2.23067425556521e-06   -5.112473514690119e-05
-1.0859192308649696e-05   -2.116801827564338e-07   -3.360003309837078e-05
-1.0859192308649696e-05   -2.116801827564338e-07   -3.360003309837078e-05
-1.0859192308649696e-05   -2.116801827564338e-07   -3.360003309837078e-05
-1.0859192308649696e-05   -2.116801827564338e-07   -3.360003309837078e-05
3.824667866798902e-07   1.970007662013395e-06   -1.485257710038602e-05
3.824667866798902e-07   1.970007662013395e-06   -1.485257710038602e-05
3.824667866798902e-07   1.970007662013395e-06   -1.485257710038602e-05
3.824667866798902e-07   1.970007662013395e-06   -1.485257710038602e-05
-2.1380828041229214e-05   -2.2306742555656435e-06   -5.364514429744851e-05
-2.1380828041229214e-05   -2.2306742555656435e-06   -5.364514429744851e-05
-2.1380828041229214e-05   -2.2306742555656435e-06   -5.364514429744851e-05
-2.1380828041229214e-05   -2.2306742555656435e-06   -5.364514429744851e-05
-2.0721618729632416e-05   2.77098760967159e-06   -1.7674784594747753e-05
-2.0721618729632416e-05   2.77098760967159e-06   -1.7674784594747753e-05
-2.0721618729632416e-05   2.77098760967159e-06   -1.7674784594747753e-05
-2.0721618729632416e-05   2.77098760967159e-06   -1.7674784594747753e-05
9.395193244981446e-07   -1.7407392691403366e-06   -5.106964522434484e-05
9.395193244981446e-07   -1.7407392691403366e-06   -5.106964522434484e-05
9.395193244981446e-07   -1.7407392691403366e-06   -5.106964522434484e-05
9.395193244981446e-07   -1.7407392691403366e-06   -5.106964522434484e-05
-1.0240263146335367e-05   2.1501132070438078e-07   -3.3610124793529783e-05
-1.0240263146335367e-05   2.1501132070438078e-07   -3.3610124793529783e-05
-1.0240263146335367e-05   2.1501132070438078e-07   -3.3610124793529783e-05
-1.0240263146335367e-05   2.1501132070438078e-07   -3.3610124793529783e-05
-2.34243192257307e-05   4.040641275961446e-06   -1.3275669988105452e-05
-2.34243192257307e-05   4.040641275961446e-06   -1.3275669988105452e-05
-2.34243192257307e-05   4.040641275961446e-06   -1.3275669988105452e-05
-2.34243192257307e-05   4.040641275961446e-06   -1.3275669988105452e-05
-4.5869740487194556e-05   7.937043235125077e-07   -5.263286759534772e-05
-4.5869740487194556e-05   7.937043235125077e-07   -5.263286759534772e-05
-4.5869740487194556e-05   7.937043235125077e-07   -5.263286759534772e-05
-4.5869740487194556e-05   7.937043235125077e-07   -5.263286759534772e-05
-4.4352482963295975e-05   4.890564173245463e-06   -1.414596593120104e-05
-4.4352482963295975e-05   4.890564173245463e-06   -1.414596593120104e-05
-4.4352482963295975e-05   4.890564173245463e-06   -1.414596593120104e-05
-4.4352482963295975e-05   4.890564173245463e-06   -1.414596593120104e-05
-2.2358581655338347e-05   1.407186194532159e-06   -4.871244132390279e-05
-2.2358581655338347e-05   1.407186194532159e-06   -4.871244132390279e-05
-2.2358581655338347e-05   1.407186194532159e-06   -4.871244132390279e-05
-2.2358581655338347e-05   1.407186194532159e-06   -4.871244132390279e-05
-3.364864547590184e-05   3.0743682758807567e-06   -3.089597753843905e-05
-3.364864547590184e-05   3.0743682758807567e-06   -3.089597753843905e-05
-3.364864547590184e-05   3.0743682758807567e-06   -3.089597753843905e-05
-3.364864547590184e-05   3.0743682758807567e-06   -3.089597753843905e-05
-2.2358581655338347e-05   4.890564173245463e-06   -1.2055939143973274e-05
-2.2358581655338347e-05   4.890564173245463e-06   -1.2055939143973274e-05
-2.2358581655338347e-05   4.890564173245463e-06   -1.2055939143973274e-05
-2.2358581655338347e-05   4.890564173245463e-06   -1.2055939143973274e-05
-4.435248296329605e-05   1.4071861945325927e-06   -5.0802468111130336e-05
-4.435248296329605e-05   1.4071861945325927e-06   -5.0802468111130336e-05
-4.435248296329605e-05   1.4071861945325927e-06   -5.0802468111130336e-05
-4.435248296329605e-05   1.4071861945325927e-06   -5.0802468111130336e-05
-4.2885505941285334e-05   5.622476756057208e-06   -1.288380300106147e-05
-4.2885505941285334e-05   5.622476756057208e-06   -1.288380300106147e-05
-4.2885505941285334e-05   5.622476756057208e-06   -1.288380300106147e-05
-4.2885505941285334e-05   5.622476756057208e-06   -1.288380300106147e-05
-2.1380828041229214e-05   1.9718590940466865e-06   -4.6534562237282134e-05
-2.1380828041229214e-05   1.9718590940466865e-06   -4.6534562237282134e-05
-2.1380828041229214e-05   1.9718590940466865e-06   -4.6534562237282134e-05
-2.1380828041229214e-05   1.9718590940466865e-06   -4.6534562237282134e-05
-3.227698949874053e-05   3.6081497516021743e-06   -2.9356067535962955e-05
-3.227698949874053e-05   3.6081497516021743e-06   -2.9356067535962955e-05
-3.227698949874053e-05   3.6081497516021743e-06   -2.9356067535962955e-05
-3.227698949874053e-05   3.6081497516021743e-06   -2.9356067535962955e-05
-2.1380828041229166e-05   5.622476756057208e-06   -1.0693432403855114e-05
-2.1380828041229166e-05   5.622476756057208e-06   -1.0693432403855114e-05
-2.1380828041229166e-05   5.622476756057208e-06   -1.0693432403855114e-05
-2.1380828041229166e-05   5.622476756057208e-06   -1.0693432403855114e-05
-4.28855059412854e-05   1.9718590940466865e-06   -4.872493283448846e-05
-4.28855059412854e-05   1.9718590940466865e-06   -4.872493283448846e-05
-4.28855059412854e-05   1.9718590940466865e-06   -4.872493283448846e-05
-4.28855059412854e-05   1.9718590940466865e-06   -4.872493283448846e-05
-4.1773069024961915e-05   6.431968791061147e-06   -1.292443267184181e-05
-4.1773069024961915e-05   6.431968791061147e-06   -1.292443267184181e-05
-4.1773069024961915e-05   6.431968791061147e-06   -1.292443267184181e-05
-4.1773069024961915e-05   6.431968791061147e-06   -1.292443267184181e-05
-2.0721618729632464e-05   2.449350270628762e-06   -4.562061205179855e-05
-2.0721618729632464e-05   2.449350270628762e-06   -4.562061205179855e-05
-2.0721618729632464e-05   2.449350270628762e-06   -4.562061205179855e-05
-2.0721618729632464e-05   2.449350270628762e-06   -4.562061205179855e-05
-3.150952495152855e-05   3.980768156994392e-06   -2.8559619080457412e-05
-3.150952495152855e-05   3.980768156994392e-06   -2.8559619080457412e-05
-3.150952495152855e-05   3.980768156994392e-06   -2.8559619080457412e-05
-3.150952495152855e-05   3.980768156994392e-06   -2.8559619080457412e-05
-4.5869740487194556e-05   7.938645827086773e-06   -7.6144706773564365e-06
-4.5869740487194556e-05   7.938645827086773e-06   -7.6144706773564365e-06
-4.5869740487194556e-05   7.938645827086773e-06   -7.6144706773564365e-06
-4.5869740487194556e-05   7.938645827086773e-06   -7.6144706773564365e-06
-6.932262488099467e-05   7.497060934615399e-06   -4.696756226917282e-05
-6.932262488099467e-05   7.497060934615399e-06   -4.696756226917282e-05
-6.932262488099467e-05   7.497060934615399e-06   -4.696756226917282e-05
-6.932262488099467e-05   7.497060934615399e-06   -4.696756226917282e-05
-6.632741570339948e-05   9.067959307685995e-06   -1.9859764108579037e-07
-6.632741570339948e-05   9.067959307685995e-06   -1.9859764108579037e-07
-6.632741570339948e-05   9.067959307685995e-06   -1.9859764108579037e-07
-6.632741570339948e-05   9.067959307685995e-06   -1.9859764108579037e-07
-4.43524829632959e-05   9.487438281803075e-06   -3.707517292572881e-05
-4.43524829632959e-05   9.487438281803075e-06   -3.707517292572881e-05
-4.43524829632959e-05   9.487438281803075e-06   -3.707517292572881e-05
-4.43524829632959e-05   9.487438281803075e-06   -3.707517292572881e-05
-5.4032926649657615e-05   8.94527608194702e-06   -2.0615802795212446e-05
-5.4032926649657615e-05   8.94527608194702e-06   -2.0615802795212446e-05
-5.4032926649657615e-05   8.94527608194702e-06   -2.0615802795212446e-05
-5.4032926649657615e-05   8.94527608194702e-06   -2.0615802795212446e-05
-4.4352482963296015e-05   9.067959307685995e-06   -4.502850255560381e-07
-4.4352482963296015e-05   9.067959307685995e-06   -4.502850255560381e-07
-4.4352482963296015e-05   9.067959307685995e-06   -4.502850255560381e-07
-4.4352482963296015e-05   9.067959307685995e-06   -4.502850255560381e-07
-6.632741570339948e-05   9.487438281803075e-06   -3.682348554125852e-05
-6.632741570339948e-05   9.487438281803075e-06   -3.682348554125852e-05
-6.632741570339948e-05   9.487438281803075e-06   -3.682348554125852e-05
-6.632741570339948e-05   9.487438281803075e-06   -3.682348554125852e-05
-6.384351773445782e-05   9.365126118156611e-06   3.993807506040212e-06
-6.384351773445782e-05   9.365126118156611e-06   3.993807506040212e-06
-6.384351773445782e-05   9.365126118156611e-06   3.993807506040212e-06
-6.384351773445782e-05   9.365126118156611e-06   3.993807506040212e-06
-4.2885505941285334e-05   9.934905090175188e-06   -3.127807953245826e-05
-4.2885505941285334e-05   9.934905090175188e-06   -3.127807953245826e-05
-4.2885505941285334e-05   9.934905090175188e-06   -3.127807953245826e-05
-4.2885505941285334e-05   9.934905090175188e-06   -3.127807953245826e-05
-5.290092738383181e-05   9.594750475237432e-06   -1.4381617692584524e-05
-5.290092738383181e-05   9.594750475237432e-06   -1.4381617692584524e-05
-5.290092738383181e-05   9.594750475237432e-06   -1.4381617692584524e-05
-5.290092738383181e-05   9.594750475237432e-06   -1.4381617692584524e-05
-4.28855059412854e-05   9.365126118156828e-06   3.651940122829326e-06
-4.28855059412854e-05   9.365126118156828e-06   3.651940122829326e-06
-4.28855059412854e-05   9.365126118156828e-06   3.651940122829326e-06
-4.28855059412854e-05   9.365126118156828e-06   3.651940122829326e-06
-6.38435177344577e-05   9.934905090174754e-06   -3.093621214924724e-05
-6.38435177344577e-05   9.934905090174754e-06   -3.093621214924724e-05
-6.38435177344577e-05   9.934905090174754e-06   -3.093621214924724e-05
-6.38435177344577e-05   9.934905090174754e-06   -3.093621214924724e-05
-6.124538847557387e-05   9.620455374843634e-06   9.613632315521887e-06
-6.124538847557387e-05   9.620455374843634e-06   9.613632315521887e-06
-6.124538847557387e-05   9.620455374843634e-06   9.613632315521887e-06
-6.124538847557387e-05   9.620455374843634e-06   9.613632315521887e-06
-4.1773069024961915e-05   1.070240865638089e-05   -2.3489405404420678e-05
-4.1773069024961915e-05   1.070240865638089e-05   -2.3489405404420678e-05
-4.1773069024961915e-05   1.070240865638089e-05   -2.3489405404420678e-05
-4.1773069024961915e-05   1.070240865638089e-05   -2.3489405404420678e-05
-5.039207865849747e-05   9.81262160170901e-06   -8.590517115725617e-06
-5.039207865849747e-05   9.81262160170901e-06   -8.590517115725617e-06
-5.039207865849747e-05   9.81262160170901e-06   -8.590517115725617e-06
-5.039207865849747e-05   9.81262160170901e-06   -8.590517115725617e-06
6.0411749377701644e-05   -9.071795085089165e-06   2.0622971353748175e-05
6.0411749377701644e-05   -9.071795085089165e-06   2.0622971353748175e-05
6.0411749377701644e-05   -9.071795085089165e-06   2.0622971353748175e-05
6.0411749377701644e-05   -9.071795085089165e-06   2.0622971353748175e-05
3.0362563615769078e-05   -1.1470736483213794e-05   -3.089836975501449e-05
3.0362563615769078e-05   -1.1470736483213794e-05   -3.089836975501449e-05
3.0362563615769078e-05   -1.1470736483213794e-05   -3.089836975501449e-05
3.0362563615769078e-05   -1.1470736483213794e-05   -3.089836975501449e-05
3.110308520889505e-05   -8.860241586341067e-06   1.4796236032148767e-05
3.110308520889505e-05   -8.860241586341067e-06   1.4796236032148767e-05
3.110308520889505e-05   -8.860241586341067e-06   1.4796236032148767e-05
3.110308520889505e-05   -8.860241586341067e-06   1.4796236032148767e-05
6.19154199093715e-05   -1.1757702848428156e-05   -3.4819178378059455e-05
6.19154199093715e-05   -1.1757702848428156e-05   -3.4819178378059455e-05
6.19154199093715e-05   -1.1757702848428156e-05   -3.4819178378059455e-05
6.19154199093715e-05   -1.1757702848428156e-05   -3.4819178378059455e-05
4.4117586086858486e-05   -9.266544419159022e-06   -6.650817064765861e-06
4.4117586086858486e-05   -9.266544419159022e-06   -6.650817064765861e-06
4.4117586086858486e-05   -9.266544419159022e-06   -6.650817064765861e-06
4.4117586086858486e-05   -9.266544419159022e-06   -6.650817064765861e-06
6.19154199093715e-05   -8.860241586341067e-06   1.6534712789401194e-05
6.19154199093715e-05   -8.860241586341067e-06   1.6534712789401194e-05
6.19154199093715e-05   -8.860241586341067e-06   1.6534712789401194e-05
6.19154199093715e-05   -8.860241586341067e-06   1.6534712789401194e-05
3.110308520889505e-05   -1.1757702848428156e-05   -3.655765513531188e-05
3.110308520889505e-05   -1.1757702848428156e-05   -3.655765513531188e-05
3.110308520889505e-05   -1.1757702848428156e-05   -3.655765513531188e-05
3.110308520889505e-05   -1.1757702848428156e-05   -3.655765513531188e-05
3.1728977474175784e-05   -8.552536445150232e-06   1.167667415082627e-05
3.1728977474175784e-05   -8.552536445150232e-06   1.167667415082627e-05
3.1728977474175784e-05   -8.552536445150232e-06   1.167667415082627e-05
3.1728977474175784e-05   -8.552536445150232e-06   1.167667415082627e-05
6.285238762731318e-05   -1.1650926263788962e-05   -3.833664221321965e-05
6.285238762731318e-05   -1.1650926263788962e-05   -3.833664221321965e-05
6.285238762731318e-05   -1.1650926263788962e-05   -3.833664221321965e-05
6.285238762731318e-05   -1.1650926263788962e-05   -3.833664221321965e-05
4.567169726649869e-05   -9.558917255461045e-06   -1.0957363683525376e-05
4.567169726649869e-05   -9.558917255461045e-06   -1.0957363683525376e-05
4.567169726649869e-05   -9.558917255461045e-06   -1.0957363683525376e-05
4.567169726649869e-05   -9.558917255461045e-06   -1.0957363683525376e-05
6.285238762731318e-05   -8.552536445150232e-06   1.3535708042009638e-05
6.285238762731318e-05   -8.552536445150232e-06   1.3535708042009638e-05
6.285238762731318e-05   -8.552536445150232e-06   1.3535708042009638e-05
6.285238762731318e-05   -8.552536445150232e-06   1.3535708042009638e-05
3.1728977474175784e-05   -1.1650926263788962e-05   -4.019567610440296e-05
3.1728977474175784e-05   -1.1650926263788962e-05   -4.019567610440296e-05
3.1728977474175784e-05   -1.1650926263788962e-05   -4.019567610440296e-05
3.1728977474175784e-05   -1.1650926263788962e-05   -4.019567610440296e-05
3.2382696078592e-05   -7.352714047565833e-06   5.625140610700805e-06
3.2382696078592e-05   -7.352714047565833e-06   5.625140610700805e-06
3.2382696078592e-05   -7.352714047565833e-06   5.625140610700805e-06
3.2382696078592e-05   -7.352714047565833e-06   5.625140610700805e-06
6.37749942430831e-05   -1.1002023218457078e-05   -4.4505770827583046e-05
6.37749942430831e-05   -1.1002023218457078e-05   -4.4505770827583046e-05
6.37749942430831e-05   -1.1002023218457078e-05   -4.4505770827583046e-05
6.37749942430831e-05   -1.1002023218457078e-05   -4.4505770827583046e-05
4.569306904092918e-05   -9.19900696127237e-06   -1.5451038578303948e-05
4.569306904092918e-05   -9.19900696127237e-06   -1.5451038578303948e-05
4.569306904092918e-05   -9.19900696127237e-06   -1.5451038578303948e-05
4.569306904092918e-05   -9.19900696127237e-06   -1.5451038578303948e-05
3.0362563615769078e-05   -5.875205825606796e-06   2.0532623010559997e-06
3.0362563615769078e-05   -5.875205825606796e-06   2.0532623010559997e-06
3.0362563615769078e-05   -5.875205825606796e-06   2.0532623010559997e-06
3.0362563615769078e-05   -5.875205825606796e-06   2.0532623010559997e-06
3.592052531029103e-06   -1.149946503208217e-05   -4.593881169739607e-05
3.592052531029103e-06   -1.149946503208217e-05   -4.593881169739607e-05
3.592052531029103e-06   -1.149946503208217e-05   -4.593881169739607e-05
3.592052531029103e-06   -1.149946503208217e-05   -4.593881169739607e-05
4.455002809994124e-06   -5.5934228661365555e-06   -2.53009317695025e-07
4.455002809994124e-06   -5.5934228661365555e-06   -2.53009317695025e-07
4.455002809994124e-06   -5.5934228661365555e-06   -2.53009317695025e-07
4.455002809994124e-06   -5.5934228661365555e-06   -2.53009317695025e-07
3.110308520889513e-05   -1.1439846031070962e-05   -4.115862608356936e-05
3.110308520889513e-05   -1.1439846031070962e-05   -4.115862608356936e-05
3.110308520889513e-05   -1.1439846031070962e-05   -4.115862608356936e-05
3.110308520889513e-05   -1.1439846031070962e-05   -4.115862608356936e-05
1.7445637835322008e-05   -7.758581312720253e-06   -2.0604972625290767e-05
1.7445637835322008e-05   -7.758581312720253e-06   -2.0604972625290767e-05
1.7445637835322008e-05   -7.758581312720253e-06   -2.0604972625290767e-05
1.7445637835322008e-05   -7.758581312720253e-06   -2.0604972625290767e-05
3.110308520889505e-05   -5.5934228661365555e-06   3.254844581265662e-06
3.110308520889505e-05   -5.5934228661365555e-06   3.254844581265662e-06
3.110308520889505e-05   -5.5934228661365555e-06   3.254844581265662e-06
3.110308520889505e-05   -5.5934228661365555e-06   3.254844581265662e-06
4.455002809994124e-06   -1.1439846031070962e-05   -4.46664799825297e-05
4.455002809994124e-06   -1.1439846031070962e-05   -4.46664799825297e-05
4.455002809994124e-06   -1.1439846031070962e-05   -4.46664799825297e-05
4.455002809994124e-06   -1.1439846031070962e-05   -4.46664799825297e-05
5.2339420238660265e-06   -5.069180838165096e-06   -5.375801409612021e-07
5.2339420238660265e-06   -5.069180838165096e-06   -5.375801409612021e-07
5.2339420238660265e-06   -5.069180838165096e-06   -5.375801409612021e-07
5.2339420238660265e-06   -5.069180838165096e-06   -5.375801409612021e-07
3.1728977474175784e-05   -1.1285443547187027e-05   -4.0966214932730766e-05
3.1728977474175784e-05   -1.1285443547187027e-05   -4.0966214932730766e-05
3.1728977474175784e-05   -1.1285443547187027e-05   -4.0966214932730766e-05
3.1728977474175784e-05   -1.1285443547187027e-05   -4.0966214932730766e-05
1.7935080626458475e-05   -7.843230815333859e-06   -2.0041714492313235e-05
1.7935080626458475e-05   -7.843230815333859e-06   -2.0041714492313235e-05
1.7935080626458475e-05   -7.843230815333859e-06   -2.0041714492313235e-05
1.7935080626458475e-05   -7.843230815333859e-06   -2.0041714492313235e-05
3.1728977474175784e-05   -5.069180838164662e-06   3.192177484452217e-06
3.1728977474175784e-05   -5.069180838164662e-06   3.192177484452217e-06
3.1728977474175784e-05   -5.069180838164662e-06   3.192177484452217e-06
3.1728977474175784e-05   -5.069180838164662e-06   3.192177484452217e-06
5.233942023866013e-06   -1.1285443547187027e-05   -4.469597255814402e-05
5.233942023866013e-06   -1.1285443547187027e-05   -4.469597255814402e-05
5.233942023866013e-06   -1.1285443547187027e-05   -4.469597255814402e-05
5.233942023866013e-06   -1.1285443547187027e-05   -4.469597255814402e-05
6.396594457848368e-06   -4.3232738561982224e-06   -1.0806028769537457e-06
6.396594457848368e-06   -4.3232738561982224e-06   -1.0806028769537457e-06
6.396594457848368e-06   -4.3232738561982224e-06   -1.0806028769537457e-06
6.396594457848368e-06   -4.3232738561982224e-06   -1.0806028769537457e-06
3.2382696078592e-05   -1.0977518792378536e-05   -4.03982252831514e-05
3.2382696078592e-05   -1.0977518792378536e-05   -4.03982252831514e-05
3.2382696078592e-05   -1.0977518792378536e-05   -4.03982252831514e-05
3.2382696078592e-05   -1.0977518792378536e-05   -4.03982252831514e-05
1.886970319611709e-05   -7.720536620867222e-06   -1.9830759781933418e-05
1.886970319611709e-05   -7.720536620867222e-06   -1.9830759781933418e-05
1.886970319611709e-05   -7.720536620867222e-06   -1.9830759781933418e-05
1.886970319611709e-05   -7.720536620867222e-06   -1.9830759781933418e-05
3.592052531029103e-06   -3.0794149736999496e-06   -4.552269304459924e-06
3.592052531029103e-06   -3.0794149736999496e-06   -4.552269304459924e-06
3.592052531029103e-06   -3.0794149736999496e-06   -4.552269304459924e-06
3.592052531029103e-06   -3.0794149736999496e-06   -4.552269304459924e-06
-2.290121810804812e-05   -1.3863734447367316e-05   -5.5178312053789404e-05
-2.290121810804812e-05   -1.3863734447367316e-05   -5.5178312053789404e-05
-2.290121810804812e-05   -1.3863734447367316e-05   -5.5178312053789404e-05
-2.290121810804812e-05   -1.3863734447367316e-05   -5.5178312053789404e-05
-2.1556892988574845e-05   -2.7472442634371604e-06   -9.843189624529451e-06
-2.1556892988574845e-05   -2.7472442634371604e-06   -9.843189624529451e-06
-2.1556892988574845e-05   -2.7472442634371604e-06   -9.843189624529451e-06
-2.1556892988574845e-05   -2.7472442634371604e-06   -9.843189624529451e-06
4.455002809994124e-06   -1.4169441200208386e-05   -4.634303112674857e-05
4.455002809994124e-06   -1.4169441200208386e-05   -4.634303112674857e-05
4.455002809994124e-06   -1.4169441200208386e-05   -4.634303112674857e-05
4.455002809994124e-06   -1.4169441200208386e-05   -4.634303112674857e-05
-8.797331425274856e-06   -7.836565450565491e-06   -2.8055532851085983e-05
-8.797331425274856e-06   -7.836565450565491e-06   -2.8055532851085983e-05
-8.797331425274856e-06   -7.836565450565491e-06   -2.8055532851085983e-05
-8.797331425274856e-06   -7.836565450565491e-06   -2.8055532851085983e-05
4.455002809994124e-06   -2.7472442634371604e-06   -2.989871462466759e-06
4.455002809994124e-06   -2.7472442634371604e-06   -2.989871462466759e-06
4.455002809994124e-06   -2.7472442634371604e-06   -2.989871462466759e-06
4.455002809994124e-06   -2.7472442634371604e-06   -2.989871462466759e-06
-2.15568929885749e-05   -1.4169441200208386e-05   -5.3196349288811345e-05
-2.15568929885749e-05   -1.4169441200208386e-05   -5.3196349288811345e-05
-2.15568929885749e-05   -1.4169441200208386e-05   -5.3196349288811345e-05
-2.15568929885749e-05   -1.4169441200208386e-05   -5.3196349288811345e-05
-2.03983260272598e-05   -2.2306742555656435e-06   -9.189622641842107e-06
-2.03983260272598e-05   -2.2306742555656435e-06   -9.189622641842107e-06
-2.03983260272598e-05   -2.2306742555656435e-06   -9.189622641842107e-06
-2.03983260272598e-05   -2.2306742555656435e-06   -9.189622641842107e-06
5.233942023866013e-06   -1.4102075491312198e-05   -4.478722865227058e-05
5.233942023866013e-06   -1.4102075491312198e-05   -4.478722865227058e-05
5.233942023866013e-06   -1.4102075491312198e-05   -4.478722865227058e-05
5.233942023866013e-06   -1.4102075491312198e-05   -4.478722865227058e-05
-7.842796482953305e-06   -8.013377258090943e-06   -2.6645883414171188e-05
-7.842796482953305e-06   -8.013377258090943e-06   -2.6645883414171188e-05
-7.842796482953305e-06   -8.013377258090943e-06   -2.6645883414171188e-05
-7.842796482953305e-06   -8.013377258090943e-06   -2.6645883414171188e-05
5.233942023866013e-06   -2.2306742555656435e-06   -2.066781900394261e-06
5.233942023866013e-06   -2.2306742555656435e-06   -2.066781900394261e-06
5.233942023866013e-06   -2.2306742555656435e-06   -2.066781900394261e-06
5.233942023866013e-06   -2.2306742555656435e-06   -2.066781900394261e-06
-2.0398326027259867e-05   -1.4102075491312198e-05   -5.19100693937187e-05
-2.0398326027259867e-05   -1.4102075491312198e-05   -5.19100693937187e-05
-2.0398326027259867e-05   -1.4102075491312198e-05   -5.19100693937187e-05
-2.0398326027259867e-05   -1.4102075491312198e-05   -5.19100693937187e-05
-1.8399290258642464e-05   -1.7407392691403366e-06   -9.150905805684886e-06
-1.8399290258642464e-05   -1.7407392691403366e-06   -9.150905805684886e-06
-1.8399290258642464e-05   -1.7407392691403366e-06   -9.150905805684886e-06
-1.8399290258642464e-05   -1.7407392691403366e-06   -9.150905805684886e-06
6.396594457848368e-06   -1.3606318895332658e-05   -4.335803255745428e-05
6.396594457848368e-06   -1.3606318895332658e-05   -4.335803255745428e-05
6.396594457848368e-06   -1.3606318895332658e-05   -4.335803255745428e-05
6.396594457848368e-06   -1.3606318895332658e-05   -4.335803255745428e-05
-6.6022829053580845e-06   -7.834674494623314e-06   -2.5156223592535682e-05
-6.6022829053580845e-06   -7.834674494623314e-06   -2.5156223592535682e-05
-6.6022829053580845e-06   -7.834674494623314e-06   -2.5156223592535682e-05
-6.6022829053580845e-06   -7.834674494623314e-06   -2.5156223592535682e-05
-2.290121810804809e-05   7.937043235129414e-07   -6.383037827524529e-06
-2.290121810804809e-05   7.937043235129414e-07   -6.383037827524529e-06
-2.290121810804809e-05   7.937043235129414e-07   -6.383037827524529e-06
-2.290121810804809e-05   7.937043235129414e-07   -6.383037827524529e-06
-5.245561960414211e-05   -1.727753450580247e-05   -6.648311695193684e-05
-5.245561960414211e-05   -1.727753450580247e-05   -6.648311695193684e-05
-5.245561960414211e-05   -1.727753450580247e-05   -6.648311695193684e-05
-5.245561960414211e-05   -1.727753450580247e-05   -6.648311695193684e-05
-5.0849474021827596e-05   1.4071861945325927e-06   -1.669025016504881e-05
-5.0849474021827596e-05   1.4071861945325927e-06   -1.669025016504881e-05
-5.0849474021827596e-05   1.4071861945325927e-06   -1.669025016504881e-05
-5.0849474021827596e-05   1.4071861945325927e-06   -1.669025016504881e-05
-2.1556892988574845e-05   -1.92955465963744e-05   -5.3089578879259014e-05
-2.1556892988574845e-05   -1.92955465963744e-05   -5.3089578879259014e-05
-2.1556892988574845e-05   -1.92955465963744e-05   -5.3089578879259014e-05
-2.1556892988574845e-05   -1.92955465963744e-05   -5.3089578879259014e-05
-3.6409830469573226e-05   -8.781997231593983e-06   -3.4642812696463496e-05
-3.6409830469573226e-05   -8.781997231593983e-06   -3.4642812696463496e-05
-3.6409830469573226e-05   -8.781997231593983e-06   -3.4642812696463496e-05
-3.6409830469573226e-05   -8.781997231593983e-06   -3.4642812696463496e-05
-2.1556892988574845e-05   1.4071861945325927e-06   -4.2686104905047e-06
-2.1556892988574845e-05   1.4071861945325927e-06   -4.2686104905047e-06
-2.1556892988574845e-05   1.4071861945325927e-06   -4.2686104905047e-06
-2.1556892988574845e-05   1.4071861945325927e-06   -4.2686104905047e-06
-5.0849474021827596e-05   -1.92955465963744e-05   -6.55112185538034e-05
-5.0849474021827596e-05   -1.92955465963744e-05   -6.55112185538034e-05
-5.0849474021827596e-05   -1.92955465963744e-05   -6.55112185538034e-05
-5.0849474021827596e-05   -1.92955465963744e-05   -6.55112185538034e-05
-4.9309912894023746e-05   1.971859094046253e-06   -1.4903425506138275e-05
-4.9309912894023746e-05   1.971859094046253e-06   -1.4903425506138275e-05
-4.9309912894023746e-05   1.971859094046253e-06   -1.4903425506138275e-05
-4.9309912894023746e-05   1.971859094046253e-06   -1.4903425506138275e-05
-2.0398326027259826e-05   -1.940211578005781e-05   -5.026501869294912e-05
-2.0398326027259826e-05   -1.940211578005781e-05   -5.026501869294912e-05
-2.0398326027259826e-05   -1.940211578005781e-05   -5.026501869294912e-05
-2.0398326027259826e-05   -1.940211578005781e-05   -5.026501869294912e-05
-3.484373693777723e-05   -8.810784322966104e-06   -3.254413271634141e-05
-3.484373693777723e-05   -8.810784322966104e-06   -3.254413271634141e-05
-3.484373693777723e-05   -8.810784322966104e-06   -3.254413271634141e-05
-3.484373693777723e-05   -8.810784322966104e-06   -3.254413271634141e-05
-2.0398326027259813e-05   1.971859094046253e-06   -2.0790405816757066e-06
-2.0398326027259813e-05   1.971859094046253e-06   -2.0790405816757066e-06
-2.0398326027259813e-05   1.971859094046253e-06   -2.0790405816757066e-06
-2.0398326027259813e-05   1.971859094046253e-06   -2.0790405816757066e-06
-4.930991289402382e-05   -1.940211578005781e-05   -6.308940361741153e-05
-4.930991289402382e-05   -1.940211578005781e-05   -6.308940361741153e-05
-4.930991289402382e-05   -1.940211578005781e-05   -6.308940361741153e-05
-4.930991289402382e-05   -1.940211578005781e-05   -6.308940361741153e-05
-4.678588927339127e-05   2.4493502706291956e-06   -1.3084503431482928e-05
-4.678588927339127e-05   2.4493502706291956e-06   -1.3084503431482928e-05
-4.678588927339127e-05   2.4493502706291956e-06   -1.3084503431482928e-05
-4.678588927339127e-05   2.4493502706291956e-06   -1.3084503431482928e-05
-1.8399290258642518e-05   -1.7700094605424023e-05   -4.8305834863766016e-05
-1.8399290258642518e-05   -1.7700094605424023e-05   -4.8305834863766016e-05
-1.8399290258642518e-05   -1.7700094605424023e-05   -4.8305834863766016e-05
-1.8399290258642518e-05   -1.7700094605424023e-05   -4.8305834863766016e-05
-3.3298070266395206e-05   -7.777384870085932e-06   -2.942816069204687e-05
-3.3298070266395206e-05   -7.777384870085932e-06   -2.942816069204687e-05
-3.3298070266395206e-05   -7.777384870085932e-06   -2.942816069204687e-05
-3.3298070266395206e-05   -7.777384870085932e-06   -2.942816069204687e-05
-5.245561960414211e-05   7.497060934615399e-06   -1.1295524863456224e-05
-5.245561960414211e-05   7.497060934615399e-06   -1.1295524863456224e-05
-5.245561960414211e-05   7.497060934615399e-06   -1.1295524863456224e-05
-5.245561960414211e-05   7.497060934615399e-06   -1.1295524863456224e-05
-9.029298712847108e-05   0.0   -7.88560406314409e-05
-9.029298712847108e-05   0.0   -7.88560406314409e-05
-9.029298712847108e-05   0.0   -7.88560406314409e-05
-9.029298712847108e-05   0.0   -7.88560406314409e-05
-8.794359616897258e-05   9.487438281803075e-06   -8.655417948729436e-06
-8.794359616897258e-05   9.487438281803075e-06   -8.655417948729436e-06
-8.794359616897258e-05   9.487438281803075e-06   -8.655417948729436e-06
-8.794359616897258e-05   9.487438281803075e-06   -8.655417948729436e-06
-5.084947402182751e-05   0.0   -6.4786491891556e-05
-5.084947402182751e-05   0.0   -6.4786491891556e-05
-5.084947402182751e-05   0.0   -6.4786491891556e-05
-5.084947402182751e-05   0.0   -6.4786491891556e-05
-6.739498061406953e-05   2.9017073913486548e-06   -3.895167200596201e-05
-6.739498061406953e-05   2.9017073913486548e-06   -3.895167200596201e-05
-6.739498061406953e-05   2.9017073913486548e-06   -3.895167200596201e-05
-6.739498061406953e-05   2.9017073913486548e-06   -3.895167200596201e-05
-5.084947402182755e-05   9.487438281803075e-06   -2.9629549796474607e-06
-5.084947402182755e-05   9.487438281803075e-06   -2.9629549796474607e-06
-5.084947402182755e-05   9.487438281803075e-06   -2.9629549796474607e-06
-5.084947402182755e-05   9.487438281803075e-06   -2.9629549796474607e-06
-8.794359616897243e-05   0.0   -7.047895486063773e-05
-8.794359616897243e-05   0.0   -7.047895486063773e-05
-8.794359616897243e-05   0.0   -7.047895486063773e-05
-8.794359616897243e-05   0.0   -7.047895486063773e-05
-8.595566646247974e-05   9.934905090175188e-06   -3.417515258213183e-06
-8.595566646247974e-05   9.934905090175188e-06   -3.417515258213183e-06
-8.595566646247974e-05   9.934905090175188e-06   -3.417515258213183e-06
-8.595566646247974e-05   9.934905090175188e-06   -3.417515258213183e-06
-4.930991289402382e-05   0.0   -5.853282815153487e-05
-4.930991289402382e-05   0.0   -5.853282815153487e-05
-4.930991289402382e-05   0.0   -5.853282815153487e-05
-4.930991289402382e-05   0.0   -5.853282815153487e-05
-6.669703680364293e-05   4.594778569099074e-06   -3.2311155443628383e-05
-6.669703680364293e-05   4.594778569099074e-06   -3.2311155443628383e-05
-6.669703680364293e-05   4.594778569099074e-06   -3.2311155443628383e-05
-6.669703680364293e-05   4.594778569099074e-06   -3.2311155443628383e-05
-4.930991289402382e-05   9.934905090174754e-06   2.543427795891843e-06
-4.930991289402382e-05   9.934905090174754e-06   2.543427795891843e-06
-4.930991289402382e-05   9.934905090174754e-06   2.543427795891843e-06
-4.930991289402382e-05   9.934905090174754e-06   2.543427795891843e-06
-8.595566646247958e-05   0.0   -6.44937712056396e-05
-8.595566646247958e-05   0.0   -6.44937712056396e-05
-8.595566646247958e-05   0.0   -6.44937712056396e-05
-8.595566646247958e-05   0.0   -6.44937712056396e-05
-8.198887033696985e-05   1.070240865638089e-05   5.014829134325667e-06
-8.198887033696985e-05   1.070240865638089e-05   5.014829134325667e-06
-8.198887033696985e-05   1.070240865638089e-05   5.014829134325667e-06
-8.198887033696985e-05   1.070240865638089e-05   5.014829134325667e-06
-4.678588927339135e-05   0.0   -4.7235360777810287e-05
-4.678588927339135e-05   0.0   -4.7235360777810287e-05
-4.678588927339135e-05   0.0   -4.7235360777810287e-05
-4.678588927339135e-05   0.0   -4.7235360777810287e-05
-6.32331768942844e-05   5.6664504297157525e-06   -2.3223085000817966e-05
-6.32331768942844e-05   5.6664504297157525e-06   -2.3223085000817966e-05
-6.32331768942844e-05   5.6664504297157525e-06   -2.3223085000817966e-05
-6.32331768942844e-05   5.6664504297157525e-06   -2.3223085000817966e-05
6.683553834737774e-05   -1.1470736483213794e-05   3.9884788254859185e-05
6.683553834737774e-05   -1.1470736483213794e-05   3.9884788254859185e-05
6.683553834737774e-05   -1.1470736483213794e-05   3.9884788254859185e-05
6.683553834737774e-05   -1.1470736483213794e-05   3.9884788254859185e-05
3.467000212931092e-05   -8.844241742988514e-06   -1.2148541931117189e-05
3.467000212931092e-05   -8.844241742988514e-06   -1.2148541931117189e-05
3.467000212931092e-05   -8.844241742988514e-06   -1.2148541931117189e-05
3.467000212931092e-05   -8.844241742988514e-06   -1.2148541931117189e-05
3.379912690330364e-05   -1.1757702848428156e-05   3.5219678927077063e-05
3.379912690330364e-05   -1.1757702848428156e-05   3.5219678927077063e-05
3.379912690330364e-05   -1.1757702848428156e-05   3.5219678927077063e-05
3.379912690330364e-05   -1.1757702848428156e-05   3.5219678927077063e-05
6.61225638594544e-05   -9.722959052934927e-06   -1.9873562277136612e-05
6.61225638594544e-05   -9.722959052934927e-06   -1.9873562277136612e-05
6.61225638594544e-05   -9.722959052934927e-06   -1.9873562277136612e-05
6.61225638594544e-05   -9.722959052934927e-06   -1.9873562277136612e-05
4.829592694962889e-05   -9.886795006440203e-06   9.935800811342022e-06
4.829592694962889e-05   -9.886795006440203e-06   9.935800811342022e-06
4.829592694962889e-05   -9.886795006440203e-06   9.935800811342022e-06
4.829592694962889e-05   -9.886795006440203e-06   9.935800811342022e-06
6.61225638594544e-05   -1.1757702848428156e-05   3.39988326497813e-05
6.61225638594544e-05   -1.1757702848428156e-05   3.39988326497813e-05
6.61225638594544e-05   -1.1757702848428156e-05   3.39988326497813e-05
6.61225638594544e-05   -1.1757702848428156e-05   3.39988326497813e-05
3.379912690330364e-05   -9.722959052934927e-06   -1.8652715999840875e-05
3.379912690330364e-05   -9.722959052934927e-06   -1.8652715999840875e-05
3.379912690330364e-05   -9.722959052934927e-06   -1.8652715999840875e-05
3.379912690330364e-05   -9.722959052934927e-06   -1.8652715999840875e-05
3.30111849972031e-05   -1.1650926263788962e-05   3.1618301234453364e-05
3.30111849972031e-05   -1.1650926263788962e-05   3.1618301234453364e-05
3.30111849972031e-05   -1.1650926263788962e-05   3.1618301234453364e-05
3.30111849972031e-05   -1.1650926263788962e-05   3.1618301234453364e-05
6.529749956868704e-05   -9.803408744586857e-06   -2.330073356287434e-05
6.529749956868704e-05   -9.803408744586857e-06   -2.330073356287434e-05
6.529749956868704e-05   -9.803408744586857e-06   -2.330073356287434e-05
6.529749956868704e-05   -9.803408744586857e-06   -2.330073356287434e-05
4.8260835276723326e-05   -1.0060204203311048e-05   5.247784198966288e-06
4.8260835276723326e-05   -1.0060204203311048e-05   5.247784198966288e-06
4.8260835276723326e-05   -1.0060204203311048e-05   5.247784198966288e-06
4.8260835276723326e-05   -1.0060204203311048e-05   5.247784198966288e-06
6.529749956868714e-05   -1.1650926263788962e-05   3.0509790722932405e-05
6.529749956868714e-05   -1.1650926263788962e-05   3.0509790722932405e-05
6.529749956868714e-05   -1.1650926263788962e-05   3.0509790722932405e-05
6.529749956868714e-05   -1.1650926263788962e-05   3.0509790722932405e-05
3.30111849972031e-05   -9.803408744586857e-06   -2.2192223051353084e-05
3.30111849972031e-05   -9.803408744586857e-06   -2.2192223051353084e-05
3.30111849972031e-05   -9.803408744586857e-06   -2.2192223051353084e-05
3.30111849972031e-05   -9.803408744586857e-06   -2.2192223051353084e-05
3.204980596438856e-05   -1.1002023218457078e-05   2.575916537188804e-05
3.204980596438856e-05   -1.1002023218457078e-05   2.575916537188804e-05
3.204980596438856e-05   -1.1002023218457078e-05   2.575916537188804e-05
3.204980596438856e-05   -1.1002023218457078e-05   2.575916537188804e-05
6.400472459622534e-05   -9.5974681203672e-06   -2.8341765406693787e-05
6.400472459622534e-05   -9.5974681203672e-06   -2.8341765406693787e-05
6.400472459622534e-05   -9.5974681203672e-06   -2.8341765406693787e-05
6.400472459622534e-05   -9.5974681203672e-06   -2.8341765406693787e-05
4.661473594883756e-05   -9.566115817826164e-06   6.227376240943274e-07
4.661473594883756e-05   -9.566115817826164e-06   6.227376240943274e-07
4.661473594883756e-05   -9.566115817826164e-06   6.227376240943274e-07
4.661473594883756e-05   -9.566115817826164e-06   6.227376240943274e-07
3.467000212931092e-05   -1.149946503208217e-05   2.979479868049791e-05
3.467000212931092e-05   -1.149946503208217e-05   2.979479868049791e-05
3.467000212931092e-05   -1.149946503208217e-05   2.979479868049791e-05
3.467000212931092e-05   -1.149946503208217e-05   2.979479868049791e-05
7.366240015466063e-06   -5.462694486062323e-06   -1.208940918163157e-05
7.366240015466063e-06   -5.462694486062323e-06   -1.208940918163157e-05
7.366240015466063e-06   -5.462694486062323e-06   -1.208940918163157e-05
7.366240015466063e-06   -5.462694486062323e-06   -1.208940918163157e-05
5.987991559773019e-06   -1.1439846031070962e-05   3.400649055196477e-05
5.987991559773019e-06   -1.1439846031070962e-05   3.400649055196477e-05
5.987991559773019e-06   -1.1439846031070962e-05   3.400649055196477e-05
5.987991559773019e-06   -1.1439846031070962e-05   3.400649055196477e-05
3.379912690330364e-05   -5.793541742495512e-06   -1.573318426039799e-05
3.379912690330364e-05   -5.793541742495512e-06   -1.573318426039799e-05
3.379912690330364e-05   -5.793541742495512e-06   -1.573318426039799e-05
3.379912690330364e-05   -5.793541742495512e-06   -1.573318426039799e-05
2.04270658099019e-05   -8.232326098020493e-06   8.016854841919811e-06
2.04270658099019e-05   -8.232326098020493e-06   8.016854841919811e-06
2.04270658099019e-05   -8.232326098020493e-06   8.016854841919811e-06
2.04270658099019e-05   -8.232326098020493e-06   8.016854841919811e-06
3.379912690330367e-05   -1.1439846031070962e-05   3.061870797881972e-05
3.379912690330367e-05   -1.1439846031070962e-05   3.061870797881972e-05
3.379912690330367e-05   -1.1439846031070962e-05   3.061870797881972e-05
3.379912690330367e-05   -1.1439846031070962e-05   3.061870797881972e-05
5.987991559773019e-06   -5.793541742495512e-06   -1.2345401687252882e-05
5.987991559773019e-06   -5.793541742495512e-06   -1.2345401687252882e-05
5.987991559773019e-06   -5.793541742495512e-06   -1.2345401687252882e-05
5.987991559773019e-06   -5.793541742495512e-06   -1.2345401687252882e-05
5.004940107591202e-06   -1.1285443547187027e-05   3.405496845703326e-05
5.004940107591202e-06   -1.1285443547187027e-05   3.405496845703326e-05
5.004940107591202e-06   -1.1285443547187027e-05   3.405496845703326e-05
5.004940107591202e-06   -1.1285443547187027e-05   3.405496845703326e-05
3.30111849972031e-05   -5.940100129008235e-06   -1.582931240989426e-05
3.30111849972031e-05   -5.940100129008235e-06   -1.582931240989426e-05
3.30111849972031e-05   -5.940100129008235e-06   -1.582931240989426e-05
3.30111849972031e-05   -5.940100129008235e-06   -1.582931240989426e-05
1.924512398982091e-05   -8.063234624988702e-06   8.388003299998419e-06
1.924512398982091e-05   -8.063234624988702e-06   8.388003299998419e-06
1.924512398982091e-05   -8.063234624988702e-06   8.388003299998419e-06
1.924512398982091e-05   -8.063234624988702e-06   8.388003299998419e-06
3.3011184997203144e-05   -1.1285443547187461e-05   3.084776240612551e-05
3.3011184997203144e-05   -1.1285443547187461e-05   3.084776240612551e-05
3.3011184997203144e-05   -1.1285443547187461e-05   3.084776240612551e-05
3.3011184997203144e-05   -1.1285443547187461e-05   3.084776240612551e-05
5.004940107591202e-06   -5.940100129008235e-06   -1.2622106358986616e-05
5.004940107591202e-06   -5.940100129008235e-06   -1.2622106358986616e-05
5.004940107591202e-06   -5.940100129008235e-06   -1.2622106358986616e-05
5.004940107591202e-06   -5.940100129008235e-06   -1.2622106358986616e-05
3.911475538174997e-06   -1.0977518792378536e-05   3.515970880463748e-05
3.911475538174997e-06   -1.0977518792378536e-05   3.515970880463748e-05
3.911475538174997e-06   -1.0977518792378536e-05   3.515970880463748e-05
3.911475538174997e-06   -1.0977518792378536e-05   3.515970880463748e-05
3.204980596438852e-05   -5.8051648160733355e-06   -1.4840920958168112e-05
3.204980596438852e-05   -5.8051648160733355e-06   -1.4840920958168112e-05
3.204980596438852e-05   -5.8051648160733355e-06   -1.4840920958168112e-05
3.204980596438852e-05   -5.8051648160733355e-06   -1.4840920958168112e-05
1.8522714412577134e-05   -7.708704017934161e-06   8.846355149300664e-06
1.8522714412577134e-05   -7.708704017934161e-06   8.846355149300664e-06
1.8522714412577134e-05   -7.708704017934161e-06   8.846355149300664e-06
1.8522714412577134e-05   -7.708704017934161e-06   8.846355149300664e-06
7.366240015466076e-06   -1.3863734447367316e-05   3.064795233591734e-05
7.366240015466076e-06   -1.3863734447367316e-05   3.064795233591734e-05
7.366240015466076e-06   -1.3863734447367316e-05   3.064795233591734e-05
7.366240015466076e-06   -1.3863734447367316e-05   3.064795233591734e-05
-1.8863803735736113e-05   -2.2879659400095245e-06   -6.1233261450053394e-06
-1.8863803735736113e-05   -2.2879659400095245e-06   -6.1233261450053394e-06
-1.8863803735736113e-05   -2.2879659400095245e-06   -6.1233261450053394e-06
-1.8863803735736113e-05   -2.2879659400095245e-06   -6.1233261450053394e-06
-2.1007674111604073e-05   -1.4169441200208386e-05   3.9382197461579555e-05
-2.1007674111604073e-05   -1.4169441200208386e-05   3.9382197461579555e-05
-2.1007674111604073e-05   -1.4169441200208386e-05   3.9382197461579555e-05
-2.1007674111604073e-05   -1.4169441200208386e-05   3.9382197461579555e-05
5.987991559773019e-06   -2.415677777152514e-06   -1.2662836711215566e-05
5.987991559773019e-06   -2.415677777152514e-06   -1.2662836711215566e-05
5.987991559773019e-06   -2.415677777152514e-06   -1.2662836711215566e-05
5.987991559773019e-06   -2.415677777152514e-06   -1.2662836711215566e-05
-6.394940824316863e-06   -7.920761951713332e-06   1.1278434433671094e-05
-6.394940824316863e-06   -7.920761951713332e-06   1.1278434433671094e-05
-6.394940824316863e-06   -7.920761951713332e-06   1.1278434433671094e-05
-6.394940824316863e-06   -7.920761951713332e-06   1.1278434433671094e-05
5.987991559773019e-06   -1.4169441200208386e-05   3.232993940774625e-05
5.987991559773019e-06   -1.4169441200208386e-05   3.232993940774625e-05
5.987991559773019e-06   -1.4169441200208386e-05   3.232993940774625e-05
5.987991559773019e-06   -1.4169441200208386e-05   3.232993940774625e-05
-2.1007674111604046e-05   -2.415677777152514e-06   -5.610578657382287e-06
-2.1007674111604046e-05   -2.415677777152514e-06   -5.610578657382287e-06
-2.1007674111604046e-05   -2.415677777152514e-06   -5.610578657382287e-06
-2.1007674111604046e-05   -2.415677777152514e-06   -5.610578657382287e-06
-2.2318369574939403e-05   -1.4102075491312198e-05   4.088160654958182e-05
-2.2318369574939403e-05   -1.4102075491312198e-05   4.088160654958182e-05
-2.2318369574939403e-05   -1.4102075491312198e-05   4.088160654958182e-05
-2.2318369574939403e-05   -1.4102075491312198e-05   4.088160654958182e-05
5.004940107591202e-06   -2.5722518468534322e-06   -1.1575137107977692e-05
5.004940107591202e-06   -2.5722518468534322e-06   -1.1575137107977692e-05
5.004940107591202e-06   -2.5722518468534322e-06   -1.1575137107977692e-05
5.004940107591202e-06   -2.5722518468534322e-06   -1.1575137107977692e-05
-7.846510008182075e-06   -7.89458850367769e-06   1.3037348412405728e-05
-7.846510008182075e-06   -7.89458850367769e-06   1.3037348412405728e-05
-7.846510008182075e-06   -7.89458850367769e-06   1.3037348412405728e-05
-7.846510008182075e-06   -7.89458850367769e-06   1.3037348412405728e-05
5.004940107591188e-06   -1.4102075491312198e-05   3.396371236290643e-05
5.004940107591188e-06   -1.4102075491312198e-05   3.396371236290643e-05
5.004940107591188e-06   -1.4102075491312198e-05   3.396371236290643e-05
5.004940107591188e-06   -1.4102075491312198e-05   3.396371236290643e-05
-2.2318369574939363e-05   -2.5722518468534322e-06   -4.657242921302573e-06
-2.2318369574939363e-05   -2.5722518468534322e-06   -4.657242921302573e-06
-2.2318369574939363e-05   -2.5722518468534322e-06   -4.657242921302573e-06
-2.2318369574939363e-05   -2.5722518468534322e-06   -4.657242921302573e-06
-2.385951685760453e-05   -1.3606318895332658e-05   4.282246878397635e-05
-2.385951685760453e-05   -1.3606318895332658e-05   4.282246878397635e-05
-2.385951685760453e-05   -1.3606318895332658e-05   4.282246878397635e-05
-2.385951685760453e-05   -1.3606318895332658e-05   4.282246878397635e-05
3.911475538174997e-06   -2.556285075444066e-06   -1.0092538834256224e-05
3.911475538174997e-06   -2.556285075444066e-06   -1.0092538834256224e-05
3.911475538174997e-06   -2.556285075444066e-06   -1.0092538834256224e-05
3.911475538174997e-06   -2.556285075444066e-06   -1.0092538834256224e-05
-9.028705495658992e-06   -7.579074840618691e-06   1.4488103414572154e-05
-9.028705495658992e-06   -7.579074840618691e-06   1.4488103414572154e-05
-9.028705495658992e-06   -7.579074840618691e-06   1.4488103414572154e-05
-9.028705495658992e-06   -7.579074840618691e-06   1.4488103414572154e-05
-1.8863803735736154e-05   -1.727753450580247e-05   3.713135183977317e-05
-1.8863803735736154e-05   -1.727753450580247e-05   3.713135183977317e-05
-1.8863803735736154e-05   -1.727753450580247e-05   3.713135183977317e-05
-1.8863803735736154e-05   -1.727753450580247e-05   3.713135183977317e-05
-4.8722503765008236e-05   2.486446213334839e-06   -7.74759777531081e-07
-4.8722503765008236e-05   2.486446213334839e-06   -7.74759777531081e-07
-4.8722503765008236e-05   2.486446213334839e-06   -7.74759777531081e-07
-4.8722503765008236e-05   2.486446213334839e-06   -7.74759777531081e-07
-5.1300067845439526e-05   -1.92955465963744e-05   5.2470510145620616e-05
-5.1300067845439526e-05   -1.92955465963744e-05   5.2470510145620616e-05
-5.1300067845439526e-05   -1.92955465963744e-05   5.2470510145620616e-05
-5.1300067845439526e-05   -1.92955465963744e-05   5.2470510145620616e-05
-2.1007674111604046e-05   2.340357194440673e-06   -1.0998355018594267e-05
-2.1007674111604046e-05   2.340357194440673e-06   -1.0998355018594267e-05
-2.1007674111604046e-05   2.340357194440673e-06   -1.0998355018594267e-05
-2.1007674111604046e-05   2.340357194440673e-06   -1.0998355018594267e-05
-3.448550996380263e-05   -7.160647037285708e-06   1.7165307274105766e-05
-3.448550996380263e-05   -7.160647037285708e-06   1.7165307274105766e-05
-3.448550996380263e-05   -7.160647037285708e-06   1.7165307274105766e-05
-3.448550996380263e-05   -7.160647037285708e-06   1.7165307274105766e-05
-2.1007674111604073e-05   -1.92955465963744e-05   3.94889678711314e-05
-2.1007674111604073e-05   -1.92955465963744e-05   3.94889678711314e-05
-2.1007674111604073e-05   -1.92955465963744e-05   3.94889678711314e-05
-2.1007674111604073e-05   -1.92955465963744e-05   3.94889678711314e-05
-5.1300067845439526e-05   2.340357194440673e-06   1.983187255894924e-06
-5.1300067845439526e-05   2.340357194440673e-06   1.983187255894924e-06
-5.1300067845439526e-05   2.340357194440673e-06   1.983187255894924e-06
-5.1300067845439526e-05   2.340357194440673e-06   1.983187255894924e-06
-5.2870861278795896e-05   -1.940211578005781e-05   5.540958102039366e-05
-5.2870861278795896e-05   -1.940211578005781e-05   5.540958102039366e-05
-5.2870861278795896e-05   -1.940211578005781e-05   5.540958102039366e-05
-5.2870861278795896e-05   -1.940211578005781e-05   5.540958102039366e-05
-2.2318369574939363e-05   2.069423836679237e-06   -8.394162256075954e-06
-2.2318369574939363e-05   2.069423836679237e-06   -8.394162256075954e-06
-2.2318369574939363e-05   2.069423836679237e-06   -8.394162256075954e-06
-2.2318369574939363e-05   2.069423836679237e-06   -8.394162256075954e-06
-3.615910460843348e-05   -8.24877324929335e-06   2.086464771799783e-05
-3.615910460843348e-05   -8.24877324929335e-06   2.086464771799783e-05
-3.615910460843348e-05   -8.24877324929335e-06   2.086464771799783e-05
-3.615910460843348e-05   -8.24877324929335e-06   2.086464771799783e-05
-2.231836957493935e-05   -1.940211578005781e-05   4.252665725035113e-05
-2.231836957493935e-05   -1.940211578005781e-05   4.252665725035113e-05
-2.231836957493935e-05   -1.940211578005781e-05   4.252665725035113e-05
-2.231836957493935e-05   -1.940211578005781e-05   4.252665725035113e-05
-5.2870861278795774e-05   2.069423836679237e-06   4.488761513966226e-06
-5.2870861278795774e-05   2.069423836679237e-06   4.488761513966226e-06
-5.2870861278795774e-05   2.069423836679237e-06   4.488761513966226e-06
-5.2870861278795774e-05   2.069423836679237e-06   4.488761513966226e-06
-5.456362051118364e-05   -1.7700094605424023e-05   5.6671543559583086e-05
-5.456362051118364e-05   -1.7700094605424023e-05   5.6671543559583086e-05
-5.456362051118364e-05   -1.7700094605424023e-05   5.6671543559583086e-05
-5.456362051118364e-05   -1.7700094605424023e-05   5.6671543559583086e-05
-2.3859516857604435e-05   1.7624542382474809e-06   -6.1794918359183565e-06
-2.3859516857604435e-05   1.7624542382474809e-06   -6.1794918359183565e-06
-2.3859516857604435e-05   1.7624542382474809e-06   -6.1794918359183565e-06
-2.3859516857604435e-05   1.7624542382474809e-06   -6.1794918359183565e-06
-3.7884463733123514e-05   -8.309620240431245e-06   2.3238664310487557e-05
-3.7884463733123514e-05   -8.309620240431245e-06   2.3238664310487557e-05
-3.7884463733123514e-05   -8.309620240431245e-06   2.3238664310487557e-05
-3.7884463733123514e-05   -8.309620240431245e-06   2.3238664310487557e-05
-4.872250376500805e-05   0.0   4.1115053152520785e-05
-4.872250376500805e-05   0.0   4.1115053152520785e-05
-4.872250376500805e-05   0.0   4.1115053152520785e-05
-4.872250376500805e-05   0.0   4.1115053152520785e-05
-8.57803109622068e-05   1.1251042025116342e-05   -1.389733362774058e-05
-8.57803109622068e-05   1.1251042025116342e-05   -1.389733362774058e-05
-8.57803109622068e-05   1.1251042025116342e-05   -1.389733362774058e-05
-8.57803109622068e-05   1.1251042025116342e-05   -1.389733362774058e-05
-8.933258425708765e-05   0.0   5.971245865296626e-05
-8.933258425708765e-05   0.0   5.971245865296626e-05
-8.933258425708765e-05   0.0   5.971245865296626e-05
-8.933258425708765e-05   0.0   5.971245865296626e-05
-5.1300067845439445e-05   1.0862036408497682e-05   -1.0192290544879239e-05
-5.1300067845439445e-05   1.0862036408497682e-05   -1.0192290544879239e-05
-5.1300067845439445e-05   1.0862036408497682e-05   -1.0192290544879239e-05
-5.1300067845439445e-05   1.0862036408497682e-05   -1.0192290544879239e-05
-6.585129404996812e-05   6.67492135848248e-06   1.6572022159343984e-05
-6.585129404996812e-05   6.67492135848248e-06   1.6572022159343984e-05
-6.585129404996812e-05   6.67492135848248e-06   1.6572022159343984e-05
-6.585129404996812e-05   6.67492135848248e-06   1.6572022159343984e-05
-5.130006784543942e-05   0.0   5.3195236807867825e-05
-5.130006784543942e-05   0.0   5.3195236807867825e-05
-5.130006784543942e-05   0.0   5.3195236807867825e-05
-5.130006784543942e-05   0.0   5.3195236807867825e-05
-8.933258425708781e-05   1.0862036408497682e-05   -3.675068699780749e-06
-8.933258425708781e-05   1.0862036408497682e-05   -3.675068699780749e-06
-8.933258425708781e-05   1.0862036408497682e-05   -3.675068699780749e-06
-8.933258425708781e-05   1.0862036408497682e-05   -3.675068699780749e-06
-9.112132064625832e-05   0.0   6.63169089310479e-05
-9.112132064625832e-05   0.0   6.63169089310479e-05
-9.112132064625832e-05   0.0   6.63169089310479e-05
-9.112132064625832e-05   0.0   6.63169089310479e-05
-5.2870861278795774e-05   1.0584587407963097e-05   -3.7846091261674775e-06
-5.2870861278795774e-05   1.0584587407963097e-05   -3.7846091261674775e-06
-5.2870861278795774e-05   1.0584587407963097e-05   -3.7846091261674775e-06
-5.2870861278795774e-05   1.0584587407963097e-05   -3.7846091261674775e-06
-6.928097651799368e-05   5.574399747496767e-06   2.657169553544269e-05
-6.928097651799368e-05   5.574399747496767e-06   2.657169553544269e-05
-6.928097651799368e-05   5.574399747496767e-06   2.657169553544269e-05
-6.928097651799368e-05   5.574399747496767e-06   2.657169553544269e-05
-5.2870861278795774e-05   0.0   5.9966156486270395e-05
-5.2870861278795774e-05   0.0   5.9966156486270395e-05
-5.2870861278795774e-05   0.0   5.9966156486270395e-05
-5.2870861278795774e-05   0.0   5.9966156486270395e-05
-9.112132064625865e-05   1.0584587407963097e-05   2.5661433186103047e-06
-9.112132064625865e-05   1.0584587407963097e-05   2.5661433186103047e-06
-9.112132064625865e-05   1.0584587407963097e-05   2.5661433186103047e-06
-9.112132064625865e-05   1.0584587407963097e-05   2.5661433186103047e-06
-9.311203285561142e-05   0.0   7.512322361059409e-05
-9.311203285561142e-05   0.0   7.512322361059409e-05
-9.311203285561142e-05   0.0   7.512322361059409e-05
-9.311203285561142e-05   0.0   7.512322361059409e-05
-5.456362051118364e-05   8.819231732373062e-06   5.584330663790233e-06
-5.456362051118364e-05   8.819231732373062e-06   5.584330663790233e-06
-5.456362051118364e-05   8.819231732373062e-06   5.584330663790233e-06
-5.456362051118364e-05   8.819231732373062e-06   5.584330663790233e-06
-6.985384609355257e-05   3.915331010127896e-06   3.4010380401085856e-05
-6.985384609355257e-05   3.915331010127896e-06   3.4010380401085856e-05
-6.985384609355257e-05   3.915331010127896e-06   3.4010380401085856e-05
-6.985384609355257e-05   3.915331010127896e-06   3.4010380401085856e-05
5.880777609573477e-05   -8.844241742988514e-06   4.1731411849676254e-05
5.880777609573477e-05   -8.844241742988514e-06   4.1731411849676254e-05
5.880777609573477e-05   -8.844241742988514e-06   4.1731411849676254e-05
5.880777609573477e-05   -8.844241742988514e-06   4.1731411849676254e-05
2.9737897101561728e-05   -6.6745640336981354e-06   -5.416579848371416e-06
2.9737897101561728e-05   -6.6745640336981354e-06   -5.416579848371416e-06
2.9737897101561728e-05   -6.6745640336981354e-06   -5.416579848371416e-06
2.9737897101561728e-05   -6.6745640336981354e-06   -5.416579848371416e-06
2.895442365615914e-05   -9.72295905293536e-06   3.642186465912796e-05
2.895442365615914e-05   -9.72295905293536e-06   3.642186465912796e-05
2.895442365615914e-05   -9.72295905293536e-06   3.642186465912796e-05
2.895442365615914e-05   -9.72295905293536e-06   3.642186465912796e-05
5.7409564444114046e-05   -7.56371890847608e-06   -1.2298914074138988e-05
5.7409564444114046e-05   -7.56371890847608e-06   -1.2298914074138988e-05
5.7409564444114046e-05   -7.56371890847608e-06   -1.2298914074138988e-05
5.7409564444114046e-05   -7.56371890847608e-06   -1.2298914074138988e-05
4.178074383119321e-05   -7.873900710213266e-06   1.3935229361771839e-05
4.178074383119321e-05   -7.873900710213266e-06   1.3935229361771839e-05
4.178074383119321e-05   -7.873900710213266e-06   1.3935229361771839e-05
4.178074383119321e-05   -7.873900710213266e-06   1.3935229361771839e-05
5.7409564444113945e-05   -9.72295905293536e-06   3.512632057245239e-05
5.7409564444113945e-05   -9.72295905293536e-06   3.512632057245239e-05
5.7409564444113945e-05   -9.72295905293536e-06   3.512632057245239e-05
5.7409564444113945e-05   -9.72295905293536e-06   3.512632057245239e-05
2.895442365615918e-05   -7.56371890847608e-06   -1.1003369987463507e-05
2.895442365615918e-05   -7.56371890847608e-06   -1.1003369987463507e-05
2.895442365615918e-05   -7.56371890847608e-06   -1.1003369987463507e-05
2.895442365615918e-05   -7.56371890847608e-06   -1.1003369987463507e-05
2.7944896044015735e-05   -9.80340874458729e-06   3.268959667267809e-05
2.7944896044015735e-05   -9.80340874458729e-06   3.268959667267809e-05
2.7944896044015735e-05   -9.80340874458729e-06   3.268959667267809e-05
2.7944896044015735e-05   -9.80340874458729e-06   3.268959667267809e-05
5.599519254975244e-05   -7.695619018310406e-06   -1.5325571339315783e-05
5.599519254975244e-05   -7.695619018310406e-06   -1.5325571339315783e-05
5.599519254975244e-05   -7.695619018310406e-06   -1.5325571339315783e-05
5.599519254975244e-05   -7.695619018310406e-06   -1.5325571339315783e-05
4.13897522847928e-05   -8.217459483928803e-06   9.329933381654497e-06
4.13897522847928e-05   -8.217459483928803e-06   9.329933381654497e-06
4.13897522847928e-05   -8.217459483928803e-06   9.329933381654497e-06
4.13897522847928e-05   -8.217459483928803e-06   9.329933381654497e-06
5.599519254975244e-05   -9.803408744586857e-06   3.1424922836912304e-05
5.599519254975244e-05   -9.803408744586857e-06   3.1424922836912304e-05
5.599519254975244e-05   -9.803408744586857e-06   3.1424922836912304e-05
5.599519254975244e-05   -9.803408744586857e-06   3.1424922836912304e-05
2.7944896044015735e-05   -7.695619018310406e-06   -1.4060897503549762e-05
2.7944896044015735e-05   -7.695619018310406e-06   -1.4060897503549762e-05
2.7944896044015735e-05   -7.695619018310406e-06   -1.4060897503549762e-05
2.7944896044015735e-05   -7.695619018310406e-06   -1.4060897503549762e-05
2.688562359494132e-05   -9.597468120366767e-06   2.715237387952902e-05
2.688562359494132e-05   -9.597468120366767e-06   2.715237387952902e-05
2.688562359494132e-05   -9.597468120366767e-06   2.715237387952902e-05
2.688562359494132e-05   -9.597468120366767e-06   2.715237387952902e-05
5.4224619453097284e-05   -7.645769558539857e-06   -1.9583638354493694e-05
5.4224619453097284e-05   -7.645769558539857e-06   -1.9583638354493694e-05
5.4224619453097284e-05   -7.645769558539857e-06   -1.9583638354493694e-05
5.4224619453097284e-05   -7.645769558539857e-06   -1.9583638354493694e-05
3.9547189224470293e-05   -8.001954652860337e-06   5.092456416477473e-06
3.9547189224470293e-05   -8.001954652860337e-06   5.092456416477473e-06
3.9547189224470293e-05   -8.001954652860337e-06   5.092456416477473e-06
3.9547189224470293e-05   -8.001954652860337e-06   5.092456416477473e-06
2.9737897101561795e-05   -5.462694486062323e-06   3.947028889712389e-05
2.9737897101561795e-05   -5.462694486062323e-06   3.947028889712389e-05
2.9737897101561795e-05   -5.462694486062323e-06   3.947028889712389e-05
2.9737897101561795e-05   -5.462694486062323e-06   3.947028889712389e-05
3.249047935791386e-06   -2.353598543543365e-06   -2.812335480315226e-06
3.249047935791386e-06   -2.353598543543365e-06   -2.812335480315226e-06
3.249047935791386e-06   -2.353598543543365e-06   -2.812335480315226e-06
3.249047935791386e-06   -2.353598543543365e-06   -2.812335480315226e-06
2.4706242471124115e-06   -5.793541742495512e-06   4.1118838523840134e-05
2.4706242471124115e-06   -5.793541742495512e-06   4.1118838523840134e-05
2.4706242471124115e-06   -5.793541742495512e-06   4.1118838523840134e-05
2.4706242471124115e-06   -5.793541742495512e-06   4.1118838523840134e-05
2.895442365615918e-05   -2.831138200380407e-06   -4.798269283173753e-06
2.895442365615918e-05   -2.831138200380407e-06   -4.798269283173753e-06
2.895442365615918e-05   -2.831138200380407e-06   -4.798269283173753e-06
2.895442365615918e-05   -2.831138200380407e-06   -4.798269283173753e-06
1.5948643024854097e-05   -3.822055510118751e-06   1.7472582154844226e-05
1.5948643024854097e-05   -3.822055510118751e-06   1.7472582154844226e-05
1.5948643024854097e-05   -3.822055510118751e-06   1.7472582154844226e-05
1.5948643024854097e-05   -3.822055510118751e-06   1.7472582154844226e-05
2.8954423656159153e-05   -5.793541742495512e-06   3.93413963985709e-05
2.8954423656159153e-05   -5.793541742495512e-06   3.93413963985709e-05
2.8954423656159153e-05   -5.793541742495512e-06   3.93413963985709e-05
2.8954423656159153e-05   -5.793541742495512e-06   3.93413963985709e-05
2.4706242471124115e-06   -2.831138200380407e-06   -3.020827157904733e-06
2.4706242471124115e-06   -2.831138200380407e-06   -3.020827157904733e-06
2.4706242471124115e-06   -2.831138200380407e-06   -3.020827157904733e-06
2.4706242471124115e-06   -2.831138200380407e-06   -3.020827157904733e-06
1.4770846001196475e-06   -5.940100129007801e-06   4.073022171494729e-05
1.4770846001196475e-06   -5.940100129007801e-06   4.073022171494729e-05
1.4770846001196475e-06   -5.940100129007801e-06   4.073022171494729e-05
1.4770846001196475e-06   -5.940100129007801e-06   4.073022171494729e-05
2.7944896044015735e-05   -3.1439094609910477e-06   -5.0605117590230665e-06
2.7944896044015735e-05   -3.1439094609910477e-06   -5.0605117590230665e-06
2.7944896044015735e-05   -3.1439094609910477e-06   -5.0605117590230665e-06
2.7944896044015735e-05   -3.1439094609910477e-06   -5.0605117590230665e-06
1.4961289839472255e-05   -4.002621259140832e-06   1.70940589941062e-05
1.4961289839472255e-05   -4.002621259140832e-06   1.70940589941062e-05
1.4961289839472255e-05   -4.002621259140832e-06   1.70940589941062e-05
1.4961289839472255e-05   -4.002621259140832e-06   1.70940589941062e-05
2.7944896044015694e-05   -5.940100129008235e-06   3.905250731413702e-05
2.7944896044015694e-05   -5.940100129008235e-06   3.905250731413702e-05
2.7944896044015694e-05   -5.940100129008235e-06   3.905250731413702e-05
2.7944896044015694e-05   -5.940100129008235e-06   3.905250731413702e-05
1.4770846001196475e-06   -3.1439094609910477e-06   -3.382797358213001e-06
1.4770846001196475e-06   -3.1439094609910477e-06   -3.382797358213001e-06
1.4770846001196475e-06   -3.1439094609910477e-06   -3.382797358213001e-06
1.4770846001196475e-06   -3.1439094609910477e-06   -3.382797358213001e-06
3.795505877176751e-07   -5.805164816073769e-06   4.1327165965816034e-05
3.795505877176751e-07   -5.805164816073769e-06   4.1327165965816034e-05
3.795505877176751e-07   -5.805164816073769e-06   4.1327165965816034e-05
3.795505877176751e-07   -5.805164816073769e-06   4.1327165965816034e-05
2.6885623594941294e-05   -3.2773636550482294e-06   -4.366303076172061e-06
2.6885623594941294e-05   -3.2773636550482294e-06   -4.366303076172061e-06
2.6885623594941294e-05   -3.2773636550482294e-06   -4.366303076172061e-06
2.6885623594941294e-05   -3.2773636550482294e-06   -4.366303076172061e-06
1.4157564692453944e-05   -3.964142975549766e-06   1.7259196020275253e-05
1.4157564692453944e-05   -3.964142975549766e-06   1.7259196020275253e-05
1.4157564692453944e-05   -3.964142975549766e-06   1.7259196020275253e-05
1.4157564692453944e-05   -3.964142975549766e-06   1.7259196020275253e-05
3.2490479357913995e-06   -2.287965940009958e-06   4.0356368394847035e-05
3.2490479357913995e-06   -2.287965940009958e-06   4.0356368394847035e-05
3.2490479357913995e-06   -2.287965940009958e-06   4.0356368394847035e-05
3.2490479357913995e-06   -2.287965940009958e-06   4.0356368394847035e-05
-2.2413944960848574e-05   2.0949943215879674e-06   2.1448972407260916e-07
-2.2413944960848574e-05   2.0949943215879674e-06   2.1448972407260916e-07
-2.2413944960848574e-05   2.0949943215879674e-06   2.1448972407260916e-07
-2.2413944960848574e-05   2.0949943215879674e-06   2.1448972407260916e-07
-2.3291063108151223e-05   -2.415677777152514e-06   4.328882756706614e-05
-2.3291063108151223e-05   -2.415677777152514e-06   4.328882756706614e-05
-2.3291063108151223e-05   -2.415677777152514e-06   4.328882756706614e-05
-2.3291063108151223e-05   -2.415677777152514e-06   4.328882756706614e-05
2.4706242471124115e-06   1.7300290014957836e-06   -2.134742092228776e-06
2.4706242471124115e-06   1.7300290014957836e-06   -2.134742092228776e-06
2.4706242471124115e-06   1.7300290014957836e-06   -2.134742092228776e-06
2.4706242471124115e-06   1.7300290014957836e-06   -2.134742092228776e-06
-9.978042322515215e-06   -2.7453836355748745e-08   1.9667525226528082e-05
-9.978042322515215e-06   -2.7453836355748745e-08   1.9667525226528082e-05
-9.978042322515215e-06   -2.7453836355748745e-08   1.9667525226528082e-05
-9.978042322515215e-06   -2.7453836355748745e-08   1.9667525226528082e-05
2.470624247112425e-06   -2.415677777152514e-06   4.080140349987742e-05
2.470624247112425e-06   -2.415677777152514e-06   4.080140349987742e-05
2.470624247112425e-06   -2.415677777152514e-06   4.080140349987742e-05
2.470624247112425e-06   -2.415677777152514e-06   4.080140349987742e-05
-2.3291063108151223e-05   1.73002900149535e-06   3.5268197496013225e-07
-2.3291063108151223e-05   1.73002900149535e-06   3.5268197496013225e-07
-2.3291063108151223e-05   1.73002900149535e-06   3.5268197496013225e-07
-2.3291063108151223e-05   1.73002900149535e-06   3.5268197496013225e-07
-2.4466636793350912e-05   -2.572251846853866e-06   4.415471753067314e-05
-2.4466636793350912e-05   -2.572251846853866e-06   4.415471753067314e-05
-2.4466636793350912e-05   -2.572251846853866e-06   4.415471753067314e-05
-2.4466636793350912e-05   -2.572251846853866e-06   4.415471753067314e-05
1.4770846001196475e-06   1.3902924276745082e-06   -1.4623446898278487e-06
1.4770846001196475e-06   1.3902924276745082e-06   -1.4623446898278487e-06
1.4770846001196475e-06   1.3902924276745082e-06   -1.4623446898278487e-06
1.4770846001196475e-06   1.3902924276745082e-06   -1.4623446898278487e-06
-1.0843149279294883e-05   -1.2969476918551354e-07   1.9983370760645494e-05
-1.0843149279294883e-05   -1.2969476918551354e-07   1.9983370760645494e-05
-1.0843149279294883e-05   -1.2969476918551354e-07   1.9983370760645494e-05
-1.0843149279294883e-05   -1.2969476918551354e-07   1.9983370760645494e-05
1.4770846001196475e-06   -2.5722518468534322e-06   4.177719096595616e-05
1.4770846001196475e-06   -2.5722518468534322e-06   4.177719096595616e-05
1.4770846001196475e-06   -2.5722518468534322e-06   4.177719096595616e-05
1.4770846001196475e-06   -2.5722518468534322e-06   4.177719096595616e-05
-2.446663679335087e-05   1.3902924276745082e-06   9.151818748888343e-07
-2.446663679335087e-05   1.3902924276745082e-06   9.151818748888343e-07
-2.446663679335087e-05   1.3902924276745082e-06   9.151818748888343e-07
-2.446663679335087e-05   1.3902924276745082e-06   9.151818748888343e-07
-2.5719117247861717e-05   -2.5562850754436324e-06   4.51933359057351e-05
-2.5719117247861717e-05   -2.5562850754436324e-06   4.51933359057351e-05
-2.5719117247861717e-05   -2.5562850754436324e-06   4.51933359057351e-05
-2.5719117247861717e-05   -2.5562850754436324e-06   4.51933359057351e-05
3.795505877176751e-07   1.1457152608728045e-06   -5.256440220207433e-07
3.795505877176751e-07   1.1457152608728045e-06   -5.256440220207433e-07
3.795505877176751e-07   1.1457152608728045e-06   -5.256440220207433e-07
3.795505877176751e-07   1.1457152608728045e-06   -5.256440220207433e-07
-1.1946274801147838e-05   -2.028741300078886e-07   2.0826551927284305e-05
-1.1946274801147838e-05   -2.028741300078886e-07   2.0826551927284305e-05
-1.1946274801147838e-05   -2.028741300078886e-07   2.0826551927284305e-05
-1.1946274801147838e-05   -2.028741300078886e-07   2.0826551927284305e-05
-2.2413944960848466e-05   2.486446213335273e-06   3.6476322487797664e-05
-2.2413944960848466e-05   2.486446213335273e-06   3.6476322487797664e-05
-2.2413944960848466e-05   2.486446213335273e-06   3.6476322487797664e-05
-2.2413944960848466e-05   2.486446213335273e-06   3.6476322487797664e-05
-4.755913611044564e-05   6.820569676460348e-06   -2.8318553503224857e-06
-4.755913611044564e-05   6.820569676460348e-06   -2.8318553503224857e-06
-4.755913611044564e-05   6.820569676460348e-06   -2.8318553503224857e-06
-4.755913611044564e-05   6.820569676460348e-06   -2.8318553503224857e-06
-4.883587367847934e-05   2.340357194441107e-06   4.0369827415875784e-05
-4.883587367847934e-05   2.340357194441107e-06   4.0369827415875784e-05
-4.883587367847934e-05   2.340357194441107e-06   4.0369827415875784e-05
-4.883587367847934e-05   2.340357194441107e-06   4.0369827415875784e-05
-2.3291063108151156e-05   6.454984211143929e-06   -4.6736330780262686e-06
-2.3291063108151156e-05   6.454984211143929e-06   -4.6736330780262686e-06
-2.3291063108151156e-05   6.454984211143929e-06   -4.6736330780262686e-06
-2.3291063108151156e-05   6.454984211143929e-06   -4.6736330780262686e-06
-3.524533034516036e-05   4.603603103665258e-06   1.6360974314809482e-05
-3.524533034516036e-05   4.603603103665258e-06   1.6360974314809482e-05
-3.524533034516036e-05   4.603603103665258e-06   1.6360974314809482e-05
-3.524533034516036e-05   4.603603103665258e-06   1.6360974314809482e-05
-2.3291063108151183e-05   2.340357194441107e-06   3.79010512058537e-05
-2.3291063108151183e-05   2.340357194441107e-06   3.79010512058537e-05
-2.3291063108151183e-05   2.340357194441107e-06   3.79010512058537e-05
-2.3291063108151183e-05   2.340357194441107e-06   3.79010512058537e-05
-4.883587367847923e-05   6.4549842111434955e-06   -2.2048568680042933e-06
-4.883587367847923e-05   6.4549842111434955e-06   -2.2048568680042933e-06
-4.883587367847923e-05   6.4549842111434955e-06   -2.2048568680042933e-06
-4.883587367847923e-05   6.4549842111434955e-06   -2.2048568680042933e-06
-5.0400770743742055e-05   2.0694238366796708e-06   4.2846103853409626e-05
-5.0400770743742055e-05   2.0694238366796708e-06   4.2846103853409626e-05
-5.0400770743742055e-05   2.0694238366796708e-06   4.2846103853409626e-05
-5.0400770743742055e-05   2.0694238366796708e-06   4.2846103853409626e-05
-2.446663679335087e-05   6.116599932529457e-06   -2.805758388085605e-06
-2.446663679335087e-05   6.116599932529457e-06   -2.805758388085605e-06
-2.446663679335087e-05   6.116599932529457e-06   -2.805758388085605e-06
-2.446663679335087e-05   6.116599932529457e-06   -2.805758388085605e-06
-3.619580282419073e-05   4.519895216979243e-06   1.7700874492644473e-05
-3.619580282419073e-05   4.519895216979243e-06   1.7700874492644473e-05
-3.619580282419073e-05   4.519895216979243e-06   1.7700874492644473e-05
-3.619580282419073e-05   4.519895216979243e-06   1.7700874492644473e-05
-2.446663679335083e-05   2.069423836679237e-06   4.0417798195899624e-05
-2.446663679335083e-05   2.069423836679237e-06   4.0417798195899624e-05
-2.446663679335083e-05   2.069423836679237e-06   4.0417798195899624e-05
-2.446663679335083e-05   2.069423836679237e-06   4.0417798195899624e-05
-5.0400770743742055e-05   6.1165999325298905e-06   -3.7745273057544076e-07
-5.0400770743742055e-05   6.1165999325298905e-06   -3.7745273057544076e-07
-5.0400770743742055e-05   6.1165999325298905e-06   -3.7745273057544076e-07
-5.0400770743742055e-05   6.1165999325298905e-06   -3.7745273057544076e-07
-5.2056282282142544e-05   1.7624542382474809e-06   4.481572740832403e-05
-5.2056282282142544e-05   1.7624542382474809e-06   4.481572740832403e-05
-5.2056282282142544e-05   1.7624542382474809e-06   4.481572740832403e-05
-5.2056282282142544e-05   1.7624542382474809e-06   4.481572740832403e-05
-2.5719117247861663e-05   5.661395565221758e-06   -1.4189124449952577e-06
-2.5719117247861663e-05   5.661395565221758e-06   -1.4189124449952577e-06
-2.5719117247861663e-05   5.661395565221758e-06   -1.4189124449952577e-06
-2.5719117247861663e-05   5.661395565221758e-06   -1.4189124449952577e-06
-3.778073420267007e-05   4.245531894828038e-06   1.9533300681923334e-05
-3.778073420267007e-05   4.245531894828038e-06   1.9533300681923334e-05
-3.778073420267007e-05   4.245531894828038e-06   1.9533300681923334e-05
-3.778073420267007e-05   4.245531894828038e-06   1.9533300681923334e-05
-4.755913611044564e-05   1.1251042025115909e-05   1.9203597500393318e-05
-4.755913611044564e-05   1.1251042025115909e-05   1.9203597500393318e-05
-4.755913611044564e-05   1.1251042025115909e-05   1.9203597500393318e-05
-4.755913611044564e-05   1.1251042025115909e-05   1.9203597500393318e-05
-7.164571026554447e-05   1.1092470126816256e-05   -2.10358358970846e-05
-7.164571026554447e-05   1.1092470126816256e-05   -2.10358358970846e-05
-7.164571026554447e-05   1.1092470126816256e-05   -2.10358358970846e-05
-7.164571026554447e-05   1.1092470126816256e-05   -2.10358358970846e-05
-7.393801664949112e-05   1.0862036408497248e-05   2.8461111112020434e-05
-7.393801664949112e-05   1.0862036408497248e-05   2.8461111112020434e-05
-7.393801664949112e-05   1.0862036408497248e-05   2.8461111112020434e-05
-7.393801664949112e-05   1.0862036408497248e-05   2.8461111112020434e-05
-4.883587367847923e-05   1.1306638903362497e-05   -1.3642555336585327e-05
-4.883587367847923e-05   1.1306638903362497e-05   -1.3642555336585327e-05
-4.883587367847923e-05   1.1306638903362497e-05   -1.3642555336585327e-05
-4.883587367847923e-05   1.1306638903362497e-05   -1.3642555336585327e-05
-5.805968102611341e-05   1.1301980132454384e-05   1.7332521720166312e-06
-5.805968102611341e-05   1.1301980132454384e-05   1.7332521720166312e-06
-5.805968102611341e-05   1.1301980132454384e-05   1.7332521720166312e-06
-5.805968102611341e-05   1.1301980132454384e-05   1.7332521720166312e-06
-4.88358736784792e-05   1.0862036408497248e-05   2.819434961510124e-05
-4.88358736784792e-05   1.0862036408497248e-05   2.819434961510124e-05
-4.88358736784792e-05   1.0862036408497248e-05   2.819434961510124e-05
-4.88358736784792e-05   1.0862036408497248e-05   2.819434961510124e-05
-7.393801664949112e-05   1.1306638903362497e-05   -1.3375793839666243e-05
-7.393801664949112e-05   1.1306638903362497e-05   -1.3375793839666243e-05
-7.393801664949112e-05   1.1306638903362497e-05   -1.3375793839666243e-05
-7.393801664949112e-05   1.1306638903362497e-05   -1.3375793839666243e-05
-7.61859373210886e-05   1.0584587407963097e-05   3.4957362113990226e-05
-7.61859373210886e-05   1.0584587407963097e-05   3.4957362113990226e-05
-7.61859373210886e-05   1.0584587407963097e-05   3.4957362113990226e-05
-7.61859373210886e-05   1.0584587407963097e-05   3.4957362113990226e-05
-5.0400770743741974e-05   1.1225635575820396e-05   -8.402544415635584e-06
-5.0400770743741974e-05   1.1225635575820396e-05   -8.402544415635584e-06
-5.0400770743741974e-05   1.1225635575820396e-05   -8.402544415635584e-06
-5.0400770743741974e-05   1.1225635575820396e-05   -8.402544415635584e-06
-6.069015924983584e-05   1.1301527185226482e-05   8.70090146221135e-06
-6.069015924983584e-05   1.1301527185226482e-05   8.70090146221135e-06
-6.069015924983584e-05   1.1301527185226482e-05   8.70090146221135e-06
-6.069015924983584e-05   1.1301527185226482e-05   8.70090146221135e-06
-5.0400770743741974e-05   1.0584587407963097e-05   3.457273321327576e-05
-5.0400770743741974e-05   1.0584587407963097e-05   3.457273321327576e-05
-5.0400770743741974e-05   1.0584587407963097e-05   3.457273321327576e-05
-5.0400770743741974e-05   1.0584587407963097e-05   3.457273321327576e-05
-7.61859373210886e-05   1.1225635575819962e-05   -8.017915514921389e-06
-7.61859373210886e-05   1.1225635575819962e-05   -8.017915514921389e-06
-7.61859373210886e-05   1.1225635575819962e-05   -8.017915514921389e-06
-7.61859373210886e-05   1.1225635575819962e-05   -8.017915514921389e-06
-7.883726069306967e-05   8.819231732373062e-06   4.5811686032945064e-05
-7.883726069306967e-05   8.819231732373062e-06   4.5811686032945064e-05
-7.883726069306967e-05   8.819231732373062e-06   4.5811686032945064e-05
-7.883726069306967e-05   8.819231732373062e-06   4.5811686032945064e-05
-5.205628228214238e-05   1.0335340784232636e-05   2.6705658361754134e-07
-5.205628228214238e-05   1.0335340784232636e-05   2.6705658361754134e-07
-5.205628228214238e-05   1.0335340784232636e-05   2.6705658361754134e-07
-5.205628228214238e-05   1.0335340784232636e-05   2.6705658361754134e-07
-6.163039123323745e-05   1.0765968905537219e-05   1.5965527962660516e-05
-6.163039123323745e-05   1.0765968905537219e-05   1.5965527962660516e-05
-6.163039123323745e-05   1.0765968905537219e-05   1.5965527962660516e-05
-6.163039123323745e-05   1.0765968905537219e-05   1.5965527962660516e-05
4.7718871348002845e-05   -6.6745640336981354e-06   3.680241260413798e-05
4.7718871348002845e-05   -6.6745640336981354e-06   3.680241260413798e-05
4.7718871348002845e-05   -6.6745640336981354e-06   3.680241260413798e-05
4.7718871348002845e-05   -6.6745640336981354e-06   3.680241260413798e-05
2.362154976535292e-05   -4.8968307271852855e-06   -2.2931500497039986e-06
2.362154976535292e-05   -4.8968307271852855e-06   -2.2931500497039986e-06
2.362154976535292e-05   -4.8968307271852855e-06   -2.2931500497039986e-06
2.362154976535292e-05   -4.8968307271852855e-06   -2.2931500497039986e-06
2.2718983719378988e-05   -7.56371890847608e-06   3.200028659346046e-05
2.2718983719378988e-05   -7.56371890847608e-06   3.200028659346046e-05
2.2718983719378988e-05   -7.56371890847608e-06   3.200028659346046e-05
2.2718983719378988e-05   -7.56371890847608e-06   3.200028659346046e-05
4.605912887128035e-05   -5.680695510079312e-06   -8.029769365412857e-06
4.605912887128035e-05   -5.680695510079312e-06   -8.029769365412857e-06
4.605912887128035e-05   -5.680695510079312e-06   -8.029769365412857e-06
4.605912887128035e-05   -5.680695510079312e-06   -8.029769365412857e-06
3.342594059204622e-05   -6.1403938643052845e-06   1.3301363445846186e-05
3.342594059204622e-05   -6.1403938643052845e-06   1.3301363445846186e-05
3.342594059204622e-05   -6.1403938643052845e-06   1.3301363445846186e-05
3.342594059204622e-05   -6.1403938643052845e-06   1.3301363445846186e-05
4.605912887128027e-05   -7.56371890847608e-06   3.0870472554422575e-05
4.605912887128027e-05   -7.56371890847608e-06   3.0870472554422575e-05
4.605912887128027e-05   -7.56371890847608e-06   3.0870472554422575e-05
4.605912887128027e-05   -7.56371890847608e-06   3.0870472554422575e-05
2.271898371937907e-05   -5.680695510079312e-06   -6.899955326374746e-06
2.271898371937907e-05   -5.680695510079312e-06   -6.899955326374746e-06
2.271898371937907e-05   -5.680695510079312e-06   -6.899955326374746e-06
2.271898371937907e-05   -5.680695510079312e-06   -6.899955326374746e-06
2.1715956420700922e-05   -7.695619018310406e-06   2.867611550054082e-05
2.1715956420700922e-05   -7.695619018310406e-06   2.867611550054082e-05
2.1715956420700922e-05   -7.695619018310406e-06   2.867611550054082e-05
2.1715956420700922e-05   -7.695619018310406e-06   2.867611550054082e-05
4.455596232095778e-05   -5.837999662428647e-06   -1.0505132613416042e-05
4.455596232095778e-05   -5.837999662428647e-06   -1.0505132613416042e-05
4.455596232095778e-05   -5.837999662428647e-06   -1.0505132613416042e-05
4.455596232095778e-05   -5.837999662428647e-06   -1.0505132613416042e-05
3.280248682782766e-05   -6.4442559022863215e-06   9.447746952381884e-06
3.280248682782766e-05   -6.4442559022863215e-06   9.447746952381884e-06
3.280248682782766e-05   -6.4442559022863215e-06   9.447746952381884e-06
3.280248682782766e-05   -6.4442559022863215e-06   9.447746952381884e-06
4.4555962320957624e-05   -7.695619018310406e-06   2.7561543887011765e-05
4.4555962320957624e-05   -7.695619018310406e-06   2.7561543887011765e-05
4.4555962320957624e-05   -7.695619018310406e-06   2.7561543887011765e-05
4.4555962320957624e-05   -7.695619018310406e-06   2.7561543887011765e-05
2.1715956420700956e-05   -5.837999662428647e-06   -9.390560999887132e-06
2.1715956420700956e-05   -5.837999662428647e-06   -9.390560999887132e-06
2.1715956420700956e-05   -5.837999662428647e-06   -9.390560999887132e-06
2.1715956420700956e-05   -5.837999662428647e-06   -9.390560999887132e-06
2.0751147357415866e-05   -7.64576955854029e-06   2.4039154894482445e-05
2.0751147357415866e-05   -7.64576955854029e-06   2.4039154894482445e-05
2.0751147357415866e-05   -7.64576955854029e-06   2.4039154894482445e-05
2.0751147357415866e-05   -7.64576955854029e-06   2.4039154894482445e-05
4.285329615108234e-05   -5.9007139138833944e-06   -1.3844793148421925e-05
4.285329615108234e-05   -5.9007139138833944e-06   -1.3844793148421925e-05
4.285329615108234e-05   -5.9007139138833944e-06   -1.3844793148421925e-05
4.285329615108234e-05   -5.9007139138833944e-06   -1.3844793148421925e-05
3.111598631510053e-05   -6.334994770847927e-06   5.977958425726804e-06
3.111598631510053e-05   -6.334994770847927e-06   5.977958425726804e-06
3.111598631510053e-05   -6.334994770847927e-06   5.977958425726804e-06
3.111598631510053e-05   -6.334994770847927e-06   5.977958425726804e-06
2.362154976535292e-05   -2.353598543543365e-06   3.860783939059042e-05
2.362154976535292e-05   -2.353598543543365e-06   3.860783939059042e-05
2.362154976535292e-05   -2.353598543543365e-06   3.860783939059042e-05
2.362154976535292e-05   -2.353598543543365e-06   3.860783939059042e-05
1.0023862111722975e-06   -9.369554096268391e-07   1.7592193473057755e-06
1.0023862111722975e-06   -9.369554096268391e-07   1.7592193473057755e-06
1.0023862111722975e-06   -9.369554096268391e-07   1.7592193473057755e-06
1.0023862111722975e-06   -9.369554096268391e-07   1.7592193473057755e-06
1.358389474459624e-07   -2.8311382003799734e-06   3.900853036685448e-05
1.358389474459624e-07   -2.8311382003799734e-06   3.900853036685448e-05
1.358389474459624e-07   -2.8311382003799734e-06   3.900853036685448e-05
1.358389474459624e-07   -2.8311382003799734e-06   3.900853036685448e-05
2.271898371937907e-05   -1.4925664185397487e-06   5.668126778618759e-07
2.271898371937907e-05   -1.4925664185397487e-06   5.668126778618759e-07
2.271898371937907e-05   -1.4925664185397487e-06   5.668126778618759e-07
2.271898371937907e-05   -1.4925664185397487e-06   5.668126778618759e-07
1.1725601585278263e-05   -1.8332015275157251e-06   1.9093497300082273e-05
1.1725601585278263e-05   -1.8332015275157251e-06   1.9093497300082273e-05
1.1725601585278263e-05   -1.8332015275157251e-06   1.9093497300082273e-05
1.1725601585278263e-05   -1.8332015275157251e-06   1.9093497300082273e-05
2.271898371937905e-05   -2.831138200380407e-06   3.820538729775e-05
2.271898371937905e-05   -2.831138200380407e-06   3.820538729775e-05
2.271898371937905e-05   -2.831138200380407e-06   3.820538729775e-05
2.271898371937905e-05   -2.831138200380407e-06   3.820538729775e-05
1.358389474459624e-07   -1.4925664185397487e-06   1.3699557469661408e-06
1.358389474459624e-07   -1.4925664185397487e-06   1.3699557469661408e-06
1.358389474459624e-07   -1.4925664185397487e-06   1.3699557469661408e-06
1.358389474459624e-07   -1.4925664185397487e-06   1.3699557469661408e-06
-7.648899507985152e-07   -3.1439094609914814e-06   3.841983336542402e-05
-7.648899507985152e-07   -3.1439094609914814e-06   3.841983336542402e-05
-7.648899507985152e-07   -3.1439094609914814e-06   3.841983336542402e-05
-7.648899507985152e-07   -3.1439094609914814e-06   3.841983336542402e-05
2.1715956420700956e-05   -1.9050225937302344e-06   2.084239592349828e-07
2.1715956420700956e-05   -1.9050225937302344e-06   2.084239592349828e-07
2.1715956420700956e-05   -1.9050225937302344e-06   2.084239592349828e-07
2.1715956420700956e-05   -1.9050225937302344e-06   2.084239592349828e-07
1.0730576578198449e-05   -2.1241790351470002e-06   1.8648884228256494e-05
1.0730576578198449e-05   -2.1241790351470002e-06   1.8648884228256494e-05
1.0730576578198449e-05   -2.1241790351470002e-06   1.8648884228256494e-05
1.0730576578198449e-05   -2.1241790351470002e-06   1.8648884228256494e-05
2.1715956420700922e-05   -3.1439094609910477e-06   3.767650124506753e-05
2.1715956420700922e-05   -3.1439094609910477e-06   3.767650124506753e-05
2.1715956420700922e-05   -3.1439094609910477e-06   3.767650124506753e-05
2.1715956420700922e-05   -3.1439094609910477e-06   3.767650124506753e-05
-7.648899507985152e-07   -1.905022593730668e-06   9.517560795914166e-07
-7.648899507985152e-07   -1.905022593730668e-06   9.517560795914166e-07
-7.648899507985152e-07   -1.905022593730668e-06   9.517560795914166e-07
-7.648899507985152e-07   -1.905022593730668e-06   9.517560795914166e-07
-1.7026149144731324e-06   -3.2773636550482294e-06   3.871385636988029e-05
-1.7026149144731324e-06   -3.2773636550482294e-06   3.871385636988029e-05
-1.7026149144731324e-06   -3.2773636550482294e-06   3.871385636988029e-05
-1.7026149144731324e-06   -3.2773636550482294e-06   3.871385636988029e-05
2.0751147357415927e-05   -2.230054764761503e-06   6.625339158931474e-07
2.0751147357415927e-05   -2.230054764761503e-06   6.625339158931474e-07
2.0751147357415927e-05   -2.230054764761503e-06   6.625339158931474e-07
2.0751147357415927e-05   -2.230054764761503e-06   6.625339158931474e-07
9.982881348037334e-06   -2.280092273239734e-06   1.8639666436611716e-05
9.982881348037334e-06   -2.280092273239734e-06   1.8639666436611716e-05
9.982881348037334e-06   -2.280092273239734e-06   1.8639666436611716e-05
9.982881348037334e-06   -2.280092273239734e-06   1.8639666436611716e-05
1.0023862111722975e-06   2.094994321588401e-06   3.98548743183692e-05
1.0023862111722975e-06   2.094994321588401e-06   3.98548743183692e-05
1.0023862111722975e-06   2.094994321588401e-06   3.98548743183692e-05
1.0023862111722975e-06   2.094994321588401e-06   3.98548743183692e-05
-2.0956877707485583e-05   3.0386831262681387e-06   3.822314403414224e-06
-2.0956877707485583e-05   3.0386831262681387e-06   3.822314403414224e-06
-2.0956877707485583e-05   3.0386831262681387e-06   3.822314403414224e-06
-2.0956877707485583e-05   3.0386831262681387e-06   3.822314403414224e-06
-2.186235012708595e-05   1.73002900149535e-06   4.040259897660696e-05
-2.186235012708595e-05   1.73002900149535e-06   4.040259897660696e-05
-2.186235012708595e-05   1.73002900149535e-06   4.040259897660696e-05
-2.186235012708595e-05   1.73002900149535e-06   4.040259897660696e-05
1.358389474459624e-07   2.5766682416228544e-06   3.230966974977203e-06
1.358389474459624e-07   2.5766682416228544e-06   3.230966974977203e-06
1.358389474459624e-07   2.5766682416228544e-06   3.230966974977203e-06
1.358389474459624e-07   2.5766682416228544e-06   3.230966974977203e-06
-1.0436363923603986e-05   2.3866765590926584e-06   2.0965300102911665e-05
-1.0436363923603986e-05   2.3866765590926584e-06   2.0965300102911665e-05
-1.0436363923603986e-05   2.3866765590926584e-06   2.0965300102911665e-05
-1.0436363923603986e-05   2.3866765590926584e-06   2.0965300102911665e-05
1.358389474459624e-07   1.73002900149535e-06   3.989461543253041e-05
1.358389474459624e-07   1.73002900149535e-06   3.989461543253041e-05
1.358389474459624e-07   1.73002900149535e-06   3.989461543253041e-05
1.358389474459624e-07   1.73002900149535e-06   3.989461543253041e-05
-2.186235012708595e-05   2.5766682416228544e-06   3.738950519053749e-06
-2.186235012708595e-05   2.5766682416228544e-06   3.738950519053749e-06
-2.186235012708595e-05   2.5766682416228544e-06   3.738950519053749e-06
-2.186235012708595e-05   2.5766682416228544e-06   3.738950519053749e-06
-2.2818418049595752e-05   1.3902924276745082e-06   4.078295064010337e-05
-2.2818418049595752e-05   1.3902924276745082e-06   4.078295064010337e-05
-2.2818418049595752e-05   1.3902924276745082e-06   4.078295064010337e-05
-2.2818418049595752e-05   1.3902924276745082e-06   4.078295064010337e-05
-7.648899507985152e-07   2.128066771498599e-06   3.5844058691469915e-06
-7.648899507985152e-07   2.128066771498599e-06   3.5844058691469915e-06
-7.648899507985152e-07   2.128066771498599e-06   3.5844058691469915e-06
-7.648899507985152e-07   2.128066771498599e-06   3.5844058691469915e-06
-1.127744957635401e-05   2.1231067911155893e-06   2.1108314566635803e-05
-1.127744957635401e-05   2.1231067911155893e-06   2.1108314566635803e-05
-1.127744957635401e-05   2.1231067911155893e-06   2.1108314566635803e-05
-1.127744957635401e-05   2.1231067911155893e-06   2.1108314566635803e-05
-7.648899507985152e-07   1.3902924276740745e-06   4.034028603380909e-05
-7.648899507985152e-07   1.3902924276740745e-06   4.034028603380909e-05
-7.648899507985152e-07   1.3902924276740745e-06   4.034028603380909e-05
-7.648899507985152e-07   1.3902924276740745e-06   4.034028603380909e-05
-2.281841804959578e-05   2.128066771498599e-06   4.027070475441435e-06
-2.281841804959578e-05   2.128066771498599e-06   4.027070475441435e-06
-2.281841804959578e-05   2.128066771498599e-06   4.027070475441435e-06
-2.281841804959578e-05   2.128066771498599e-06   4.027070475441435e-06
-2.3804949962367197e-05   1.1457152608728045e-06   4.138767248239371e-05
-2.3804949962367197e-05   1.1457152608728045e-06   4.138767248239371e-05
-2.3804949962367197e-05   1.1457152608728045e-06   4.138767248239371e-05
-2.3804949962367197e-05   1.1457152608728045e-06   4.138767248239371e-05
-1.7026149144731324e-06   1.728778185835101e-06   4.200609647592819e-06
-1.7026149144731324e-06   1.728778185835101e-06   4.200609647592819e-06
-1.7026149144731324e-06   1.728778185835101e-06   4.200609647592819e-06
-1.7026149144731324e-06   1.728778185835101e-06   4.200609647592819e-06
-1.2187651654914109e-05   1.8706361579043027e-06   2.15905560984205e-05
-1.2187651654914109e-05   1.8706361579043027e-06   2.15905560984205e-05
-1.2187651654914109e-05   1.8706361579043027e-06   2.15905560984205e-05
-1.2187651654914109e-05   1.8706361579043027e-06   2.15905560984205e-05
-2.0956877707485638e-05   6.820569676459914e-06   3.477426844890699e-05
-2.0956877707485638e-05   6.820569676459914e-06   3.477426844890699e-05
-2.0956877707485638e-05   6.820569676459914e-06   3.477426844890699e-05
-2.0956877707485638e-05   6.820569676459914e-06   3.477426844890699e-05
-4.2227811032744585e-05   6.906973106304403e-06   -6.254450352846403e-07
-4.2227811032744585e-05   6.906973106304403e-06   -6.254450352846403e-07
-4.2227811032744585e-05   6.906973106304403e-06   -6.254450352846403e-07
-4.2227811032744585e-05   6.906973106304403e-06   -6.254450352846403e-07
-4.3278961391252714e-05   6.454984211143929e-06   3.5382931808249736e-05
-4.3278961391252714e-05   6.454984211143929e-06   3.5382931808249736e-05
-4.3278961391252714e-05   6.454984211143929e-06   3.5382931808249736e-05
-4.3278961391252714e-05   6.454984211143929e-06   3.5382931808249736e-05
-2.1862350127086004e-05   6.466064018858901e-06   -3.18068183323807e-07
-2.1862350127086004e-05   6.466064018858901e-06   -3.18068183323807e-07
-2.1862350127086004e-05   6.466064018858901e-06   -3.18068183323807e-07
-2.1862350127086004e-05   6.466064018858901e-06   -3.18068183323807e-07
-3.193815028523103e-05   6.6456373428707555e-06   1.6367188085844196e-05
-3.193815028523103e-05   6.6456373428707555e-06   1.6367188085844196e-05
-3.193815028523103e-05   6.6456373428707555e-06   1.6367188085844196e-05
-3.193815028523103e-05   6.6456373428707555e-06   1.6367188085844196e-05
-2.1862350127086004e-05   6.454984211143929e-06   3.5376283923620666e-05
-2.1862350127086004e-05   6.454984211143929e-06   3.5376283923620666e-05
-2.1862350127086004e-05   6.454984211143929e-06   3.5376283923620666e-05
-2.1862350127086004e-05   6.454984211143929e-06   3.5376283923620666e-05
-4.327896139125263e-05   6.466064018858901e-06   -3.114202986948455e-07
-4.327896139125263e-05   6.466064018858901e-06   -3.114202986948455e-07
-4.327896139125263e-05   6.466064018858901e-06   -3.114202986948455e-07
-4.327896139125263e-05   6.466064018858901e-06   -3.114202986948455e-07
-4.444380732066989e-05   6.116599932529457e-06   3.702766308109223e-05
-4.444380732066989e-05   6.116599932529457e-06   3.702766308109223e-05
-4.444380732066989e-05   6.116599932529457e-06   3.702766308109223e-05
-4.444380732066989e-05   6.116599932529457e-06   3.702766308109223e-05
-2.281841804959578e-05   6.0593544391343915e-06   1.0196949253390053e-06
-2.281841804959578e-05   6.0593544391343915e-06   1.0196949253390053e-06
-2.281841804959578e-05   6.0593544391343915e-06   1.0196949253390053e-06
-2.281841804959578e-05   6.0593544391343915e-06   1.0196949253390053e-06
-3.269762631215355e-05   6.396795781606068e-06   1.7282577224118846e-05
-3.269762631215355e-05   6.396795781606068e-06   1.7282577224118846e-05
-3.269762631215355e-05   6.396795781606068e-06   1.7282577224118846e-05
-3.269762631215355e-05   6.396795781606068e-06   1.7282577224118846e-05
-2.281841804959578e-05   6.116599932529457e-06   3.706201037712909e-05
-2.281841804959578e-05   6.116599932529457e-06   3.706201037712909e-05
-2.281841804959578e-05   6.116599932529457e-06   3.706201037712909e-05
-2.281841804959578e-05   6.116599932529457e-06   3.706201037712909e-05
-4.444380732066984e-05   6.059354439134825e-06   9.853476293018686e-07
-4.444380732066984e-05   6.059354439134825e-06   9.853476293018686e-07
-4.444380732066984e-05   6.059354439134825e-06   9.853476293018686e-07
-4.444380732066984e-05   6.059354439134825e-06   9.853476293018686e-07
-4.555386009562389e-05   5.661395565222192e-06   3.821383580727218e-05
-4.555386009562389e-05   5.661395565222192e-06   3.821383580727218e-05
-4.555386009562389e-05   5.661395565222192e-06   3.821383580727218e-05
-4.555386009562389e-05   5.661395565222192e-06   3.821383580727218e-05
-2.3804949962367305e-05   5.562448814627145e-06   2.025020302201335e-06
-2.3804949962367305e-05   5.562448814627145e-06   2.025020302201335e-06
-2.3804949962367305e-05   5.562448814627145e-06   2.025020302201335e-06
-2.3804949962367305e-05   5.562448814627145e-06   2.025020302201335e-06
-3.3906929279478004e-05   6.0732695152969016e-06   1.85551600769857e-05
-3.3906929279478004e-05   6.0732695152969016e-06   1.85551600769857e-05
-3.3906929279478004e-05   6.0732695152969016e-06   1.85551600769857e-05
-3.3906929279478004e-05   6.0732695152969016e-06   1.85551600769857e-05
-4.222781103274453e-05   1.1092470126816256e-05   1.671727309903153e-05
-4.222781103274453e-05   1.1092470126816256e-05   1.671727309903153e-05
-4.222781103274453e-05   1.1092470126816256e-05   1.671727309903153e-05
-4.222781103274453e-05   1.1092470126816256e-05   1.671727309903153e-05
-6.244526426350014e-05   9.947025241875164e-06   -1.7665749216525884e-05
-6.244526426350014e-05   9.947025241875164e-06   -1.7665749216525884e-05
-6.244526426350014e-05   9.947025241875164e-06   -1.7665749216525884e-05
-6.244526426350014e-05   9.947025241875164e-06   -1.7665749216525884e-05
-6.410065552705767e-05   1.1306638903362497e-05   2.3193268748758402e-05
-6.410065552705767e-05   1.1306638903362497e-05   2.3193268748758402e-05
-6.410065552705767e-05   1.1306638903362497e-05   2.3193268748758402e-05
-6.410065552705767e-05   1.1306638903362497e-05   2.3193268748758402e-05
-4.3278961391252714e-05   1.0053364585178338e-05   -1.0757590220006352e-05
-4.3278961391252714e-05   1.0053364585178338e-05   -1.0757590220006352e-05
-4.3278961391252714e-05   1.0053364585178338e-05   -1.0757590220006352e-05
-4.3278961391252714e-05   1.0053364585178338e-05   -1.0757590220006352e-05
-5.0983122334002665e-05   1.0537576040144103e-05   1.7921511449310698e-06
-5.0983122334002665e-05   1.0537576040144103e-05   1.7921511449310698e-06
-5.0983122334002665e-05   1.0537576040144103e-05   1.7921511449310698e-06
-5.0983122334002665e-05   1.0537576040144103e-05   1.7921511449310698e-06
-4.327896139125258e-05   1.1306638903362063e-05   2.394523333966881e-05
-4.327896139125258e-05   1.1306638903362063e-05   2.394523333966881e-05
-4.327896139125258e-05   1.1306638903362063e-05   2.394523333966881e-05
-4.327896139125258e-05   1.1306638903362063e-05   2.394523333966881e-05
-6.410065552705786e-05   1.0053364585178338e-05   -1.1509554810916977e-05
-6.410065552705786e-05   1.0053364585178338e-05   -1.1509554810916977e-05
-6.410065552705786e-05   1.0053364585178338e-05   -1.1509554810916977e-05
-6.410065552705786e-05   1.0053364585178338e-05   -1.1509554810916977e-05
-6.57168200693565e-05   1.1225635575819962e-05   2.8232959639698215e-05
-6.57168200693565e-05   1.1225635575819962e-05   2.8232959639698215e-05
-6.57168200693565e-05   1.1225635575819962e-05   2.8232959639698215e-05
-6.57168200693565e-05   1.1225635575819962e-05   2.8232959639698215e-05
-4.444380732066989e-05   9.942949315263749e-06   -6.45244985177909e-06
-4.444380732066989e-05   9.942949315263749e-06   -6.45244985177909e-06
-4.444380732066989e-05   9.942949315263749e-06   -6.45244985177909e-06
-4.444380732066989e-05   9.942949315263749e-06   -6.45244985177909e-06
-5.301865628352382e-05   1.0730257915225229e-05   7.366579926334788e-06
-5.301865628352382e-05   1.0730257915225229e-05   7.366579926334788e-06
-5.301865628352382e-05   1.0730257915225229e-05   7.366579926334788e-06
-5.301865628352382e-05   1.0730257915225229e-05   7.366579926334788e-06
-4.444380732066989e-05   1.1225635575820396e-05   2.9002571396032463e-05
-4.444380732066989e-05   1.1225635575820396e-05   2.9002571396032463e-05
-4.444380732066989e-05   1.1225635575820396e-05   2.9002571396032463e-05
-4.444380732066989e-05   1.1225635575820396e-05   2.9002571396032463e-05
-6.571682006935672e-05   9.942949315263749e-06   -7.222061608113122e-06
-6.571682006935672e-05   9.942949315263749e-06   -7.222061608113122e-06
-6.571682006935672e-05   9.942949315263749e-06   -7.222061608113122e-06
-6.571682006935672e-05   9.942949315263749e-06   -7.222061608113122e-06
-6.760406430906892e-05   1.0335340784232202e-05   3.6865353664920124e-05
-6.760406430906892e-05   1.0335340784232202e-05   3.6865353664920124e-05
-6.760406430906892e-05   1.0335340784232202e-05   3.6865353664920124e-05
-6.760406430906892e-05   1.0335340784232202e-05   3.6865353664920124e-05
-4.555386009562389e-05   9.176863492932168e-06   8.100996839583135e-07
-4.555386009562389e-05   9.176863492932168e-06   8.100996839583135e-07
-4.555386009562389e-05   9.176863492932168e-06   8.100996839583135e-07
-4.555386009562389e-05   9.176863492932168e-06   8.100996839583135e-07
-5.35332172464912e-05   1.0414144047494241e-05   1.336665993600071e-05
-5.35332172464912e-05   1.0414144047494241e-05   1.336665993600071e-05
-5.35332172464912e-05   1.0414144047494241e-05   1.336665993600071e-05
-5.35332172464912e-05   1.0414144047494241e-05   1.336665993600071e-05
3.624635950288276e-05   -4.8968307271852855e-06   3.0742190478389624e-05
3.624635950288276e-05   -4.8968307271852855e-06   3.0742190478389624e-05
3.624635950288276e-05   -4.8968307271852855e-06   3.0742190478389624e-05
3.624635950288276e-05   -4.8968307271852855e-06   3.0742190478389624e-05
1.7062038702387202e-05   -3.2387739747458642e-06   -2.3684347097300065e-07
1.7062038702387202e-05   -3.2387739747458642e-06   -2.3684347097300065e-07
1.7062038702387202e-05   -3.2387739747458642e-06   -2.3684347097300065e-07
1.7062038702387202e-05   -3.2387739747458642e-06   -2.3684347097300065e-07
1.6255755377314124e-05   -5.680695510079312e-06   2.7009779152757868e-05
1.6255755377314124e-05   -5.680695510079312e-06   2.7009779152757868e-05
1.6255755377314124e-05   -5.680695510079312e-06   2.7009779152757868e-05
1.6255755377314124e-05   -5.680695510079312e-06   2.7009779152757868e-05
3.46862375931466e-05   -3.930089097101521e-06   -4.758055054749358e-06
3.46862375931466e-05   -3.930089097101521e-06   -4.758055054749358e-06
3.46862375931466e-05   -3.930089097101521e-06   -4.758055054749358e-06
3.46862375931466e-05   -3.930089097101521e-06   -4.758055054749358e-06
2.4836658713828093e-05   -4.4702205392406404e-06   1.1981988609398222e-05
2.4836658713828093e-05   -4.4702205392406404e-06   1.1981988609398222e-05
2.4836658713828093e-05   -4.4702205392406404e-06   1.1981988609398222e-05
2.4836658713828093e-05   -4.4702205392406404e-06   1.1981988609398222e-05
3.46862375931466e-05   -5.680695510079312e-06   2.595941530497128e-05
3.46862375931466e-05   -5.680695510079312e-06   2.595941530497128e-05
3.46862375931466e-05   -5.680695510079312e-06   2.595941530497128e-05
3.46862375931466e-05   -5.680695510079312e-06   2.595941530497128e-05
1.625575537731415e-05   -3.930089097101521e-06   -3.707691206962689e-06
1.625575537731415e-05   -3.930089097101521e-06   -3.707691206962689e-06
1.625575537731415e-05   -3.930089097101521e-06   -3.707691206962689e-06
1.625575537731415e-05   -3.930089097101521e-06   -3.707691206962689e-06
1.5365696357974924e-05   -5.837999662428647e-06   2.438641140557968e-05
1.5365696357974924e-05   -5.837999662428647e-06   2.438641140557968e-05
1.5365696357974924e-05   -5.837999662428647e-06   2.438641140557968e-05
1.5365696357974924e-05   -5.837999662428647e-06   2.438641140557968e-05
3.331880493355674e-05   -4.114640097824078e-06   -6.5694519591526636e-06
3.331880493355674e-05   -4.114640097824078e-06   -6.5694519591526636e-06
3.331880493355674e-05   -4.114640097824078e-06   -6.5694519591526636e-06
3.331880493355674e-05   -4.114640097824078e-06   -6.5694519591526636e-06
2.4190980783220024e-05   -4.75077807924381e-06   9.025271080261173e-06
2.4190980783220024e-05   -4.75077807924381e-06   9.025271080261173e-06
2.4190980783220024e-05   -4.75077807924381e-06   9.025271080261173e-06
2.4190980783220024e-05   -4.75077807924381e-06   9.025271080261173e-06
3.331880493355668e-05   -5.837999662428647e-06   2.3352395666817157e-05
3.331880493355668e-05   -5.837999662428647e-06   2.3352395666817157e-05
3.331880493355668e-05   -5.837999662428647e-06   2.3352395666817157e-05
3.331880493355668e-05   -5.837999662428647e-06   2.3352395666817157e-05
1.536569635797495e-05   -4.114640097824078e-06   -5.53543622038976e-06
1.536569635797495e-05   -4.114640097824078e-06   -5.53543622038976e-06
1.536569635797495e-05   -4.114640097824078e-06   -5.53543622038976e-06
1.536569635797495e-05   -4.114640097824078e-06   -5.53543622038976e-06
1.4543779693691493e-05   -5.9007139138833944e-06   2.083222008183094e-05
1.4543779693691493e-05   -5.9007139138833944e-06   2.083222008183094e-05
1.4543779693691493e-05   -5.9007139138833944e-06   2.083222008183094e-05
1.4543779693691493e-05   -5.9007139138833944e-06   2.083222008183094e-05
3.179075873467298e-05   -4.286496130046164e-06   -8.881275656774085e-06
3.179075873467298e-05   -4.286496130046164e-06   -8.881275656774085e-06
3.179075873467298e-05   -4.286496130046164e-06   -8.881275656774085e-06
3.179075873467298e-05   -4.286496130046164e-06   -8.881275656774085e-06
2.2762652342833025e-05   -4.7232809678907604e-06   6.427639232333012e-06
2.2762652342833025e-05   -4.7232809678907604e-06   6.427639232333012e-06
2.2762652342833025e-05   -4.7232809678907604e-06   6.427639232333012e-06
2.2762652342833025e-05   -4.7232809678907604e-06   6.427639232333012e-06
1.706203870238714e-05   -9.369554096268391e-07   3.493940804651292e-05
1.706203870238714e-05   -9.369554096268391e-07   3.493940804651292e-05
1.706203870238714e-05   -9.369554096268391e-07   3.493940804651292e-05
1.706203870238714e-05   -9.369554096268391e-07   3.493940804651292e-05
-1.0952319758063912e-06   -1.7934603013412473e-08   5.228702733491757e-06
-1.0952319758063912e-06   -1.7934603013412473e-08   5.228702733491757e-06
-1.0952319758063912e-06   -1.7934603013412473e-08   5.228702733491757e-06
-1.0952319758063912e-06   -1.7934603013412473e-08   5.228702733491757e-06
-1.8533170525693223e-06   -1.4925664185397487e-06   3.5000669347528233e-05
-1.8533170525693223e-06   -1.4925664185397487e-06   3.5000669347528233e-05
-1.8533170525693223e-06   -1.4925664185397487e-06   3.5000669347528233e-05
-1.8533170525693223e-06   -1.4925664185397487e-06   3.5000669347528233e-05
1.625575537731415e-05   -6.190294343170599e-07   4.294759773855663e-06
1.625575537731415e-05   -6.190294343170599e-07   4.294759773855663e-06
1.625575537731415e-05   -6.190294343170599e-07   4.294759773855663e-06
1.625575537731415e-05   -6.190294343170599e-07   4.294759773855663e-06
7.46927744491152e-06   -7.884782187998936e-07   1.904055893188299e-05
7.46927744491152e-06   -7.884782187998936e-07   1.904055893188299e-05
7.46927744491152e-06   -7.884782187998936e-07   1.904055893188299e-05
7.46927744491152e-06   -7.884782187998936e-07   1.904055893188299e-05
1.625575537731411e-05   -1.4925664185397487e-06   3.447654715699449e-05
1.625575537731411e-05   -1.4925664185397487e-06   3.447654715699449e-05
1.625575537731411e-05   -1.4925664185397487e-06   3.447654715699449e-05
1.625575537731411e-05   -1.4925664185397487e-06   3.447654715699449e-05
-1.8533170525693223e-06   -6.190294343170599e-07   4.818881964389291e-06
-1.8533170525693223e-06   -6.190294343170599e-07   4.818881964389291e-06
-1.8533170525693223e-06   -6.190294343170599e-07   4.818881964389291e-06
-1.8533170525693223e-06   -6.190294343170599e-07   4.818881964389291e-06
-2.6275582987006057e-06   -1.905022593730668e-06   3.447282856357194e-05
-2.6275582987006057e-06   -1.905022593730668e-06   3.447282856357194e-05
-2.6275582987006057e-06   -1.905022593730668e-06   3.447282856357194e-05
-2.6275582987006057e-06   -1.905022593730668e-06   3.447282856357194e-05
1.536569635797495e-05   -1.0926355956139642e-06   3.996638603576033e-06
1.536569635797495e-05   -1.0926355956139642e-06   3.996638603576033e-06
1.536569635797495e-05   -1.0926355956139642e-06   3.996638603576033e-06
1.536569635797495e-05   -1.0926355956139642e-06   3.996638603576033e-06
6.6187774334317656e-06   -1.1593347065557997e-06   1.8614856277714446e-05
6.6187774334317656e-06   -1.1593347065557997e-06   1.8614856277714446e-05
6.6187774334317656e-06   -1.1593347065557997e-06   1.8614856277714446e-05
6.6187774334317656e-06   -1.1593347065557997e-06   1.8614856277714446e-05
1.5365696357974924e-05   -1.905022593730668e-06   3.3985396364702176e-05
1.5365696357974924e-05   -1.905022593730668e-06   3.3985396364702176e-05
1.5365696357974924e-05   -1.905022593730668e-06   3.3985396364702176e-05
1.5365696357974924e-05   -1.905022593730668e-06   3.3985396364702176e-05
-2.6275582987006057e-06   -1.0926355956139642e-06   4.484070802446066e-06
-2.6275582987006057e-06   -1.0926355956139642e-06   4.484070802446066e-06
-2.6275582987006057e-06   -1.0926355956139642e-06   4.484070802446066e-06
-2.6275582987006057e-06   -1.0926355956139642e-06   4.484070802446066e-06
-3.4060164822660873e-06   -2.230054764761503e-06   3.471194191980061e-05
-3.4060164822660873e-06   -2.230054764761503e-06   3.471194191980061e-05
-3.4060164822660873e-06   -2.230054764761503e-06   3.471194191980061e-05
-3.4060164822660873e-06   -2.230054764761503e-06   3.471194191980061e-05
1.45437796936915e-05   -1.5310078306806935e-06   4.376186799422569e-06
1.45437796936915e-05   -1.5310078306806935e-06   4.376186799422569e-06
1.45437796936915e-05   -1.5310078306806935e-06   4.376186799422569e-06
1.45437796936915e-05   -1.5310078306806935e-06   4.376186799422569e-06
5.96959258258306e-06   -1.4336191742423798e-06   1.8608065457407976e-05
5.96959258258306e-06   -1.4336191742423798e-06   1.8608065457407976e-05
5.96959258258306e-06   -1.4336191742423798e-06   1.8608065457407976e-05
5.96959258258306e-06   -1.4336191742423798e-06   1.8608065457407976e-05
-1.0952319758063912e-06   3.0386831262681387e-06   3.6987702303781364e-05
-1.0952319758063912e-06   3.0386831262681387e-06   3.6987702303781364e-05
-1.0952319758063912e-06   3.0386831262681387e-06   3.6987702303781364e-05
-1.0952319758063912e-06   3.0386831262681387e-06   3.6987702303781364e-05
-1.887152940783737e-05   3.1281785165388192e-06   7.414237151225273e-06
-1.887152940783737e-05   3.1281785165388192e-06   7.414237151225273e-06
-1.887152940783737e-05   3.1281785165388192e-06   7.414237151225273e-06
-1.887152940783737e-05   3.1281785165388192e-06   7.414237151225273e-06
-1.9633763403385584e-05   2.5766682416228544e-06   3.6875821102632734e-05
-1.9633763403385584e-05   2.5766682416228544e-06   3.6875821102632734e-05
-1.9633763403385584e-05   2.5766682416228544e-06   3.6875821102632734e-05
-1.9633763403385584e-05   2.5766682416228544e-06   3.6875821102632734e-05
-1.8533170525693223e-06   2.6002357867785115e-06   7.227603324178733e-06
-1.8533170525693223e-06   2.6002357867785115e-06   7.227603324178733e-06
-1.8533170525693223e-06   2.6002357867785115e-06   7.227603324178733e-06
-1.8533170525693223e-06   2.6002357867785115e-06   7.227603324178733e-06
-1.039034223318015e-05   2.7862317484997953e-06   2.1344381048164177e-05
-1.039034223318015e-05   2.7862317484997953e-06   2.1344381048164177e-05
-1.039034223318015e-05   2.7862317484997953e-06   2.1344381048164177e-05
-1.039034223318015e-05   2.7862317484997953e-06   2.1344381048164177e-05
-1.8533170525693223e-06   2.5766682416228544e-06   3.6861680575539296e-05
-1.8533170525693223e-06   2.5766682416228544e-06   3.6861680575539296e-05
-1.8533170525693223e-06   2.5766682416228544e-06   3.6861680575539296e-05
-1.8533170525693223e-06   2.5766682416228544e-06   3.6861680575539296e-05
-1.9633763403385584e-05   2.6002357867785115e-06   7.241743851272306e-06
-1.9633763403385584e-05   2.6002357867785115e-06   7.241743851272306e-06
-1.9633763403385584e-05   2.6002357867785115e-06   7.241743851272306e-06
-1.9633763403385584e-05   2.6002357867785115e-06   7.241743851272306e-06
-2.0414994860675162e-05   2.128066771498599e-06   3.70770480015198e-05
-2.0414994860675162e-05   2.128066771498599e-06   3.70770480015198e-05
-2.0414994860675162e-05   2.128066771498599e-06   3.70770480015198e-05
-2.0414994860675162e-05   2.128066771498599e-06   3.70770480015198e-05
-2.6275582987006057e-06   2.0806828521533014e-06   7.459750749836238e-06
-2.6275582987006057e-06   2.0806828521533014e-06   7.459750749836238e-06
-2.6275582987006057e-06   2.0806828521533014e-06   7.459750749836238e-06
-2.6275582987006057e-06   2.0806828521533014e-06   7.459750749836238e-06
-1.109798549403402e-05   2.431366854356142e-06   2.136671900740422e-05
-1.109798549403402e-05   2.431366854356142e-06   2.136671900740422e-05
-1.109798549403402e-05   2.431366854356142e-06   2.136671900740422e-05
-1.109798549403402e-05   2.431366854356142e-06   2.136671900740422e-05
-2.6275582987006057e-06   2.128066771498599e-06   3.710547835312724e-05
-2.6275582987006057e-06   2.128066771498599e-06   3.710547835312724e-05
-2.6275582987006057e-06   2.128066771498599e-06   3.710547835312724e-05
-2.6275582987006057e-06   2.128066771498599e-06   3.710547835312724e-05
-2.0414994860675162e-05   2.0806828521533014e-06   7.431320398229016e-06
-2.0414994860675162e-05   2.0806828521533014e-06   7.431320398229016e-06
-2.0414994860675162e-05   2.0806828521533014e-06   7.431320398229016e-06
-2.0414994860675162e-05   2.0806828521533014e-06   7.431320398229016e-06
-2.119588159480958e-05   1.7287781858355347e-06   3.7536978317551225e-05
-2.119588159480958e-05   1.7287781858355347e-06   3.7536978317551225e-05
-2.119588159480958e-05   1.7287781858355347e-06   3.7536978317551225e-05
-2.119588159480958e-05   1.7287781858355347e-06   3.7536978317551225e-05
-3.4060164822660873e-06   1.587688186206965e-06   7.971857129755825e-06
-3.4060164822660873e-06   1.587688186206965e-06   7.971857129755825e-06
-3.4060164822660873e-06   1.587688186206965e-06   7.971857129755825e-06
-3.4060164822660873e-06   1.587688186206965e-06   7.971857129755825e-06
-1.1838855119634787e-05   2.085603484797919e-06   2.172783901288291e-05
-1.1838855119634787e-05   2.085603484797919e-06   2.172783901288291e-05
-1.1838855119634787e-05   2.085603484797919e-06   2.172783901288291e-05
-1.1838855119634787e-05   2.085603484797919e-06   2.172783901288291e-05
-1.887152940783734e-05   6.906973106304403e-06   3.254179804133817e-05
-1.887152940783734e-05   6.906973106304403e-06   3.254179804133817e-05
-1.887152940783734e-05   6.906973106304403e-06   3.254179804133817e-05
-1.887152940783734e-05   6.906973106304403e-06   3.254179804133817e-05
-3.6257112026449303e-05   6.156104723002839e-06   3.115305980337462e-06
-3.6257112026449303e-05   6.156104723002839e-06   3.115305980337462e-06
-3.6257112026449303e-05   6.156104723002839e-06   3.115305980337462e-06
-3.6257112026449303e-05   6.156104723002839e-06   3.115305980337462e-06
-3.7077348873476384e-05   6.466064018858901e-06   3.2329575910599586e-05
-3.7077348873476384e-05   6.466064018858901e-06   3.2329575910599586e-05
-3.7077348873476384e-05   6.466064018858901e-06   3.2329575910599586e-05
-3.7077348873476384e-05   6.466064018858901e-06   3.2329575910599586e-05
-1.963376340338561e-05   5.6506865360995105e-06   3.7461599501040525e-06
-1.963376340338561e-05   5.6506865360995105e-06   3.7461599501040525e-06
-1.963376340338561e-05   5.6506865360995105e-06   3.7461599501040525e-06
-1.963376340338561e-05   5.6506865360995105e-06   3.7461599501040525e-06
-2.7867508845972637e-05   6.212638190621024e-06   1.7131898028369477e-05
-2.7867508845972637e-05   6.212638190621024e-06   1.7131898028369477e-05
-2.7867508845972637e-05   6.212638190621024e-06   1.7131898028369477e-05
-2.7867508845972637e-05   6.212638190621024e-06   1.7131898028369477e-05
-1.9633763403385584e-05   6.466064018858901e-06   3.2818802400255394e-05
-1.9633763403385584e-05   6.466064018858901e-06   3.2818802400255394e-05
-1.9633763403385584e-05   6.466064018858901e-06   3.2818802400255394e-05
-1.9633763403385584e-05   6.466064018858901e-06   3.2818802400255394e-05
-3.7077348873476384e-05   5.6506865360995105e-06   3.256933460448353e-06
-3.7077348873476384e-05   5.6506865360995105e-06   3.256933460448353e-06
-3.7077348873476384e-05   5.6506865360995105e-06   3.256933460448353e-06
-3.7077348873476384e-05   5.6506865360995105e-06   3.256933460448353e-06
-3.798021549539921e-05   6.0593544391343915e-06   3.35418122318935e-05
-3.798021549539921e-05   6.0593544391343915e-06   3.35418122318935e-05
-3.798021549539921e-05   6.0593544391343915e-06   3.35418122318935e-05
-3.798021549539921e-05   6.0593544391343915e-06   3.35418122318935e-05
-2.0414994860675216e-05   5.179587406595057e-06   4.794304726877434e-06
-2.0414994860675216e-05   5.179587406595057e-06   4.794304726877434e-06
-2.0414994860675216e-05   5.179587406595057e-06   4.794304726877434e-06
-2.0414994860675216e-05   5.179587406595057e-06   4.794304726877434e-06
-2.8455926041121645e-05   5.890041287944566e-06   1.77695843654794e-05
-2.8455926041121645e-05   5.890041287944566e-06   1.77695843654794e-05
-2.8455926041121645e-05   5.890041287944566e-06   1.77695843654794e-05
-2.8455926041121645e-05   5.890041287944566e-06   1.77695843654794e-05
-2.041499486067519e-05   6.0593544391343915e-06   3.4069672451417536e-05
-2.041499486067519e-05   6.0593544391343915e-06   3.4069672451417536e-05
-2.041499486067519e-05   6.0593544391343915e-06   3.4069672451417536e-05
-2.041499486067519e-05   6.0593544391343915e-06   3.4069672451417536e-05
-3.798021549539921e-05   5.179587406595057e-06   4.266444507353725e-06
-3.798021549539921e-05   5.179587406595057e-06   4.266444507353725e-06
-3.798021549539921e-05   5.179587406595057e-06   4.266444507353725e-06
-3.798021549539921e-05   5.179587406595057e-06   4.266444507353725e-06
-3.880565463376743e-05   5.562448814627145e-06   3.4452578996026825e-05
-3.880565463376743e-05   5.562448814627145e-06   3.4452578996026825e-05
-3.880565463376743e-05   5.562448814627145e-06   3.4452578996026825e-05
-3.880565463376743e-05   5.562448814627145e-06   3.4452578996026825e-05
-2.1195881594809608e-05   4.630828446034255e-06   5.661929485586221e-06
-2.1195881594809608e-05   4.630828446034255e-06   5.661929485586221e-06
-2.1195881594809608e-05   4.630828446034255e-06   5.661929485586221e-06
-2.1195881594809608e-05   4.630828446034255e-06   5.661929485586221e-06
-2.9392875385180677e-05   5.525964408388149e-06   1.878650422546034e-05
-2.9392875385180677e-05   5.525964408388149e-06   1.878650422546034e-05
-2.9392875385180677e-05   5.525964408388149e-06   1.878650422546034e-05
-2.9392875385180677e-05   5.525964408388149e-06   1.878650422546034e-05
-3.6257112026449303e-05   9.947025241875164e-06   1.573823976108073e-05
-3.6257112026449303e-05   9.947025241875164e-06   1.573823976108073e-05
-3.6257112026449303e-05   9.947025241875164e-06   1.573823976108073e-05
-3.6257112026449303e-05   9.947025241875164e-06   1.573823976108073e-05
-5.277078468151166e-05   8.486325151812416e-06   -1.2660968051394204e-05
-5.277078468151166e-05   8.486325151812416e-06   -1.2660968051394204e-05
-5.277078468151166e-05   8.486325151812416e-06   -1.2660968051394204e-05
-5.277078468151166e-05   8.486325151812416e-06   -1.2660968051394204e-05
-5.4245099518901386e-05   1.0053364585177905e-05   2.0918108562729965e-05
-5.4245099518901386e-05   1.0053364585177905e-05   2.0918108562729965e-05
-5.4245099518901386e-05   1.0053364585177905e-05   2.0918108562729965e-05
-5.4245099518901386e-05   1.0053364585177905e-05   2.0918108562729965e-05
-3.7077348873476384e-05   8.444535540914812e-06   -6.729511753087358e-06
-3.7077348873476384e-05   8.444535540914812e-06   -6.729511753087358e-06
-3.7077348873476384e-05   8.444535540914812e-06   -6.729511753087358e-06
-3.7077348873476384e-05   8.444535540914812e-06   -6.729511753087358e-06
-4.337211527930168e-05   9.097334211085033e-06   3.370086387852753e-06
-4.337211527930168e-05   9.097334211085033e-06   3.370086387852753e-06
-4.337211527930168e-05   9.097334211085033e-06   3.370086387852753e-06
-4.337211527930168e-05   9.097334211085033e-06   3.370086387852753e-06
-3.7077348873476357e-05   1.0053364585178338e-05   2.188340598928808e-05
-3.7077348873476357e-05   1.0053364585178338e-05   2.188340598928808e-05
-3.7077348873476357e-05   1.0053364585178338e-05   2.188340598928808e-05
-3.7077348873476357e-05   1.0053364585178338e-05   2.188340598928808e-05
-5.4245099518901495e-05   8.444535540914812e-06   -7.694809179645311e-06
-5.4245099518901495e-05   8.444535540914812e-06   -7.694809179645311e-06
-5.4245099518901495e-05   8.444535540914812e-06   -7.694809179645311e-06
-5.4245099518901495e-05   8.444535540914812e-06   -7.694809179645311e-06
-5.556494572918802e-05   9.942949315263315e-06   2.5101844632339576e-05
-5.556494572918802e-05   9.942949315263315e-06   2.5101844632339576e-05
-5.556494572918802e-05   9.942949315263315e-06   2.5101844632339576e-05
-5.556494572918802e-05   9.942949315263315e-06   2.5101844632339576e-05
-3.798021549539921e-05   8.272665784475434e-06   -3.203868972169303e-06
-3.798021549539921e-05   8.272665784475434e-06   -3.203868972169303e-06
-3.798021549539921e-05   8.272665784475434e-06   -3.203868972169303e-06
-3.798021549539921e-05   8.272665784475434e-06   -3.203868972169303e-06
-4.506757216099226e-05   9.198035985154068e-06   8.05317001674699e-06
-4.506757216099226e-05   9.198035985154068e-06   8.05317001674699e-06
-4.506757216099226e-05   9.198035985154068e-06   8.05317001674699e-06
-4.506757216099226e-05   9.198035985154068e-06   8.05317001674699e-06
-3.798021549539921e-05   9.942949315263749e-06   2.610401475081265e-05
-3.798021549539921e-05   9.942949315263749e-06   2.610401475081265e-05
-3.798021549539921e-05   9.942949315263749e-06   2.610401475081265e-05
-3.798021549539921e-05   9.942949315263749e-06   2.610401475081265e-05
-5.556494572918813e-05   8.272665784475434e-06   -4.2060390906419444e-06
-5.556494572918813e-05   8.272665784475434e-06   -4.2060390906419444e-06
-5.556494572918813e-05   8.272665784475434e-06   -4.2060390906419444e-06
-5.556494572918813e-05   8.272665784475434e-06   -4.2060390906419444e-06
-5.70813378541688e-05   9.176863492931734e-06   3.229931063852224e-05
-5.70813378541688e-05   9.176863492931734e-06   3.229931063852224e-05
-5.70813378541688e-05   9.176863492931734e-06   3.229931063852224e-05
-5.70813378541688e-05   9.176863492931734e-06   3.229931063852224e-05
-3.880565463376743e-05   7.5140038435683905e-06   2.8375543941378564e-06
-3.880565463376743e-05   7.5140038435683905e-06   2.8375543941378564e-06
-3.880565463376743e-05   7.5140038435683905e-06   2.8375543941378564e-06
-3.880565463376743e-05   7.5140038435683905e-06   2.8375543941378564e-06
-4.542865383878509e-05   8.883422877193226e-06   1.3054234982326756e-05
-4.542865383878509e-05   8.883422877193226e-06   1.3054234982326756e-05
-4.542865383878509e-05   8.883422877193226e-06   1.3054234982326756e-05
-4.542865383878509e-05   8.883422877193226e-06   1.3054234982326756e-05
2.4992211630166734e-05   -3.2387739747458642e-06   2.5039748436847574e-05
2.4992211630166734e-05   -3.2387739747458642e-06   2.5039748436847574e-05
2.4992211630166734e-05   -3.2387739747458642e-06   2.5039748436847574e-05
2.4992211630166734e-05   -3.2387739747458642e-06   2.5039748436847574e-05
1.0371469186798279e-05   -1.5948805292189273e-06   1.6581804318828441e-06
1.0371469186798279e-05   -1.5948805292189273e-06   1.6581804318828441e-06
1.0371469186798279e-05   -1.5948805292189273e-06   1.6581804318828441e-06
1.0371469186798279e-05   -1.5948805292189273e-06   1.6581804318828441e-06
9.7227497807625e-06   -3.930089097101521e-06   2.2510709641261227e-05
9.7227497807625e-06   -3.930089097101521e-06   2.2510709641261227e-05
9.7227497807625e-06   -3.930089097101521e-06   2.2510709641261227e-05
9.7227497807625e-06   -3.930089097101521e-06   2.2510709641261227e-05
2.361104204467656e-05   -2.213496056064756e-06   -1.6663999565509586e-06
2.361104204467656e-05   -2.213496056064756e-06   -1.6663999565509586e-06
2.361104204467656e-05   -2.213496056064756e-06   -1.6663999565509586e-06
2.361104204467656e-05   -2.213496056064756e-06   -1.6663999565509586e-06
1.6320001271525826e-05   -2.8100765490815353e-06   1.0843282961177456e-05
1.6320001271525826e-05   -2.8100765490815353e-06   1.0843282961177456e-05
1.6320001271525826e-05   -2.8100765490815353e-06   1.0843282961177456e-05
1.6320001271525826e-05   -2.8100765490815353e-06   1.0843282961177456e-05
2.3611042044676586e-05   -3.930089097101521e-06   2.1480753816639254e-05
2.3611042044676586e-05   -3.930089097101521e-06   2.1480753816639254e-05
2.3611042044676586e-05   -3.930089097101521e-06   2.1480753816639254e-05
2.3611042044676586e-05   -3.930089097101521e-06   2.1480753816639254e-05
9.722749780762467e-06   -2.213496056064756e-06   -6.36444131928756e-07
9.722749780762467e-06   -2.213496056064756e-06   -6.36444131928756e-07
9.722749780762467e-06   -2.213496056064756e-06   -6.36444131928756e-07
9.722749780762467e-06   -2.213496056064756e-06   -6.36444131928756e-07
8.9940105737782e-06   -4.114640097824078e-06   2.063290749466885e-05
8.9940105737782e-06   -4.114640097824078e-06   2.063290749466885e-05
8.9940105737782e-06   -4.114640097824078e-06   2.063290749466885e-05
8.9940105737782e-06   -4.114640097824078e-06   2.063290749466885e-05
2.242526622206987e-05   -2.426326412030902e-06   -2.7655067972930743e-06
2.242526622206987e-05   -2.426326412030902e-06   -2.7655067972930743e-06
2.242526622206987e-05   -2.426326412030902e-06   -2.7655067972930743e-06
2.242526622206987e-05   -2.426326412030902e-06   -2.7655067972930743e-06
1.5706226937012017e-05   -3.072516054061043e-06   8.82060579635534e-06
1.5706226937012017e-05   -3.072516054061043e-06   8.82060579635534e-06
1.5706226937012017e-05   -3.072516054061043e-06   8.82060579635534e-06
1.5706226937012017e-05   -3.072516054061043e-06   8.82060579635534e-06
2.242526622206991e-05   -4.114640097824078e-06   1.9619919283192988e-05
2.242526622206991e-05   -4.114640097824078e-06   1.9619919283192988e-05
2.242526622206991e-05   -4.114640097824078e-06   1.9619919283192988e-05
2.242526622206991e-05   -4.114640097824078e-06   1.9619919283192988e-05
8.994010573778183e-06   -2.426326412030902e-06   -1.7525185858173475e-06
8.994010573778183e-06   -2.426326412030902e-06   -1.7525185858173475e-06
8.994010573778183e-06   -2.426326412030902e-06   -1.7525185858173475e-06
8.994010573778183e-06   -2.426326412030902e-06   -1.7525185858173475e-06
8.340715166143494e-06   -4.286496130046164e-06   1.819361859791281e-05
8.340715166143494e-06   -4.286496130046164e-06   1.819361859791281e-05
8.340715166143494e-06   -4.286496130046164e-06   1.819361859791281e-05
8.340715166143494e-06   -4.286496130046164e-06   1.819361859791281e-05
2.1080114658858988e-05   -2.7072620288981584e-06   -3.986254350634859e-06
2.1080114658858988e-05   -2.7072620288981584e-06   -3.986254350634859e-06
2.1080114658858988e-05   -2.7072620288981584e-06   -3.986254350634859e-06
2.1080114658858988e-05   -2.7072620288981584e-06   -3.986254350634859e-06
1.4567415490615794e-05   -3.1236653419714627e-06   7.1180862509475414e-06
1.4567415490615794e-05   -3.1236653419714627e-06   7.1180862509475414e-06
1.4567415490615794e-05   -3.1236653419714627e-06   7.1180862509475414e-06
1.4567415490615794e-05   -3.1236653419714627e-06   7.1180862509475414e-06
1.0371469186798313e-05   -1.7934603013412473e-08   3.094021822466048e-05
1.0371469186798313e-05   -1.7934603013412473e-08   3.094021822466048e-05
1.0371469186798313e-05   -1.7934603013412473e-08   3.094021822466048e-05
1.0371469186798313e-05   -1.7934603013412473e-08   3.094021822466048e-05
-3.347227339563021e-06   8.169850290590253e-07   8.576675793301792e-06
-3.347227339563021e-06   8.169850290590253e-07   8.576675793301792e-06
-3.347227339563021e-06   8.169850290590253e-07   8.576675793301792e-06
-3.347227339563021e-06   8.169850290590253e-07   8.576675793301792e-06
-3.943368034109101e-06   -6.190294343170599e-07   3.099914746683896e-05
-3.943368034109101e-06   -6.190294343170599e-07   3.099914746683896e-05
-3.943368034109101e-06   -6.190294343170599e-07   3.099914746683896e-05
-3.943368034109101e-06   -6.190294343170599e-07   3.099914746683896e-05
9.722749780762467e-06   1.9094864028238595e-07   7.736297597293483e-06
9.722749780762467e-06   1.9094864028238595e-07   7.736297597293483e-06
9.722749780762467e-06   1.9094864028238595e-07   7.736297597293483e-06
9.722749780762467e-06   1.9094864028238595e-07   7.736297597293483e-06
3.1030663205022505e-06   3.8915282713283816e-08   1.8860323378935926e-05
3.1030663205022505e-06   3.8915282713283816e-08   1.8860323378935926e-05
3.1030663205022505e-06   3.8915282713283816e-08   1.8860323378935926e-05
3.1030663205022505e-06   3.8915282713283816e-08   1.8860323378935926e-05
9.722749780762487e-06   -6.190294343170599e-07   3.051316062207968e-05
9.722749780762487e-06   -6.190294343170599e-07   3.051316062207968e-05
9.722749780762487e-06   -6.190294343170599e-07   3.051316062207968e-05
9.722749780762487e-06   -6.190294343170599e-07   3.051316062207968e-05
-3.943368034109101e-06   1.9094864028238595e-07   8.222284442053248e-06
-3.943368034109101e-06   1.9094864028238595e-07   8.222284442053248e-06
-3.943368034109101e-06   1.9094864028238595e-07   8.222284442053248e-06
-3.943368034109101e-06   1.9094864028238595e-07   8.222284442053248e-06
-4.552907476708856e-06   -1.0926355956139642e-06   3.062788075545108e-05
-4.552907476708856e-06   -1.0926355956139642e-06   3.062788075545108e-05
-4.552907476708856e-06   -1.0926355956139642e-06   3.062788075545108e-05
-4.552907476708856e-06   -1.0926355956139642e-06   3.062788075545108e-05
8.994010573778183e-06   -3.2113820092006737e-07   7.586785567823023e-06
8.994010573778183e-06   -3.2113820092006737e-07   7.586785567823023e-06
8.994010573778183e-06   -3.2113820092006737e-07   7.586785567823023e-06
8.994010573778183e-06   -3.2113820092006737e-07   7.586785567823023e-06
2.447508932755785e-06   -3.785317947355149e-07   1.8532057792483938e-05
2.447508932755785e-06   -3.785317947355149e-07   1.8532057792483938e-05
2.447508932755785e-06   -3.785317947355149e-07   1.8532057792483938e-05
2.447508932755785e-06   -3.785317947355149e-07   1.8532057792483938e-05
8.994010573778217e-06   -1.0926355956139642e-06   3.0164982318634697e-05
8.994010573778217e-06   -1.0926355956139642e-06   3.0164982318634697e-05
8.994010573778217e-06   -1.0926355956139642e-06   3.0164982318634697e-05
8.994010573778217e-06   -1.0926355956139642e-06   3.0164982318634697e-05
-4.552907476708856e-06   -3.2113820092006737e-07   8.049684004639269e-06
-4.552907476708856e-06   -3.2113820092006737e-07   8.049684004639269e-06
-4.552907476708856e-06   -3.2113820092006737e-07   8.049684004639269e-06
-4.552907476708856e-06   -3.2113820092006737e-07   8.049684004639269e-06
-5.157347785728254e-06   -1.5310078306806935e-06   3.090582487784476e-05
-5.157347785728254e-06   -1.5310078306806935e-06   3.090582487784476e-05
-5.157347785728254e-06   -1.5310078306806935e-06   3.090582487784476e-05
-5.157347785728254e-06   -1.5310078306806935e-06   3.090582487784476e-05
8.34071516614346e-06   -8.255503406180004e-07   7.985778797354357e-06
8.34071516614346e-06   -8.255503406180004e-07   7.985778797354357e-06
8.34071516614346e-06   -8.255503406180004e-07   7.985778797354357e-06
8.34071516614346e-06   -8.255503406180004e-07   7.985778797354357e-06
1.9298132791125793e-06   -7.263470390489121e-07   1.8611093294797806e-05
1.9298132791125793e-06   -7.263470390489121e-07   1.8611093294797806e-05
1.9298132791125793e-06   -7.263470390489121e-07   1.8611093294797806e-05
1.9298132791125793e-06   -7.263470390489121e-07   1.8611093294797806e-05
-3.347227339563021e-06   3.1281785165386024e-06   3.3573007187475074e-05
-3.347227339563021e-06   3.1281785165386024e-06   3.3573007187475074e-05
-3.347227339563021e-06   3.1281785165386024e-06   3.3573007187475074e-05
-3.347227339563021e-06   3.1281785165386024e-06   3.3573007187475074e-05
-1.683948026834516e-05   3.079004784980804e-06   1.1056414733903643e-05
-1.683948026834516e-05   3.079004784980804e-06   1.1056414733903643e-05
-1.683948026834516e-05   3.079004784980804e-06   1.1056414733903643e-05
-1.683948026834516e-05   3.079004784980804e-06   1.1056414733903643e-05
-1.742768415573492e-05   2.6002357867785115e-06   3.335392339433524e-05
-1.742768415573492e-05   2.6002357867785115e-06   3.335392339433524e-05
-1.742768415573492e-05   2.6002357867785115e-06   3.335392339433524e-05
-1.742768415573492e-05   2.6002357867785115e-06   3.335392339433524e-05
-3.943368034109088e-06   2.5103267329558508e-06   1.0934008623919464e-05
-3.943368034109088e-06   2.5103267329558508e-06   1.0934008623919464e-05
-3.943368034109088e-06   2.5103267329558508e-06   1.0934008623919464e-05
-3.943368034109088e-06   2.5103267329558508e-06   1.0934008623919464e-05
-1.0415374750625776e-05   2.759190110089311e-06   2.157136845850065e-05
-1.0415374750625776e-05   2.759190110089311e-06   2.157136845850065e-05
-1.0415374750625776e-05   2.759190110089311e-06   2.157136845850065e-05
-1.0415374750625776e-05   2.759190110089311e-06   2.157136845850065e-05
-3.943368034109101e-06   2.6002357867785115e-06   3.340786882662897e-05
-3.943368034109101e-06   2.6002357867785115e-06   3.340786882662897e-05
-3.943368034109101e-06   2.6002357867785115e-06   3.340786882662897e-05
-3.943368034109101e-06   2.6002357867785115e-06   3.340786882662897e-05
-1.742768415573492e-05   2.5103267329558508e-06   1.0880063191625656e-05
-1.742768415573492e-05   2.5103267329558508e-06   1.0880063191625656e-05
-1.742768415573492e-05   2.5103267329558508e-06   1.0880063191625656e-05
-1.742768415573492e-05   2.5103267329558508e-06   1.0880063191625656e-05
-1.8030011248104866e-05   2.0806828521533014e-06   3.352405792538416e-05
-1.8030011248104866e-05   2.0806828521533014e-06   3.352405792538416e-05
-1.8030011248104866e-05   2.0806828521533014e-06   3.352405792538416e-05
-1.8030011248104866e-05   2.0806828521533014e-06   3.352405792538416e-05
-4.5529074767088426e-06   1.9481782230579368e-06   1.1141721083847845e-05
-4.5529074767088426e-06   1.9481782230579368e-06   1.1141721083847845e-05
-4.5529074767088426e-06   1.9481782230579368e-06   1.1141721083847845e-05
-4.5529074767088426e-06   1.9481782230579368e-06   1.1141721083847845e-05
-1.0954014284097895e-05   2.3465186878486068e-06   2.157122815062265e-05
-1.0954014284097895e-05   2.3465186878486068e-06   2.157122815062265e-05
-1.0954014284097895e-05   2.3465186878486068e-06   2.157122815062265e-05
-1.0954014284097895e-05   2.3465186878486068e-06   2.157122815062265e-05
-4.552907476708856e-06   2.0806828521533014e-06   3.360356070284125e-05
-4.552907476708856e-06   2.0806828521533014e-06   3.360356070284125e-05
-4.552907476708856e-06   2.0806828521533014e-06   3.360356070284125e-05
-4.552907476708856e-06   2.0806828521533014e-06   3.360356070284125e-05
-1.8030011248104866e-05   1.9481782230579368e-06   1.1062218306390919e-05
-1.8030011248104866e-05   1.9481782230579368e-06   1.1062218306390919e-05
-1.8030011248104866e-05   1.9481782230579368e-06   1.1062218306390919e-05
-1.8030011248104866e-05   1.9481782230579368e-06   1.1062218306390919e-05
-1.8625302908835525e-05   1.587688186206965e-06   3.3973659187008006e-05
-1.8625302908835525e-05   1.587688186206965e-06   3.3973659187008006e-05
-1.8625302908835525e-05   1.587688186206965e-06   3.3973659187008006e-05
-1.8625302908835525e-05   1.587688186206965e-06   3.3973659187008006e-05
-5.1573477857282406e-06   1.4070084183382195e-06   1.1635475175883632e-05
-5.1573477857282406e-06   1.4070084183382195e-06   1.1635475175883632e-05
-5.1573477857282406e-06   1.4070084183382195e-06   1.1635475175883632e-05
-5.1573477857282406e-06   1.4070084183382195e-06   1.1635475175883632e-05
-1.1517454640936313e-05   1.9435716119972288e-06   2.191371535170179e-05
-1.1517454640936313e-05   1.9435716119972288e-06   2.191371535170179e-05
-1.1517454640936313e-05   1.9435716119972288e-06   2.191371535170179e-05
-1.1517454640936313e-05   1.9435716119972288e-06   2.191371535170179e-05
-1.683948026834516e-05   6.156104723003056e-06   2.969509280763348e-05
-1.683948026834516e-05   6.156104723003056e-06   2.969509280763348e-05
-1.683948026834516e-05   6.156104723003056e-06   2.969509280763348e-05
-1.683948026834516e-05   6.156104723003056e-06   2.969509280763348e-05
-3.0106183145843935e-05   5.279731035224286e-06   7.0580971324683e-06
-3.0106183145843935e-05   5.279731035224286e-06   7.0580971324683e-06
-3.0106183145843935e-05   5.279731035224286e-06   7.0580971324683e-06
-3.0106183145843935e-05   5.279731035224286e-06   7.0580971324683e-06
-3.073720458969141e-05   5.6506865360995105e-06   2.93025201688721e-05
-3.073720458969141e-05   5.6506865360995105e-06   2.93025201688721e-05
-3.073720458969141e-05   5.6506865360995105e-06   2.93025201688721e-05
-3.073720458969141e-05   5.6506865360995105e-06   2.93025201688721e-05
-1.7427684155734867e-05   4.724320995607703e-06   7.675805436572916e-06
-1.7427684155734867e-05   4.724320995607703e-06   7.675805436572916e-06
-1.7427684155734867e-05   4.724320995607703e-06   7.675805436572916e-06
-1.7427684155734867e-05   4.724320995607703e-06   7.675805436572916e-06
-2.3710413560073423e-05   5.359782683515141e-06   1.776574409772673e-05
-2.3710413560073423e-05   5.359782683515141e-06   1.776574409772673e-05
-2.3710413560073423e-05   5.359782683515141e-06   1.776574409772673e-05
-2.3710413560073423e-05   5.359782683515141e-06   1.776574409772673e-05
-1.742768415573492e-05   5.650686536099294e-06   2.9858339493167097e-05
-1.742768415573492e-05   5.650686536099294e-06   2.9858339493167097e-05
-1.742768415573492e-05   5.650686536099294e-06   2.9858339493167097e-05
-1.742768415573492e-05   5.650686536099294e-06   2.9858339493167097e-05
-3.07372045896913e-05   4.724320995607703e-06   7.119986112278081e-06
-3.07372045896913e-05   4.724320995607703e-06   7.119986112278081e-06
-3.07372045896913e-05   4.724320995607703e-06   7.119986112278081e-06
-3.07372045896913e-05   4.724320995607703e-06   7.119986112278081e-06
-3.144731275346753e-05   5.179587406595057e-06   3.0305453789379122e-05
-3.144731275346753e-05   5.179587406595057e-06   3.0305453789379122e-05
-3.144731275346753e-05   5.179587406595057e-06   3.0305453789379122e-05
-3.144731275346753e-05   5.179587406595057e-06   3.0305453789379122e-05
-1.8030011248104812e-05   4.210273298839006e-06   8.524873078428281e-06
-1.8030011248104812e-05   4.210273298839006e-06   8.524873078428281e-06
-1.8030011248104812e-05   4.210273298839006e-06   8.524873078428281e-06
-1.8030011248104812e-05   4.210273298839006e-06   8.524873078428281e-06
-2.4147252628647098e-05   4.981493812763289e-06   1.825754307097809e-05
-2.4147252628647098e-05   4.981493812763289e-06   1.825754307097809e-05
-2.4147252628647098e-05   4.981493812763289e-06   1.825754307097809e-05
-2.4147252628647098e-05   4.981493812763289e-06   1.825754307097809e-05
-1.803001124810484e-05   5.179587406595057e-06   3.088704225403258e-05
-1.803001124810484e-05   5.179587406595057e-06   3.088704225403258e-05
-1.803001124810484e-05   5.179587406595057e-06   3.088704225403258e-05
-1.803001124810484e-05   5.179587406595057e-06   3.088704225403258e-05
-3.144731275346753e-05   4.210273298839006e-06   7.943284613774661e-06
-3.144731275346753e-05   4.210273298839006e-06   7.943284613774661e-06
-3.144731275346753e-05   4.210273298839006e-06   7.943284613774661e-06
-3.144731275346753e-05   4.210273298839006e-06   7.943284613774661e-06
-3.207856647172001e-05   4.630828446034255e-06   3.1151193250545436e-05
-3.207856647172001e-05   4.630828446034255e-06   3.1151193250545436e-05
-3.207856647172001e-05   4.630828446034255e-06   3.1151193250545436e-05
-3.207856647172001e-05   4.630828446034255e-06   3.1151193250545436e-05
-1.862530290883547e-05   3.635507959250713e-06   9.32627960447465e-06
-1.862530290883547e-05   3.635507959250713e-06   9.32627960447465e-06
-1.862530290883547e-05   3.635507959250713e-06   9.32627960447465e-06
-1.862530290883547e-05   3.635507959250713e-06   9.32627960447465e-06
-2.485911569998868e-05   4.583186090287338e-06   1.9147360711108564e-05
-2.485911569998868e-05   4.583186090287338e-06   1.9147360711108564e-05
-2.485911569998868e-05   4.583186090287338e-06   1.9147360711108564e-05
-2.485911569998868e-05   4.583186090287338e-06   1.9147360711108564e-05
-3.0106183145843935e-05   8.4863251518122e-06   1.4269414617272503e-05
-3.0106183145843935e-05   8.4863251518122e-06   1.4269414617272503e-05
-3.0106183145843935e-05   8.4863251518122e-06   1.4269414617272503e-05
-3.0106183145843935e-05   8.4863251518122e-06   1.4269414617272503e-05
-4.254897764637179e-05   6.92725529624974e-06   -7.404018130278338e-06
-4.254897764637179e-05   6.92725529624974e-06   -7.404018130278338e-06
-4.254897764637179e-05   6.92725529624974e-06   -7.404018130278338e-06
-4.254897764637179e-05   6.92725529624974e-06   -7.404018130278338e-06
-4.386858473327625e-05   8.44453554091503e-06   1.8298982321662523e-05
-4.386858473327625e-05   8.44453554091503e-06   1.8298982321662523e-05
-4.386858473327625e-05   8.44453554091503e-06   1.8298982321662523e-05
-4.386858473327625e-05   8.44453554091503e-06   1.8298982321662523e-05
-3.07372045896913e-05   6.7493811514586066e-06   -2.5695586173051454e-06
-3.07372045896913e-05   6.7493811514586066e-06   -2.5695586173051454e-06
-3.07372045896913e-05   6.7493811514586066e-06   -2.5695586173051454e-06
-3.07372045896913e-05   6.7493811514586066e-06   -2.5695586173051454e-06
-3.543543244136782e-05   7.512427049488754e-06   4.80299359667145e-06
-3.543543244136782e-05   7.512427049488754e-06   4.80299359667145e-06
-3.543543244136782e-05   7.512427049488754e-06   4.80299359667145e-06
-3.543543244136782e-05   7.512427049488754e-06   4.80299359667145e-06
-3.073720458969135e-05   8.44453554091503e-06   1.931607495533655e-05
-3.073720458969135e-05   8.44453554091503e-06   1.931607495533655e-05
-3.073720458969135e-05   8.44453554091503e-06   1.931607495533655e-05
-3.073720458969135e-05   8.44453554091503e-06   1.931607495533655e-05
-4.386858473327636e-05   6.749381151458823e-06   -3.5866512509789015e-06
-4.386858473327636e-05   6.749381151458823e-06   -3.5866512509789015e-06
-4.386858473327636e-05   6.749381151458823e-06   -3.5866512509789015e-06
-4.386858473327636e-05   6.749381151458823e-06   -3.5866512509789015e-06
-4.501976694047476e-05   8.272665784475651e-06   2.179039971282929e-05
-4.501976694047476e-05   8.272665784475651e-06   2.179039971282929e-05
-4.501976694047476e-05   8.272665784475651e-06   2.179039971282929e-05
-4.501976694047476e-05   8.272665784475651e-06   2.179039971282929e-05
-3.144731275346748e-05   6.53143145609757e-06   2.1438333151085637e-07
-3.144731275346748e-05   6.53143145609757e-06   2.1438333151085637e-07
-3.144731275346748e-05   6.53143145609757e-06   2.1438333151085637e-07
-3.144731275346748e-05   6.53143145609757e-06   2.1438333151085637e-07
-3.683340041892499e-05   7.517523110168317e-06   8.599541114832172e-06
-3.683340041892499e-05   7.517523110168317e-06   8.599541114832172e-06
-3.683340041892499e-05   7.517523110168317e-06   8.599541114832172e-06
-3.683340041892499e-05   7.517523110168317e-06   8.599541114832172e-06
-3.144731275346753e-05   8.272665784475434e-06   2.2835140309856094e-05
-3.144731275346753e-05   8.272665784475434e-06   2.2835140309856094e-05
-3.144731275346753e-05   8.272665784475434e-06   2.2835140309856094e-05
-3.144731275346753e-05   8.272665784475434e-06   2.2835140309856094e-05
-4.501976694047476e-05   6.53143145609757e-06   -8.303572655160032e-07
-4.501976694047476e-05   6.53143145609757e-06   -8.303572655160032e-07
-4.501976694047476e-05   6.53143145609757e-06   -8.303572655160032e-07
-4.501976694047476e-05   6.53143145609757e-06   -8.303572655160032e-07
-4.6355003492927125e-05   7.5140038435683905e-06   2.7857168169137525e-05
-4.6355003492927125e-05   7.5140038435683905e-06   2.7857168169137525e-05
-4.6355003492927125e-05   7.5140038435683905e-06   2.7857168169137525e-05
-4.6355003492927125e-05   7.5140038435683905e-06   2.7857168169137525e-05
-3.2078566471719847e-05   5.799633491709519e-06   5.091728678240722e-06
-3.2078566471719847e-05   5.799633491709519e-06   5.091728678240722e-06
-3.2078566471719847e-05   5.799633491709519e-06   5.091728678240722e-06
-3.2078566471719847e-05   5.799633491709519e-06   5.091728678240722e-06
-3.714451178050469e-05   7.198784855943618e-06   1.2695480041008313e-05
-3.714451178050469e-05   7.198784855943618e-06   1.2695480041008313e-05
-3.714451178050469e-05   7.198784855943618e-06   1.2695480041008313e-05
-3.714451178050469e-05   7.198784855943618e-06   1.2695480041008313e-05
1.3898173852127255e-05   -1.5948805292189273e-06   1.971245943697595e-05
1.3898173852127255e-05   -1.5948805292189273e-06   1.971245943697595e-05
1.3898173852127255e-05   -1.5948805292189273e-06   1.971245943697595e-05
1.3898173852127255e-05   -1.5948805292189273e-06   1.971245943697595e-05
3.6414314901589018e-06   3.2880621343711613e-08   3.5945455240328408e-06
3.6414314901589018e-06   3.2880621343711613e-08   3.5945455240328408e-06
3.6414314901589018e-06   3.2880621343711613e-08   3.5945455240328408e-06
3.6414314901589018e-06   3.2880621343711613e-08   3.5945455240328408e-06
3.1559018396636496e-06   -2.213496056064756e-06   1.8376647694508773e-05
3.1559018396636496e-06   -2.213496056064756e-06   1.8376647694508773e-05
3.1559018396636496e-06   -2.213496056064756e-06   1.8376647694508773e-05
3.1559018396636496e-06   -2.213496056064756e-06   1.8376647694508773e-05
1.2697825535865474e-05   -5.216239628842538e-07   1.4583182782643112e-06
1.2697825535865474e-05   -5.216239628842538e-07   1.4583182782643112e-06
1.2697825535865474e-05   -5.216239628842538e-07   1.4583182782643112e-06
1.2697825535865474e-05   -5.216239628842538e-07   1.4583182782643112e-06
7.855783501683846e-06   -1.1527693441083092e-06   9.907075563968953e-06
7.855783501683846e-06   -1.1527693441083092e-06   9.907075563968953e-06
7.855783501683846e-06   -1.1527693441083092e-06   9.907075563968953e-06
7.855783501683846e-06   -1.1527693441083092e-06   9.907075563968953e-06
1.2697825535865515e-05   -2.213496056064756e-06   1.7361524438600537e-05
1.2697825535865515e-05   -2.213496056064756e-06   1.7361524438600537e-05
1.2697825535865515e-05   -2.213496056064756e-06   1.7361524438600537e-05
1.2697825535865515e-05   -2.213496056064756e-06   1.7361524438600537e-05
3.1559018396636462e-06   -5.216239628842538e-07   2.4734415341726287e-06
3.1559018396636462e-06   -5.216239628842538e-07   2.4734415341726287e-06
3.1559018396636462e-06   -5.216239628842538e-07   2.4734415341726287e-06
3.1559018396636462e-06   -5.216239628842538e-07   2.4734415341726287e-06
2.589962362029129e-06   -2.4263264120311188e-06   1.7245685402656114e-05
2.589962362029129e-06   -2.4263264120311188e-06   1.7245685402656114e-05
2.589962362029129e-06   -2.4263264120311188e-06   1.7245685402656114e-05
2.589962362029129e-06   -2.4263264120311188e-06   1.7245685402656114e-05
1.168139805281964e-05   -7.605326599658714e-07   1.0938163334330594e-06
1.168139805281964e-05   -7.605326599658714e-07   1.0938163334330594e-06
1.168139805281964e-05   -7.605326599658714e-07   1.0938163334330594e-06
1.168139805281964e-05   -7.605326599658714e-07   1.0938163334330594e-06
7.276112884543138e-06   -1.3948296962121732e-06   8.816536502308215e-06
7.276112884543138e-06   -1.3948296962121732e-06   8.816536502308215e-06
7.276112884543138e-06   -1.3948296962121732e-06   8.816536502308215e-06
7.276112884543138e-06   -1.3948296962121732e-06   8.816536502308215e-06
1.1681398052819668e-05   -2.4263264120311188e-06   1.624620915141714e-05
1.1681398052819668e-05   -2.4263264120311188e-06   1.624620915141714e-05
1.1681398052819668e-05   -2.4263264120311188e-06   1.624620915141714e-05
1.1681398052819668e-05   -2.4263264120311188e-06   1.624620915141714e-05
2.589962362029122e-06   -7.605326599658714e-07   2.09329258467198e-06
2.589962362029122e-06   -7.605326599658714e-07   2.09329258467198e-06
2.589962362029122e-06   -7.605326599658714e-07   2.09329258467198e-06
2.589962362029122e-06   -7.605326599658714e-07   2.09329258467198e-06
2.0995755056349195e-06   -2.7072620288983752e-06   1.5937602717910025e-05
2.0995755056349195e-06   -2.7072620288983752e-06   1.5937602717910025e-05
2.0995755056349195e-06   -2.7072620288983752e-06   1.5937602717910025e-05
2.0995755056349195e-06   -2.7072620288983752e-06   1.5937602717910025e-05
1.0491010217231051e-05   -1.1581635170831387e-06   1.0224190914943823e-06
1.0491010217231051e-05   -1.1581635170831387e-06   1.0224190914943823e-06
1.0491010217231051e-05   -1.1581635170831387e-06   1.0224190914943823e-06
1.0491010217231051e-05   -1.1581635170831387e-06   1.0224190914943823e-06
6.420839653524474e-06   -1.519390899212044e-06   8.022773126949558e-06
6.420839653524474e-06   -1.519390899212044e-06   8.022773126949558e-06
6.420839653524474e-06   -1.519390899212044e-06   8.022773126949558e-06
6.420839653524474e-06   -1.519390899212044e-06   8.022773126949558e-06
3.6414314901589085e-06   8.169850290590253e-07   2.71066597094888e-05
3.6414314901589085e-06   8.169850290590253e-07   2.71066597094888e-05
3.6414314901589085e-06   8.169850290590253e-07   2.71066597094888e-05
3.6414314901589085e-06   8.169850290590253e-07   2.71066597094888e-05
-5.701682205685814e-06   1.5543856619498232e-06   1.1977243929482012e-05
-5.701682205685814e-06   1.5543856619498232e-06   1.1977243929482012e-05
-5.701682205685814e-06   1.5543856619498232e-06   1.1977243929482012e-05
-5.701682205685814e-06   1.5543856619498232e-06   1.1977243929482012e-05
-6.128256124563459e-06   1.9094864028238595e-07   2.7191632452685144e-05
-6.128256124563459e-06   1.9094864028238595e-07   2.7191632452685144e-05
-6.128256124563459e-06   1.9094864028238595e-07   2.7191632452685144e-05
-6.128256124563459e-06   1.9094864028238595e-07   2.7191632452685144e-05
3.1559018396636462e-06   9.280203552056686e-07   1.127579281668628e-05
3.1559018396636462e-06   9.280203552056686e-07   1.127579281668628e-05
3.1559018396636462e-06   9.280203552056686e-07   1.127579281668628e-05
3.1559018396636462e-06   9.280203552056686e-07   1.127579281668628e-05
-1.3281072172997491e-06   8.10041065384343e-07   1.881992881885223e-05
-1.3281072172997491e-06   8.10041065384343e-07   1.881992881885223e-05
-1.3281072172997491e-06   8.10041065384343e-07   1.881992881885223e-05
-1.3281072172997491e-06   8.10041065384343e-07   1.881992881885223e-05
3.1559018396636496e-06   1.9094864028238595e-07   2.6749389423731283e-05
3.1559018396636496e-06   1.9094864028238595e-07   2.6749389423731283e-05
3.1559018396636496e-06   1.9094864028238595e-07   2.6749389423731283e-05
3.1559018396636496e-06   1.9094864028238595e-07   2.6749389423731283e-05
-6.128256124563459e-06   9.280203552054517e-07   1.171803584564023e-05
-6.128256124563459e-06   9.280203552054517e-07   1.171803584564023e-05
-6.128256124563459e-06   9.280203552054517e-07   1.171803584564023e-05
-6.128256124563459e-06   9.280203552054517e-07   1.171803584564023e-05
-6.567306601106869e-06   -3.2113820092006737e-07   2.701608180373928e-05
-6.567306601106869e-06   -3.2113820092006737e-07   2.701608180373928e-05
-6.567306601106869e-06   -3.2113820092006737e-07   2.701608180373928e-05
-6.567306601106869e-06   -3.2113820092006737e-07   2.701608180373928e-05
2.589962362029122e-06   3.973488781514826e-07   1.132287461773655e-05
2.589962362029122e-06   3.973488781514826e-07   1.132287461773655e-05
2.589962362029122e-06   3.973488781514826e-07   1.132287461773655e-05
2.589962362029122e-06   3.973488781514826e-07   1.132287461773655e-05
-1.783514717800374e-06   3.732942504622305e-07   1.8626435860732862e-05
-1.783514717800374e-06   3.732942504622305e-07   1.8626435860732862e-05
-1.783514717800374e-06   3.732942504622305e-07   1.8626435860732862e-05
-1.783514717800374e-06   3.732942504622305e-07   1.8626435860732862e-05
2.589962362029129e-06   -3.2113820092006737e-07   2.6584989556296458e-05
2.589962362029129e-06   -3.2113820092006737e-07   2.6584989556296458e-05
2.589962362029129e-06   -3.2113820092006737e-07   2.6584989556296458e-05
2.589962362029129e-06   -3.2113820092006737e-07   2.6584989556296458e-05
-6.567306601106896e-06   3.973488781514826e-07   1.175396686517948e-05
-6.567306601106896e-06   3.973488781514826e-07   1.175396686517948e-05
-6.567306601106896e-06   3.973488781514826e-07   1.175396686517948e-05
-6.567306601106896e-06   3.973488781514826e-07   1.175396686517948e-05
-6.99982974174915e-06   -8.255503406177835e-07   2.7370578274167785e-05
-6.99982974174915e-06   -8.255503406177835e-07   2.7370578274167785e-05
-6.99982974174915e-06   -8.255503406177835e-07   2.7370578274167785e-05
-6.99982974174915e-06   -8.255503406177835e-07   2.7370578274167785e-05
2.099575505634916e-06   -1.4474555902282103e-07   1.179641999290415e-05
2.099575505634916e-06   -1.4474555902282103e-07   1.179641999290415e-05
2.099575505634916e-06   -1.4474555902282103e-07   1.179641999290415e-05
2.099575505634916e-06   -1.4474555902282103e-07   1.179641999290415e-05
-2.169024255464759e-06   -1.8435434751256502e-08   1.88349668535077e-05
-2.169024255464759e-06   -1.8435434751256502e-08   1.88349668535077e-05
-2.169024255464759e-06   -1.8435434751256502e-08   1.88349668535077e-05
-2.169024255464759e-06   -1.8435434751256502e-08   1.88349668535077e-05
-5.701682205685814e-06   3.079004784980804e-06   3.0058343268759896e-05
-5.701682205685814e-06   3.079004784980804e-06   3.0058343268759896e-05
-5.701682205685814e-06   3.079004784980804e-06   3.0058343268759896e-05
-5.701682205685814e-06   3.079004784980804e-06   3.0058343268759896e-05
-1.4885816419054774e-05   2.903040199362999e-06   1.4645874161774088e-05
-1.4885816419054774e-05   2.903040199362999e-06   1.4645874161774088e-05
-1.4885816419054774e-05   2.903040199362999e-06   1.4645874161774088e-05
-1.4885816419054774e-05   2.903040199362999e-06   1.4645874161774088e-05
-1.529515103107073e-05   2.5103267329558508e-06   2.979261119356977e-05
-1.529515103107073e-05   2.5103267329558508e-06   2.979261119356977e-05
-1.529515103107073e-05   2.5103267329558508e-06   2.979261119356977e-05
-1.529515103107073e-05   2.5103267329558508e-06   2.979261119356977e-05
-6.128256124563445e-06   2.3257509979867416e-06   1.4625198457039149e-05
-6.128256124563445e-06   2.3257509979867416e-06   1.4625198457039149e-05
-6.128256124563445e-06   2.3257509979867416e-06   1.4625198457039149e-05
-6.128256124563445e-06   2.3257509979867416e-06   1.4625198457039149e-05
-1.0522367217776903e-05   2.639751805752011e-06   2.1760316461070194e-05
-1.0522367217776903e-05   2.639751805752011e-06   2.1760316461070194e-05
-1.0522367217776903e-05   2.639751805752011e-06   2.1760316461070194e-05
-1.0522367217776903e-05   2.639751805752011e-06   2.1760316461070194e-05
-6.128256124563459e-06   2.5103267329558508e-06   2.990335663455128e-05
-6.128256124563459e-06   2.5103267329558508e-06   2.990335663455128e-05
-6.128256124563459e-06   2.5103267329558508e-06   2.990335663455128e-05
-6.128256124563459e-06   2.5103267329558508e-06   2.990335663455128e-05
-1.52951510310707e-05   2.3257509979867416e-06   1.4514453016057911e-05
-1.52951510310707e-05   2.3257509979867416e-06   1.4514453016057911e-05
-1.52951510310707e-05   2.3257509979867416e-06   1.4514453016057911e-05
-1.52951510310707e-05   2.3257509979867416e-06   1.4514453016057911e-05
-1.5717890733990878e-05   1.9481782230581536e-06   2.9990065668795626e-05
-1.5717890733990878e-05   1.9481782230581536e-06   2.9990065668795626e-05
-1.5717890733990878e-05   1.9481782230581536e-06   2.9990065668795626e-05
-1.5717890733990878e-05   1.9481782230581536e-06   2.9990065668795626e-05
-6.567306601106869e-06   1.7514228661369945e-06   1.4857145328141594e-05
-6.567306601106869e-06   1.7514228661369945e-06   1.4857145328141594e-05
-6.567306601106869e-06   1.7514228661369945e-06   1.4857145328141594e-05
-6.567306601106869e-06   1.7514228661369945e-06   1.4857145328141594e-05
-1.0886791897153168e-05   2.200727972865961e-06   2.1786704424181296e-05
-1.0886791897153168e-05   2.200727972865961e-06   2.1786704424181296e-05
-1.0886791897153168e-05   2.200727972865961e-06   2.1786704424181296e-05
-1.0886791897153168e-05   2.200727972865961e-06   2.1786704424181296e-05
-6.567306601106896e-06   1.9481782230581536e-06   3.0108118882948018e-05
-6.567306601106896e-06   1.9481782230581536e-06   3.0108118882948018e-05
-6.567306601106896e-06   1.9481782230581536e-06   3.0108118882948018e-05
-6.567306601106896e-06   1.9481782230581536e-06   3.0108118882948018e-05
-1.571789073399085e-05   1.7514228661369945e-06   1.4739092113988904e-05
-1.571789073399085e-05   1.7514228661369945e-06   1.4739092113988904e-05
-1.571789073399085e-05   1.7514228661369945e-06   1.4739092113988904e-05
-1.571789073399085e-05   1.7514228661369945e-06   1.4739092113988904e-05
-1.613401716650214e-05   1.4070084183382195e-06   3.0473713959423745e-05
-1.613401716650214e-05   1.4070084183382195e-06   3.0473713959423745e-05
-1.613401716650214e-05   1.4070084183382195e-06   3.0473713959423745e-05
-1.613401716650214e-05   1.4070084183382195e-06   3.0473713959423745e-05
-6.999829741749137e-06   1.2015314196115942e-06   1.537335445073835e-05
-6.999829741749137e-06   1.2015314196115942e-06   1.537335445073835e-05
-6.999829741749137e-06   1.2015314196115942e-06   1.537335445073835e-05
-6.999829741749137e-06   1.2015314196115942e-06   1.537335445073835e-05
-1.1274437007824263e-05   1.7705201178167679e-06   2.2156306675274052e-05
-1.1274437007824263e-05   1.7705201178167679e-06   2.2156306675274052e-05
-1.1274437007824263e-05   1.7705201178167679e-06   2.2156306675274052e-05
-1.1274437007824263e-05   1.7705201178167679e-06   2.2156306675274052e-05
-1.4885816419054774e-05   5.279731035224286e-06   2.6480271128620915e-05
-1.4885816419054774e-05   5.279731035224286e-06   2.6480271128620915e-05
-1.4885816419054774e-05   5.279731035224286e-06   2.6480271128620915e-05
-1.4885816419054774e-05   5.279731035224286e-06   2.6480271128620915e-05
-2.3903764600925303e-05   4.3133939016039725e-06   1.087055521199786e-05
-2.3903764600925303e-05   4.3133939016039725e-06   1.087055521199786e-05
-2.3903764600925303e-05   4.3133939016039725e-06   1.087055521199786e-05
-2.3903764600925303e-05   4.3133939016039725e-06   1.087055521199786e-05
-2.4349972579776e-05   4.724320995607703e-06   2.5992527654173682e-05
-2.4349972579776e-05   4.724320995607703e-06   2.5992527654173682e-05
-2.4349972579776e-05   4.724320995607703e-06   2.5992527654173682e-05
-2.4349972579776e-05   4.724320995607703e-06   2.5992527654173682e-05
-1.5295151031070674e-05   3.7312780217021047e-06   1.1496984190675192e-05
-1.5295151031070674e-05   3.7312780217021047e-06   1.1496984190675192e-05
-1.5295151031070674e-05   3.7312780217021047e-06   1.1496984190675192e-05
-1.5295151031070674e-05   3.7312780217021047e-06   1.1496984190675192e-05
-1.9561374408699395e-05   4.438572868055782e-06   1.8182979578911852e-05
-1.9561374408699395e-05   4.438572868055782e-06   1.8182979578911852e-05
-1.9561374408699395e-05   4.438572868055782e-06   1.8182979578911852e-05
-1.9561374408699395e-05   4.438572868055782e-06   1.8182979578911852e-05
-1.529515103107073e-05   4.724320995607703e-06   2.6588353438517193e-05
-1.529515103107073e-05   4.724320995607703e-06   2.6588353438517193e-05
-1.529515103107073e-05   4.724320995607703e-06   2.6588353438517193e-05
-1.529515103107073e-05   4.724320995607703e-06   2.6588353438517193e-05
-2.4349972579776e-05   3.7312780217023216e-06   1.0901158406331898e-05
-2.4349972579776e-05   3.7312780217023216e-06   1.0901158406331898e-05
-2.4349972579776e-05   3.7312780217023216e-06   1.0901158406331898e-05
-2.4349972579776e-05   3.7312780217023216e-06   1.0901158406331898e-05
-2.487835946752637e-05   4.210273298839006e-06   2.6847727880616222e-05
-2.487835946752637e-05   4.210273298839006e-06   2.6847727880616222e-05
-2.487835946752637e-05   4.210273298839006e-06   2.6847727880616222e-05
-2.487835946752637e-05   4.210273298839006e-06   2.6847727880616222e-05
-1.5717890733990824e-05   3.2019523651448476e-06   1.2185272551607158e-05
-1.5717890733990824e-05   3.2019523651448476e-06   1.2185272551607158e-05
-1.5717890733990824e-05   3.2019523651448476e-06   1.2185272551607158e-05
-1.5717890733990824e-05   3.2019523651448476e-06   1.2185272551607158e-05
-1.9850399959047538e-05   4.026900042719897e-06   1.8577819320156515e-05
-1.9850399959047538e-05   4.026900042719897e-06   1.8577819320156515e-05
-1.9850399959047538e-05   4.026900042719897e-06   1.8577819320156515e-05
-1.9850399959047538e-05   4.026900042719897e-06   1.8577819320156515e-05
-1.5717890733990878e-05   4.210273298839006e-06   2.7452720440832717e-05
-1.5717890733990878e-05   4.210273298839006e-06   2.7452720440832717e-05
-1.5717890733990878e-05   4.210273298839006e-06   2.7452720440832717e-05
-1.5717890733990878e-05   4.210273298839006e-06   2.7452720440832717e-05
-2.4878359467526263e-05   3.2019523651448476e-06   1.1580279991390662e-05
-2.4878359467526263e-05   3.2019523651448476e-06   1.1580279991390662e-05
-2.4878359467526263e-05   3.2019523651448476e-06   1.1580279991390662e-05
-2.4878359467526263e-05   3.2019523651448476e-06   1.1580279991390662e-05
-2.533171905056092e-05   3.6355079592504964e-06   2.7673337253451922e-05
-2.533171905056092e-05   3.6355079592504964e-06   2.7673337253451922e-05
-2.533171905056092e-05   3.6355079592504964e-06   2.7673337253451922e-05
-2.533171905056092e-05   3.6355079592504964e-06   2.7673337253451922e-05
-1.6134017166502085e-05   2.6361929671106944e-06   1.2943423108638201e-05
-1.6134017166502085e-05   2.6361929671106944e-06   1.2943423108638201e-05
-1.6134017166502085e-05   2.6361929671106944e-06   1.2943423108638201e-05
-1.6134017166502085e-05   2.6361929671106944e-06   1.2943423108638201e-05
-2.034761276111305e-05   3.6145376085539027e-06   1.9379075648124624e-05
-2.034761276111305e-05   3.6145376085539027e-06   1.9379075648124624e-05
-2.034761276111305e-05   3.6145376085539027e-06   1.9379075648124624e-05
-2.034761276111305e-05   3.6145376085539027e-06   1.9379075648124624e-05
-2.3903764600925357e-05   6.92725529624974e-06   1.237379549903978e-05
-2.3903764600925357e-05   6.92725529624974e-06   1.237379549903978e-05
-2.3903764600925357e-05   6.92725529624974e-06   1.237379549903978e-05
-2.3903764600925357e-05   6.92725529624974e-06   1.237379549903978e-05
-3.2039213056911126e-05   5.308170960145655e-06   -2.156735862599002e-06
-3.2039213056911126e-05   5.308170960145655e-06   -2.156735862599002e-06
-3.2039213056911126e-05   5.308170960145655e-06   -2.156735862599002e-06
-3.2039213056911126e-05   5.308170960145655e-06   -2.156735862599002e-06
-3.318321806425155e-05   6.749381151458823e-06   1.5259290259617012e-05
-3.318321806425155e-05   6.749381151458823e-06   1.5259290259617012e-05
-3.318321806425155e-05   6.749381151458823e-06   1.5259290259617012e-05
-3.318321806425155e-05   6.749381151458823e-06   1.5259290259617012e-05
-2.4349972579775945e-05   5.00989337650303e-06   1.5809071171316762e-06
-2.4349972579775945e-05   5.00989337650303e-06   1.5809071171316762e-06
-2.4349972579775945e-05   5.00989337650303e-06   1.5809071171316762e-06
-2.4349972579775945e-05   5.00989337650303e-06   1.5809071171316762e-06
-2.7335832655924728e-05   5.8882897558264376e-06   6.03030274978658e-06
-2.7335832655924728e-05   5.8882897558264376e-06   6.03030274978658e-06
-2.7335832655924728e-05   5.8882897558264376e-06   6.03030274978658e-06
-2.7335832655924728e-05   5.8882897558264376e-06   6.03030274978658e-06
-2.4349972579775945e-05   6.7493811514586066e-06   1.630298292459051e-05
-2.4349972579775945e-05   6.7493811514586066e-06   1.630298292459051e-05
-2.4349972579775945e-05   6.7493811514586066e-06   1.630298292459051e-05
-2.4349972579775945e-05   6.7493811514586066e-06   1.630298292459051e-05
-3.318321806425166e-05   5.009893376502813e-06   5.372144521580428e-07
-3.318321806425166e-05   5.009893376502813e-06   5.372144521580428e-07
-3.318321806425166e-05   5.009893376502813e-06   5.372144521580428e-07
-3.318321806425166e-05   5.009893376502813e-06   5.372144521580428e-07
-3.416806837941926e-05   6.53143145609757e-06   1.80562753541837e-05
-3.416806837941926e-05   6.53143145609757e-06   1.80562753541837e-05
-3.416806837941926e-05   6.53143145609757e-06   1.80562753541837e-05
-3.416806837941926e-05   6.53143145609757e-06   1.80562753541837e-05
-2.4878359467526263e-05   4.760512715816338e-06   3.6359784118641025e-06
-2.4878359467526263e-05   4.760512715816338e-06   3.6359784118641025e-06
-2.4878359467526263e-05   4.760512715816338e-06   3.6359784118641025e-06
-2.4878359467526263e-05   4.760512715816338e-06   3.6359784118641025e-06
-2.8434472155150676e-05   5.811071316086814e-06   8.93249773107653e-06
-2.8434472155150676e-05   5.811071316086814e-06   8.93249773107653e-06
-2.8434472155150676e-05   5.811071316086814e-06   8.93249773107653e-06
-2.8434472155150676e-05   5.811071316086814e-06   8.93249773107653e-06
-2.4878359467526317e-05   6.53143145609757e-06   1.9118826598352417e-05
-2.4878359467526317e-05   6.53143145609757e-06   1.9118826598352417e-05
-2.4878359467526317e-05   6.53143145609757e-06   1.9118826598352417e-05
-2.4878359467526317e-05   6.53143145609757e-06   1.9118826598352417e-05
-3.416806837941937e-05   4.760512715816555e-06   2.5734271676954663e-06
-3.416806837941937e-05   4.760512715816555e-06   2.5734271676954663e-06
-3.416806837941937e-05   4.760512715816555e-06   2.5734271676954663e-06
-3.416806837941937e-05   4.760512715816555e-06   2.5734271676954663e-06
-3.534664112117737e-05   5.799633491709519e-06   2.3005372899777233e-05
-3.534664112117737e-05   5.799633491709519e-06   2.3005372899777233e-05
-3.534664112117737e-05   5.799633491709519e-06   2.3005372899777233e-05
-3.534664112117737e-05   5.799633491709519e-06   2.3005372899777233e-05
-2.533171905056081e-05   4.081957292524944e-06   7.344441834927209e-06
-2.533171905056081e-05   4.081957292524944e-06   7.344441834927209e-06
-2.533171905056081e-05   4.081957292524944e-06   7.344441834927209e-06
-2.533171905056081e-05   4.081957292524944e-06   7.344441834927209e-06
-2.870784536875923e-05   5.5025018206673795e-06   1.2118992315039256e-05
-2.870784536875923e-05   5.5025018206673795e-06   1.2118992315039256e-05
-2.870784536875923e-05   5.5025018206673795e-06   1.2118992315039256e-05
-2.870784536875923e-05   5.5025018206673795e-06   1.2118992315039256e-05
2.803848556404281e-06   3.2880621343711613e-08   1.4717856207436685e-05
2.803848556404281e-06   3.2880621343711613e-08   1.4717856207436685e-05
2.803848556404281e-06   3.2880621343711613e-08   1.4717856207436685e-05
2.803848556404281e-06   3.2880621343711613e-08   1.4717856207436685e-05
-3.070884610935172e-06   1.5961537521349146e-06   5.864598140345803e-06
-3.070884610935172e-06   1.5961537521349146e-06   5.864598140345803e-06
-3.070884610935172e-06   1.5961537521349146e-06   5.864598140345803e-06
-3.070884610935172e-06   1.5961537521349146e-06   5.864598140345803e-06
-3.4150353745289425e-06   -5.21623962884037e-07   1.4514476961605713e-05
-3.4150353745289425e-06   -5.21623962884037e-07   1.4514476961605713e-05
-3.4150353745289425e-06   -5.21623962884037e-07   1.4514476961605713e-05
-3.4150353745289425e-06   -5.21623962884037e-07   1.4514476961605713e-05
1.75669497633851e-06   1.0788518994683458e-06   4.934640859415181e-06
1.75669497633851e-06   1.0788518994683458e-06   4.934640859415181e-06
1.75669497633851e-06   1.0788518994683458e-06   4.934640859415181e-06
1.75669497633851e-06   1.0788518994683458e-06   4.934640859415181e-06
-6.194384203906969e-07   4.5793732250491714e-07   9.26741193347521e-06
-6.194384203906969e-07   4.5793732250491714e-07   9.26741193347521e-06
-6.194384203906969e-07   4.5793732250491714e-07   9.26741193347521e-06
-6.194384203906969e-07   4.5793732250491714e-07   9.26741193347521e-06
1.75669497633851e-06   -5.21623962884037e-07   1.3554191444194196e-05
1.75669497633851e-06   -5.21623962884037e-07   1.3554191444194196e-05
1.75669497633851e-06   -5.21623962884037e-07   1.3554191444194196e-05
1.75669497633851e-06   -5.21623962884037e-07   1.3554191444194196e-05
-3.4150353745289425e-06   1.0788518994683458e-06   5.8949263768266974e-06
-3.4150353745289425e-06   1.0788518994683458e-06   5.8949263768266974e-06
-3.4150353745289425e-06   1.0788518994683458e-06   5.8949263768266974e-06
-3.4150353745289425e-06   1.0788518994683458e-06   5.8949263768266974e-06
-3.840219153826373e-06   -7.605326599660883e-07   1.4133399376948011e-05
-3.840219153826373e-06   -7.605326599660883e-07   1.4133399376948011e-05
-3.840219153826373e-06   -7.605326599660883e-07   1.4133399376948011e-05
-3.840219153826373e-06   -7.605326599660883e-07   1.4133399376948011e-05
8.479087105998776e-07   7.943307863875725e-07   5.386934868425395e-06
8.479087105998776e-07   7.943307863875725e-07   5.386934868425395e-06
8.479087105998776e-07   7.943307863875725e-07   5.386934868425395e-06
8.479087105998776e-07   7.943307863875725e-07   5.386934868425395e-06
-1.1842991504424488e-06   2.3753124836554777e-07   9.108027692975756e-06
-1.1842991504424488e-06   2.3753124836554777e-07   9.108027692975756e-06
-1.1842991504424488e-06   2.3753124836554777e-07   9.108027692975756e-06
-1.1842991504424488e-06   2.3753124836554777e-07   9.108027692975756e-06
8.479087105998776e-07   -7.605326599660883e-07   1.3200481309135663e-05
8.479087105998776e-07   -7.605326599660883e-07   1.3200481309135663e-05
8.479087105998776e-07   -7.605326599660883e-07   1.3200481309135663e-05
8.479087105998776e-07   -7.605326599660883e-07   1.3200481309135663e-05
-3.840219153826367e-06   7.943307863875725e-07   6.319852936237662e-06
-3.840219153826367e-06   7.943307863875725e-07   6.319852936237662e-06
-3.840219153826367e-06   7.943307863875725e-07   6.319852936237662e-06
-3.840219153826367e-06   7.943307863875725e-07   6.319852936237662e-06
-4.195651288986924e-06   -1.1581635170831387e-06   1.3995884573040295e-05
-4.195651288986924e-06   -1.1581635170831387e-06   1.3995884573040295e-05
-4.195651288986924e-06   -1.1581635170831387e-06   1.3995884573040295e-05
-4.195651288986924e-06   -1.1581635170831387e-06   1.3995884573040295e-05
-2.923212934260311e-07   1.9110060543215974e-07   6.68077610692971e-06
-2.923212934260311e-07   1.9110060543215974e-07   6.68077610692971e-06
-2.923212934260311e-07   1.9110060543215974e-07   6.68077610692971e-06
-2.923212934260311e-07   1.9110060543215974e-07   6.68077610692971e-06
-1.7935179252991563e-06   3.583973168914088e-08   9.275927017630568e-06
-1.7935179252991563e-06   3.583973168914088e-08   9.275927017630568e-06
-1.7935179252991563e-06   3.583973168914088e-08   9.275927017630568e-06
-1.7935179252991563e-06   3.583973168914088e-08   9.275927017630568e-06
-3.070884610935172e-06   1.5543856619498232e-06   2.3596078111626185e-05
-3.070884610935172e-06   1.5543856619498232e-06   2.3596078111626185e-05
-3.070884610935172e-06   1.5543856619498232e-06   2.3596078111626185e-05
-3.070884610935172e-06   1.5543856619498232e-06   2.3596078111626185e-05
-7.987646706481298e-06   1.8632637200132265e-06   1.5586801453887464e-05
-7.987646706481298e-06   1.8632637200132265e-06   1.5586801453887464e-05
-7.987646706481298e-06   1.8632637200132265e-06   1.5586801453887464e-05
-7.987646706481298e-06   1.8632637200132265e-06   1.5586801453887464e-05
-8.247288990158658e-06   9.280203552054517e-07   2.353143409836102e-05
-8.247288990158658e-06   9.280203552054517e-07   2.353143409836102e-05
-8.247288990158658e-06   9.280203552054517e-07   2.353143409836102e-05
-8.247288990158658e-06   9.280203552054517e-07   2.353143409836102e-05
-3.4150353745289425e-06   1.2856967789413604e-06   1.5263072218069984e-05
-3.4150353745289425e-06   1.2856967789413604e-06   1.5263072218069984e-05
-3.4150353745289425e-06   1.2856967789413604e-06   1.5263072218069984e-05
-3.4150353745289425e-06   1.2856967789413604e-06   1.5263072218069984e-05
-5.714303834835575e-06   1.3407136483249617e-06   1.9062176196950776e-05
-5.714303834835575e-06   1.3407136483249617e-06   1.9062176196950776e-05
-5.714303834835575e-06   1.3407136483249617e-06   1.9062176196950776e-05
-5.714303834835575e-06   1.3407136483249617e-06   1.9062176196950776e-05
-3.4150353745289493e-06   9.280203552054517e-07   2.3316828244119452e-05
-3.4150353745289493e-06   9.280203552054517e-07   2.3316828244119452e-05
-3.4150353745289493e-06   9.280203552054517e-07   2.3316828244119452e-05
-3.4150353745289493e-06   9.280203552054517e-07   2.3316828244119452e-05
-8.247288990158644e-06   1.2856967789413604e-06   1.5477678072311476e-05
-8.247288990158644e-06   1.2856967789413604e-06   1.5477678072311476e-05
-8.247288990158644e-06   1.2856967789413604e-06   1.5477678072311476e-05
-8.247288990158644e-06   1.2856967789413604e-06   1.5477678072311476e-05
-8.515109536743454e-06   3.973488781514826e-07   2.357622078820844e-05
-8.515109536743454e-06   3.973488781514826e-07   2.357622078820844e-05
-8.515109536743454e-06   3.973488781514826e-07   2.357622078820844e-05
-8.515109536743454e-06   3.973488781514826e-07   2.357622078820844e-05
-3.840219153826367e-06   7.527478418112863e-07   1.5571497438484098e-05
-3.840219153826367e-06   7.527478418112863e-07   1.5571497438484098e-05
-3.840219153826367e-06   7.527478418112863e-07   1.5571497438484098e-05
-3.840219153826367e-06   7.527478418112863e-07   1.5571497438484098e-05
-5.9794402921694124e-06   9.187557271227338e-07   1.9037261271202604e-05
-5.9794402921694124e-06   9.187557271227338e-07   1.9037261271202604e-05
-5.9794402921694124e-06   9.187557271227338e-07   1.9037261271202604e-05
-5.9794402921694124e-06   9.187557271227338e-07   1.9037261271202604e-05
-3.840219153826373e-06   3.973488781514826e-07   2.3362981410012472e-05
-3.840219153826373e-06   3.973488781514826e-07   2.3362981410012472e-05
-3.840219153826373e-06   3.973488781514826e-07   2.3362981410012472e-05
-3.840219153826373e-06   3.973488781514826e-07   2.3362981410012472e-05
-8.515109536743454e-06   7.527478418112863e-07   1.578473681667996e-05
-8.515109536743454e-06   7.527478418112863e-07   1.578473681667996e-05
-8.515109536743454e-06   7.527478418112863e-07   1.578473681667996e-05
-8.515109536743454e-06   7.527478418112863e-07   1.578473681667996e-05
-8.777864316986621e-06   -1.447455590226042e-07   2.403261647164099e-05
-8.777864316986621e-06   -1.447455590226042e-07   2.403261647164099e-05
-8.777864316986621e-06   -1.447455590226042e-07   2.403261647164099e-05
-8.777864316986621e-06   -1.447455590226042e-07   2.403261647164099e-05
-4.19565128898692e-06   1.755712814438537e-07   1.6203404654028243e-05
-4.19565128898692e-06   1.755712814438537e-07   1.6203404654028243e-05
-4.19565128898692e-06   1.755712814438537e-07   1.6203404654028243e-05
-4.19565128898692e-06   1.755712814438537e-07   1.6203404654028243e-05
-6.2442004431352935e-06   5.04216176834809e-07   1.9420466307040914e-05
-6.2442004431352935e-06   5.04216176834809e-07   1.9420466307040914e-05
-6.2442004431352935e-06   5.04216176834809e-07   1.9420466307040914e-05
-6.2442004431352935e-06   5.04216176834809e-07   1.9420466307040914e-05
-7.987646706481298e-06   2.903040199362999e-06   2.655561393012705e-05
-7.987646706481298e-06   2.903040199362999e-06   2.655561393012705e-05
-7.987646706481298e-06   2.903040199362999e-06   2.655561393012705e-05
-7.987646706481298e-06   2.903040199362999e-06   2.655561393012705e-05
-1.2886447419821554e-05   2.2357375203878142e-06   1.7990564467174942e-05
-1.2886447419821554e-05   2.2357375203878142e-06   1.7990564467174942e-05
-1.2886447419821554e-05   2.2357375203878142e-06   1.7990564467174942e-05
-1.2886447419821554e-05   2.2357375203878142e-06   1.7990564467174942e-05
-1.3106260254448939e-05   2.3257509979867416e-06   2.606354530536759e-05
-1.3106260254448939e-05   2.3257509979867416e-06   2.606354530536759e-05
-1.3106260254448939e-05   2.3257509979867416e-06   2.606354530536759e-05
-1.3106260254448939e-05   2.3257509979867416e-06   2.606354530536759e-05
-8.247288990158644e-06   1.7006653239994398e-06   1.8340311269276295e-05
-8.247288990158644e-06   1.7006653239994398e-06   1.8340311269276295e-05
-8.247288990158644e-06   1.7006653239994398e-06   1.8340311269276295e-05
-8.247288990158644e-06   1.7006653239994398e-06   1.8340311269276295e-05
-1.0562284426432911e-05   2.246924372396788e-06   2.1870881567361542e-05
-1.0562284426432911e-05   2.246924372396788e-06   2.1870881567361542e-05
-1.0562284426432911e-05   2.246924372396788e-06   2.1870881567361542e-05
-1.0562284426432911e-05   2.246924372396788e-06   2.1870881567361542e-05
-8.247288990158644e-06   2.3257509979867416e-06   2.64385967097601e-05
-8.247288990158644e-06   2.3257509979867416e-06   2.64385967097601e-05
-8.247288990158644e-06   2.3257509979867416e-06   2.64385967097601e-05
-8.247288990158644e-06   2.3257509979867416e-06   2.64385967097601e-05
-1.3106260254448939e-05   1.7006653239994398e-06   1.7965259864883838e-05
-1.3106260254448939e-05   1.7006653239994398e-06   1.7965259864883838e-05
-1.3106260254448939e-05   1.7006653239994398e-06   1.7965259864883838e-05
-1.3106260254448939e-05   1.7006653239994398e-06   1.7965259864883838e-05
-1.334177904452734e-05   1.7514228661369945e-06   2.63226630383528e-05
-1.334177904452734e-05   1.7514228661369945e-06   2.63226630383528e-05
-1.334177904452734e-05   1.7514228661369945e-06   2.63226630383528e-05
-1.334177904452734e-05   1.7514228661369945e-06   2.63226630383528e-05
-8.515109536743454e-06   1.1568625114410534e-06   1.8634950071530764e-05
-8.515109536743454e-06   1.1568625114410534e-06   1.8634950071530764e-05
-8.515109536743454e-06   1.1568625114410534e-06   1.8634950071530764e-05
-8.515109536743454e-06   1.1568625114410534e-06   1.8634950071530764e-05
-1.0750097098407375e-05   1.8185396532903724e-06   2.1962923055860958e-05
-1.0750097098407375e-05   1.8185396532903724e-06   2.1962923055860958e-05
-1.0750097098407375e-05   1.8185396532903724e-06   2.1962923055860958e-05
-1.0750097098407375e-05   1.8185396532903724e-06   2.1962923055860958e-05
-8.515109536743454e-06   1.7514228661369945e-06   2.6679399251170366e-05
-8.515109536743454e-06   1.7514228661369945e-06   2.6679399251170366e-05
-8.515109536743454e-06   1.7514228661369945e-06   2.6679399251170366e-05
-8.515109536743454e-06   1.7514228661369945e-06   2.6679399251170366e-05
-1.3341779044527313e-05   1.1568625114410534e-06   1.827821385871301e-05
-1.3341779044527313e-05   1.1568625114410534e-06   1.827821385871301e-05
-1.3341779044527313e-05   1.1568625114410534e-06   1.827821385871301e-05
-1.3341779044527313e-05   1.1568625114410534e-06   1.827821385871301e-05
-1.3572436438761892e-05   1.2015314196115942e-06   2.6864999002609836e-05
-1.3572436438761892e-05   1.2015314196115942e-06   2.6864999002609836e-05
-1.3572436438761892e-05   1.2015314196115942e-06   2.6864999002609836e-05
-1.3572436438761892e-05   1.2015314196115942e-06   2.6864999002609836e-05
-8.777864316986621e-06   6.414163230979673e-07   1.9210114524226095e-05
-8.777864316986621e-06   6.414163230979673e-07   1.9210114524226095e-05
-8.777864316986621e-06   6.414163230979673e-07   1.9210114524226095e-05
-8.777864316986621e-06   6.414163230979673e-07   1.9210114524226095e-05
-1.0959349757706915e-05   1.396634630058003e-06   2.239279260791711e-05
-1.0959349757706915e-05   1.396634630058003e-06   2.239279260791711e-05
-1.0959349757706915e-05   1.396634630058003e-06   2.239279260791711e-05
-1.0959349757706915e-05   1.396634630058003e-06   2.239279260791711e-05
-1.2886447419821609e-05   4.3133939016039725e-06   2.29597156531379e-05
-1.2886447419821609e-05   4.3133939016039725e-06   2.29597156531379e-05
-1.2886447419821609e-05   4.3133939016039725e-06   2.29597156531379e-05
-1.2886447419821609e-05   4.3133939016039725e-06   2.29597156531379e-05
-1.7705127371249365e-05   3.0233531630494788e-06   1.4154557957625686e-05
-1.7705127371249365e-05   3.0233531630494788e-06   1.4154557957625686e-05
-1.7705127371249365e-05   3.0233531630494788e-06   1.4154557957625686e-05
-1.7705127371249365e-05   3.0233531630494788e-06   1.4154557957625686e-05
-1.7946675108691627e-05   3.7312780217023216e-06   2.2283568422326898e-05
-1.7946675108691627e-05   3.7312780217023216e-06   2.2283568422326898e-05
-1.7946675108691627e-05   3.7312780217023216e-06   2.2283568422326898e-05
-1.7946675108691627e-05   3.7312780217023216e-06   2.2283568422326898e-05
-1.3106260254448939e-05   2.4604312589387436e-06   1.4978718389580534e-05
-1.3106260254448939e-05   2.4604312589387436e-06   1.4978718389580534e-05
-1.3106260254448939e-05   2.4604312589387436e-06   1.4978718389580534e-05
-1.3106260254448939e-05   2.4604312589387436e-06   1.4978718389580534e-05
-1.5378477856957943e-05   3.3530926934809222e-06   1.8230150866370334e-05
-1.5378477856957943e-05   3.3530926934809222e-06   1.8230150866370334e-05
-1.5378477856957943e-05   3.3530926934809222e-06   1.8230150866370334e-05
-1.5378477856957943e-05   3.3530926934809222e-06   1.8230150866370334e-05
-1.3106260254448939e-05   3.7312780217023216e-06   2.304607647998498e-05
-1.3106260254448939e-05   3.7312780217023216e-06   2.304607647998498e-05
-1.3106260254448939e-05   3.7312780217023216e-06   2.304607647998498e-05
-1.3106260254448939e-05   3.7312780217023216e-06   2.304607647998498e-05
-1.7946675108691573e-05   2.460431258938635e-06   1.4216210331922453e-05
-1.7946675108691573e-05   2.460431258938635e-06   1.4216210331922453e-05
-1.7946675108691573e-05   2.460431258938635e-06   1.4216210331922453e-05
-1.7946675108691573e-05   2.460431258938635e-06   1.4216210331922453e-05
-1.828034041823014e-05   3.2019523651446308e-06   2.302341457434496e-05
-1.828034041823014e-05   3.2019523651446308e-06   2.302341457434496e-05
-1.828034041823014e-05   3.2019523651446308e-06   2.302341457434496e-05
-1.828034041823014e-05   3.2019523651446308e-06   2.302341457434496e-05
-1.334177904452734e-05   1.959570862434417e-06   1.5537907853133148e-05
-1.334177904452734e-05   1.959570862434417e-06   1.5537907853133148e-05
-1.334177904452734e-05   1.959570862434417e-06   1.5537907853133148e-05
-1.334177904452734e-05   1.959570862434417e-06   1.5537907853133148e-05
-1.5509768638503665e-05   2.937920000290308e-06   1.8564214360380026e-05
-1.5509768638503665e-05   2.937920000290308e-06   1.8564214360380026e-05
-1.5509768638503665e-05   2.937920000290308e-06   1.8564214360380026e-05
-1.5509768638503665e-05   2.937920000290308e-06   1.8564214360380026e-05
-1.3341779044527313e-05   3.2019523651448476e-06   2.3768843475970784e-05
-1.3341779044527313e-05   3.2019523651448476e-06   2.3768843475970784e-05
-1.3341779044527313e-05   3.2019523651448476e-06   2.3768843475970784e-05
-1.3341779044527313e-05   3.2019523651448476e-06   2.3768843475970784e-05
-1.828034041823003e-05   1.959570862434417e-06   1.479247895150689e-05
-1.828034041823003e-05   1.959570862434417e-06   1.479247895150689e-05
-1.828034041823003e-05   1.959570862434417e-06   1.479247895150689e-05
-1.828034041823003e-05   1.959570862434417e-06   1.479247895150689e-05
-1.8547797410771525e-05   2.6361929671106944e-06   2.3846200884711536e-05
-1.8547797410771525e-05   2.6361929671106944e-06   2.3846200884711536e-05
-1.8547797410771525e-05   2.6361929671106944e-06   2.3846200884711536e-05
-1.8547797410771525e-05   2.6361929671106944e-06   2.3846200884711536e-05
-1.3572436438761865e-05   1.4492713420536903e-06   1.62660855730632e-05
-1.3572436438761865e-05   1.4492713420536903e-06   1.62660855730632e-05
-1.3572436438761865e-05   1.4492713420536903e-06   1.62660855730632e-05
-1.3572436438761865e-05   1.4492713420536903e-06   1.62660855730632e-05
-1.5786212671748282e-05   2.5430495181309482e-06   1.929944572239456e-05
-1.5786212671748282e-05   2.5430495181309482e-06   1.929944572239456e-05
-1.5786212671748282e-05   2.5430495181309482e-06   1.929944572239456e-05
-1.5786212671748282e-05   2.5430495181309482e-06   1.929944572239456e-05
-1.7705127371249365e-05   5.308170960145872e-06   1.0129850737070848e-05
-1.7705127371249365e-05   5.308170960145872e-06   1.0129850737070848e-05
-1.7705127371249365e-05   5.308170960145872e-06   1.0129850737070848e-05
-1.7705127371249365e-05   5.308170960145872e-06   1.0129850737070848e-05
-2.1491502976079082e-05   3.5734838932303774e-06   2.7784124888721466e-06
-2.1491502976079082e-05   3.5734838932303774e-06   2.7784124888721466e-06
-2.1491502976079082e-05   3.5734838932303774e-06   2.7784124888721466e-06
-2.1491502976079082e-05   3.5734838932303774e-06   2.7784124888721466e-06
-2.2407623672894095e-05   5.009893376502813e-06   1.1876734262991195e-05
-2.2407623672894095e-05   5.009893376502813e-06   1.1876734262991195e-05
-2.2407623672894095e-05   5.009893376502813e-06   1.1876734262991195e-05
-2.2407623672894095e-05   5.009893376502813e-06   1.1876734262991195e-05
-1.7946675108691573e-05   3.1989219262773365e-06   5.528402859455409e-06
-1.7946675108691573e-05   3.1989219262773365e-06   5.528402859455409e-06
-1.7946675108691573e-05   3.1989219262773365e-06   5.528402859455409e-06
-1.7946675108691573e-05   3.1989219262773365e-06   5.528402859455409e-06
-1.9197615359652895e-05   4.22932354431668e-06   6.995062306900833e-06
-1.9197615359652895e-05   4.22932354431668e-06   6.995062306900833e-06
-1.9197615359652895e-05   4.22932354431668e-06   6.995062306900833e-06
-1.9197615359652895e-05   4.22932354431668e-06   6.995062306900833e-06
-1.7946675108691573e-05   5.009893376502813e-06   1.2963317133126242e-05
-1.7946675108691573e-05   5.009893376502813e-06   1.2963317133126242e-05
-1.7946675108691573e-05   5.009893376502813e-06   1.2963317133126242e-05
-1.7946675108691573e-05   5.009893376502813e-06   1.2963317133126242e-05
-2.2407623672894203e-05   3.1989219262773365e-06   4.441819989320094e-06
-2.2407623672894203e-05   3.1989219262773365e-06   4.441819989320094e-06
-2.2407623672894203e-05   3.1989219262773365e-06   4.441819989320094e-06
-2.2407623672894203e-05   3.1989219262773365e-06   4.441819989320094e-06
-2.319404512618196e-05   4.760512715816338e-06   1.3987795705893563e-05
-2.319404512618196e-05   4.760512715816338e-06   1.3987795705893563e-05
-2.319404512618196e-05   4.760512715816338e-06   1.3987795705893563e-05
-2.319404512618196e-05   4.760512715816338e-06   1.3987795705893563e-05
-1.8280340418230085e-05   2.9416505676084764e-06   6.889605148231921e-06
-1.8280340418230085e-05   2.9416505676084764e-06   6.889605148231921e-06
-1.8280340418230085e-05   2.9416505676084764e-06   6.889605148231921e-06
-1.8280340418230085e-05   2.9416505676084764e-06   6.889605148231921e-06
-1.997404350669851e-05   4.0825001603043195e-06   9.0279338733956e-06
-1.997404350669851e-05   4.0825001603043195e-06   9.0279338733956e-06
-1.997404350669851e-05   4.0825001603043195e-06   9.0279338733956e-06
-1.997404350669851e-05   4.0825001603043195e-06   9.0279338733956e-06
-1.8280340418230085e-05   4.760512715816555e-06   1.5079112994818128e-05
-1.8280340418230085e-05   4.760512715816555e-06   1.5079112994818128e-05
-1.8280340418230085e-05   4.760512715816555e-06   1.5079112994818128e-05
-1.8280340418230085e-05   4.760512715816555e-06   1.5079112994818128e-05
-2.3194045126182015e-05   2.9416505676084764e-06   5.798287859307076e-06
-2.3194045126182015e-05   2.9416505676084764e-06   5.798287859307076e-06
-2.3194045126182015e-05   2.9416505676084764e-06   5.798287859307076e-06
-2.3194045126182015e-05   2.9416505676084764e-06   5.798287859307076e-06
-2.419518665533086e-05   4.081957292524944e-06   1.7808066389410045e-05
-2.419518665533086e-05   4.081957292524944e-06   1.7808066389410045e-05
-2.419518665533086e-05   4.081957292524944e-06   1.7808066389410045e-05
-2.419518665533086e-05   4.081957292524944e-06   1.7808066389410045e-05
-1.854779741077147e-05   2.3507202644006695e-06   9.434493198685781e-06
-1.854779741077147e-05   2.3507202644006695e-06   9.434493198685781e-06
-1.854779741077147e-05   2.3507202644006695e-06   9.434493198685781e-06
-1.854779741077147e-05   2.3507202644006695e-06   9.434493198685781e-06
-2.019571519054961e-05   3.8007840934672216e-06   1.131098453420942e-05
-2.019571519054961e-05   3.8007840934672216e-06   1.131098453420942e-05
-2.019571519054961e-05   3.8007840934672216e-06   1.131098453420942e-05
-2.019571519054961e-05   3.8007840934672216e-06   1.131098453420942e-05
-8.77485505033969e-06   1.5961537521349146e-06   1.0506837249044912e-05
-8.77485505033969e-06   1.5961537521349146e-06   1.0506837249044912e-05
-8.77485505033969e-06   1.5961537521349146e-06   1.0506837249044912e-05
-8.77485505033969e-06   1.5961537521349146e-06   1.0506837249044912e-05
-9.606261436316066e-06   3.0166317788386625e-06   9.973446755106468e-06
-9.606261436316066e-06   3.0166317788386625e-06   9.973446755106468e-06
-9.606261436316066e-06   3.0166317788386625e-06   9.973446755106468e-06
-9.606261436316066e-06   3.0166317788386625e-06   9.973446755106468e-06
-9.853828458901523e-06   1.0788518994683458e-06   1.128387410407293e-05
-9.853828458901523e-06   1.0788518994683458e-06   1.128387410407293e-05
-9.853828458901523e-06   1.0788518994683458e-06   1.128387410407293e-05
-9.853828458901523e-06   1.0788518994683458e-06   1.128387410407293e-05
-9.815711896528747e-06   2.3564266225088205e-06   1.045380166629406e-05
-9.815711896528747e-06   2.3564266225088205e-06   1.045380166629406e-05
-9.815711896528747e-06   2.3564266225088205e-06   1.045380166629406e-05
-9.815711896528747e-06   2.3564266225088205e-06   1.045380166629406e-05
-9.276685357712972e-06   1.8804324358038561e-06   9.841020613624105e-06
-9.276685357712972e-06   1.8804324358038561e-06   9.841020613624105e-06
-9.276685357712972e-06   1.8804324358038561e-06   9.841020613624105e-06
-9.276685357712972e-06   1.8804324358038561e-06   9.841020613624105e-06
-9.81571189652876e-06   1.0788518994683458e-06   1.051732927024858e-05
-9.81571189652876e-06   1.0788518994683458e-06   1.051732927024858e-05
-9.81571189652876e-06   1.0788518994683458e-06   1.051732927024858e-05
-9.81571189652876e-06   1.0788518994683458e-06   1.051732927024858e-05
-9.853828458901523e-06   2.3564266225088205e-06   1.1220346500118248e-05
-9.853828458901523e-06   2.3564266225088205e-06   1.1220346500118248e-05
-9.853828458901523e-06   2.3564266225088205e-06   1.1220346500118248e-05
-9.853828458901523e-06   2.3564266225088205e-06   1.1220346500118248e-05
-1.0175126212438938e-05   7.943307863875725e-07   1.1639158117247785e-05
-1.0175126212438938e-05   7.943307863875725e-07   1.1639158117247785e-05
-1.0175126212438938e-05   7.943307863875725e-07   1.1639158117247785e-05
-1.0175126212438938e-05   7.943307863875725e-07   1.1639158117247785e-05
-1.0828159848134904e-05   1.9001755312542373e-06   1.2064040663154252e-05
-1.0828159848134904e-05   1.9001755312542373e-06   1.2064040663154252e-05
-1.0828159848134904e-05   1.9001755312542373e-06   1.2064040663154252e-05
-1.0828159848134904e-05   1.9001755312542373e-06   1.2064040663154252e-05
-9.896154872961774e-06   1.5957148778653063e-06   1.0693375429898826e-05
-9.896154872961774e-06   1.5957148778653063e-06   1.0693375429898826e-05
-9.896154872961774e-06   1.5957148778653063e-06   1.0693375429898826e-05
-9.896154872961774e-06   1.5957148778653063e-06   1.0693375429898826e-05
-1.0828159848134917e-05   7.943307863875725e-07   1.0975651270327472e-05
-1.0828159848134917e-05   7.943307863875725e-07   1.0975651270327472e-05
-1.0828159848134917e-05   7.943307863875725e-07   1.0975651270327472e-05
-1.0828159848134917e-05   7.943307863875725e-07   1.0975651270327472e-05
-1.0175126212438938e-05   1.9001755312542373e-06   1.27275475100742e-05
-1.0175126212438938e-05   1.9001755312542373e-06   1.27275475100742e-05
-1.0175126212438938e-05   1.9001755312542373e-06   1.27275475100742e-05
-1.0175126212438938e-05   1.9001755312542373e-06   1.27275475100742e-05
-1.03798065601425e-05   1.9110060543215974e-07   1.278933167051503e-05
-1.03798065601425e-05   1.9110060543215974e-07   1.278933167051503e-05
-1.03798065601425e-05   1.9110060543215974e-07   1.278933167051503e-05
-1.03798065601425e-05   1.9110060543215974e-07   1.278933167051503e-05
-1.1906213037618312e-05   7.780658586461174e-07   1.498116331437946e-05
-1.1906213037618312e-05   7.780658586461174e-07   1.498116331437946e-05
-1.1906213037618312e-05   7.780658586461174e-07   1.498116331437946e-05
-1.1906213037618312e-05   7.780658586461174e-07   1.498116331437946e-05
-1.0331230905811647e-05   1.2464707562680546e-06   1.2075150156128317e-05
-1.0331230905811647e-05   1.2464707562680546e-06   1.2075150156128317e-05
-1.0331230905811647e-05   1.2464707562680546e-06   1.2075150156128317e-05
-1.0331230905811647e-05   1.2464707562680546e-06   1.2075150156128317e-05
-9.606261436316046e-06   1.8632637200131181e-06   2.0896000543770715e-05
-9.606261436316046e-06   1.8632637200131181e-06   2.0896000543770715e-05
-9.606261436316046e-06   1.8632637200131181e-06   2.0896000543770715e-05
-9.606261436316046e-06   1.8632637200131181e-06   2.0896000543770715e-05
-9.743487800975575e-06   7.809194846659538e-07   2.001788339479649e-05
-9.743487800975575e-06   7.809194846659538e-07   2.001788339479649e-05
-9.743487800975575e-06   7.809194846659538e-07   2.001788339479649e-05
-9.743487800975575e-06   7.809194846659538e-07   2.001788339479649e-05
-9.820289365384665e-06   1.285696778941252e-06   2.0104988337725418e-05
-9.820289365384665e-06   1.285696778941252e-06   2.0104988337725418e-05
-9.820289365384665e-06   1.285696778941252e-06   2.0104988337725418e-05
-9.820289365384665e-06   1.285696778941252e-06   2.0104988337725418e-05
-9.853828458901523e-06   3.7397743295663945e-07   2.0707918434511057e-05
-9.853828458901523e-06   3.7397743295663945e-07   2.0707918434511057e-05
-9.853828458901523e-06   3.7397743295663945e-07   2.0707918434511057e-05
-9.853828458901523e-06   3.7397743295663945e-07   2.0707918434511057e-05
-9.726238195180825e-06   9.513111731351224e-07   2.014886775086934e-05
-9.726238195180825e-06   9.513111731351224e-07   2.014886775086934e-05
-9.726238195180825e-06   9.513111731351224e-07   2.014886775086934e-05
-9.726238195180825e-06   9.513111731351224e-07   2.014886775086934e-05
-9.853828458901516e-06   1.2856967789413604e-06   2.0652019945315925e-05
-9.853828458901516e-06   1.2856967789413604e-06   2.0652019945315925e-05
-9.853828458901516e-06   1.2856967789413604e-06   2.0652019945315925e-05
-9.853828458901516e-06   1.2856967789413604e-06   2.0652019945315925e-05
-9.820289365384638e-06   3.7397743295663945e-07   2.016088682692019e-05
-9.820289365384638e-06   3.7397743295663945e-07   2.016088682692019e-05
-9.820289365384638e-06   3.7397743295663945e-07   2.016088682692019e-05
-9.820289365384638e-06   3.7397743295663945e-07   2.016088682692019e-05
-9.915396223944512e-06   7.527478418112863e-07   2.038065953072698e-05
-9.915396223944512e-06   7.527478418112863e-07   2.038065953072698e-05
-9.915396223944512e-06   7.527478418112863e-07   2.038065953072698e-05
-9.915396223944512e-06   7.527478418112863e-07   2.038065953072698e-05
-1.0175126212438938e-05   -9.749063946754011e-08   2.132368593365151e-05
-1.0175126212438938e-05   -9.749063946754011e-08   2.132368593365151e-05
-1.0175126212438938e-05   -9.749063946754011e-08   2.132368593365151e-05
-1.0175126212438938e-05   -9.749063946754011e-08   2.132368593365151e-05
-9.820298561599925e-06   6.144392431538031e-07   2.0305148586013342e-05
-9.820298561599925e-06   6.144392431538031e-07   2.0305148586013342e-05
-9.820298561599925e-06   6.144392431538031e-07   2.0305148586013342e-05
-9.820298561599925e-06   6.144392431538031e-07   2.0305148586013342e-05
-1.0175126212438938e-05   7.527478418113947e-07   2.089080261949395e-05
-1.0175126212438938e-05   7.527478418113947e-07   2.089080261949395e-05
-1.0175126212438938e-05   7.527478418113947e-07   2.089080261949395e-05
-1.0175126212438938e-05   7.527478418113947e-07   2.089080261949395e-05
-9.915396223944485e-06   -9.749063946754011e-08   2.0813542844884175e-05
-9.915396223944485e-06   -9.749063946754011e-08   2.0813542844884175e-05
-9.915396223944485e-06   -9.749063946754011e-08   2.0813542844884175e-05
-9.915396223944485e-06   -9.749063946754011e-08   2.0813542844884175e-05
-9.984739752940807e-06   1.755712814438537e-07   2.0966986832198723e-05
-9.984739752940807e-06   1.755712814438537e-07   2.0966986832198723e-05
-9.984739752940807e-06   1.755712814438537e-07   2.0966986832198723e-05
-9.984739752940807e-06   1.755712814438537e-07   2.0966986832198723e-05
-1.037980656014249e-05   -7.16786905065412e-07   2.21608464227737e-05
-1.037980656014249e-05   -7.16786905065412e-07   2.21608464227737e-05
-1.037980656014249e-05   -7.16786905065412e-07   2.21608464227737e-05
-1.037980656014249e-05   -7.16786905065412e-07   2.21608464227737e-05
-9.968753012959963e-06   2.1881315629768486e-07   2.0914397140651145e-05
-9.968753012959963e-06   2.1881315629768486e-07   2.0914397140651145e-05
-9.968753012959963e-06   2.1881315629768486e-07   2.0914397140651145e-05
-9.968753012959963e-06   2.1881315629768486e-07   2.0914397140651145e-05
-9.74348780097563e-06   2.2357375203878142e-06   2.3050738623235103e-05
-9.74348780097563e-06   2.2357375203878142e-06   2.3050738623235103e-05
-9.74348780097563e-06   2.2357375203878142e-06   2.3050738623235103e-05
-9.74348780097563e-06   2.2357375203878142e-06   2.3050738623235103e-05
-1.049795021621915e-05   2.1740545291316134e-07   2.0582302024010945e-05
-1.049795021621915e-05   2.1740545291316134e-07   2.0582302024010945e-05
-1.049795021621915e-05   2.1740545291316134e-07   2.0582302024010945e-05
-1.049795021621915e-05   2.1740545291316134e-07   2.0582302024010945e-05
-1.0523974774933887e-05   1.7006653239994398e-06   2.1871570182513097e-05
-1.0523974774933887e-05   1.7006653239994398e-06   2.1871570182513097e-05
-1.0523974774933887e-05   1.7006653239994398e-06   2.1871570182513097e-05
-1.0523974774933887e-05   1.7006653239994398e-06   2.1871570182513097e-05
-9.820289365384638e-06   -1.2608692962889217e-07   2.1794812518774703e-05
-9.820289365384638e-06   -1.2608692962889217e-07   2.1794812518774703e-05
-9.820289365384638e-06   -1.2608692962889217e-07   2.1794812518774703e-05
-9.820289365384638e-06   -1.2608692962889217e-07   2.1794812518774703e-05
-1.0129147509397543e-05   9.72828336711089e-07   2.1650226932325644e-05
-1.0129147509397543e-05   9.72828336711089e-07   2.1650226932325644e-05
-1.0129147509397543e-05   9.72828336711089e-07   2.1650226932325644e-05
-1.0129147509397543e-05   9.72828336711089e-07   2.1650226932325644e-05
-9.820289365384638e-06   1.7006653239994398e-06   2.2967621534689966e-05
-9.820289365384638e-06   1.7006653239994398e-06   2.2967621534689966e-05
-9.820289365384638e-06   1.7006653239994398e-06   2.2967621534689966e-05
-9.820289365384638e-06   1.7006653239994398e-06   2.2967621534689966e-05
-1.052397477493386e-05   -1.2608692962889217e-07   2.0698761166597753e-05
-1.052397477493386e-05   -1.2608692962889217e-07   2.0698761166597753e-05
-1.052397477493386e-05   -1.2608692962889217e-07   2.0698761166597753e-05
-1.052397477493386e-05   -1.2608692962889217e-07   2.0698761166597753e-05
-1.0571028890449025e-05   1.1568625114410534e-06   2.2214321784639842e-05
-1.0571028890449025e-05   1.1568625114410534e-06   2.2214321784639842e-05
-1.0571028890449025e-05   1.1568625114410534e-06   2.2214321784639842e-05
-1.0571028890449025e-05   1.1568625114410534e-06   2.2214321784639842e-05
-9.915396223944512e-06   -5.373891567888233e-07   2.2138151674736732e-05
-9.915396223944512e-06   -5.373891567888233e-07   2.2138151674736732e-05
-9.915396223944512e-06   -5.373891567888233e-07   2.2138151674736732e-05
-9.915396223944512e-06   -5.373891567888233e-07   2.2138151674736732e-05
-1.0135071330727997e-05   6.327146893752569e-07   2.1802214545010086e-05
-1.0135071330727997e-05   6.327146893752569e-07   2.1802214545010086e-05
-1.0135071330727997e-05   6.327146893752569e-07   2.1802214545010086e-05
-1.0135071330727997e-05   6.327146893752569e-07   2.1802214545010086e-05
-9.915396223944512e-06   1.1568625114410534e-06   2.3230872785577378e-05
-9.915396223944512e-06   1.1568625114410534e-06   2.3230872785577378e-05
-9.915396223944512e-06   1.1568625114410534e-06   2.3230872785577378e-05
-9.915396223944512e-06   1.1568625114410534e-06   2.3230872785577378e-05
-1.0571028890448997e-05   -5.373891567889318e-07   2.1121600673798736e-05
-1.0571028890448997e-05   -5.373891567889318e-07   2.1121600673798736e-05
-1.0571028890448997e-05   -5.373891567889318e-07   2.1121600673798736e-05
-1.0571028890448997e-05   -5.373891567889318e-07   2.1121600673798736e-05
-1.0601265225330741e-05   6.414163230979673e-07   2.2826512111025232e-05
-1.0601265225330741e-05   6.414163230979673e-07   2.2826512111025232e-05
-1.0601265225330741e-05   6.414163230979673e-07   2.2826512111025232e-05
-1.0601265225330741e-05   6.414163230979673e-07   2.2826512111025232e-05
-9.98473975294078e-06   -9.502411553879726e-07   2.275396414413324e-05
-9.98473975294078e-06   -9.502411553879726e-07   2.275396414413324e-05
-9.98473975294078e-06   -9.502411553879726e-07   2.275396414413324e-05
-9.98473975294078e-06   -9.502411553879726e-07   2.275396414413324e-05
-1.0157858801587561e-05   2.8308351333601427e-07   2.230250109064286e-05
-1.0157858801587561e-05   2.8308351333601427e-07   2.230250109064286e-05
-1.0157858801587561e-05   2.8308351333601427e-07   2.230250109064286e-05
-1.0157858801587561e-05   2.8308351333601427e-07   2.230250109064286e-05
-1.049795021621915e-05   3.0233531630494788e-06   1.8777757316333545e-05
-1.049795021621915e-05   3.0233531630494788e-06   1.8777757316333545e-05
-1.049795021621915e-05   3.0233531630494788e-06   1.8777757316333545e-05
-1.049795021621915e-05   3.0233531630494788e-06   1.8777757316333545e-05
-1.1585833650889902e-05   9.93240935387549e-07   1.5746550921951764e-05
-1.1585833650889902e-05   9.93240935387549e-07   1.5746550921951764e-05
-1.1585833650889902e-05   9.93240935387549e-07   1.5746550921951764e-05
-1.1585833650889902e-05   9.93240935387549e-07   1.5746550921951764e-05
-1.1605198618620501e-05   2.4604312589387436e-06   1.773313687602931e-05
-1.1605198618620501e-05   2.4604312589387436e-06   1.773313687602931e-05
-1.1605198618620501e-05   2.4604312589387436e-06   1.773313687602931e-05
-1.1605198618620501e-05   2.4604312589387436e-06   1.773313687602931e-05
-1.0523974774933887e-05   5.406115403043359e-07   1.7082988967732275e-05
-1.0523974774933887e-05   5.406115403043359e-07   1.7082988967732275e-05
-1.0523974774933887e-05   5.406115403043359e-07   1.7082988967732275e-05
-1.0523974774933887e-05   5.406115403043359e-07   1.7082988967732275e-05
-1.1024358461528589e-05   1.7957752999316415e-06   1.7163863522947048e-05
-1.1024358461528589e-05   1.7957752999316415e-06   1.7163863522947048e-05
-1.1024358461528589e-05   1.7957752999316415e-06   1.7163863522947048e-05
-1.1024358461528589e-05   1.7957752999316415e-06   1.7163863522947048e-05
-1.0523974774933887e-05   2.460431258938635e-06   1.888502870720974e-05
-1.0523974774933887e-05   2.460431258938635e-06   1.888502870720974e-05
-1.0523974774933887e-05   2.460431258938635e-06   1.888502870720974e-05
-1.0523974774933887e-05   2.460431258938635e-06   1.888502870720974e-05
-1.1605198618620501e-05   5.406115403043359e-07   1.5931097136551732e-05
-1.1605198618620501e-05   5.406115403043359e-07   1.5931097136551732e-05
-1.1605198618620501e-05   5.406115403043359e-07   1.5931097136551732e-05
-1.1605198618620501e-05   5.406115403043359e-07   1.5931097136551732e-05
-1.1731312042391018e-05   1.959570862434417e-06   1.8390067629018127e-05
-1.1731312042391018e-05   1.959570862434417e-06   1.8390067629018127e-05
-1.1731312042391018e-05   1.959570862434417e-06   1.8390067629018127e-05
-1.1731312042391018e-05   1.959570862434417e-06   1.8390067629018127e-05
-1.0571028890448997e-05   1.5299061236482333e-07   1.7540210525822982e-05
-1.0571028890448997e-05   1.5299061236482333e-07   1.7540210525822982e-05
-1.0571028890448997e-05   1.5299061236482333e-07   1.7540210525822982e-05
-1.0571028890448997e-05   1.5299061236482333e-07   1.7540210525822982e-05
-1.0993184970556593e-05   1.4240378341209056e-06   1.7481175659614585e-05
-1.0993184970556593e-05   1.4240378341209056e-06   1.7481175659614585e-05
-1.0993184970556593e-05   1.4240378341209056e-06   1.7481175659614585e-05
-1.0993184970556593e-05   1.4240378341209056e-06   1.7481175659614585e-05
-1.0571028890448997e-05   1.9595708624343088e-06   1.9474015779059276e-05
-1.0571028890448997e-05   1.9595708624343088e-06   1.9474015779059276e-05
-1.0571028890448997e-05   1.9595708624343088e-06   1.9474015779059276e-05
-1.0571028890448997e-05   1.9595708624343088e-06   1.9474015779059276e-05
-1.1731312042391018e-05   1.5299061236482333e-07   1.6456262375781298e-05
-1.1731312042391018e-05   1.5299061236482333e-07   1.6456262375781298e-05
-1.1731312042391018e-05   1.5299061236482333e-07   1.6456262375781298e-05
-1.1731312042391018e-05   1.5299061236482333e-07   1.6456262375781298e-05
-1.1806587941003393e-05   1.4492713420536903e-06   1.920631883374133e-05
-1.1806587941003393e-05   1.4492713420536903e-06   1.920631883374133e-05
-1.1806587941003393e-05   1.4492713420536903e-06   1.920631883374133e-05
-1.1806587941003393e-05   1.4492713420536903e-06   1.920631883374133e-05
-1.0601265225330741e-05   -2.377842979945418e-07   1.820968102498249e-05
-1.0601265225330741e-05   -2.377842979945418e-07   1.820968102498249e-05
-1.0601265225330741e-05   -2.377842979945418e-07   1.820968102498249e-05
-1.0601265225330741e-05   -2.377842979945418e-07   1.820968102498249e-05
-1.1048632658978448e-05   1.09196321240138e-06   1.815744490815739e-05
-1.1048632658978448e-05   1.09196321240138e-06   1.815744490815739e-05
-1.1048632658978448e-05   1.09196321240138e-06   1.815744490815739e-05
-1.1048632658978448e-05   1.09196321240138e-06   1.815744490815739e-05
-1.1585833650889902e-05   3.5734838932303774e-06   7.22435675113201e-06
-1.1585833650889902e-05   3.5734838932303774e-06   7.22435675113201e-06
-1.1585833650889902e-05   3.5734838932303774e-06   7.22435675113201e-06
-1.1585833650889902e-05   3.5734838932303774e-06   7.22435675113201e-06
-1.1447485164059901e-05   1.6376616636240354e-06   6.293444224751753e-06
-1.1447485164059901e-05   1.6376616636240354e-06   6.293444224751753e-06
-1.1447485164059901e-05   1.6376616636240354e-06   6.293444224751753e-06
-1.1447485164059901e-05   1.6376616636240354e-06   6.293444224751753e-06
-1.2036163891776227e-05   3.1989219262773365e-06   7.916331118265575e-06
-1.2036163891776227e-05   3.1989219262773365e-06   7.916331118265575e-06
-1.2036163891776227e-05   3.1989219262773365e-06   7.916331118265575e-06
-1.2036163891776227e-05   3.1989219262773365e-06   7.916331118265575e-06
-1.1605198618620447e-05   1.3172581174496429e-06   8.327053948302887e-06
-1.1605198618620447e-05   1.3172581174496429e-06   8.327053948302887e-06
-1.1605198618620447e-05   1.3172581174496429e-06   8.327053948302887e-06
-1.1605198618620447e-05   1.3172581174496429e-06   8.327053948302887e-06
-1.1289525088600686e-05   2.5143102081085595e-06   7.082700143874461e-06
-1.1289525088600686e-05   2.5143102081085595e-06   7.082700143874461e-06
-1.1289525088600686e-05   2.5143102081085595e-06   7.082700143874461e-06
-1.1289525088600686e-05   2.5143102081085595e-06   7.082700143874461e-06
-1.1605198618620447e-05   3.1989219262773365e-06   9.045329403562104e-06
-1.1605198618620447e-05   3.1989219262773365e-06   9.045329403562104e-06
-1.1605198618620447e-05   3.1989219262773365e-06   9.045329403562104e-06
-1.1605198618620447e-05   3.1989219262773365e-06   9.045329403562104e-06
-1.2036163891776227e-05   1.3172581174496429e-06   7.198055663006059e-06
-1.2036163891776227e-05   1.3172581174496429e-06   7.198055663006059e-06
-1.2036163891776227e-05   1.3172581174496429e-06   7.198055663006059e-06
-1.2036163891776227e-05   1.3172581174496429e-06   7.198055663006059e-06
-1.2553037313254049e-05   2.9416505676085848e-06   9.386867723951402e-06
-1.2553037313254049e-05   2.9416505676085848e-06   9.386867723951402e-06
-1.2553037313254049e-05   2.9416505676085848e-06   9.386867723951402e-06
-1.2553037313254049e-05   2.9416505676085848e-06   9.386867723951402e-06
-1.1731312042390963e-05   1.107773731288974e-06   9.117651707637726e-06
-1.1731312042390963e-05   1.107773731288974e-06   9.117651707637726e-06
-1.1731312042390963e-05   1.107773731288974e-06   9.117651707637726e-06
-1.1731312042390963e-05   1.107773731288974e-06   9.117651707637726e-06
-1.1709179427073696e-05   2.3272944615346843e-06   8.349051577294354e-06
-1.1709179427073696e-05   2.3272944615346843e-06   8.349051577294354e-06
-1.1709179427073696e-05   2.3272944615346843e-06   8.349051577294354e-06
-1.1709179427073696e-05   2.3272944615346843e-06   8.349051577294354e-06
-1.1731312042390963e-05   2.9416505676084764e-06   1.048719382574267e-05
-1.1731312042390963e-05   2.9416505676084764e-06   1.048719382574267e-05
-1.1731312042390963e-05   2.9416505676084764e-06   1.048719382574267e-05
-1.1731312042390963e-05   2.9416505676084764e-06   1.048719382574267e-05
-1.2553037313254103e-05   1.107773731288974e-06   8.01732560584597e-06
-1.2553037313254103e-05   1.107773731288974e-06   8.01732560584597e-06
-1.2553037313254103e-05   1.107773731288974e-06   8.01732560584597e-06
-1.2553037313254103e-05   1.107773731288974e-06   8.01732560584597e-06
-1.3321275748273285e-05   2.3507202644006695e-06   1.2088174755609232e-05
-1.3321275748273285e-05   2.3507202644006695e-06   1.2088174755609232e-05
-1.3321275748273285e-05   2.3507202644006695e-06   1.2088174755609232e-05
-1.3321275748273285e-05   2.3507202644006695e-06   1.2088174755609232e-05
-1.1806587941003393e-05   6.862124664195257e-07   1.0562399755614663e-05
-1.1806587941003393e-05   6.862124664195257e-07   1.0562399755614663e-05
-1.1806587941003393e-05   6.862124664195257e-07   1.0562399755614663e-05
-1.1806587941003393e-05   6.862124664195257e-07   1.0562399755614663e-05
-1.1851087817404992e-05   2.1047637522061784e-06   9.785435444811179e-06
-1.1851087817404992e-05   2.1047637522061784e-06   9.785435444811179e-06
-1.1851087817404992e-05   2.1047637522061784e-06   9.785435444811179e-06
-1.1851087817404992e-05   2.1047637522061784e-06   9.785435444811179e-06
-2.2780657165684902e-05   3.0166317788386625e-06   8.791862694263808e-06
-2.2780657165684902e-05   3.0166317788386625e-06   8.791862694263808e-06
-2.2780657165684902e-05   3.0166317788386625e-06   8.791862694263808e-06
-2.2780657165684902e-05   3.0166317788386625e-06   8.791862694263808e-06
-1.53814943444541e-05   4.1768465366365205e-06   2.181992958432728e-05
-1.53814943444541e-05   4.1768465366365205e-06   2.181992958432728e-05
-1.53814943444541e-05   4.1768465366365205e-06   2.181992958432728e-05
-1.53814943444541e-05   4.1768465366365205e-06   2.181992958432728e-05
-1.5374247372398335e-05   2.3564266225088205e-06   9.985731795173402e-06
-1.5374247372398335e-05   2.3564266225088205e-06   9.985731795173402e-06
-1.5374247372398335e-05   2.3564266225088205e-06   9.985731795173402e-06
-1.5374247372398335e-05   2.3564266225088205e-06   9.985731795173402e-06
-2.5093863349036032e-05   1.6916090037554193e-06   2.6583982327488517e-05
-2.5093863349036032e-05   1.6916090037554193e-06   2.6583982327488517e-05
-2.5093863349036032e-05   1.6916090037554193e-06   2.6583982327488517e-05
-2.5093863349036032e-05   1.6916090037554193e-06   2.6583982327488517e-05
-1.864315096033222e-05   2.475027593905831e-06   1.5362743858891902e-05
-1.864315096033222e-05   2.475027593905831e-06   1.5362743858891902e-05
-1.864315096033222e-05   2.475027593905831e-06   1.5362743858891902e-05
-1.864315096033222e-05   2.475027593905831e-06   1.5362743858891902e-05
-2.5093863349036086e-05   2.3564266225088205e-06   1.0384622366425432e-05
-2.5093863349036086e-05   2.3564266225088205e-06   1.0384622366425432e-05
-2.5093863349036086e-05   2.3564266225088205e-06   1.0384622366425432e-05
-2.5093863349036086e-05   2.3564266225088205e-06   1.0384622366425432e-05
-1.5374247372398335e-05   1.6916090037554193e-06   2.6185091756236473e-05
-1.5374247372398335e-05   1.6916090037554193e-06   2.6185091756236473e-05
-1.5374247372398335e-05   1.6916090037554193e-06   2.6185091756236473e-05
-1.5374247372398335e-05   1.6916090037554193e-06   2.6185091756236473e-05
-1.558423725470888e-05   1.9001755312542373e-06   1.1168765605800747e-05
-1.558423725470888e-05   1.9001755312542373e-06   1.1168765605800747e-05
-1.558423725470888e-05   1.9001755312542373e-06   1.1168765605800747e-05
-1.558423725470888e-05   1.9001755312542373e-06   1.1168765605800747e-05
-2.5182420919731704e-05   1.2137010320937202e-06   2.757762308033491e-05
-2.5182420919731704e-05   1.2137010320937202e-06   2.757762308033491e-05
-2.5182420919731704e-05   1.2137010320937202e-06   2.757762308033491e-05
-2.5182420919731704e-05   1.2137010320937202e-06   2.757762308033491e-05
-1.9894211021316028e-05   1.5460891081479997e-06   1.856450707067605e-05
-1.9894211021316028e-05   1.5460891081479997e-06   1.856450707067605e-05
-1.9894211021316028e-05   1.5460891081479997e-06   1.856450707067605e-05
-1.9894211021316028e-05   1.5460891081479997e-06   1.856450707067605e-05
-2.5182420919731745e-05   1.9001755312542373e-06   1.1580650305296938e-05
-2.5182420919731745e-05   1.9001755312542373e-06   1.1580650305296938e-05
-2.5182420919731745e-05   1.9001755312542373e-06   1.1580650305296938e-05
-2.5182420919731745e-05   1.9001755312542373e-06   1.1580650305296938e-05
-1.5584237254708852e-05   1.2137010320937202e-06   2.716573838083868e-05
-1.5584237254708852e-05   1.2137010320937202e-06   2.716573838083868e-05
-1.5584237254708852e-05   1.2137010320937202e-06   2.716573838083868e-05
-1.5584237254708852e-05   1.2137010320937202e-06   2.716573838083868e-05
-1.5418140651778683e-05   7.780658586461174e-07   1.3237953263220675e-05
-1.5418140651778683e-05   7.780658586461174e-07   1.3237953263220675e-05
-1.5418140651778683e-05   7.780658586461174e-07   1.3237953263220675e-05
-1.5418140651778683e-05   7.780658586461174e-07   1.3237953263220675e-05
-2.5455376835676222e-05   -8.187584015032509e-07   3.0924774792472846e-05
-2.5455376835676222e-05   -8.187584015032509e-07   3.0924774792472846e-05
-2.5455376835676222e-05   -8.187584015032509e-07   3.0924774792472846e-05
-2.5455376835676222e-05   -8.187584015032509e-07   3.0924774792472846e-05
-1.9590842066538237e-05   7.495433842838873e-07   2.0209569105770575e-05
-1.9590842066538237e-05   7.495433842838873e-07   2.0209569105770575e-05
-1.9590842066538237e-05   7.495433842838873e-07   2.0209569105770575e-05
-1.9590842066538237e-05   7.495433842838873e-07   2.0209569105770575e-05
-1.5381494344454126e-05   7.809194846659538e-07   2.0181834729840887e-05
-1.5381494344454126e-05   7.809194846659538e-07   2.0181834729840887e-05
-1.5381494344454126e-05   7.809194846659538e-07   2.0181834729840887e-05
-1.5381494344454126e-05   7.809194846659538e-07   2.0181834729840887e-05
-9.438861844251713e-06   -4.718045748754412e-06   2.6786843090126057e-05
-9.438861844251713e-06   -4.718045748754412e-06   2.6786843090126057e-05
-9.438861844251713e-06   -4.718045748754412e-06   2.6786843090126057e-05
-9.438861844251713e-06   -4.718045748754412e-06   2.6786843090126057e-05
-9.45820837200081e-06   3.7397743295663945e-07   1.6930371312562364e-05
-9.45820837200081e-06   3.7397743295663945e-07   1.6930371312562364e-05
-9.45820837200081e-06   3.7397743295663945e-07   1.6930371312562364e-05
-9.45820837200081e-06   3.7397743295663945e-07   1.6930371312562364e-05
-1.5374247372398335e-05   -3.864243262049788e-06   2.9333368730228925e-05
-1.5374247372398335e-05   -3.864243262049788e-06   2.9333368730228925e-05
-1.5374247372398335e-05   -3.864243262049788e-06   2.9333368730228925e-05
-1.5374247372398335e-05   -3.864243262049788e-06   2.9333368730228925e-05
-1.2347431423469712e-05   -2.333270874358784e-06   2.337009204940002e-05
-1.2347431423469712e-05   -2.333270874358784e-06   2.337009204940002e-05
-1.2347431423469712e-05   -2.333270874358784e-06   2.337009204940002e-05
-1.2347431423469712e-05   -2.333270874358784e-06   2.337009204940002e-05
-1.537424737239834e-05   3.7397743295663945e-07   1.9473303729566015e-05
-1.537424737239834e-05   3.7397743295663945e-07   1.9473303729566015e-05
-1.537424737239834e-05   3.7397743295663945e-07   1.9473303729566015e-05
-1.537424737239834e-05   3.7397743295663945e-07   1.9473303729566015e-05
-9.458208372000782e-06   -3.864243262049788e-06   2.6790436313225085e-05
-9.458208372000782e-06   -3.864243262049788e-06   2.6790436313225085e-05
-9.458208372000782e-06   -3.864243262049788e-06   2.6790436313225085e-05
-9.458208372000782e-06   -3.864243262049788e-06   2.6790436313225085e-05
-9.495698928227377e-06   -9.749063946754011e-08   1.7452472460106243e-05
-9.495698928227377e-06   -9.749063946754011e-08   1.7452472460106243e-05
-9.495698928227377e-06   -9.749063946754011e-08   1.7452472460106243e-05
-9.495698928227377e-06   -9.749063946754011e-08   1.7452472460106243e-05
-1.5584237254708852e-05   -3.951543254920463e-06   2.9912467906847024e-05
-1.5584237254708852e-05   -3.951543254920463e-06   2.9912467906847024e-05
-1.5584237254708852e-05   -3.951543254920463e-06   2.9912467906847024e-05
-1.5584237254708852e-05   -3.951543254920463e-06   2.9912467906847024e-05
-1.2257563923000993e-05   -2.0385860703387945e-06   2.322023804325141e-05
-1.2257563923000993e-05   -2.0385860703387945e-06   2.322023804325141e-05
-1.2257563923000993e-05   -2.0385860703387945e-06   2.322023804325141e-05
-1.2257563923000993e-05   -2.0385860703387945e-06   2.322023804325141e-05
-1.558423725470888e-05   -9.749063946754011e-08   1.9764904029377964e-05
-1.558423725470888e-05   -9.749063946754011e-08   1.9764904029377964e-05
-1.558423725470888e-05   -9.749063946754011e-08   1.9764904029377964e-05
-1.558423725470888e-05   -9.749063946754011e-08   1.9764904029377964e-05
-9.49569892822735e-06   -3.951543254920463e-06   2.760003633757525e-05
-9.49569892822735e-06   -3.951543254920463e-06   2.760003633757525e-05
-9.49569892822735e-06   -3.951543254920463e-06   2.760003633757525e-05
-9.49569892822735e-06   -3.951543254920463e-06   2.760003633757525e-05
-9.403415870292634e-06   -7.16786905065412e-07   1.810363660771896e-05
-9.403415870292634e-06   -7.16786905065412e-07   1.810363660771896e-05
-9.403415870292634e-06   -7.16786905065412e-07   1.810363660771896e-05
-9.403415870292634e-06   -7.16786905065412e-07   1.810363660771896e-05
-1.5418140651778643e-05   -3.986487925011306e-06   3.0089998522163082e-05
-1.5418140651778643e-05   -3.986487925011306e-06   3.0089998522163082e-05
-1.5418140651778643e-05   -3.986487925011306e-06   3.0089998522163082e-05
-1.5418140651778643e-05   -3.986487925011306e-06   3.0089998522163082e-05
-1.2314978183417185e-05   -2.288329343325536e-06   2.3899165925882567e-05
-1.2314978183417185e-05   -2.288329343325536e-06   2.3899165925882567e-05
-1.2314978183417185e-05   -2.288329343325536e-06   2.3899165925882567e-05
-1.2314978183417185e-05   -2.288329343325536e-06   2.3899165925882567e-05
-9.438861844251713e-06   2.1740545291316134e-07   1.8657873459487892e-05
-9.438861844251713e-06   2.1740545291316134e-07   1.8657873459487892e-05
-9.438861844251713e-06   2.1740545291316134e-07   1.8657873459487892e-05
-9.438861844251713e-06   2.1740545291316134e-07   1.8657873459487892e-05
-6.947683971173088e-06   -3.6858241170061533e-06   2.0467898839334013e-05
-6.947683971173088e-06   -3.6858241170061533e-06   2.0467898839334013e-05
-6.947683971173088e-06   -3.6858241170061533e-06   2.0467898839334013e-05
-6.947683971173088e-06   -3.6858241170061533e-06   2.0467898839334013e-05
-6.886077459803411e-06   -1.2608692962889217e-07   1.6468000735033513e-05
-6.886077459803411e-06   -1.2608692962889217e-07   1.6468000735033513e-05
-6.886077459803411e-06   -1.2608692962889217e-07   1.6468000735033513e-05
-6.886077459803411e-06   -1.2608692962889217e-07   1.6468000735033513e-05
-9.458208372000782e-06   -3.6199140452677046e-06   2.285118185807927e-05
-9.458208372000782e-06   -3.6199140452677046e-06   2.285118185807927e-05
-9.458208372000782e-06   -3.6199140452677046e-06   2.285118185807927e-05
-9.458208372000782e-06   -3.6199140452677046e-06   2.285118185807927e-05
-8.132497370623226e-06   -1.862491012637169e-06   1.9587209702871876e-05
-8.132497370623226e-06   -1.862491012637169e-06   1.9587209702871876e-05
-8.132497370623226e-06   -1.862491012637169e-06   1.9587209702871876e-05
-8.132497370623226e-06   -1.862491012637169e-06   1.9587209702871876e-05
-9.458208372000782e-06   -1.2608692962889217e-07   1.8564297004416822e-05
-9.458208372000782e-06   -1.2608692962889217e-07   1.8564297004416822e-05
-9.458208372000782e-06   -1.2608692962889217e-07   1.8564297004416822e-05
-9.458208372000782e-06   -1.2608692962889217e-07   1.8564297004416822e-05
-6.886077459803438e-06   -3.6199140452676504e-06   2.075488558869605e-05
-6.886077459803438e-06   -3.6199140452676504e-06   2.075488558869605e-05
-6.886077459803438e-06   -3.6199140452676504e-06   2.075488558869605e-05
-6.886077459803438e-06   -3.6199140452676504e-06   2.075488558869605e-05
-6.8333908956921515e-06   -5.373891567888233e-07   1.686136428424921e-05
-6.8333908956921515e-06   -5.373891567888233e-07   1.686136428424921e-05
-6.8333908956921515e-06   -5.373891567888233e-07   1.686136428424921e-05
-6.8333908956921515e-06   -5.373891567888233e-07   1.686136428424921e-05
-9.49569892822735e-06   -3.7302508329714926e-06   2.3214261344184004e-05
-9.49569892822735e-06   -3.7302508329714926e-06   2.3214261344184004e-05
-9.49569892822735e-06   -3.7302508329714926e-06   2.3214261344184004e-05
-9.49569892822735e-06   -3.7302508329714926e-06   2.3214261344184004e-05
-8.061185465135277e-06   -1.985888000880214e-06   1.977678787310871e-05
-8.061185465135277e-06   -1.985888000880214e-06   1.977678787310871e-05
-8.061185465135277e-06   -1.985888000880214e-06   1.977678787310871e-05
-8.061185465135277e-06   -1.985888000880214e-06   1.977678787310871e-05
-9.49569892822735e-06   -5.373891567889318e-07   1.87770812899588e-05
-9.49569892822735e-06   -5.373891567889318e-07   1.87770812899588e-05
-9.49569892822735e-06   -5.373891567889318e-07   1.87770812899588e-05
-9.49569892822735e-06   -5.373891567889318e-07   1.87770812899588e-05
-6.8333908956921515e-06   -3.730250832971547e-06   2.1298544338474413e-05
-6.8333908956921515e-06   -3.730250832971547e-06   2.1298544338474413e-05
-6.8333908956921515e-06   -3.730250832971547e-06   2.1298544338474413e-05
-6.8333908956921515e-06   -3.730250832971547e-06   2.1298544338474413e-05
-6.700063756245861e-06   -9.50241155388081e-07   1.7470569564552213e-05
-6.700063756245861e-06   -9.50241155388081e-07   1.7470569564552213e-05
-6.700063756245861e-06   -9.50241155388081e-07   1.7470569564552213e-05
-6.700063756245861e-06   -9.50241155388081e-07   1.7470569564552213e-05
-9.403415870292634e-06   -3.8862406161078045e-06   2.3737756097728664e-05
-9.403415870292634e-06   -3.8862406161078045e-06   2.3737756097728664e-05
-9.403415870292634e-06   -3.8862406161078045e-06   2.3737756097728664e-05
-9.403415870292634e-06   -3.8862406161078045e-06   2.3737756097728664e-05
-7.977855822129291e-06   -2.165979149780831e-06   2.0329665804326956e-05
-7.977855822129291e-06   -2.165979149780831e-06   2.0329665804326956e-05
-7.977855822129291e-06   -2.165979149780831e-06   2.0329665804326956e-05
-7.977855822129291e-06   -2.165979149780831e-06   2.0329665804326956e-05
-6.947683971173088e-06   9.93240935387549e-07   1.2698251952074336e-05
-6.947683971173088e-06   9.93240935387549e-07   1.2698251952074336e-05
-6.947683971173088e-06   9.93240935387549e-07   1.2698251952074336e-05
-6.947683971173088e-06   9.93240935387549e-07   1.2698251952074336e-05
-5.7967778538821325e-06   -1.5127772626124625e-06   1.3112817895425993e-05
-5.7967778538821325e-06   -1.5127772626124625e-06   1.3112817895425993e-05
-5.7967778538821325e-06   -1.5127772626124625e-06   1.3112817895425993e-05
-5.7967778538821325e-06   -1.5127772626124625e-06   1.3112817895425993e-05
-5.672809911661794e-06   5.406115403043359e-07   1.1465553213000365e-05
-5.672809911661794e-06   5.406115403043359e-07   1.1465553213000365e-05
-5.672809911661794e-06   5.406115403043359e-07   1.1465553213000365e-05
-5.672809911661794e-06   5.406115403043359e-07   1.1465553213000365e-05
-6.886077459803411e-06   -1.7705139983083848e-06   1.487434111640439e-05
-6.886077459803411e-06   -1.7705139983083848e-06   1.487434111640439e-05
-6.886077459803411e-06   -1.7705139983083848e-06   1.487434111640439e-05
-6.886077459803411e-06   -1.7705139983083848e-06   1.487434111640439e-05
-6.279701190034162e-06   -3.4517202078001e-07   1.300850881360546e-05
-6.279701190034162e-06   -3.4517202078001e-07   1.300850881360546e-05
-6.279701190034162e-06   -3.4517202078001e-07   1.300850881360546e-05
-6.279701190034162e-06   -3.4517202078001e-07   1.300850881360546e-05
-6.886077459803411e-06   5.406115403043359e-07   1.2852228536168063e-05
-6.886077459803411e-06   5.406115403043359e-07   1.2852228536168063e-05
-6.886077459803411e-06   5.406115403043359e-07   1.2852228536168063e-05
-6.886077459803411e-06   5.406115403043359e-07   1.2852228536168063e-05
-5.672809911661794e-06   -1.7705139983083848e-06   1.3487665793236747e-05
-5.672809911661794e-06   -1.7705139983083848e-06   1.3487665793236747e-05
-5.672809911661794e-06   -1.7705139983083848e-06   1.3487665793236747e-05
-5.672809911661794e-06   -1.7705139983083848e-06   1.3487665793236747e-05
-5.617288779454367e-06   1.5299061236493175e-07   1.2007485819879086e-05
-5.617288779454367e-06   1.5299061236493175e-07   1.2007485819879086e-05
-5.617288779454367e-06   1.5299061236493175e-07   1.2007485819879086e-05
-5.617288779454367e-06   1.5299061236493175e-07   1.2007485819879086e-05
-6.833390895692124e-06   -1.9678232482923073e-06   1.5306810996669592e-05
-6.833390895692124e-06   -1.9678232482923073e-06   1.5306810996669592e-05
-6.833390895692124e-06   -1.9678232482923073e-06   1.5306810996669592e-05
-6.833390895692124e-06   -1.9678232482923073e-06   1.5306810996669592e-05
-6.156754335650774e-06   -6.208422538460444e-07   1.3370894799932245e-05
-6.156754335650774e-06   -6.208422538460444e-07   1.3370894799932245e-05
-6.156754335650774e-06   -6.208422538460444e-07   1.3370894799932245e-05
-6.156754335650774e-06   -6.208422538460444e-07   1.3370894799932245e-05
-6.833390895692124e-06   1.5299061236493175e-07   1.3279974136273266e-05
-6.833390895692124e-06   1.5299061236493175e-07   1.3279974136273266e-05
-6.833390895692124e-06   1.5299061236493175e-07   1.3279974136273266e-05
-6.833390895692124e-06   1.5299061236493175e-07   1.3279974136273266e-05
-5.617288779454367e-06   -1.9678232482923616e-06   1.4034322680275276e-05
-5.617288779454367e-06   -1.9678232482923616e-06   1.4034322680275276e-05
-5.617288779454367e-06   -1.9678232482923616e-06   1.4034322680275276e-05
-5.617288779454367e-06   -1.9678232482923616e-06   1.4034322680275276e-05
-5.5252347050336595e-06   -2.3778429799443338e-07   1.2688043804018638e-05
-5.5252347050336595e-06   -2.3778429799443338e-07   1.2688043804018638e-05
-5.5252347050336595e-06   -2.3778429799443338e-07   1.2688043804018638e-05
-5.5252347050336595e-06   -2.3778429799443338e-07   1.2688043804018638e-05
-6.700063756245861e-06   -2.2265128454518443e-06   1.5839329351179923e-05
-6.700063756245861e-06   -2.2265128454518443e-06   1.5839329351179923e-05
-6.700063756245861e-06   -2.2265128454518443e-06   1.5839329351179923e-05
-6.700063756245861e-06   -2.2265128454518443e-06   1.5839329351179923e-05
-6.061656825480488e-06   -8.62494272144609e-07   1.3956906655920344e-05
-6.061656825480488e-06   -8.62494272144609e-07   1.3956906655920344e-05
-6.061656825480488e-06   -8.62494272144609e-07   1.3956906655920344e-05
-6.061656825480488e-06   -8.62494272144609e-07   1.3956906655920344e-05
-5.7967778538821325e-06   1.6376616636240354e-06   2.9030276738380026e-06
-5.7967778538821325e-06   1.6376616636240354e-06   2.9030276738380026e-06
-5.7967778538821325e-06   1.6376616636240354e-06   2.9030276738380026e-06
-5.7967778538821325e-06   1.6376616636240354e-06   2.9030276738380026e-06
-3.358969113091714e-06   -1.6872827938920355e-07   5.882208276014134e-06
-3.358969113091714e-06   -1.6872827938920355e-07   5.882208276014134e-06
-3.358969113091714e-06   -1.6872827938920355e-07   5.882208276014134e-06
-3.358969113091714e-06   -1.6872827938920355e-07   5.882208276014134e-06
-3.55018018244281e-06   1.3172581174496429e-06   2.929866491844027e-06
-3.55018018244281e-06   1.3172581174496429e-06   2.929866491844027e-06
-3.55018018244281e-06   1.3172581174496429e-06   2.929866491844027e-06
-3.55018018244281e-06   1.3172581174496429e-06   2.929866491844027e-06
-5.672809911661794e-06   -2.3548110406285214e-07   7.399226240116649e-06
-5.672809911661794e-06   -2.3548110406285214e-07   7.399226240116649e-06
-5.672809911661794e-06   -2.3548110406285214e-07   7.399226240116649e-06
-5.672809911661794e-06   -2.3548110406285214e-07   7.399226240116649e-06
-4.436662215422983e-06   8.420011201545636e-07   4.692490745188561e-06
-4.436662215422983e-06   8.420011201545636e-07   4.692490745188561e-06
-4.436662215422983e-06   8.420011201545636e-07   4.692490745188561e-06
-4.436662215422983e-06   8.420011201545636e-07   4.692490745188561e-06
-5.672809911661794e-06   1.3172581174496429e-06   3.861510024751405e-06
-5.672809911661794e-06   1.3172581174496429e-06   3.861510024751405e-06
-5.672809911661794e-06   1.3172581174496429e-06   3.861510024751405e-06
-5.672809911661794e-06   1.3172581174496429e-06   3.861510024751405e-06
-3.55018018244281e-06   -2.3548110406285214e-07   6.467582707209163e-06
-3.55018018244281e-06   -2.3548110406285214e-07   6.467582707209163e-06
-3.55018018244281e-06   -2.3548110406285214e-07   6.467582707209163e-06
-3.55018018244281e-06   -2.3548110406285214e-07   6.467582707209163e-06
-3.707193164217081e-06   1.107773731288974e-06   3.8087490215418405e-06
-3.707193164217081e-06   1.107773731288974e-06   3.8087490215418405e-06
-3.707193164217081e-06   1.107773731288974e-06   3.8087490215418405e-06
-3.707193164217081e-06   1.107773731288974e-06   3.8087490215418405e-06
-5.617288779454367e-06   -3.257698190338443e-07   7.852367843797447e-06
-5.617288779454367e-06   -3.257698190338443e-07   7.852367843797447e-06
-5.617288779454367e-06   -3.257698190338443e-07   7.852367843797447e-06
-5.617288779454367e-06   -3.257698190338443e-07   7.852367843797447e-06
-4.515442997929511e-06   6.836635883336085e-07   5.41029816350199e-06
-4.515442997929511e-06   6.836635883336085e-07   5.41029816350199e-06
-4.515442997929511e-06   6.836635883336085e-07   5.41029816350199e-06
-4.515442997929511e-06   6.836635883336085e-07   5.41029816350199e-06
-5.617288779454367e-06   1.1077737312888657e-06   4.668875151735521e-06
-5.617288779454367e-06   1.1077737312888657e-06   4.668875151735521e-06
-5.617288779454367e-06   1.1077737312888657e-06   4.668875151735521e-06
-5.617288779454367e-06   1.1077737312888657e-06   4.668875151735521e-06
-3.707193164217081e-06   -3.257698190338443e-07   6.992241713603821e-06
-3.707193164217081e-06   -3.257698190338443e-07   6.992241713603821e-06
-3.707193164217081e-06   -3.257698190338443e-07   6.992241713603821e-06
-3.707193164217081e-06   -3.257698190338443e-07   6.992241713603821e-06
-4.092637186712818e-06   6.862124664195257e-07   5.379911166109377e-06
-4.092637186712818e-06   6.862124664195257e-07   5.379911166109377e-06
-4.092637186712818e-06   6.862124664195257e-07   5.379911166109377e-06
-4.092637186712818e-06   6.862124664195257e-07   5.379911166109377e-06
-5.5252347050336595e-06   -4.355954545311332e-07   8.44065844921439e-06
-5.5252347050336595e-06   -4.355954545311332e-07   8.44065844921439e-06
-5.5252347050336595e-06   -4.355954545311332e-07   8.44065844921439e-06
-5.5252347050336595e-06   -4.355954545311332e-07   8.44065844921439e-06
-4.526238173359836e-06   5.763986393777631e-07   6.1684677734128585e-06
-4.526238173359836e-06   5.763986393777631e-07   6.1684677734128585e-06
-4.526238173359836e-06   5.763986393777631e-07   6.1684677734128585e-06
-4.526238173359836e-06   5.763986393777631e-07   6.1684677734128585e-06
-5.337169054376687e-05   4.1768465366365205e-06   2.2874254331374413e-05
-5.337169054376687e-05   4.1768465366365205e-06   2.2874254331374413e-05
-5.337169054376687e-05   4.1768465366365205e-06   2.2874254331374413e-05
-5.337169054376687e-05   4.1768465366365205e-06   2.2874254331374413e-05
-1.2546767479176584e-05   -2.6083827870294257e-05   7.275938812819981e-05
-1.2546767479176584e-05   -2.6083827870294257e-05   7.275938812819981e-05
-1.2546767479176584e-05   -2.6083827870294257e-05   7.275938812819981e-05
-1.2546767479176584e-05   -2.6083827870294257e-05   7.275938812819981e-05
-1.4726938263533031e-05   1.6916090037554735e-06   1.2556110881183758e-05
-1.4726938263533031e-05   1.6916090037554735e-06   1.2556110881183758e-05
-1.4726938263533031e-05   1.6916090037554735e-06   1.2556110881183758e-05
-1.4726938263533031e-05   1.6916090037554735e-06   1.2556110881183758e-05
-4.867652803394387e-05   -2.0274179718608755e-05   8.231823373195354e-05
-4.867652803394387e-05   -2.0274179718608755e-05   8.231823373195354e-05
-4.867652803394387e-05   -2.0274179718608755e-05   8.231823373195354e-05
-4.867652803394387e-05   -2.0274179718608755e-05   8.231823373195354e-05
-3.245478651723702e-05   -1.009346923388772e-05   4.9173571579942805e-05
-3.245478651723702e-05   -1.009346923388772e-05   4.9173571579942805e-05
-3.245478651723702e-05   -1.009346923388772e-05   4.9173571579942805e-05
-3.245478651723702e-05   -1.009346923388772e-05   4.9173571579942805e-05
-4.867652803394378e-05   1.6916090037554735e-06   2.5735584114602237e-05
-4.867652803394378e-05   1.6916090037554735e-06   2.5735584114602237e-05
-4.867652803394378e-05   1.6916090037554735e-06   2.5735584114602237e-05
-4.867652803394378e-05   1.6916090037554735e-06   2.5735584114602237e-05
-1.4726938263533051e-05   -2.0274179718608755e-05   6.913876049853502e-05
-1.4726938263533051e-05   -2.0274179718608755e-05   6.913876049853502e-05
-1.4726938263533051e-05   -2.0274179718608755e-05   6.913876049853502e-05
-1.4726938263533051e-05   -2.0274179718608755e-05   6.913876049853502e-05
-1.5060061948651993e-05   1.2137010320937202e-06   1.3797708149537833e-05
-1.5060061948651993e-05   1.2137010320937202e-06   1.3797708149537833e-05
-1.5060061948651993e-05   1.2137010320937202e-06   1.3797708149537833e-05
-1.5060061948651993e-05   1.2137010320937202e-06   1.3797708149537833e-05
-4.5927678138595594e-05   -1.747484207306061e-05   7.645686099586967e-05
-4.5927678138595594e-05   -1.747484207306061e-05   7.645686099586967e-05
-4.5927678138595594e-05   -1.747484207306061e-05   7.645686099586967e-05
-4.5927678138595594e-05   -1.747484207306061e-05   7.645686099586967e-05
-3.1484171866548864e-05   -9.562583632820797e-06   4.7636995478314604e-05
-3.1484171866548864e-05   -9.562583632820797e-06   4.7636995478314604e-05
-3.1484171866548864e-05   -9.562583632820797e-06   4.7636995478314604e-05
-3.1484171866548864e-05   -9.562583632820797e-06   4.7636995478314604e-05
-4.592767813859551e-05   1.2137010320937202e-06   2.501083401263042e-05
-4.592767813859551e-05   1.2137010320937202e-06   2.501083401263042e-05
-4.592767813859551e-05   1.2137010320937202e-06   2.501083401263042e-05
-4.592767813859551e-05   1.2137010320937202e-06   2.501083401263042e-05
-1.5060061948652027e-05   -1.747484207306061e-05   6.524373513277705e-05
-1.5060061948652027e-05   -1.747484207306061e-05   6.524373513277705e-05
-1.5060061948652027e-05   -1.747484207306061e-05   6.524373513277705e-05
-1.5060061948652027e-05   -1.747484207306061e-05   6.524373513277705e-05
-1.6496864496219808e-05   -8.187584015032509e-07   1.7277837315765745e-05
-1.6496864496219808e-05   -8.187584015032509e-07   1.7277837315765745e-05
-1.6496864496219808e-05   -8.187584015032509e-07   1.7277837315765745e-05
-1.6496864496219808e-05   -8.187584015032509e-07   1.7277837315765745e-05
-4.240405547850295e-05   -1.3757293757647573e-05   6.82196101665908e-05
-4.240405547850295e-05   -1.3757293757647573e-05   6.82196101665908e-05
-4.240405547850295e-05   -1.3757293757647573e-05   6.82196101665908e-05
-4.240405547850295e-05   -1.3757293757647573e-05   6.82196101665908e-05
-3.0283306338753322e-05   -8.827150872798482e-06   4.5060275869432e-05
-3.0283306338753322e-05   -8.827150872798482e-06   4.5060275869432e-05
-3.0283306338753322e-05   -8.827150872798482e-06   4.5060275869432e-05
-3.0283306338753322e-05   -8.827150872798482e-06   4.5060275869432e-05
-1.2546767479176563e-05   -4.718045748754412e-06   1.2984142333066946e-05
-1.2546767479176563e-05   -4.718045748754412e-06   1.2984142333066946e-05
-1.2546767479176563e-05   -4.718045748754412e-06   1.2984142333066946e-05
-1.2546767479176563e-05   -4.718045748754412e-06   1.2984142333066946e-05
-4.370456018999106e-06   -8.086927558536635e-06   2.45899990141602e-05
-4.370456018999106e-06   -8.086927558536635e-06   2.45899990141602e-05
-4.370456018999106e-06   -8.086927558536635e-06   2.45899990141602e-05
-4.370456018999106e-06   -8.086927558536635e-06   2.45899990141602e-05
-4.882387327272792e-06   -3.864243262049843e-06   1.1590057337667996e-05
-4.882387327272792e-06   -3.864243262049843e-06   1.1590057337667996e-05
-4.882387327272792e-06   -3.864243262049843e-06   1.1590057337667996e-05
-4.882387327272792e-06   -3.864243262049843e-06   1.1590057337667996e-05
-1.4726938263533051e-05   -1.0721460791230149e-05   3.211197274894321e-05
-1.4726938263533051e-05   -1.0721460791230149e-05   3.211197274894321e-05
-1.4726938263533051e-05   -1.0721460791230149e-05   3.211197274894321e-05
-1.4726938263533051e-05   -1.0721460791230149e-05   3.211197274894321e-05
-8.655454218369352e-06   -5.617113070610597e-06   1.893022404129857e-05
-8.655454218369352e-06   -5.617113070610597e-06   1.893022404129857e-05
-8.655454218369352e-06   -5.617113070610597e-06   1.893022404129857e-05
-8.655454218369352e-06   -5.617113070610597e-06   1.893022404129857e-05
-1.472693826353301e-05   -3.864243262049843e-06   1.5704387855176047e-05
-1.472693826353301e-05   -3.864243262049843e-06   1.5704387855176047e-05
-1.472693826353301e-05   -3.864243262049843e-06   1.5704387855176047e-05
-1.472693826353301e-05   -3.864243262049843e-06   1.5704387855176047e-05
-4.882387327272792e-06   -1.0721460791230149e-05   2.7997642231435008e-05
-4.882387327272792e-06   -1.0721460791230149e-05   2.7997642231435008e-05
-4.882387327272792e-06   -1.0721460791230149e-05   2.7997642231435008e-05
-4.882387327272792e-06   -1.0721460791230149e-05   2.7997642231435008e-05
-5.320995693069156e-06   -3.951543254920463e-06   1.3031893158316069e-05
-5.320995693069156e-06   -3.951543254920463e-06   1.3031893158316069e-05
-5.320995693069156e-06   -3.951543254920463e-06   1.3031893158316069e-05
-5.320995693069156e-06   -3.951543254920463e-06   1.3031893158316069e-05
-1.5060061948652027e-05   -9.805784116970639e-06   3.2776214768184166e-05
-1.5060061948652027e-05   -9.805784116970639e-06   3.2776214768184166e-05
-1.5060061948652027e-05   -9.805784116970639e-06   3.2776214768184166e-05
-1.5060061948652027e-05   -9.805784116970639e-06   3.2776214768184166e-05
-9.760308087947242e-06   -6.867357979073522e-06   2.218023598427144e-05
-9.760308087947242e-06   -6.867357979073522e-06   2.218023598427144e-05
-9.760308087947242e-06   -6.867357979073522e-06   2.218023598427144e-05
-9.760308087947242e-06   -6.867357979073522e-06   2.218023598427144e-05
-1.5060061948651993e-05   -3.951543254920463e-06   1.654443767554615e-05
-1.5060061948651993e-05   -3.951543254920463e-06   1.654443767554615e-05
-1.5060061948651993e-05   -3.951543254920463e-06   1.654443767554615e-05
-1.5060061948651993e-05   -3.951543254920463e-06   1.654443767554615e-05
-5.320995693069156e-06   -9.805784116970639e-06   2.9263670250954097e-05
-5.320995693069156e-06   -9.805784116970639e-06   2.9263670250954097e-05
-5.320995693069156e-06   -9.805784116970639e-06   2.9263670250954097e-05
-5.320995693069156e-06   -9.805784116970639e-06   2.9263670250954097e-05
-6.034490607982439e-06   -3.98648792501136e-06   1.4256120896476187e-05
-6.034490607982439e-06   -3.98648792501136e-06   1.4256120896476187e-05
-6.034490607982439e-06   -3.98648792501136e-06   1.4256120896476187e-05
-6.034490607982439e-06   -3.98648792501136e-06   1.4256120896476187e-05
-1.6496864496219828e-05   -9.228212433460639e-06   3.483844541527462e-05
-1.6496864496219828e-05   -9.228212433460639e-06   3.483844541527462e-05
-1.6496864496219828e-05   -9.228212433460639e-06   3.483844541527462e-05
-1.6496864496219828e-05   -9.228212433460639e-06   3.483844541527462e-05
-1.0405334671731381e-05   -6.270228479707138e-06   2.29111053355418e-05
-1.0405334671731381e-05   -6.270228479707138e-06   2.29111053355418e-05
-1.0405334671731381e-05   -6.270228479707138e-06   2.29111053355418e-05
-1.0405334671731381e-05   -6.270228479707138e-06   2.29111053355418e-05
-4.370456018999079e-06   -3.6858241170061533e-06   6.985806738357177e-06
-4.370456018999079e-06   -3.6858241170061533e-06   6.985806738357177e-06
-4.370456018999079e-06   -3.6858241170061533e-06   6.985806738357177e-06
-4.370456018999079e-06   -3.6858241170061533e-06   6.985806738357177e-06
-2.438449933412528e-06   -2.2599024030087563e-06   1.106136990939994e-05
-2.438449933412528e-06   -2.2599024030087563e-06   1.106136990939994e-05
-2.438449933412528e-06   -2.2599024030087563e-06   1.106136990939994e-05
-2.438449933412528e-06   -2.2599024030087563e-06   1.106136990939994e-05
-2.3439450361102676e-06   -3.6199140452676504e-06   8.047990590038178e-06
-2.3439450361102676e-06   -3.6199140452676504e-06   8.047990590038178e-06
-2.3439450361102676e-06   -3.6199140452676504e-06   8.047990590038178e-06
-2.3439450361102676e-06   -3.6199140452676504e-06   8.047990590038178e-06
-4.882387327272792e-06   -2.9579345327410475e-06   1.1881540034459686e-05
-4.882387327272792e-06   -2.9579345327410475e-06   1.1881540034459686e-05
-4.882387327272792e-06   -2.9579345327410475e-06   1.1881540034459686e-05
-4.882387327272792e-06   -2.9579345327410475e-06   1.1881540034459686e-05
-3.2867517265909504e-06   -2.963406985190969e-06   9.225430838126427e-06
-3.2867517265909504e-06   -2.963406985190969e-06   9.225430838126427e-06
-3.2867517265909504e-06   -2.963406985190969e-06   9.225430838126427e-06
-3.2867517265909504e-06   -2.963406985190969e-06   9.225430838126427e-06
-4.882387327272792e-06   -3.6199140452676504e-06   7.650802882522208e-06
-4.882387327272792e-06   -3.6199140452676504e-06   7.650802882522208e-06
-4.882387327272792e-06   -3.6199140452676504e-06   7.650802882522208e-06
-4.882387327272792e-06   -3.6199140452676504e-06   7.650802882522208e-06
-2.3439450361102676e-06   -2.9579345327410475e-06   1.2278727741975629e-05
-2.3439450361102676e-06   -2.9579345327410475e-06   1.2278727741975629e-05
-2.3439450361102676e-06   -2.9579345327410475e-06   1.2278727741975629e-05
-2.3439450361102676e-06   -2.9579345327410475e-06   1.2278727741975629e-05
-2.348360231040959e-06   -3.7302508329714926e-06   8.60516395351853e-06
-2.348360231040959e-06   -3.7302508329714926e-06   8.60516395351853e-06
-2.348360231040959e-06   -3.7302508329714926e-06   8.60516395351853e-06
-2.348360231040959e-06   -3.7302508329714926e-06   8.60516395351853e-06
-5.320995693069156e-06   -3.798507851981944e-06   1.3600510601638287e-05
-5.320995693069156e-06   -3.798507851981944e-06   1.3600510601638287e-05
-5.320995693069156e-06   -3.798507851981944e-06   1.3600510601638287e-05
-5.320995693069156e-06   -3.798507851981944e-06   1.3600510601638287e-05
-3.485671050276718e-06   -3.2400669046230392e-06   1.020657162856904e-05
-3.485671050276718e-06   -3.2400669046230392e-06   1.020657162856904e-05
-3.485671050276718e-06   -3.2400669046230392e-06   1.020657162856904e-05
-3.485671050276718e-06   -3.2400669046230392e-06   1.020657162856904e-05
-5.320995693069156e-06   -3.7302508329714926e-06   8.646118164924797e-06
-5.320995693069156e-06   -3.7302508329714926e-06   8.646118164924797e-06
-5.320995693069156e-06   -3.7302508329714926e-06   8.646118164924797e-06
-5.320995693069156e-06   -3.7302508329714926e-06   8.646118164924797e-06
-2.348360231040959e-06   -3.798507851981944e-06   1.3559556390232102e-05
-2.348360231040959e-06   -3.798507851981944e-06   1.3559556390232102e-05
-2.348360231040959e-06   -3.798507851981944e-06   1.3559556390232102e-05
-2.348360231040959e-06   -3.798507851981944e-06   1.3559556390232102e-05
-2.384899494993107e-06   -3.8862406161078045e-06   9.439067914683889e-06
-2.384899494993107e-06   -3.8862406161078045e-06   9.439067914683889e-06
-2.384899494993107e-06   -3.8862406161078045e-06   9.439067914683889e-06
-2.384899494993107e-06   -3.8862406161078045e-06   9.439067914683889e-06
-6.034490607982439e-06   -4.5972925649832805e-06   1.5948350938991196e-05
-6.034490607982439e-06   -4.5972925649832805e-06   1.5948350938991196e-05
-6.034490607982439e-06   -4.5972925649832805e-06   1.5948350938991196e-05
-6.034490607982439e-06   -4.5972925649832805e-06   1.5948350938991196e-05
-3.71240003316803e-06   -3.537864157693554e-06   1.1442542936593433e-05
-3.71240003316803e-06   -3.537864157693554e-06   1.1442542936593433e-05
-3.71240003316803e-06   -3.537864157693554e-06   1.1442542936593433e-05
-3.71240003316803e-06   -3.537864157693554e-06   1.1442542936593433e-05
-2.438449933412528e-06   -1.5127772626124083e-06   1.989889741647611e-06
-2.438449933412528e-06   -1.5127772626124083e-06   1.989889741647611e-06
-2.438449933412528e-06   -1.5127772626124083e-06   1.989889741647611e-06
-2.438449933412528e-06   -1.5127772626124083e-06   1.989889741647611e-06
-1.8115987884372367e-06   3.88231455825084e-07   4.1752468810022205e-06
-1.8115987884372367e-06   3.88231455825084e-07   4.1752468810022205e-06
-1.8115987884372367e-06   3.88231455825084e-07   4.1752468810022205e-06
-1.8115987884372367e-06   3.88231455825084e-07   4.1752468810022205e-06
-1.4664209820384978e-06   -1.7705139983083848e-06   3.312525588546533e-06
-1.4664209820384978e-06   -1.7705139983083848e-06   3.312525588546533e-06
-1.4664209820384978e-06   -1.7705139983083848e-06   3.312525588546533e-06
-1.4664209820384978e-06   -1.7705139983083848e-06   3.312525588546533e-06
-2.3439450361102676e-06   1.3795178635817848e-07   3.6299862078659705e-06
-2.3439450361102676e-06   1.3795178635817848e-07   3.6299862078659705e-06
-2.3439450361102676e-06   1.3795178635817848e-07   3.6299862078659705e-06
-2.3439450361102676e-06   1.3795178635817848e-07   3.6299862078659705e-06
-1.8907089909168625e-06   -7.109114991798841e-07   3.3839107705329165e-06
-1.8907089909168625e-06   -7.109114991798841e-07   3.3839107705329165e-06
-1.8907089909168625e-06   -7.109114991798841e-07   3.3839107705329165e-06
-1.8907089909168625e-06   -7.109114991798841e-07   3.3839107705329165e-06
-2.3439450361102676e-06   -1.7705139983083848e-06   2.16744611774658e-06
-2.3439450361102676e-06   -1.7705139983083848e-06   2.16744611774658e-06
-2.3439450361102676e-06   -1.7705139983083848e-06   2.16744611774658e-06
-2.3439450361102676e-06   -1.7705139983083848e-06   2.16744611774658e-06
-1.4664209820384978e-06   1.3795178635817848e-07   4.7750656786659505e-06
-1.4664209820384978e-06   1.3795178635817848e-07   4.7750656786659505e-06
-1.4664209820384978e-06   1.3795178635817848e-07   4.7750656786659505e-06
-1.4664209820384978e-06   1.3795178635817848e-07   4.7750656786659505e-06
-1.2772738050173364e-06   -1.9678232482923616e-06   3.6390225907635123e-06
-1.2772738050173364e-06   -1.9678232482923616e-06   3.6390225907635123e-06
-1.2772738050173364e-06   -1.9678232482923616e-06   3.6390225907635123e-06
-1.2772738050173364e-06   -1.9678232482923616e-06   3.6390225907635123e-06
-2.348360231040959e-06   -2.585032832095512e-07   4.398574655086341e-06
-2.348360231040959e-06   -2.585032832095512e-07   4.398574655086341e-06
-2.348360231040959e-06   -2.585032832095512e-07   4.398574655086341e-06
-2.348360231040959e-06   -2.585032832095512e-07   4.398574655086341e-06
-1.7142633525376032e-06   -9.104828625257236e-07   3.7329342718370835e-06
-1.7142633525376032e-06   -9.104828625257236e-07   3.7329342718370835e-06
-1.7142633525376032e-06   -9.104828625257236e-07   3.7329342718370835e-06
-1.7142633525376032e-06   -9.104828625257236e-07   3.7329342718370835e-06
-2.348360231040959e-06   -1.9678232482923616e-06   2.6134306117136553e-06
-2.348360231040959e-06   -1.9678232482923616e-06   2.6134306117136553e-06
-2.348360231040959e-06   -1.9678232482923616e-06   2.6134306117136553e-06
-2.348360231040959e-06   -1.9678232482923616e-06   2.6134306117136553e-06
-1.2772738050173364e-06   -2.585032832095512e-07   5.424166634135927e-06
-1.2772738050173364e-06   -2.585032832095512e-07   5.424166634135927e-06
-1.2772738050173364e-06   -2.585032832095512e-07   5.424166634135927e-06
-1.2772738050173364e-06   -2.585032832095512e-07   5.424166634135927e-06
-9.871822766366377e-07   -2.2265128454518443e-06   3.994712732499866e-06
-9.871822766366377e-07   -2.2265128454518443e-06   3.994712732499866e-06
-9.871822766366377e-07   -2.2265128454518443e-06   3.994712732499866e-06
-9.871822766366377e-07   -2.2265128454518443e-06   3.994712732499866e-06
-2.384899494993107e-06   -1.072393032230306e-06   5.631769541827587e-06
-2.384899494993107e-06   -1.072393032230306e-06   5.631769541827587e-06
-2.384899494993107e-06   -1.072393032230306e-06   5.631769541827587e-06
-2.384899494993107e-06   -1.072393032230306e-06   5.631769541827587e-06
-1.5707518114691454e-06   -1.2155980639099947e-06   4.360779754962441e-06
-1.5707518114691454e-06   -1.2155980639099947e-06   4.360779754962441e-06
-1.5707518114691454e-06   -1.2155980639099947e-06   4.360779754962441e-06
-1.5707518114691454e-06   -1.2155980639099947e-06   4.360779754962441e-06
-1.8115987884372367e-06   -1.6872827938920355e-07   -3.016280680893837e-06
-1.8115987884372367e-06   -1.6872827938920355e-07   -3.016280680893837e-06
-1.8115987884372367e-06   -1.6872827938920355e-07   -3.016280680893837e-06
-1.8115987884372367e-06   -1.6872827938920355e-07   -3.016280680893837e-06
-3.3783117985247777e-07   2.5905511974049666e-07   -3.033312937747489e-07
-3.3783117985247777e-07   2.5905511974049666e-07   -3.033312937747489e-07
-3.3783117985247777e-07   2.5905511974049666e-07   -3.033312937747489e-07
-3.3783117985247777e-07   2.5905511974049666e-07   -3.033312937747489e-07
1.0935985656542607e-09   -2.3548110406285214e-07   -2.3658022730279e-06
1.0935985656542607e-09   -2.3548110406285214e-07   -2.3658022730279e-06
1.0935985656542607e-09   -2.3548110406285214e-07   -2.3658022730279e-06
1.0935985656542607e-09   -2.3548110406285214e-07   -2.3658022730279e-06
-1.4664209820384978e-06   4.4803838184646796e-07   -3.3005633023332984e-07
-1.4664209820384978e-06   4.4803838184646796e-07   -3.3005633023332984e-07
-1.4664209820384978e-06   4.4803838184646796e-07   -3.3005633023332984e-07
-1.4664209820384978e-06   4.4803838184646796e-07   -3.3005633023332984e-07
-8.260252979819932e-07   1.1988482329040526e-07   -1.2004903351943517e-06
-8.260252979819932e-07   1.1988482329040526e-07   -1.2004903351943517e-06
-8.260252979819932e-07   1.1988482329040526e-07   -1.2004903351943517e-06
-8.260252979819932e-07   1.1988482329040526e-07   -1.2004903351943517e-06
-1.4664209820384978e-06   -2.3548110406285214e-07   -2.7759139645737007e-06
-1.4664209820384978e-06   -2.3548110406285214e-07   -2.7759139645737007e-06
-1.4664209820384978e-06   -2.3548110406285214e-07   -2.7759139645737007e-06
-1.4664209820384978e-06   -2.3548110406285214e-07   -2.7759139645737007e-06
1.0935985656542607e-09   4.4803838184646796e-07   8.005536131217277e-08
1.0935985656542607e-09   4.4803838184646796e-07   8.005536131217277e-08
1.0935985656542607e-09   4.4803838184646796e-07   8.005536131217277e-08
1.0935985656542607e-09   4.4803838184646796e-07   8.005536131217277e-08
1.7835188124228117e-07   -3.2576981903379007e-07   -2.117622237079943e-06
1.7835188124228117e-07   -3.2576981903379007e-07   -2.117622237079943e-06
1.7835188124228117e-07   -3.2576981903379007e-07   -2.117622237079943e-06
1.7835188124228117e-07   -3.2576981903379007e-07   -2.117622237079943e-06
-1.2772738050173364e-06   3.8308019535669577e-07   -1.168894352817024e-07
-1.2772738050173364e-06   3.8308019535669577e-07   -1.168894352817024e-07
-1.2772738050173364e-06   3.8308019535669577e-07   -1.168894352817024e-07
-1.2772738050173364e-06   3.8308019535669577e-07   -1.168894352817024e-07
-5.757430673790582e-07   7.825241408825588e-08   -1.1032106625842933e-06
-5.757430673790582e-07   7.825241408825588e-08   -1.1032106625842933e-06
-5.757430673790582e-07   7.825241408825588e-08   -1.1032106625842933e-06
-5.757430673790582e-07   7.825241408825588e-08   -1.1032106625842933e-06
-1.2772738050173364e-06   -3.257698190338443e-07   -2.542932245714344e-06
-1.2772738050173364e-06   -3.257698190338443e-07   -2.542932245714344e-06
-1.2772738050173364e-06   -3.257698190338443e-07   -2.542932245714344e-06
-1.2772738050173364e-06   -3.257698190338443e-07   -2.542932245714344e-06
1.7835188124222696e-07   3.8308019535669577e-07   3.0842057335259045e-07
1.7835188124222696e-07   3.8308019535669577e-07   3.0842057335259045e-07
1.7835188124222696e-07   3.8308019535669577e-07   3.0842057335259045e-07
1.7835188124222696e-07   3.8308019535669577e-07   3.0842057335259045e-07
3.9874455522268416e-07   -4.355954545311332e-07   -1.752876211355797e-06
3.9874455522268416e-07   -4.355954545311332e-07   -1.752876211355797e-06
3.9874455522268416e-07   -4.355954545311332e-07   -1.752876211355797e-06
3.9874455522268416e-07   -4.355954545311332e-07   -1.752876211355797e-06
-9.871822766366377e-07   3.2747926152777764e-07   9.915701210756658e-08
-9.871822766366377e-07   3.2747926152777764e-07   9.915701210756658e-08
-9.871822766366377e-07   3.2747926152777764e-07   9.915701210756658e-08
-9.871822766366377e-07   3.2747926152777764e-07   9.915701210756658e-08
-3.4928886363184606e-07   2.7764721667654455e-08   -7.841699523177198e-07
-3.4928886363184606e-07   2.7764721667654455e-08   -7.841699523177198e-07
-3.4928886363184606e-07   2.7764721667654455e-08   -7.841699523177198e-07
-3.4928886363184606e-07   2.7764721667654455e-08   -7.841699523177198e-07
              </DataArray>   
             <DataArray type="Float64" NumberOfComponents="3" Name="Stress" format="ascii">   
-2.7707180333010633   -0.6926795083252658   -0.6926795083252658
-2.7707180333010633   -0.6926795083252658   -0.6926795083252658
-2.7707180333010633   -0.6926795083252658   -0.6926795083252658
-2.7707180333010633   -0.6926795083252658   -0.6926795083252658
-1.6033294461027021   -0.05092357501138761   -0.032195488949137166
-1.6033294461027021   -0.05092357501138761   -0.032195488949137166
-1.6033294461027021   -0.05092357501138761   -0.032195488949137166
-1.6033294461027021   -0.05092357501138761   -0.032195488949137166
-1.728106492801596   -0.432026623200399   -0.432026623200399
-1.728106492801596   -0.432026623200399   -0.432026623200399
-1.728106492801596   -0.432026623200399   -0.432026623200399
-1.728106492801596   -0.432026623200399   -0.432026623200399
-2.670347053895185   -0.21939250769189728   -0.08393357980762635
-2.670347053895185   -0.21939250769189728   -0.08393357980762635
-2.670347053895185   -0.21939250769189728   -0.08393357980762635
-2.670347053895185   -0.21939250769189728   -0.08393357980762635
-2.0943107847674347   -0.34340881139449186   -0.0057899287117147424
-2.0943107847674347   -0.34340881139449186   -0.0057899287117147424
-2.0943107847674347   -0.34340881139449186   -0.0057899287117147424
-2.0943107847674347   -0.34340881139449186   -0.0057899287117147424
-2.89964648488365   -0.7249116212209125   -0.7249116212209125
-2.89964648488365   -0.7249116212209125   -0.7249116212209125
-2.89964648488365   -0.7249116212209125   -0.7249116212209125
-2.89964648488365   -0.7249116212209125   -0.7249116212209125
-1.5531960837703391   0.019103468371412358   -0.008604669615927332
-1.5531960837703391   0.019103468371412358   -0.008604669615927332
-1.5531960837703391   0.019103468371412358   -0.008604669615927332
-1.5531960837703391   0.019103468371412358   -0.008604669615927332
-1.7329441501829617   -0.4332360375457404   -0.4332360375457404
-1.7329441501829617   -0.4332360375457404   -0.4332360375457404
-1.7329441501829617   -0.4332360375457404   -0.4332360375457404
-1.7329441501829617   -0.4332360375457404   -0.4332360375457404
-2.760051985094072   -0.22148561510779652   -0.1229859635924305
-2.760051985094072   -0.22148561510779652   -0.1229859635924305
-2.760051985094072   -0.22148561510779652   -0.1229859635924305
-2.760051985094072   -0.22148561510779652   -0.1229859635924305
-2.172385264454954   -0.323311742901355   -0.11528565047355763
-2.172385264454954   -0.323311742901355   -0.11528565047355763
-2.172385264454954   -0.323311742901355   -0.11528565047355763
-2.172385264454954   -0.323311742901355   -0.11528565047355763
-2.990175188171145   -0.7475437970427863   -0.7475437970427863
-2.990175188171145   -0.7475437970427863   -0.7475437970427863
-2.990175188171145   -0.7475437970427863   -0.7475437970427863
-2.990175188171145   -0.7475437970427863   -0.7475437970427863
-1.548648244427501   0.046994847067640844   0.008012606618181886
-1.548648244427501   0.046994847067640844   0.008012606618181886
-1.548648244427501   0.046994847067640844   0.008012606618181886
-1.548648244427501   0.046994847067640844   0.008012606618181886
-1.7319927972996547   -0.4329981993249137   -0.4329981993249137
-1.7319927972996547   -0.4329981993249137   -0.4329981993249137
-1.7319927972996547   -0.4329981993249137   -0.4329981993249137
-1.7319927972996547   -0.4329981993249137   -0.4329981993249137
-2.920320575129422   -0.19424149197331242   -0.07380572626747114
-2.920320575129422   -0.19424149197331242   -0.07380572626747114
-2.920320575129422   -0.19424149197331242   -0.07380572626747114
-2.920320575129422   -0.19424149197331242   -0.07380572626747114
-2.230299352445442   -0.318269616873041   -0.20834917804488748
-2.230299352445442   -0.318269616873041   -0.20834917804488748
-2.230299352445442   -0.318269616873041   -0.20834917804488748
-2.230299352445442   -0.318269616873041   -0.20834917804488748
-1.7630062592340001   -0.44075156480850003   -0.44075156480850003
-1.7630062592340001   -0.44075156480850003   -0.44075156480850003
-1.7630062592340001   -0.44075156480850003   -0.44075156480850003
-1.7630062592340001   -0.44075156480850003   -0.44075156480850003
-0.7356231568384032   -0.04903040854888918   -0.015926881164490064
-0.7356231568384032   -0.04903040854888918   -0.015926881164490064
-0.7356231568384032   -0.04903040854888918   -0.015926881164490064
-0.7356231568384032   -0.04903040854888918   -0.015926881164490064
-0.7722060516977919   -0.19305151292444797   -0.19305151292444797
-0.7722060516977919   -0.19305151292444797   -0.19305151292444797
-0.7722060516977919   -0.19305151292444797   -0.19305151292444797
-0.7722060516977919   -0.19305151292444797   -0.19305151292444797
-1.6050876351610752   -0.1888304553663835   -0.06012850283181072
-1.6050876351610752   -0.1888304553663835   -0.06012850283181072
-1.6050876351610752   -0.1888304553663835   -0.06012850283181072
-1.6050876351610752   -0.1888304553663835   -0.06012850283181072
-1.1838556535957874   -0.2242951941480795   0.009244625765664954
-1.1838556535957874   -0.2242951941480795   0.009244625765664954
-1.1838556535957874   -0.2242951941480795   0.009244625765664954
-1.1838556535957874   -0.2242951941480795   0.009244625765664954
-1.7281064928015941   -0.43202662320039853   -0.43202662320039853
-1.7281064928015941   -0.43202662320039853   -0.43202662320039853
-1.7281064928015941   -0.43202662320039853   -0.43202662320039853
-1.7281064928015941   -0.43202662320039853   -0.43202662320039853
-0.694005086823479   0.005326762143359698   -0.0004249636206909019
-0.694005086823479   0.005326762143359698   -0.0004249636206909019
-0.694005086823479   0.005326762143359698   -0.0004249636206909019
-0.694005086823479   0.005326762143359698   -0.0004249636206909019
-0.7549391658382976   -0.1887347914595744   -0.1887347914595744
-0.7549391658382976   -0.1887347914595744   -0.1887347914595744
-0.7549391658382976   -0.1887347914595744   -0.1887347914595744
-0.7549391658382976   -0.1887347914595744   -0.1887347914595744
-1.601016277130418   -0.15403608988878087   -0.05279661993998172
-1.601016277130418   -0.15403608988878087   -0.05279661993998172
-1.601016277130418   -0.15403608988878087   -0.05279661993998172
-1.601016277130418   -0.15403608988878087   -0.05279661993998172
-1.1673404783038528   -0.18882012687834143   -0.06102953270117431
-1.1673404783038528   -0.18882012687834143   -0.06102953270117431
-1.1673404783038528   -0.18882012687834143   -0.06102953270117431
-1.1673404783038528   -0.18882012687834143   -0.06102953270117431
-1.7329441501829617   -0.4332360375457404   -0.4332360375457404
-1.7329441501829617   -0.4332360375457404   -0.4332360375457404
-1.7329441501829617   -0.4332360375457404   -0.4332360375457404
-1.7329441501829617   -0.4332360375457404   -0.4332360375457404
-0.6664198662546251   0.04705658272851393   0.018070332270699402
-0.6664198662546251   0.04705658272851393   0.018070332270699402
-0.6664198662546251   0.04705658272851393   0.018070332270699402
-0.6664198662546251   0.04705658272851393   0.018070332270699402
-0.7392103818595924   -0.1848025954648981   -0.1848025954648981
-0.7392103818595924   -0.1848025954648981   -0.1848025954648981
-0.7392103818595924   -0.1848025954648981   -0.1848025954648981
-0.7392103818595924   -0.1848025954648981   -0.1848025954648981
-1.5892170061242605   -0.1188477730318159   -0.03326966974106201
-1.5892170061242605   -0.1188477730318159   -0.03326966974106201
-1.5892170061242605   -0.1188477730318159   -0.03326966974106201
-1.5892170061242605   -0.1188477730318159   -0.03326966974106201
-1.1730797551678895   -0.167085236501184   -0.13596584224251787
-1.1730797551678895   -0.167085236501184   -0.13596584224251787
-1.1730797551678895   -0.167085236501184   -0.13596584224251787
-1.1730797551678895   -0.167085236501184   -0.13596584224251787
-0.8029241098841429   -0.20073102747103572   -0.20073102747103572
-0.8029241098841429   -0.20073102747103572   -0.20073102747103572
-0.8029241098841429   -0.20073102747103572   -0.20073102747103572
-0.8029241098841429   -0.20073102747103572   -0.20073102747103572
0.09512366265945842   0.006195888313844947   0.0007812848397687191
0.09512366265945842   0.006195888313844947   0.0007812848397687191
0.09512366265945842   0.006195888313844947   0.0007812848397687191
0.09512366265945842   0.006195888313844947   0.0007812848397687191
0.12376640717345765   0.03094160179336441   0.03094160179336441
0.12376640717345765   0.03094160179336441   0.03094160179336441
0.12376640717345765   0.03094160179336441   0.03094160179336441
0.12376640717345765   0.03094160179336441   0.03094160179336441
-0.7259352305411075   -0.1254714215585237   -0.02927749850695748
-0.7259352305411075   -0.1254714215585237   -0.02927749850695748
-0.7259352305411075   -0.1254714215585237   -0.02927749850695748
-0.7259352305411075   -0.1254714215585237   -0.02927749850695748
-0.3108462631512806   -0.07885147962007057   0.052724994962703366
-0.3108462631512806   -0.07885147962007057   0.052724994962703366
-0.3108462631512806   -0.07885147962007057   0.052724994962703366
-0.3108462631512806   -0.07885147962007057   0.052724994962703366
-0.7722060516977919   -0.19305151292444797   -0.19305151292444797
-0.7722060516977919   -0.19305151292444797   -0.19305151292444797
-0.7722060516977919   -0.19305151292444797   -0.19305151292444797
-0.7722060516977919   -0.19305151292444797   -0.19305151292444797
0.12597841046189726   0.05446287529104496   0.018480344737880953
0.12597841046189726   0.05446287529104496   0.018480344737880953
0.12597841046189726   0.05446287529104496   0.018480344737880953
0.12597841046189726   0.05446287529104496   0.018480344737880953
0.1392596041152268   0.0348149010288067   0.0348149010288067
0.1392596041152268   0.0348149010288067   0.0348149010288067
0.1392596041152268   0.0348149010288067   0.0348149010288067
0.1392596041152268   0.0348149010288067   0.0348149010288067
-0.7002635060553191   -0.08445773675711427   -0.019633547247153917
-0.7002635060553191   -0.08445773675711427   -0.019633547247153917
-0.7002635060553191   -0.08445773675711427   -0.019633547247153917
-0.7002635060553191   -0.08445773675711427   -0.019633547247153917
-0.29817683559339486   -0.048731645951385696   -0.018023024954820367
-0.29817683559339486   -0.048731645951385696   -0.018023024954820367
-0.29817683559339486   -0.048731645951385696   -0.018023024954820367
-0.29817683559339486   -0.048731645951385696   -0.018023024954820367
-0.7549391658382976   -0.1887347914595744   -0.1887347914595744
-0.7549391658382976   -0.1887347914595744   -0.1887347914595744
-0.7549391658382976   -0.1887347914595744   -0.1887347914595744
-0.7549391658382976   -0.1887347914595744   -0.1887347914595744
0.15076331258281545   0.09592000441587908   0.031228339979676445
0.15076331258281545   0.09592000441587908   0.031228339979676445
0.15076331258281545   0.09592000441587908   0.031228339979676445
0.15076331258281545   0.09592000441587908   0.031228339979676445
0.16009385450227182   0.040023463625567954   0.040023463625567954
0.16009385450227182   0.040023463625567954   0.040023463625567954
0.16009385450227182   0.040023463625567954   0.040023463625567954
0.16009385450227182   0.040023463625567954   0.040023463625567954
-0.6723253455994544   -0.03554827457095504   0.00036826494183953354
-0.6723253455994544   -0.03554827457095504   0.00036826494183953354
-0.6723253455994544   -0.03554827457095504   0.00036826494183953354
-0.6723253455994544   -0.03554827457095504   0.00036826494183953354
-0.2892472756721871   -0.019695109755734602   -0.0881393180991461
-0.2892472756721871   -0.019695109755734602   -0.0881393180991461
-0.2892472756721871   -0.019695109755734602   -0.0881393180991461
-0.2892472756721871   -0.019695109755734602   -0.0881393180991461
0.10414247558748428   0.02603561889687107   0.02603561889687107
0.10414247558748428   0.02603561889687107   0.02603561889687107
0.10414247558748428   0.02603561889687107   0.02603561889687107
0.10414247558748428   0.02603561889687107   0.02603561889687107
1.0045345593352806   0.09217227077529316   0.030990167049084465
1.0045345593352806   0.09217227077529316   0.030990167049084465
1.0045345593352806   0.09217227077529316   0.030990167049084465
1.0045345593352806   0.09217227077529316   0.030990167049084465
1.0907445828711047   0.27268614571777616   0.27268614571777616
1.0907445828711047   0.27268614571777616   0.27268614571777616
1.0907445828711047   0.27268614571777616   0.27268614571777616
1.0907445828711047   0.27268614571777616   0.27268614571777616
0.09428931184948575   -0.07073125837344815   -0.014771014659684435
0.09428931184948575   -0.07073125837344815   -0.014771014659684435
0.09428931184948575   -0.07073125837344815   -0.014771014659684435
0.09428931184948575   -0.07073125837344815   -0.014771014659684435
0.5727706404779632   0.07131121497677649   0.1040461058812147
0.5727706404779632   0.07131121497677649   0.1040461058812147
0.5727706404779632   0.07131121497677649   0.1040461058812147
0.5727706404779632   0.07131121497677649   0.1040461058812147
0.12376640717345808   0.03094160179336452   0.03094160179336452
0.12376640717345808   0.03094160179336452   0.03094160179336452
0.12376640717345808   0.03094160179336452   0.03094160179336452
0.12376640717345808   0.03094160179336452   0.03094160179336452
1.0164821978548775   0.12622799585870875   0.04783237049570825
1.0164821978548775   0.12622799585870875   0.04783237049570825
1.0164821978548775   0.12622799585870875   0.04783237049570825
1.0164821978548775   0.12622799585870875   0.04783237049570825
1.0860976160226181   0.27152440400565453   0.27152440400565453
1.0860976160226181   0.27152440400565453   0.27152440400565453
1.0860976160226181   0.27152440400565453   0.27152440400565453
1.0860976160226181   0.27152440400565453   0.27152440400565453
0.11923118574136236   -0.030625512122728956   0.0001132223110191944
0.11923118574136236   -0.030625512122728956   0.0001132223110191944
0.11923118574136236   -0.030625512122728956   0.0001132223110191944
0.11923118574136236   -0.030625512122728956   0.0001132223110191944
0.5685686172953486   0.0935992479019118   0.027049786383660037
0.5685686172953486   0.0935992479019118   0.027049786383660037
0.5685686172953486   0.0935992479019118   0.027049786383660037
0.5685686172953486   0.0935992479019118   0.027049786383660037
0.13925960411522692   0.03481490102880673   0.03481490102880673
0.13925960411522692   0.03481490102880673   0.03481490102880673
0.13925960411522692   0.03481490102880673   0.03481490102880673
0.13925960411522692   0.03481490102880673   0.03481490102880673
1.0217144487189145   0.16172924192427984   0.059403729568511074
1.0217144487189145   0.16172924192427984   0.059403729568511074
1.0217144487189145   0.16172924192427984   0.059403729568511074
1.0217144487189145   0.16172924192427984   0.059403729568511074
1.1071556326617382   0.27678890816543456   0.27678890816543456
1.1071556326617382   0.27678890816543456   0.27678890816543456
1.1071556326617382   0.27678890816543456   0.27678890816543456
1.1071556326617382   0.27678890816543456   0.27678890816543456
0.15192319485621963   0.022431094558076587   0.016762534462796977
0.15192319485621963   0.022431094558076587   0.016762534462796977
0.15192319485621963   0.022431094558076587   0.016762534462796977
0.15192319485621963   0.022431094558076587   0.016762534462796977
0.5774148438508366   0.12698275205445672   -0.04434281554844364
0.5774148438508366   0.12698275205445672   -0.04434281554844364
0.5774148438508366   0.12698275205445672   -0.04434281554844364
0.5774148438508366   0.12698275205445672   -0.04434281554844364
1.0887800797448945   0.27219501993622364   0.27219501993622364
1.0887800797448945   0.27219501993622364   0.27219501993622364
1.0887800797448945   0.27219501993622364   0.27219501993622364
1.0887800797448945   0.27219501993622364   0.27219501993622364
2.2586561778480396   0.17217670716735534   0.059082539416387164
2.2586561778480396   0.17217670716735534   0.059082539416387164
2.2586561778480396   0.17217670716735534   0.059082539416387164
2.2586561778480396   0.17217670716735534   0.059082539416387164
2.308708867010611   0.5771772167526528   0.5771772167526528
2.308708867010611   0.5771772167526528   0.5771772167526528
2.308708867010611   0.5771772167526528   0.5771772167526528
2.308708867010611   0.5771772167526528   0.5771772167526528
0.9695645681556178   -0.05507458066664647   -0.00545320147523605
0.9695645681556178   -0.05507458066664647   -0.00545320147523605
0.9695645681556178   -0.05507458066664647   -0.00545320147523605
0.9695645681556178   -0.05507458066664647   -0.00545320147523605
1.6108350095647648   0.22799813449342446   0.18182678313051148
1.6108350095647648   0.22799813449342446   0.18182678313051148
1.6108350095647648   0.22799813449342446   0.18182678313051148
1.6108350095647648   0.22799813449342446   0.18182678313051148
1.090744582871104   0.272686145717776   0.272686145717776
1.090744582871104   0.272686145717776   0.272686145717776
1.090744582871104   0.272686145717776   0.272686145717776
1.090744582871104   0.272686145717776   0.272686145717776
2.1395233886572487   0.20141102673036154   0.10701601500816743
2.1395233886572487   0.20141102673036154   0.10701601500816743
2.1395233886572487   0.20141102673036154   0.10701601500816743
2.1395233886572487   0.20141102673036154   0.10701601500816743
2.2397711446227966   0.5599427861556991   0.5599427861556991
2.2397711446227966   0.5599427861556991   0.5599427861556991
2.2397711446227966   0.5599427861556991   0.5599427861556991
2.2397711446227966   0.5599427861556991   0.5599427861556991
0.9729790654412264   -0.030358408114071256   0.007814463218421636
0.9729790654412264   -0.030358408114071256   0.007814463218421636
0.9729790654412264   -0.030358408114071256   0.007814463218421636
0.9729790654412264   -0.030358408114071256   0.007814463218421636
1.5630869717801512   0.23458896492728365   0.08718550711219779
1.5630869717801512   0.23458896492728365   0.08718550711219779
1.5630869717801512   0.23458896492728365   0.08718550711219779
1.5630869717801512   0.23458896492728365   0.08718550711219779
1.0860976160226181   0.27152440400565453   0.27152440400565453
1.0860976160226181   0.27152440400565453   0.27152440400565453
1.0860976160226181   0.27152440400565453   0.27152440400565453
1.0860976160226181   0.27152440400565453   0.27152440400565453
2.070673599395184   0.2020809793897586   0.07231686678360957
2.070673599395184   0.2020809793897586   0.07231686678360957
2.070673599395184   0.2020809793897586   0.07231686678360957
2.070673599395184   0.2020809793897586   0.07231686678360957
2.1371251189210927   0.5342812797302732   0.5342812797302732
2.1371251189210927   0.5342812797302732   0.5342812797302732
2.1371251189210927   0.5342812797302732   0.5342812797302732
2.1371251189210927   0.5342812797302732   0.5342812797302732
1.0090101710638577   0.03194456890735248   0.030905939434114252
1.0090101710638577   0.03194456890735248   0.030905939434114252
1.0090101710638577   0.03194456890735248   0.030905939434114252
1.0090101710638577   0.03194456890735248   0.030905939434114252
1.4967459080474088   0.2543675629972323   -0.022889176383546393
1.4967459080474088   0.2543675629972323   -0.022889176383546393
1.4967459080474088   0.2543675629972323   -0.022889176383546393
1.4967459080474088   0.2543675629972323   -0.022889176383546393
-2.1896344843984075   -0.15679999766112546   0.024727436097882693
-2.1896344843984075   -0.15679999766112546   0.024727436097882693
-2.1896344843984075   -0.15679999766112546   0.024727436097882693
-2.1896344843984075   -0.15679999766112546   0.024727436097882693
-1.3938120834451582   -0.03222800954464827   -0.009041222810227456
-1.3938120834451582   -0.03222800954464827   -0.009041222810227456
-1.3938120834451582   -0.03222800954464827   -0.009041222810227456
-1.3938120834451582   -0.03222800954464827   -0.009041222810227456
-1.4031971031148884   0.05669514307898721   0.02935472326650017
-1.4031971031148884   0.05669514307898721   0.02935472326650017
-1.4031971031148884   0.05669514307898721   0.02935472326650017
-1.4031971031148884   0.05669514307898721   0.02935472326650017
-2.2222051481225793   -0.15162243077334364   -0.02634779609236608
-2.2222051481225793   -0.15162243077334364   -0.02634779609236608
-2.2222051481225793   -0.15162243077334364   -0.02634779609236608
-2.2222051481225793   -0.15162243077334364   -0.02634779609236608
-1.7313011042438613   -0.05914848459734656   -0.006902905981310076
-1.7313011042438613   -0.05914848459734656   -0.006902905981310076
-1.7313011042438613   -0.05914848459734656   -0.006902905981310076
-1.7313011042438613   -0.05914848459734656   -0.006902905981310076
-2.206016454305873   -0.10762085280745431   0.010594095025276903
-2.206016454305873   -0.10762085280745431   0.010594095025276903
-2.206016454305873   -0.10762085280745431   0.010594095025276903
-2.206016454305873   -0.10762085280745431   0.010594095025276903
-1.4217137613053046   0.010365600739392244   -0.016899025345961258
-1.4217137613053046   0.010365600739392244   -0.016899025345961258
-1.4217137613053046   0.010365600739392244   -0.016899025345961258
-1.4217137613053046   0.010365600739392244   -0.016899025345961258
-1.404845412967628   0.08083525646879652   0.03341182216409097
-1.404845412967628   0.08083525646879652   0.03341182216409097
-1.404845412967628   0.08083525646879652   0.03341182216409097
-1.404845412967628   0.08083525646879652   0.03341182216409097
-2.2356419674955563   -0.13354382307114004   -0.03477946790523788
-2.2356419674955563   -0.13354382307114004   -0.03477946790523788
-2.2356419674955563   -0.13354382307114004   -0.03477946790523788
-2.2356419674955563   -0.13354382307114004   -0.03477946790523788
-1.7798891538702204   -0.03958719930915733   -0.016898594721612203
-1.7798891538702204   -0.03958719930915733   -0.016898594721612203
-1.7798891538702204   -0.03958719930915733   -0.016898594721612203
-1.7798891538702204   -0.03958719930915733   -0.016898594721612203
-2.195466826505147   -0.06455075656366283   0.09710317053931297
-2.195466826505147   -0.06455075656366283   0.09710317053931297
-2.195466826505147   -0.06455075656366283   0.09710317053931297
-2.195466826505147   -0.06455075656366283   0.09710317053931297
-1.4282936875175025   0.02856905640185331   -0.031563350518325026
-1.4282936875175025   0.02856905640185331   -0.031563350518325026
-1.4282936875175025   0.02856905640185331   -0.031563350518325026
-1.4282936875175025   0.02856905640185331   -0.031563350518325026
-1.3792648731097379   0.14086339164349942   0.06066298979690542
-1.3792648731097379   0.14086339164349942   0.06066298979690542
-1.3792648731097379   0.14086339164349942   0.06066298979690542
-1.3792648731097379   0.14086339164349942   0.06066298979690542
-2.1738061116690246   -0.1077320577324199   -0.05687869077263226
-2.1738061116690246   -0.1077320577324199   -0.05687869077263226
-2.1738061116690246   -0.1077320577324199   -0.05687869077263226
-2.1738061116690246   -0.1077320577324199   -0.05687869077263226
-1.7117819569733794   0.015988348716892864   0.03794631385592685
-1.7117819569733794   0.015988348716892864   0.03794631385592685
-1.7117819569733794   0.015988348716892864   0.03794631385592685
-1.7117819569733794   0.015988348716892864   0.03794631385592685
-1.428416175992045   -0.1893846459704851   -0.024905049118825625
-1.428416175992045   -0.1893846459704851   -0.024905049118825625
-1.428416175992045   -0.1893846459704851   -0.024905049118825625
-1.428416175992045   -0.1893846459704851   -0.024905049118825625
-0.6581565202033567   -0.01467802482428976   0.006974552449921699
-0.6581565202033567   -0.01467802482428976   0.006974552449921699
-0.6581565202033567   -0.01467802482428976   0.006974552449921699
-0.6581565202033567   -0.01467802482428976   0.006974552449921699
-0.6677625327457872   0.012656802870622902   0.00998268593793554
-0.6677625327457872   0.012656802870622902   0.00998268593793554
-0.6677625327457872   0.012656802870622902   0.00998268593793554
-0.6677625327457872   0.012656802870622902   0.00998268593793554
-1.4567109444492656   -0.13861995602023197   -0.04289938430616566
-1.4567109444492656   -0.13861995602023197   -0.04289938430616566
-1.4567109444492656   -0.13861995602023197   -0.04289938430616566
-1.4567109444492656   -0.13861995602023197   -0.04289938430616566
-1.0527358637160804   -0.08549741462193233   -0.024151391700636224
-1.0527358637160804   -0.08549741462193233   -0.024151391700636224
-1.0527358637160804   -0.08549741462193233   -0.024151391700636224
-1.0527358637160804   -0.08549741462193233   -0.024151391700636224
-1.4553337999555243   -0.15148392610870948   -0.023149691748989468
-1.4553337999555243   -0.15148392610870948   -0.023149691748989468
-1.4553337999555243   -0.15148392610870948   -0.023149691748989468
-1.4553337999555243   -0.15148392610870948   -0.023149691748989468
-0.6665442584682123   0.028116191730417683   0.0006146684660216922
-0.6665442584682123   0.028116191730417683   0.0006146684660216922
-0.6665442584682123   0.028116191730417683   0.0006146684660216922
-0.6665442584682123   0.028116191730417683   0.0006146684660216922
-0.6652270673000537   0.04638972253786669   0.013543232362895355
-0.6652270673000537   0.04638972253786669   0.013543232362895355
-0.6652270673000537   0.04638972253786669   0.013543232362895355
-0.6652270673000537   0.04638972253786669   0.013543232362895355
-1.4572890973583523   -0.10157010884690351   -0.046401234473830384
-1.4572890973583523   -0.10157010884690351   -0.046401234473830384
-1.4572890973583523   -0.10157010884690351   -0.046401234473830384
-1.4572890973583523   -0.10157010884690351   -0.046401234473830384
-1.0506751735566693   -0.0475760303823288   -0.01148322303246576
-1.0506751735566693   -0.0475760303823288   -0.01148322303246576
-1.0506751735566693   -0.0475760303823288   -0.01148322303246576
-1.0506751735566693   -0.0475760303823288   -0.01148322303246576
-1.451585983100381   -0.11456821791746091   -0.004887554113415252
-1.451585983100381   -0.11456821791746091   -0.004887554113415252
-1.451585983100381   -0.11456821791746091   -0.004887554113415252
-1.451585983100381   -0.11456821791746091   -0.004887554113415252
-0.666110504349912   0.06420750881654053   -0.008691739165058318
-0.666110504349912   0.06420750881654053   -0.008691739165058318
-0.666110504349912   0.06420750881654053   -0.008691739165058318
-0.666110504349912   0.06420750881654053   -0.008691739165058318
-0.6540683516715375   0.0802726620158995   0.02718385104479383
-0.6540683516715375   0.0802726620158995   0.02718385104479383
-0.6540683516715375   0.0802726620158995   0.02718385104479383
-0.6540683516715375   0.0802726620158995   0.02718385104479383
-1.4416630750783601   -0.05876132424320285   -0.05170330415950852
-1.4416630750783601   -0.05876132424320285   -0.05170330415950852
-1.4416630750783601   -0.05876132424320285   -0.05170330415950852
-1.4416630750783601   -0.05876132424320285   -0.05170330415950852
-1.0462651587517877   -0.011690176048714501   0.005251369769841169
-1.0462651587517877   -0.011690176048714501   0.005251369769841169
-1.0462651587517877   -0.011690176048714501   0.005251369769841169
-1.0462651587517877   -0.011690176048714501   0.005251369769841169
-0.6940123811630443   -0.15765344404430987   -0.029329333128502433
-0.6940123811630443   -0.15765344404430987   -0.029329333128502433
-0.6940123811630443   -0.15765344404430987   -0.029329333128502433
-0.6940123811630443   -0.15765344404430987   -0.029329333128502433
0.071800379169442   0.016319477539299194   0.027036279632430413
0.071800379169442   0.016319477539299194   0.027036279632430413
0.071800379169442   0.016319477539299194   0.027036279632430413
0.071800379169442   0.016319477539299194   0.027036279632430413
0.06854672853394637   0.03971438961276841   0.0021695982744510036
0.06854672853394637   0.03971438961276841   0.0021695982744510036
0.06854672853394637   0.03971438961276841   0.0021695982744510036
0.06854672853394637   0.03971438961276841   0.0021695982744510036
-0.6969224355896889   -0.10443083312371926   -0.01872919228723066
-0.6969224355896889   -0.10443083312371926   -0.01872919228723066
-0.6969224355896889   -0.10443083312371926   -0.01872919228723066
-0.6969224355896889   -0.10443083312371926   -0.01872919228723066
-0.31567098684168277   -0.052281848532427004   -0.00999656389518941
-0.31567098684168277   -0.052281848532427004   -0.00999656389518941
-0.31567098684168277   -0.052281848532427004   -0.00999656389518941
-0.31567098684168277   -0.052281848532427004   -0.00999656389518941
-0.701744415684326   -0.12019312005216916   -0.0270768058319663
-0.701744415684326   -0.12019312005216916   -0.0270768058319663
-0.701744415684326   -0.12019312005216916   -0.0270768058319663
-0.701744415684326   -0.12019312005216916   -0.0270768058319663
0.07604550703361902   0.05815347494625417   0.02122440543932847
0.07604550703361902   0.05815347494625417   0.02122440543932847
0.07604550703361902   0.05815347494625417   0.02122440543932847
0.07604550703361902   0.05815347494625417   0.02122440543932847
0.07402215546592761   0.07683896742985567   0.012564312166449165
0.07402215546592761   0.07683896742985567   0.012564312166449165
0.07402215546592761   0.07683896742985567   0.012564312166449165
0.07402215546592761   0.07683896742985567   0.012564312166449165
-0.6946314517092472   -0.0637191321807811   -0.02336983496442465
-0.6946314517092472   -0.0637191321807811   -0.02336983496442465
-0.6946314517092472   -0.0637191321807811   -0.02336983496442465
-0.6946314517092472   -0.0637191321807811   -0.02336983496442465
-0.31069744101525876   -0.012830691429146043   0.0037066138198153555
-0.31069744101525876   -0.012830691429146043   0.0037066138198153555
-0.31069744101525876   -0.012830691429146043   0.0037066138198153555
-0.31069744101525876   -0.012830691429146043   0.0037066138198153555
-0.6964972139559785   -0.08255110380298986   -0.013866674575872408
-0.6964972139559785   -0.08255110380298986   -0.013866674575872408
-0.6964972139559785   -0.08255110380298986   -0.013866674575872408
-0.6964972139559785   -0.08255110380298986   -0.013866674575872408
0.07876852389643436   0.09855154523584109   0.01458357651299709
0.07876852389643436   0.09855154523584109   0.01458357651299709
0.07876852389643436   0.09855154523584109   0.01458357651299709
0.07876852389643436   0.09855154523584109   0.01458357651299709
0.07578531015068185   0.11813536595074946   0.0206758118002238
0.07578531015068185   0.11813536595074946   0.0206758118002238
0.07578531015068185   0.11813536595074946   0.0206758118002238
0.07578531015068185   0.11813536595074946   0.0206758118002238
-0.6854894515345363   -0.02019996324083803   -0.029449023013459266
-0.6854894515345363   -0.02019996324083803   -0.029449023013459266
-0.6854894515345363   -0.02019996324083803   -0.029449023013459266
-0.6854894515345363   -0.02019996324083803   -0.029449023013459266
-0.302870964355994   0.02842599952689026   0.018708338473670733
-0.302870964355994   0.02842599952689026   0.018708338473670733
-0.302870964355994   0.02842599952689026   0.018708338473670733
-0.302870964355994   0.02842599952689026   0.018708338473670733
0.03280600307886474   -0.11557891545169821   -0.036037207829458455
0.03280600307886474   -0.11557891545169821   -0.036037207829458455
0.03280600307886474   -0.11557891545169821   -0.036037207829458455
0.03280600307886474   -0.11557891545169821   -0.036037207829458455
0.8261629736799972   0.05699821880706238   0.049632180099311224
0.8261629736799972   0.05699821880706238   0.049632180099311224
0.8261629736799972   0.05699821880706238   0.049632180099311224
0.8261629736799972   0.05699821880706238   0.049632180099311224
0.8252111858510301   0.07681825728982625   -0.007945310344858805
0.8252111858510301   0.07681825728982625   -0.007945310344858805
0.8252111858510301   0.07681825728982625   -0.007945310344858805
0.8252111858510301   0.07681825728982625   -0.007945310344858805
0.047286394112057456   -0.06940605944609907   0.004988375223873853
0.047286394112057456   -0.06940605944609907   0.004988375223873853
0.047286394112057456   -0.06940605944609907   0.004988375223873853
0.047286394112057456   -0.06940605944609907   0.004988375223873853
0.42752991293092135   -0.00992257590171676   0.0008912940979558352
0.42752991293092135   -0.00992257590171676   0.0008912940979558352
0.42752991293092135   -0.00992257590171676   0.0008912940979558352
0.42752991293092135   -0.00992257590171676   0.0008912940979558352
0.03789913711163724   -0.08443823686162145   -0.026915732362704333
0.03789913711163724   -0.08443823686162145   -0.026915732362704333
0.03789913711163724   -0.08443823686162145   -0.026915732362704333
0.03789913711163724   -0.08443823686162145   -0.026915732362704333
0.8394120333002868   0.09666402515418399   0.043213159037059704
0.8394120333002868   0.09666402515418399   0.043213159037059704
0.8394120333002868   0.09666402515418399   0.043213159037059704
0.8394120333002868   0.09666402515418399   0.043213159037059704
0.8318077352789535   0.11353909279618979   0.008359697368019848
0.8318077352789535   0.11353909279618979   0.008359697368019848
0.8318077352789535   0.11353909279618979   0.008359697368019848
0.8318077352789535   0.11353909279618979   0.008359697368019848
0.049056432997503285   -0.03301769032389267   -0.0024076424219240423
0.049056432997503285   -0.03301769032389267   -0.0024076424219240423
0.049056432997503285   -0.03301769032389267   -0.0024076424219240423
0.049056432997503285   -0.03301769032389267   -0.0024076424219240423
0.4333176441083336   0.02517583353459972   0.017732985028604768
0.4333176441083336   0.02517583353459972   0.017732985028604768
0.4333176441083336   0.02517583353459972   0.017732985028604768
0.4333176441083336   0.02517583353459972   0.017732985028604768
0.0422120225092775   -0.04998455522394872   -0.019662829962996703
0.0422120225092775   -0.04998455522394872   -0.019662829962996703
0.0422120225092775   -0.04998455522394872   -0.019662829962996703
0.0422120225092775   -0.04998455522394872   -0.019662829962996703
0.8421358971522227   0.1339897090812857   0.03954989044925617
0.8421358971522227   0.1339897090812857   0.03954989044925617
0.8421358971522227   0.1339897090812857   0.03954989044925617
0.8421358971522227   0.1339897090812857   0.03954989044925617
0.8185206417454279   0.15591864687619797   0.01760284916419757
0.8185206417454279   0.15591864687619797   0.01760284916419757
0.8185206417454279   0.15591864687619797   0.01760284916419757
0.8185206417454279   0.15591864687619797   0.01760284916419757
0.048683431353639915   0.012037945673745014   -0.0087361619079814
0.048683431353639915   0.012037945673745014   -0.0087361619079814
0.048683431353639915   0.012037945673745014   -0.0087361619079814
0.048683431353639915   0.012037945673745014   -0.0087361619079814
0.4398047071629602   0.06529956092658895   0.03332589561100155
0.4398047071629602   0.06529956092658895   0.03332589561100155
0.4398047071629602   0.06529956092658895   0.03332589561100155
0.4398047071629602   0.06529956092658895   0.03332589561100155
0.7610070389823139   -0.1524995695045632   -0.06664970507747975
0.7610070389823139   -0.1524995695045632   -0.06664970507747975
0.7610070389823139   -0.1524995695045632   -0.06664970507747975
0.7610070389823139   -0.1524995695045632   -0.06664970507747975
1.567229842422432   0.1035210437301807   0.04839267519555147
1.567229842422432   0.1035210437301807   0.04839267519555147
1.567229842422432   0.1035210437301807   0.04839267519555147
1.567229842422432   0.1035210437301807   0.04839267519555147
1.585043101631125   0.04905904465771732   -0.10026360832892416
1.585043101631125   0.04905904465771732   -0.10026360832892416
1.585043101631125   0.04905904465771732   -0.10026360832892416
1.585043101631125   0.04905904465771732   -0.10026360832892416
0.8109831903266604   -0.031219675286771442   0.028952644609876732
0.8109831903266604   -0.031219675286771442   0.028952644609876732
0.8109831903266604   -0.031219675286771442   0.028952644609876732
0.8109831903266604   -0.031219675286771442   0.028952644609876732
1.1223403066360618   -0.019652314465244958   -0.02811242042632646
1.1223403066360618   -0.019652314465244958   -0.02811242042632646
1.1223403066360618   -0.019652314465244958   -0.02811242042632646
1.1223403066360618   -0.019652314465244958   -0.02811242042632646
0.7825388509995607   -0.10023902438773877   -0.04424970292464443
0.7825388509995607   -0.10023902438773877   -0.04424970292464443
0.7825388509995607   -0.10023902438773877   -0.04424970292464443
0.7825388509995607   -0.10023902438773877   -0.04424970292464443
1.6278894343518644   0.13248038715232674   0.030546712780163604
1.6278894343518644   0.13248038715232674   0.030546712780163604
1.6278894343518644   0.13248038715232674   0.030546712780163604
1.6278894343518644   0.13248038715232674   0.030546712780163604
1.6026197973017446   0.08945569155473665   -0.022755770298059058
1.6026197973017446   0.08945569155473665   -0.022755770298059058
1.6026197973017446   0.08945569155473665   -0.022755770298059058
1.6026197973017446   0.08945569155473665   -0.022755770298059058
0.8078029562811878   -0.013069702855862564   0.014944598031230605
0.8078029562811878   -0.013069702855862564   0.014944598031230605
0.8078029562811878   -0.013069702855862564   0.014944598031230605
0.8078029562811878   -0.013069702855862564   0.014944598031230605
1.1812134460200248   0.02951178985868899   0.019418616423808106
1.1812134460200248   0.02951178985868899   0.019418616423808106
1.1812134460200248   0.02951178985868899   0.019418616423808106
1.1812134460200248   0.02951178985868899   0.019418616423808106
0.7849749407162012   -0.07664596852722633   -0.03561921412233243
0.7849749407162012   -0.07664596852722633   -0.03561921412233243
0.7849749407162012   -0.07664596852722633   -0.03561921412233243
0.7849749407162012   -0.07664596852722633   -0.03561921412233243
1.6235466167687527   0.15113076112812301   0.020203257463593888
1.6235466167687527   0.15113076112812301   0.020203257463593888
1.6235466167687527   0.15113076112812301   0.020203257463593888
1.6235466167687527   0.15113076112812301   0.020203257463593888
1.6000694208650352   0.137011664604886   -0.034817831879395425
1.6000694208650352   0.137011664604886   -0.034817831879395425
1.6000694208650352   0.137011664604886   -0.034817831879395425
1.6000694208650352   0.137011664604886   -0.034817831879395425
0.791229200294628   0.028744732937418443   0.00831955584896378
0.791229200294628   0.028744732937418443   0.00831955584896378
0.791229200294628   0.028744732937418443   0.00831955584896378
0.791229200294628   0.028744732937418443   0.00831955584896378
1.1511001464905133   0.051764002695395994   0.014424246108887942
1.1511001464905133   0.051764002695395994   0.014424246108887942
1.1511001464905133   0.051764002695395994   0.014424246108887942
1.1511001464905133   0.051764002695395994   0.014424246108887942
-1.7207823773661708   -0.078084973879257   0.08864424943773373
-1.7207823773661708   -0.078084973879257   0.08864424943773373
-1.7207823773661708   -0.078084973879257   0.08864424943773373
-1.7207823773661708   -0.078084973879257   0.08864424943773373
-1.1428936834282575   -0.04345987697882306   -0.023065522403742857
-1.1428936834282575   -0.04345987697882306   -0.023065522403742857
-1.1428936834282575   -0.04345987697882306   -0.023065522403742857
-1.1428936834282575   -0.04345987697882306   -0.023065522403742857
-1.1016480098499934   0.09263124464916017   0.07436344274756719
-1.1016480098499934   0.09263124464916017   0.07436344274756719
-1.1016480098499934   0.09263124464916017   0.07436344274756719
-1.1016480098499934   0.09263124464916017   0.07436344274756719
-1.728694204137166   -0.12343059653762345   -0.0361380908361157
-1.728694204137166   -0.12343059653762345   -0.0361380908361157
-1.728694204137166   -0.12343059653762345   -0.0361380908361157
-1.728694204137166   -0.12343059653762345   -0.0361380908361157
-1.3657091861395971   -0.02111582507275367   -0.0025463747756204747
-1.3657091861395971   -0.02111582507275367   -0.0025463747756204747
-1.3657091861395971   -0.02111582507275367   -0.0025463747756204747
-1.3657091861395971   -0.02111582507275367   -0.0025463747756204747
-1.6805488939922018   -0.018158373382148707   0.09931623673323094
-1.6805488939922018   -0.018158373382148707   0.09931623673323094
-1.6805488939922018   -0.018158373382148707   0.09931623673323094
-1.6805488939922018   -0.018158373382148707   0.09931623673323094
-1.1422110329310642   -0.005058691442420993   -0.030761736566205275
-1.1422110329310642   -0.005058691442420993   -0.030761736566205275
-1.1422110329310642   -0.005058691442420993   -0.030761736566205275
-1.1422110329310642   -0.005058691442420993   -0.030761736566205275
-1.0971296101577879   0.11489945721311856   0.06892457617828653
-1.0971296101577879   0.11489945721311856   0.06892457617828653
-1.0971296101577879   0.11489945721311856   0.06892457617828653
-1.0971296101577879   0.11489945721311856   0.06892457617828653
-1.7018716377316991   -0.10324260764697263   -0.04947474411790767
-1.7018716377316991   -0.10324260764697263   -0.04947474411790767
-1.7018716377316991   -0.10324260764697263   -0.04947474411790767
-1.7018716377316991   -0.10324260764697263   -0.04947474411790767
-1.3685757104443852   0.005046721284141686   0.015760946349809207
-1.3685757104443852   0.005046721284141686   0.015760946349809207
-1.3685757104443852   0.005046721284141686   0.015760946349809207
-1.3685757104443852   0.005046721284141686   0.015760946349809207
-1.6570397951106157   0.0028507310458357193   0.06859113029470022
-1.6570397951106157   0.0028507310458357193   0.06859113029470022
-1.6570397951106157   0.0028507310458357193   0.06859113029470022
-1.6570397951106157   0.0028507310458357193   0.06859113029470022
-1.139462792911074   0.011304778388106562   -0.03914665876312161
-1.139462792911074   0.011304778388106562   -0.03914665876312161
-1.139462792911074   0.011304778388106562   -0.03914665876312161
-1.139462792911074   0.011304778388106562   -0.03914665876312161
-1.0981682859303983   0.12970919715997586   0.054689757950719994
-1.0981682859303983   0.12970919715997586   0.054689757950719994
-1.0981682859303983   0.12970919715997586   0.054689757950719994
-1.0981682859303983   0.12970919715997586   0.054689757950719994
-1.6670682965993036   -0.08177938866905399   -0.06308694223729451
-1.6670682965993036   -0.08177938866905399   -0.06308694223729451
-1.6670682965993036   -0.08177938866905399   -0.06308694223729451
-1.6670682965993036   -0.08177938866905399   -0.06308694223729451
-1.329207603600671   0.0284810436543263   0.03281901995462928
-1.329207603600671   0.0284810436543263   0.03281901995462928
-1.329207603600671   0.0284810436543263   0.03281901995462928
-1.329207603600671   0.0284810436543263   0.03281901995462928
-1.1462859026924574   -0.10866342579400604   0.025176930090441134
-1.1462859026924574   -0.10866342579400604   0.025176930090441134
-1.1462859026924574   -0.10866342579400604   0.025176930090441134
-1.1462859026924574   -0.10866342579400604   0.025176930090441134
-0.5789707418695591   -0.02095661394764177   0.0011055322614558945
-0.5789707418695591   -0.02095661394764177   0.0011055322614558945
-0.5789707418695591   -0.02095661394764177   0.0011055322614558945
-0.5789707418695591   -0.02095661394764177   0.0011055322614558945
-0.5625253301436697   0.05687950290360813   0.040412296007439036
-0.5625253301436697   0.05687950290360813   0.040412296007439036
-0.5625253301436697   0.05687950290360813   0.040412296007439036
-0.5625253301436697   0.05687950290360813   0.040412296007439036
-1.1645047700462794   -0.10716112437760664   -0.040127989207104316
-1.1645047700462794   -0.10716112437760664   -0.040127989207104316
-1.1645047700462794   -0.10716112437760664   -0.040127989207104316
-1.1645047700462794   -0.10716112437760664   -0.040127989207104316
-0.8600093118628324   -0.04220271001653525   -0.01743985862691294
-0.8600093118628324   -0.04220271001653525   -0.01743985862691294
-0.8600093118628324   -0.04220271001653525   -0.01743985862691294
-0.8600093118628324   -0.04220271001653525   -0.01743985862691294
-1.1426430757831332   -0.06235219489963917   0.024371552630665955
-1.1426430757831332   -0.06235219489963917   0.024371552630665955
-1.1426430757831332   -0.06235219489963917   0.024371552630665955
-1.1426430757831332   -0.06235219489963917   0.024371552630665955
-0.5799578612424318   0.016499736590029207   -0.006370593172788118
-0.5799578612424318   0.016499736590029207   -0.006370593172788118
-0.5799578612424318   0.016499736590029207   -0.006370593172788118
-0.5799578612424318   0.016499736590029207   -0.006370593172788118
-0.5607165010270766   0.09401672253724044   0.03496032611561339
-0.5607165010270766   0.09401672253724044   0.03496032611561339
-0.5607165010270766   0.09401672253724044   0.03496032611561339
-0.5607165010270766   0.09401672253724044   0.03496032611561339
-1.1578711067117118   -0.07250119695363708   -0.04738225242457766
-1.1578711067117118   -0.07250119695363708   -0.04738225242457766
-1.1578711067117118   -0.07250119695363708   -0.04738225242457766
-1.1578711067117118   -0.07250119695363708   -0.04738225242457766
-0.8505911518467425   -0.004634963939560338   -7.018371240589266e-05
-0.8505911518467425   -0.004634963939560338   -7.018371240589266e-05
-0.8505911518467425   -0.004634963939560338   -7.018371240589266e-05
-0.8505911518467425   -0.004634963939560338   -7.018371240589266e-05
-1.1355633705888712   -0.02467805862586836   0.01633328986185653
-1.1355633705888712   -0.02467805862586836   0.01633328986185653
-1.1355633705888712   -0.02467805862586836   0.01633328986185653
-1.1355633705888712   -0.02467805862586836   0.01633328986185653
-0.579417785672861   0.0498000356865306   -0.014329410262590249
-0.579417785672861   0.0498000356865306   -0.014329410262590249
-0.579417785672861   0.0498000356865306   -0.014329410262590249
-0.579417785672861   0.0498000356865306   -0.014329410262590249
-0.5605237908713989   0.1330458476912066   0.026193271305577512
-0.5605237908713989   0.1330458476912066   0.026193271305577512
-0.5605237908713989   0.1330458476912066   0.026193271305577512
-0.5605237908713989   0.1330458476912066   0.026193271305577512
-1.152264643210028   -0.03509570565577155   -0.05098712563168845
-1.152264643210028   -0.03509570565577155   -0.05098712563168845
-1.152264643210028   -0.03509570565577155   -0.05098712563168845
-1.152264643210028   -0.03509570565577155   -0.05098712563168845
-0.8511119744660905   0.029823681259382923   0.013208993462216524
-0.8511119744660905   0.029823681259382923   0.013208993462216524
-0.8511119744660905   0.029823681259382923   0.013208993462216524
-0.8511119744660905   0.029823681259382923   0.013208993462216524
-0.6005301374708077   -0.12423624471143642   -0.0034118149809978546
-0.6005301374708077   -0.12423624471143642   -0.0034118149809978546
-0.6005301374708077   -0.12423624471143642   -0.0034118149809978546
-0.6005301374708077   -0.12423624471143642   -0.0034118149809978546
-0.02026393604198513   0.006115405361955676   0.025643984691171268
-0.02026393604198513   0.006115405361955676   0.025643984691171268
-0.02026393604198513   0.006115405361955676   0.025643984691171268
-0.02026393604198513   0.006115405361955676   0.025643984691171268
-0.02243426929103852   0.03666430154161652   0.012258314740797778
-0.02243426929103852   0.03666430154161652   0.012258314740797778
-0.02243426929103852   0.03666430154161652   0.012258314740797778
-0.02243426929103852   0.03666430154161652   0.012258314740797778
-0.6009068547052097   -0.07960454698375549   -0.015011276912896963
-0.6009068547052097   -0.07960454698375549   -0.015011276912896963
-0.6009068547052097   -0.07960454698375549   -0.015011276912896963
-0.6009068547052097   -0.07960454698375549   -0.015011276912896963
-0.3119887336853341   -0.03895720885344031   -0.009764649523834032
-0.3119887336853341   -0.03895720885344031   -0.009764649523834032
-0.3119887336853341   -0.03895720885344031   -0.009764649523834032
-0.3119887336853341   -0.03895720885344031   -0.009764649523834032
-0.6002597181772976   -0.08302373286267772   -0.008356408394414457
-0.6002597181772976   -0.08302373286267772   -0.008356408394414457
-0.6002597181772976   -0.08302373286267772   -0.008356408394414457
-0.6002597181772976   -0.08302373286267772   -0.008356408394414457
-0.019779890516882392   0.04338500272260699   0.018809507430588186
-0.019779890516882392   0.04338500272260699   0.018809507430588186
-0.019779890516882392   0.04338500272260699   0.018809507430588186
-0.019779890516882392   0.04338500272260699   0.018809507430588186
-0.019667515779564444   0.07712275330784225   0.005875656549009397
-0.019667515779564444   0.07712275330784225   0.005875656549009397
-0.019667515779564444   0.07712275330784225   0.005875656549009397
-0.019667515779564444   0.07712275330784225   0.005875656549009397
-0.5993673271045227   -0.04227054005930152   -0.022006541675072457
-0.5993673271045227   -0.04227054005930152   -0.022006541675072457
-0.5993673271045227   -0.04227054005930152   -0.022006541675072457
-0.5993673271045227   -0.04227054005930152   -0.022006541675072457
-0.30893196733389977   -0.0015497344838532462   0.004270926164093056
-0.30893196733389977   -0.0015497344838532462   0.004270926164093056
-0.30893196733389977   -0.0015497344838532462   0.004270926164093056
-0.30893196733389977   -0.0015497344838532462   0.004270926164093056
-0.5984660160930614   -0.04313848616672576   -0.016632040510341447
-0.5984660160930614   -0.04313848616672576   -0.016632040510341447
-0.5984660160930614   -0.04313848616672576   -0.016632040510341447
-0.5984660160930614   -0.04313848616672576   -0.016632040510341447
-0.017842864265849596   0.0807166619404466   0.011405005484979655
-0.017842864265849596   0.0807166619404466   0.011405005484979655
-0.017842864265849596   0.0807166619404466   0.011405005484979655
-0.017842864265849596   0.0807166619404466   0.011405005484979655
-0.019057332699556923   0.11878946287309973   -0.0009340112787498273
-0.019057332699556923   0.11878946287309973   -0.0009340112787498273
-0.019057332699556923   0.11878946287309973   -0.0009340112787498273
-0.019057332699556923   0.11878946287309973   -0.0009340112787498273
-0.599047229504552   -0.004302306668959338   -0.029075767500026467
-0.599047229504552   -0.004302306668959338   -0.029075767500026467
-0.599047229504552   -0.004302306668959338   -0.029075767500026467
-0.599047229504552   -0.004302306668959338   -0.029075767500026467
-0.3065517815737445   0.035893380626050256   0.017142318883420007
-0.3065517815737445   0.035893380626050256   0.017142318883420007
-0.3065517815737445   0.035893380626050256   0.017142318883420007
-0.3065517815737445   0.035893380626050256   0.017142318883420007
-0.059781044407933165   -0.13606854265475712   -0.029757609121855877
-0.059781044407933165   -0.13606854265475712   -0.029757609121855877
-0.059781044407933165   -0.13606854265475712   -0.029757609121855877
-0.059781044407933165   -0.13606854265475712   -0.029757609121855877
0.536298587025766   0.03779926237252096   0.04875507435819925
0.536298587025766   0.03779926237252096   0.04875507435819925
0.536298587025766   0.03779926237252096   0.04875507435819925
0.536298587025766   0.03779926237252096   0.04875507435819925
0.518749851545881   0.020040561852193647   -0.01924197571848614
0.518749851545881   0.020040561852193647   -0.01924197571848614
0.518749851545881   0.020040561852193647   -0.01924197571848614
0.518749851545881   0.020040561852193647   -0.01924197571848614
-0.040078229126789246   -0.049796023248465646   0.010498840352126561
-0.040078229126789246   -0.049796023248465646   0.010498840352126561
-0.040078229126789246   -0.049796023248465646   0.010498840352126561
-0.040078229126789246   -0.049796023248465646   0.010498840352126561
0.23541402885412532   -0.031516281122531895   -0.0055131595934663075
0.23541402885412532   -0.031516281122531895   -0.0055131595934663075
0.23541402885412532   -0.031516281122531895   -0.0055131595934663075
0.23541402885412532   -0.031516281122531895   -0.0055131595934663075
-0.05954210401667155   -0.09924395465480813   -0.03737260269094249
-0.05954210401667155   -0.09924395465480813   -0.03737260269094249
-0.05954210401667155   -0.09924395465480813   -0.03737260269094249
-0.05954210401667155   -0.09924395465480813   -0.03737260269094249
0.5419688064238918   0.07324357324666207   0.04364978727709941
0.5419688064238918   0.07324357324666207   0.04364978727709941
0.5419688064238918   0.07324357324666207   0.04364978727709941
0.5419688064238918   0.07324357324666207   0.04364978727709941
0.5271749930330387   0.05768139516474204   -0.0270307750142783
0.5271749930330387   0.05768139516474204   -0.0270307750142783
0.5271749930330387   0.05768139516474204   -0.0270307750142783
0.5271749930330387   0.05768139516474204   -0.0270307750142783
-0.038929739754547776   -0.016346039213831782   0.0030333291957673585
-0.038929739754547776   -0.016346039213831782   0.0030333291957673585
-0.038929739754547776   -0.016346039213831782   0.0030333291957673585
-0.038929739754547776   -0.016346039213831782   0.0030333291957673585
0.23751233433627053   0.002327847399991416   0.008434471186100212
0.23751233433627053   0.002327847399991416   0.008434471186100212
0.23751233433627053   0.002327847399991416   0.008434471186100212
0.23751233433627053   0.002327847399991416   0.008434471186100212
-0.05786018798783537   -0.0629270635612314   -0.04503788762327136
-0.05786018798783537   -0.0629270635612314   -0.04503788762327136
-0.05786018798783537   -0.0629270635612314   -0.04503788762327136
-0.05786018798783537   -0.0629270635612314   -0.04503788762327136
0.5501977187338947   0.10835469697970992   0.037409551675033424
0.5501977187338947   0.10835469697970992   0.037409551675033424
0.5501977187338947   0.10835469697970992   0.037409551675033424
0.5501977187338947   0.10835469697970992   0.037409551675033424
0.532376390957584   0.1048789369322321   -0.02822416521948229
0.532376390957584   0.1048789369322321   -0.02822416521948229
0.532376390957584   0.1048789369322321   -0.02822416521948229
0.532376390957584   0.1048789369322321   -0.02822416521948229
-0.038962984911147636   0.022741284640471274   -0.004414094104074638
-0.038962984911147636   0.022741284640471274   -0.004414094104074638
-0.038962984911147636   0.022741284640471274   -0.004414094104074638
-0.038962984911147636   0.022741284640471274   -0.004414094104074638
0.24575535783914185   0.04006428043871389   0.02499646193604181
0.24575535783914185   0.04006428043871389   0.02499646193604181
0.24575535783914185   0.04006428043871389   0.02499646193604181
0.24575535783914185   0.04006428043871389   0.02499646193604181
0.4803742668130473   -0.13511838274781582   -0.05794888158505441
0.4803742668130473   -0.13511838274781582   -0.05794888158505441
0.4803742668130473   -0.13511838274781582   -0.05794888158505441
0.4803742668130473   -0.13511838274781582   -0.05794888158505441
1.0563558126816752   0.07848712022675061   0.054237078510964785
1.0563558126816752   0.07848712022675061   0.054237078510964785
1.0563558126816752   0.07848712022675061   0.054237078510964785
1.0563558126816752   0.07848712022675061   0.054237078510964785
1.0481266812017787   -0.005008269992337944   -0.0771338197930817
1.0481266812017787   -0.005008269992337944   -0.0771338197930817
1.0481266812017787   -0.005008269992337944   -0.0771338197930817
1.0481266812017787   -0.005008269992337944   -0.0771338197930817
0.5236201272777158   -0.011257970950997953   0.03640793574388542
0.5236201272777158   -0.011257970950997953   0.03640793574388542
0.5236201272777158   -0.011257970950997953   0.03640793574388542
0.5236201272777158   -0.011257970950997953   0.03640793574388542
0.7393959052414363   -0.026367886862068812   -0.024266664350527774
0.7393959052414363   -0.026367886862068812   -0.024266664350527774
0.7393959052414363   -0.026367886862068812   -0.024266664350527774
0.7393959052414363   -0.026367886862068812   -0.024266664350527774
0.48087545620795547   -0.11728869095305719   -0.0712846996028548
0.48087545620795547   -0.11728869095305719   -0.0712846996028548
0.48087545620795547   -0.11728869095305719   -0.0712846996028548
0.48087545620795547   -0.11728869095305719   -0.0712846996028548
1.093941925244249   0.10409302298243425   0.0428411074444979
1.093941925244249   0.10409302298243425   0.0428411074444979
1.093941925244249   0.10409302298243425   0.0428411074444979
1.093941925244249   0.10409302298243425   0.0428411074444979
1.073865406873937   0.016461493361733165   -0.10346187147353983
1.073865406873937   0.016461493361733165   -0.10346187147353983
1.073865406873937   0.016461493361733165   -0.10346187147353983
1.073865406873937   0.016461493361733165   -0.10346187147353983
0.5274950485258176   0.005120480471845185   0.0271304171425212
0.5274950485258176   0.005120480471845185   0.0271304171425212
0.5274950485258176   0.005120480471845185   0.0271304171425212
0.5274950485258176   0.005120480471845185   0.0271304171425212
0.7728883412723125   -0.003155510037407161   -0.007398670428542781
0.7728883412723125   -0.003155510037407161   -0.007398670428542781
0.7728883412723125   -0.003155510037407161   -0.007398670428542781
0.7728883412723125   -0.003155510037407161   -0.007398670428542781
0.4863569531933303   -0.09586311574107928   -0.0775764633069953
0.4863569531933303   -0.09586311574107928   -0.0775764633069953
0.4863569531933303   -0.09586311574107928   -0.0775764633069953
0.4863569531933303   -0.09586311574107928   -0.0775764633069953
1.12178648691935   0.1242280742875817   0.028376947827686988
1.12178648691935   0.1242280742875817   0.028376947827686988
1.12178648691935   0.1242280742875817   0.028376947827686988
1.12178648691935   0.1242280742875817   0.028376947827686988
1.1147327868827022   0.07231709055978386   -0.0973222426272833
1.1147327868827022   0.07231709055978386   -0.0973222426272833
1.1147327868827022   0.07231709055978386   -0.0973222426272833
1.1147327868827022   0.07231709055978386   -0.0973222426272833
0.5292676427701852   0.04129869474118014   0.019812336034585588
0.5292676427701852   0.04129869474118014   0.019812336034585588
0.5292676427701852   0.04129869474118014   0.019812336034585588
0.5292676427701852   0.04129869474118014   0.019812336034585588
0.7786344377562484   0.023385295829580377   0.011268082524912487
0.7786344377562484   0.023385295829580377   0.011268082524912487
0.7786344377562484   0.023385295829580377   0.011268082524912487
0.7786344377562484   0.023385295829580377   0.011268082524912487
-1.2297712442970232   -0.04016225060827097   0.08030017031778333
-1.2297712442970232   -0.04016225060827097   0.08030017031778333
-1.2297712442970232   -0.04016225060827097   0.08030017031778333
-1.2297712442970232   -0.04016225060827097   0.08030017031778333
-0.8605013303245385   -0.057498379039462866   -0.030324090555521925
-0.8605013303245385   -0.057498379039462866   -0.030324090555521925
-0.8605013303245385   -0.057498379039462866   -0.030324090555521925
-0.8605013303245385   -0.057498379039462866   -0.030324090555521925
-0.8099231246242927   0.08124515675285135   0.06846959610338503
-0.8099231246242927   0.08124515675285135   0.06846959610338503
-0.8099231246242927   0.08124515675285135   0.06846959610338503
-0.8099231246242927   0.08124515675285135   0.06846959610338503
-1.2298661697286093   -0.10123759883473782   -0.04435787779258196
-1.2298661697286093   -0.10123759883473782   -0.04435787779258196
-1.2298661697286093   -0.10123759883473782   -0.04435787779258196
-1.2298661697286093   -0.10123759883473782   -0.04435787779258196
-0.9902196267746186   -0.01577754816262597   -0.0021972718101136157
-0.9902196267746186   -0.01577754816262597   -0.0021972718101136157
-0.9902196267746186   -0.01577754816262597   -0.0021972718101136157
-0.9902196267746186   -0.01577754816262597   -0.0021972718101136157
-1.1838623139438118   0.008040133439670194   0.07638366885699836
-1.1838623139438118   0.008040133439670194   0.07638366885699836
-1.1838623139438118   0.008040133439670194   0.07638366885699836
-1.1838623139438118   0.008040133439670194   0.07638366885699836
-0.8521838234135054   -0.02428941852597105   -0.03729932256385224
-0.8521838234135054   -0.02428941852597105   -0.03729932256385224
-0.8521838234135054   -0.02428941852597105   -0.03729932256385224
-0.8521838234135054   -0.02428941852597105   -0.03729932256385224
-0.8022948525497033   0.09813994351324823   0.057861226501200735
-0.8022948525497033   0.09813994351324823   0.057861226501200735
-0.8022948525497033   0.09813994351324823   0.057861226501200735
-0.8022948525497033   0.09813994351324823   0.057861226501200735
-1.2007510140640303   -0.0824049382967808   -0.05607364409689791
-1.2007510140640303   -0.0824049382967808   -0.05607364409689791
-1.2007510140640303   -0.0824049382967808   -0.05607364409689791
-1.2007510140640303   -0.0824049382967808   -0.05607364409689791
-0.9832932370623253   0.006505376505436727   0.01038227365801226
-0.9832932370623253   0.006505376505436727   0.01038227365801226
-0.9832932370623253   0.006505376505436727   0.01038227365801226
-0.9832932370623253   0.006505376505436727   0.01038227365801226
-1.1551422018894035   0.028259436700799168   0.06130604177865576
-1.1551422018894035   0.028259436700799168   0.06130604177865576
-1.1551422018894035   0.028259436700799168   0.06130604177865576
-1.1551422018894035   0.028259436700799168   0.06130604177865576
-0.8445199821858074   -0.009140748945807908   -0.04598372922025623
-0.8445199821858074   -0.009140748945807908   -0.04598372922025623
-0.8445199821858074   -0.009140748945807908   -0.04598372922025623
-0.8445199821858074   -0.009140748945807908   -0.04598372922025623
-0.7980712657107306   0.11459535849581728   0.049789762698488824
-0.7980712657107306   0.11459535849581728   0.049789762698488824
-0.7980712657107306   0.11459535849581728   0.049789762698488824
-0.7980712657107306   0.11459535849581728   0.049789762698488824
-1.161757148859251   -0.05750493769320297   -0.0671348570826117
-1.161757148859251   -0.05750493769320297   -0.0671348570826117
-1.161757148859251   -0.05750493769320297   -0.0671348570826117
-1.161757148859251   -0.05750493769320297   -0.0671348570826117
-0.9463919462624056   0.027384679929997324   0.028029021072251456
-0.9463919462624056   0.027384679929997324   0.028029021072251456
-0.9463919462624056   0.027384679929997324   0.028029021072251456
-0.9463919462624056   0.027384679929997324   0.028029021072251456
-0.8508127022140307   -0.06951831523110096   0.030138986188646962
-0.8508127022140307   -0.06951831523110096   0.030138986188646962
-0.8508127022140307   -0.06951831523110096   0.030138986188646962
-0.8508127022140307   -0.06951831523110096   0.030138986188646962
-0.4934228590321639   -0.0372575454761275   -0.00489450187609463
-0.4934228590321639   -0.0372575454761275   -0.00489450187609463
-0.4934228590321639   -0.0372575454761275   -0.00489450187609463
-0.4934228590321639   -0.0372575454761275   -0.00489450187609463
-0.46835014025384153   0.047478744267841044   0.03691672422769598
-0.46835014025384153   0.047478744267841044   0.03691672422769598
-0.46835014025384153   0.047478744267841044   0.03691672422769598
-0.46835014025384153   0.047478744267841044   0.03691672422769598
-0.8636119156159415   -0.0827355585800816   -0.035993643521926286
-0.8636119156159415   -0.0827355585800816   -0.035993643521926286
-0.8636119156159415   -0.0827355585800816   -0.035993643521926286
-0.8636119156159415   -0.0827355585800816   -0.035993643521926286
-0.6663601278909198   -0.032488765181901205   -0.013611389859910648
-0.6663601278909198   -0.032488765181901205   -0.013611389859910648
-0.6663601278909198   -0.032488765181901205   -0.013611389859910648
-0.6663601278909198   -0.032488765181901205   -0.013611389859910648
-0.8408351847223867   -0.029475599165212807   0.024630051530971857
-0.8408351847223867   -0.029475599165212807   0.024630051530971857
-0.8408351847223867   -0.029475599165212807   0.024630051530971857
-0.8408351847223867   -0.029475599165212807   0.024630051530971857
-0.4882052004791925   -0.0028595444788251656   -0.012020288152393126
-0.4882052004791925   -0.0028595444788251656   -0.012020288152393126
-0.4882052004791925   -0.0028595444788251656   -0.012020288152393126
-0.4882052004791925   -0.0028595444788251656   -0.012020288152393126
-0.4623934672545755   0.08212421779589707   0.030267181865956706
-0.4623934672545755   0.08212421779589707   0.030267181865956706
-0.4623934672545755   0.08212421779589707   0.030267181865956706
-0.4623934672545755   0.08212421779589707   0.030267181865956706
-0.8519853867541914   -0.05004145790099673   -0.04241004310699495
-0.8519853867541914   -0.05004145790099673   -0.04241004310699495
-0.8519853867541914   -0.05004145790099673   -0.04241004310699495
-0.8519853867541914   -0.05004145790099673   -0.04241004310699495
-0.6535639909130074   0.00156279024436487   0.001017155823688963
-0.6535639909130074   0.00156279024436487   0.001017155823688963
-0.6535639909130074   0.00156279024436487   0.001017155823688963
-0.6535639909130074   0.00156279024436487   0.001017155823688963
-0.8274849797764666   0.0075521547453782645   0.022498379135253828
-0.8274849797764666   0.0075521547453782645   0.022498379135253828
-0.8274849797764666   0.0075521547453782645   0.022498379135253828
-0.8274849797764666   0.0075521547453782645   0.022498379135253828
-0.483265666462104   0.02815881291971896   -0.020128409295503816
-0.483265666462104   0.02815881291971896   -0.020128409295503816
-0.483265666462104   0.02815881291971896   -0.020128409295503816
-0.483265666462104   0.02815881291971896   -0.020128409295503816
-0.4566381557994782   0.11904199861211685   0.024074908297203552
-0.4566381557994782   0.11904199861211685   0.024074908297203552
-0.4566381557994782   0.11904199861211685   0.024074908297203552
-0.4566381557994782   0.11904199861211685   0.024074908297203552
-0.8432836476758279   -0.014807063418400629   -0.04686972521277886
-0.8432836476758279   -0.014807063418400629   -0.04686972521277886
-0.8432836476758279   -0.014807063418400629   -0.04686972521277886
-0.8432836476758279   -0.014807063418400629   -0.04686972521277886
-0.6486058772160299   0.033606463775593176   0.014948287255684936
-0.6486058772160299   0.033606463775593176   0.014948287255684936
-0.6486058772160299   0.033606463775593176   0.014948287255684936
-0.6486058772160299   0.033606463775593176   0.014948287255684936
-0.5038442775527391   -0.09548440655787468   0.0012252666027733187
-0.5038442775527391   -0.09548440655787468   0.0012252666027733187
-0.5038442775527391   -0.09548440655787468   0.0012252666027733187
-0.5038442775527391   -0.09548440655787468   0.0012252666027733187
-0.13012626540548586   -0.011159920482041839   0.02054109504856361
-0.13012626540548586   -0.011159920482041839   0.02054109504856361
-0.13012626540548586   -0.011159920482041839   0.02054109504856361
-0.13012626540548586   -0.011159920482041839   0.02054109504856361
-0.1269354849648034   0.019593021993488044   0.00700519823291447
-0.1269354849648034   0.019593021993488044   0.00700519823291447
-0.1269354849648034   0.019593021993488044   0.00700519823291447
-0.1269354849648034   0.019593021993488044   0.00700519823291447
-0.49831798006128075   -0.05585142796247667   -0.009592302579188224
-0.49831798006128075   -0.05585142796247667   -0.009592302579188224
-0.49831798006128075   -0.05585142796247667   -0.009592302579188224
-0.49831798006128075   -0.05585142796247667   -0.009592302579188224
-0.3153430804327498   -0.03419868652910717   -0.009674719101963578
-0.3153430804327498   -0.03419868652910717   -0.009674719101963578
-0.3153430804327498   -0.03419868652910717   -0.009674719101963578
-0.3153430804327498   -0.03419868652910717   -0.009674719101963578
-0.4975046735317314   -0.05683107912105337   -0.004546118772864559
-0.4975046735317314   -0.05683107912105337   -0.004546118772864559
-0.4975046735317314   -0.05683107912105337   -0.004546118772864559
-0.4975046735317314   -0.05683107912105337   -0.004546118772864559
-0.12481974350961832   0.023501721136799186   0.013675206365528629
-0.12481974350961832   0.023501721136799186   0.013675206365528629
-0.12481974350961832   0.023501721136799186   0.013675206365528629
-0.12481974350961832   0.023501721136799186   0.013675206365528629
-0.11974239155277358   0.058420579918587075   0.0018241226626059676
-0.11974239155277358   0.058420579918587075   0.0018241226626059676
-0.11974239155277358   0.058420579918587075   0.0018241226626059676
-0.11974239155277358   0.058420579918587075   0.0018241226626059676
-0.49235508262535405   -0.020948601255148844   -0.01646807593689016
-0.49235508262535405   -0.020948601255148844   -0.01646807593689016
-0.49235508262535405   -0.020948601255148844   -0.01646807593689016
-0.49235508262535405   -0.020948601255148844   -0.01646807593689016
-0.30766011926394105   0.0006926600098907942   0.004112428812119793
-0.30766011926394105   0.0006926600098907942   0.004112428812119793
-0.30766011926394105   0.0006926600098907942   0.004112428812119793
-0.30766011926394105   0.0006926600098907942   0.004112428812119793
-0.4905246153656922   -0.01812796462938908   -0.010136376264340826
-0.4905246153656922   -0.01812796462938908   -0.010136376264340826
-0.4905246153656922   -0.01812796462938908   -0.010136376264340826
-0.4905246153656922   -0.01812796462938908   -0.010136376264340826
-0.11886845741707751   0.058304344688182824   0.006310028571491641
-0.11886845741707751   0.058304344688182824   0.006310028571491641
-0.11886845741707751   0.058304344688182824   0.006310028571491641
-0.11886845741707751   0.058304344688182824   0.006310028571491641
-0.11328956965725274   0.09781129708773734   -0.00426540856384245
-0.11328956965725274   0.09781129708773734   -0.00426540856384245
-0.11328956965725274   0.09781129708773734   -0.00426540856384245
-0.11328956965725274   0.09781129708773734   -0.00426540856384245
-0.48712175681669934   0.014358576477982901   -0.02365967465477009
-0.48712175681669934   0.014358576477982901   -0.02365967465477009
-0.48712175681669934   0.014358576477982901   -0.02365967465477009
-0.48712175681669934   0.014358576477982901   -0.02365967465477009
-0.3006455041867632   0.035751291187810744   0.017395000574785883
-0.3006455041867632   0.035751291187810744   0.017395000574785883
-0.3006455041867632   0.035751291187810744   0.017395000574785883
-0.3006455041867632   0.035751291187810744   0.017395000574785883
-0.1607632723200716   -0.11677074697464256   -0.02703311303176529
-0.1607632723200716   -0.11677074697464256   -0.02703311303176529
-0.1607632723200716   -0.11677074697464256   -0.02703311303176529
-0.1607632723200716   -0.11677074697464256   -0.02703311303176529
0.22834865984173477   0.018103968766889272   0.0445431825043301
0.22834865984173477   0.018103968766889272   0.0445431825043301
0.22834865984173477   0.018103968766889272   0.0445431825043301
0.22834865984173477   0.018103968766889272   0.0445431825043301
0.21241321951036   -0.006368616578480549   -0.024855574935081868
0.21241321951036   -0.006368616578480549   -0.024855574935081868
0.21241321951036   -0.006368616578480549   -0.024855574935081868
0.21241321951036   -0.006368616578480549   -0.024855574935081868
-0.13437495924933546   -0.027102076310383295   0.0165029251141254
-0.13437495924933546   -0.027102076310383295   0.0165029251141254
-0.13437495924933546   -0.027102076310383295   0.0165029251141254
-0.13437495924933546   -0.027102076310383295   0.0165029251141254
0.034962261938055496   -0.032117758861107126   -0.006887092340698722
0.034962261938055496   -0.032117758861107126   -0.006887092340698722
0.034962261938055496   -0.032117758861107126   -0.006887092340698722
0.034962261938055496   -0.032117758861107126   -0.006887092340698722
-0.15522560459567383   -0.08157978499854818   -0.03327259292940151
-0.15522560459567383   -0.08157978499854818   -0.03327259292940151
-0.15522560459567383   -0.08157978499854818   -0.03327259292940151
-0.15522560459567383   -0.08157978499854818   -0.03327259292940151
0.23674961564967267   0.051594842902660545   0.03886294628033647
0.23674961564967267   0.051594842902660545   0.03886294628033647
0.23674961564967267   0.051594842902660545   0.03886294628033647
0.23674961564967267   0.051594842902660545   0.03886294628033647
0.2257965363517107   0.03036028530305479   -0.028161324326058272
0.2257965363517107   0.03036028530305479   -0.028161324326058272
0.2257965363517107   0.03036028530305479   -0.028161324326058272
0.2257965363517107   0.03036028530305479   -0.028161324326058272
-0.12918418331138012   0.00411147467528742   0.008924269112873915
-0.12918418331138012   0.00411147467528742   0.008924269112873915
-0.12918418331138012   0.00411147467528742   0.008924269112873915
-0.12918418331138012   0.00411147467528742   0.008924269112873915
0.042081005856496365   -0.0004796499170014474   0.007138629659161252
0.042081005856496365   -0.0004796499170014474   0.007138629659161252
0.042081005856496365   -0.0004796499170014474   0.007138629659161252
0.042081005856496365   -0.0004796499170014474   0.007138629659161252
-0.1493060665077948   -0.04711892070201172   -0.04045475149190067
-0.1493060665077948   -0.04711892070201172   -0.04045475149190067
-0.1493060665077948   -0.04711892070201172   -0.04045475149190067
-0.1493060665077948   -0.04711892070201172   -0.04045475149190067
0.24894143706343372   0.0846136981956638   0.03330976633994199
0.24894143706343372   0.0846136981956638   0.03330976633994199
0.24894143706343372   0.0846136981956638   0.03330976633994199
0.24894143706343372   0.0846136981956638   0.03330976633994199
0.23657354168940856   0.0722230876619096   -0.03254160559742386
0.23657354168940856   0.0722230876619096   -0.03254160559742386
0.23657354168940856   0.0722230876619096   -0.03254160559742386
0.23657354168940856   0.0722230876619096   -0.03254160559742386
-0.12363654549941072   0.04009622274642946   0.001714786566674325
-0.12363654549941072   0.04009622274642946   0.001714786566674325
-0.12363654549941072   0.04009622274642946   0.001714786566674325
-0.12363654549941072   0.04009622274642946   0.001714786566674325
0.05307797248126781   0.03393730252739119   0.021662845000545272
0.05307797248126781   0.03393730252739119   0.021662845000545272
0.05307797248126781   0.03393730252739119   0.021662845000545272
0.05307797248126781   0.03393730252739119   0.021662845000545272
0.18155026800464583   -0.1179919716614105   -0.053352836252811085
0.18155026800464583   -0.1179919716614105   -0.053352836252811085
0.18155026800464583   -0.1179919716614105   -0.053352836252811085
0.18155026800464583   -0.1179919716614105   -0.053352836252811085
0.5469391687180978   0.05393207922048769   0.05769413099975157
0.5469391687180978   0.05393207922048769   0.05769413099975157
0.5469391687180978   0.05393207922048769   0.05769413099975157
0.5469391687180978   0.05393207922048769   0.05769413099975157
0.541483716453812   -0.0290143679380703   -0.07023763836757249
0.541483716453812   -0.0290143679380703   -0.07023763836757249
0.541483716453812   -0.0290143679380703   -0.07023763836757249
0.541483716453812   -0.0290143679380703   -0.07023763836757249
0.22922569818134642   0.009783671185409272   0.04305453065595643
0.22922569818134642   0.009783671185409272   0.04305453065595643
0.22922569818134642   0.009783671185409272   0.04305453065595643
0.22922569818134642   0.009783671185409272   0.04305453065595643
0.3552618201353648   -0.02441015652138541   -0.018775420344469614
0.3552618201353648   -0.02441015652138541   -0.018775420344469614
0.3552618201353648   -0.02441015652138541   -0.018775420344469614
0.3552618201353648   -0.02441015652138541   -0.018775420344469614
0.18665998862221167   -0.09827471251811426   -0.06171563343619189
0.18665998862221167   -0.09827471251811426   -0.06171563343619189
0.18665998862221167   -0.09827471251811426   -0.06171563343619189
0.18665998862221167   -0.09827471251811426   -0.06171563343619189
0.5876033768507081   0.08259796660321873   0.04874832907562682
0.5876033768507081   0.08259796660321873   0.04874832907562682
0.5876033768507081   0.08259796660321873   0.04874832907562682
0.5876033768507081   0.08259796660321873   0.04874832907562682
0.5710682346503527   -0.008438971651985094   -0.08424002960116522
0.5710682346503527   -0.008438971651985094   -0.08424002960116522
0.5710682346503527   -0.008438971651985094   -0.08424002960116522
0.5710682346503527   -0.008438971651985094   -0.08424002960116522
0.23704256931092543   0.024855464450841178   0.03357366132222315
0.23704256931092543   0.024855464450841178   0.03357366132222315
0.23704256931092543   0.024855464450841178   0.03357366132222315
0.23704256931092543   0.024855464450841178   0.03357366132222315
0.3851472974067291   -0.0036629409137755864   -0.0022517702607023557
0.3851472974067291   -0.0036629409137755864   -0.0022517702607023557
0.3851472974067291   -0.0036629409137755864   -0.0022517702607023557
0.3851472974067291   -0.0036629409137755864   -0.0022517702607023557
0.19481150902659286   -0.08115628832185501   -0.07156988732673954
0.19481150902659286   -0.08115628832185501   -0.07156988732673954
0.19481150902659286   -0.08115628832185501   -0.07156988732673954
0.19481150902659286   -0.08115628832185501   -0.07156988732673954
0.6170027959978833   0.1012762821839065   0.03571752330060728
0.6170027959978833   0.1012762821839065   0.03571752330060728
0.6170027959978833   0.1012762821839065   0.03571752330060728
0.6170027959978833   0.1012762821839065   0.03571752330060728
0.6164951615698533   0.036746192577344586   -0.09017769358426014
0.6164951615698533   0.036746192577344586   -0.09017769358426014
0.6164951615698533   0.036746192577344586   -0.09017769358426014
0.6164951615698533   0.036746192577344586   -0.09017769358426014
0.2450421673944257   0.05534786485213645   0.02667674573743491
0.2450421673944257   0.05534786485213645   0.02667674573743491
0.2450421673944257   0.05534786485213645   0.02667674573743491
0.2450421673944257   0.05534786485213645   0.02667674573743491
0.40005168810056985   0.019202845884142616   0.011968567151414623
0.40005168810056985   0.019202845884142616   0.011968567151414623
0.40005168810056985   0.019202845884142616   0.011968567151414623
0.40005168810056985   0.019202845884142616   0.011968567151414623
-0.737039028145509   -0.012343840035786757   0.0719863022838291
-0.737039028145509   -0.012343840035786757   0.0719863022838291
-0.737039028145509   -0.012343840035786757   0.0719863022838291
-0.737039028145509   -0.012343840035786757   0.0719863022838291
-0.5749568435209217   -0.0729859027060886   -0.035610528967673194
-0.5749568435209217   -0.0729859027060886   -0.035610528967673194
-0.5749568435209217   -0.0729859027060886   -0.035610528967673194
-0.5749568435209217   -0.0729859027060886   -0.035610528967673194
-0.5204353068818635   0.06183115341802753   0.06155502062451421
-0.5204353068818635   0.06183115341802753   0.06155502062451421
-0.5204353068818635   0.06183115341802753   0.06155502062451421
-0.5204353068818635   0.06183115341802753   0.06155502062451421
-0.7339285592128567   -0.07995027519982831   -0.04847163747813662
-0.7339285592128567   -0.07995027519982831   -0.04847163747813662
-0.7339285592128567   -0.07995027519982831   -0.04847163747813662
-0.7339285592128567   -0.07995027519982831   -0.04847163747813662
-0.6170369535152351   -0.01698023230132087   -0.009090842682479179
-0.6170369535152351   -0.01698023230132087   -0.009090842682479179
-0.6170369535152351   -0.01698023230132087   -0.009090842682479179
-0.6170369535152351   -0.01698023230132087   -0.009090842682479179
-0.6885588749067483   0.02965061454888593   0.06877589430369105
-0.6885588749067483   0.02965061454888593   0.06877589430369105
-0.6885588749067483   0.02965061454888593   0.06877589430369105
-0.6885588749067483   0.02965061454888593   0.06877589430369105
-0.5626523722596508   -0.04461711740236443   -0.04308203544402308
-0.5626523722596508   -0.04461711740236443   -0.04308203544402308
-0.5626523722596508   -0.04461711740236443   -0.04308203544402308
-0.5626523722596508   -0.04461711740236443   -0.04308203544402308
-0.507526360564102   0.07786742913003075   0.05206353953723186
-0.507526360564102   0.07786742913003075   0.05206353953723186
-0.507526360564102   0.07786742913003075   0.05206353953723186
-0.507526360564102   0.07786742913003075   0.05206353953723186
-0.7002391080227262   -0.061778135596472966   -0.06056026760933791
-0.7002391080227262   -0.061778135596472966   -0.06056026760933791
-0.7002391080227262   -0.061778135596472966   -0.06056026760933791
-0.7002391080227262   -0.061778135596472966   -0.06056026760933791
-0.5994256381916887   0.004009882573423634   0.004304157428162536
-0.5994256381916887   0.004009882573423634   0.004304157428162536
-0.5994256381916887   0.004009882573423634   0.004304157428162536
-0.5994256381916887   0.004009882573423634   0.004304157428162536
-0.6548355988786033   0.04910725171887065   0.05557189079593258
-0.6548355988786033   0.04910725171887065   0.05557189079593258
-0.6548355988786033   0.04910725171887065   0.05557189079593258
-0.6548355988786033   0.04910725171887065   0.05557189079593258
-0.5499458684056373   -0.03003395688272467   -0.05213261365768523
-0.5499458684056373   -0.03003395688272467   -0.05213261365768523
-0.5499458684056373   -0.03003395688272467   -0.05213261365768523
-0.5499458684056373   -0.03003395688272467   -0.05213261365768523
-0.4970709762349184   0.0978397006250032   0.04490216188408648
-0.4970709762349184   0.0978397006250032   0.04490216188408648
-0.4970709762349184   0.0978397006250032   0.04490216188408648
-0.4970709762349184   0.0978397006250032   0.04490216188408648
-0.6549785820632316   -0.03268522819420719   -0.07008429185773965
-0.6549785820632316   -0.03268522819420719   -0.07008429185773965
-0.6549785820632316   -0.03268522819420719   -0.07008429185773965
-0.6549785820632316   -0.03268522819420719   -0.07008429185773965
-0.5638819504789079   0.024706506894245528   0.02092342217954373
-0.5638819504789079   0.024706506894245528   0.02092342217954373
-0.5638819504789079   0.024706506894245528   0.02092342217954373
-0.5638819504789079   0.024706506894245528   0.02092342217954373
-0.5547967918671886   -0.04176055529077978   0.03396438188568392
-0.5547967918671886   -0.04176055529077978   0.03396438188568392
-0.5547967918671886   -0.04176055529077978   0.03396438188568392
-0.5547967918671886   -0.04176055529077978   0.03396438188568392
-0.40735312807572205   -0.05533641668534584   -0.010542961811368148
-0.40735312807572205   -0.05533641668534584   -0.010542961811368148
-0.40735312807572205   -0.05533641668534584   -0.010542961811368148
-0.40735312807572205   -0.05533641668534584   -0.010542961811368148
-0.37695431723632444   0.02808836762071537   0.031468389102441444
-0.37695431723632444   0.02808836762071537   0.031468389102441444
-0.37695431723632444   0.02808836762071537   0.031468389102441444
-0.37695431723632444   0.02808836762071537   0.031468389102441444
-0.5630012888582709   -0.059017915287968764   -0.030425820551519066
-0.5630012888582709   -0.059017915287968764   -0.030425820551519066
-0.5630012888582709   -0.059017915287968764   -0.030425820551519066
-0.5630012888582709   -0.059017915287968764   -0.030425820551519066
-0.47421414735321576   -0.029483230899125634   -0.012775268929501704
-0.47421414735321576   -0.029483230899125634   -0.012775268929501704
-0.47421414735321576   -0.029483230899125634   -0.012775268929501704
-0.47421414735321576   -0.029483230899125634   -0.012775268929501704
-0.5403525799138758   -0.005104167465655812   0.028903976348136757
-0.5403525799138758   -0.005104167465655812   0.028903976348136757
-0.5403525799138758   -0.005104167465655812   0.028903976348136757
-0.5403525799138758   -0.005104167465655812   0.028903976348136757
-0.39706031806602304   -0.023282672086897035   -0.017690575338438982
-0.39706031806602304   -0.023282672086897035   -0.017690575338438982
-0.39706031806602304   -0.023282672086897035   -0.017690575338438982
-0.39706031806602304   -0.023282672086897035   -0.017690575338438982
-0.36582310133295026   0.06070689158247028   0.025169418889114413
-0.36582310133295026   0.06070689158247028   0.025169418889114413
-0.36582310133295026   0.06070689158247028   0.025169418889114413
-0.36582310133295026   0.06070689158247028   0.025169418889114413
-0.5463291452946292   -0.02765749034568324   -0.03642546463968252
-0.5463291452946292   -0.02765749034568324   -0.03642546463968252
-0.5463291452946292   -0.02765749034568324   -0.03642546463968252
-0.5463291452946292   -0.02765749034568324   -0.03642546463968252
-0.45811755999157855   0.001967494063624328   0.0013110681418237007
-0.45811755999157855   0.001967494063624328   0.0013110681418237007
-0.45811755999157855   0.001967494063624328   0.0013110681418237007
-0.45811755999157855   0.001967494063624328   0.0013110681418237007
-0.5223511589202541   0.029607326387072697   0.02619965049943019
-0.5223511589202541   0.029607326387072697   0.02619965049943019
-0.5223511589202541   0.029607326387072697   0.02619965049943019
-0.5223511589202541   0.029607326387072697   0.02619965049943019
-0.3868656511163   0.006377511440737976   -0.02571394988590569
-0.3868656511163   0.006377511440737976   -0.02571394988590569
-0.3868656511163   0.006377511440737976   -0.02571394988590569
-0.3868656511163   0.006377511440737976   -0.02571394988590569
-0.35472732368484683   0.09611213099745329   0.01916992287549449
-0.35472732368484683   0.09611213099745329   0.01916992287549449
-0.35472732368484683   0.09611213099745329   0.01916992287549449
-0.35472732368484683   0.09611213099745329   0.01916992287549449
-0.5325666180220995   0.006594688148024136   -0.041331034574827896
-0.5325666180220995   0.006594688148024136   -0.041331034574827896
-0.5325666180220995   0.006594688148024136   -0.041331034574827896
-0.5325666180220995   0.006594688148024136   -0.041331034574827896
-0.44647733647997356   0.03279890322285901   0.015089180539832839
-0.44647733647997356   0.03279890322285901   0.015089180539832839
-0.44647733647997356   0.03279890322285901   0.015089180539832839
-0.44647733647997356   0.03279890322285901   0.015089180539832839
-0.40686397691405696   -0.06941867194262333   0.005985049254227203
-0.40686397691405696   -0.06941867194262333   0.005985049254227203
-0.40686397691405696   -0.06941867194262333   0.005985049254227203
-0.40686397691405696   -0.06941867194262333   0.005985049254227203
-0.24200837485098275   -0.029200867199319618   0.014945968571454412
-0.24200837485098275   -0.029200867199319618   0.014945968571454412
-0.24200837485098275   -0.029200867199319618   0.014945968571454412
-0.24200837485098275   -0.029200867199319618   0.014945968571454412
-0.2337229481215718   -0.0006283463941075124   0.0019280733229332901
-0.2337229481215718   -0.0006283463941075124   0.0019280733229332901
-0.2337229481215718   -0.0006283463941075124   0.0019280733229332901
-0.2337229481215718   -0.0006283463941075124   0.0019280733229332901
-0.39590079777997583   -0.03165869464995861   -0.0035169513451414596
-0.39590079777997583   -0.03165869464995861   -0.0035169513451414596
-0.39590079777997583   -0.03165869464995861   -0.0035169513451414596
-0.39590079777997583   -0.03165869464995861   -0.0035169513451414596
-0.3201325340926213   -0.03119581360731509   -0.009303831293167027
-0.3201325340926213   -0.03119581360731509   -0.009303831293167027
-0.3201325340926213   -0.03119581360731509   -0.009303831293167027
-0.3201325340926213   -0.03119581360731509   -0.009303831293167027
-0.39542760692194195   -0.03326402596646229   0.00045433426152956605
-0.39542760692194195   -0.03326402596646229   0.00045433426152956605
-0.39542760692194195   -0.03326402596646229   0.00045433426152956605
-0.39542760692194195   -0.03326402596646229   0.00045433426152956605
-0.2316674493490902   0.0035056745529113073   0.008071546238322494
-0.2316674493490902   0.0035056745529113073   0.008071546238322494
-0.2316674493490902   0.0035056745529113073   0.008071546238322494
-0.2316674493490902   0.0035056745529113073   0.008071546238322494
-0.22163184346569947   0.03584598978494855   -0.003218359896057732
-0.22163184346569947   0.03584598978494855   -0.003218359896057732
-0.22163184346569947   0.03584598978494855   -0.003218359896057732
-0.22163184346569947   0.03584598978494855   -0.003218359896057732
-0.38474921837468307   0.0015146218714239684   -0.010268896608506786
-0.38474921837468307   0.0015146218714239684   -0.010268896608506786
-0.38474921837468307   0.0015146218714239684   -0.010268896608506786
-0.38474921837468307   0.0015146218714239684   -0.010268896608506786
-0.30737853621350764   0.0015963635863668058   0.00435704505631896
-0.30737853621350764   0.0015963635863668058   0.00435704505631896
-0.30737853621350764   0.0015963635863668058   0.00435704505631896
-0.30737853621350764   0.0015963635863668058   0.00435704505631896
-0.38341235051077543   0.003099644393029649   -0.005169579810576336
-0.38341235051077543   0.003099644393029649   -0.005169579810576336
-0.38341235051077543   0.003099644393029649   -0.005169579810576336
-0.38341235051077543   0.003099644393029649   -0.005169579810576336
-0.22068185778506985   0.03654782080788523   0.0008297374841556397
-0.22068185778506985   0.03654782080788523   0.0008297374841556397
-0.22068185778506985   0.03654782080788523   0.0008297374841556397
-0.22068185778506985   0.03654782080788523   0.0008297374841556397
-0.21021139252340987   0.0726548945730339   -0.009088448472804614
-0.21021139252340987   0.0726548945730339   -0.009088448472804614
-0.21021139252340987   0.0726548945730339   -0.009088448472804614
-0.21021139252340987   0.0726548945730339   -0.009088448472804614
-0.3742921988962673   0.034943699621578395   -0.017486021805731063
-0.3742921988962673   0.034943699621578395   -0.017486021805731063
-0.3742921988962673   0.034943699621578395   -0.017486021805731063
-0.3742921988962673   0.034943699621578395   -0.017486021805731063
-0.29531496830991005   0.03450632387321011   0.017468087074571464
-0.29531496830991005   0.03450632387321011   0.017468087074571464
-0.29531496830991005   0.03450632387321011   0.017468087074571464
-0.29531496830991005   0.03450632387321011   0.017468087074571464
-0.2623071244383029   -0.09340462825239859   -0.02234401831207152
-0.2623071244383029   -0.09340462825239859   -0.02234401831207152
-0.2623071244383029   -0.09340462825239859   -0.02234401831207152
-0.2623071244383029   -0.09340462825239859   -0.02234401831207152
-0.08131766616460838   -0.0014513677611974161   0.03918647792272609
-0.08131766616460838   -0.0014513677611974161   0.03918647792272609
-0.08131766616460838   -0.0014513677611974161   0.03918647792272609
-0.08131766616460838   -0.0014513677611974161   0.03918647792272609
-0.09243645867343189   -0.027772800217132233   -0.028789194995507535
-0.09243645867343189   -0.027772800217132233   -0.028789194995507535
-0.09243645867343189   -0.027772800217132233   -0.028789194995507535
-0.09243645867343189   -0.027772800217132233   -0.028789194995507535
-0.23020936797055183   -0.003565263086234012   0.02243289077015772
-0.23020936797055183   -0.003565263086234012   0.02243289077015772
-0.23020936797055183   -0.003565263086234012   0.02243289077015772
-0.23020936797055183   -0.003565263086234012   0.02243289077015772
-0.16653685474802638   -0.03017210477057505   -0.00671444152734131
-0.16653685474802638   -0.03017210477057505   -0.00671444152734131
-0.16653685474802638   -0.03017210477057505   -0.00671444152734131
-0.16653685474802638   -0.03017210477057505   -0.00671444152734131
-0.2515334535201657   -0.05948743350017253   -0.02826536656397519
-0.2515334535201657   -0.05948743350017253   -0.02826536656397519
-0.2515334535201657   -0.05948743350017253   -0.02826536656397519
-0.2515334535201657   -0.05948743350017253   -0.02826536656397519
-0.06827909090350856   0.030982652417115397   0.03324219121986151
-0.06827909090350856   0.030982652417115397   0.03324219121986151
-0.06827909090350856   0.030982652417115397   0.03324219121986151
-0.06827909090350856   0.030982652417115397   0.03324219121986151
-0.07475232043810362   0.006730949503976756   -0.03241021961695593
-0.07475232043810362   0.006730949503976756   -0.03241021961695593
-0.07475232043810362   0.006730949503976756   -0.03241021961695593
-0.07475232043810362   0.006730949503976756   -0.03241021961695593
-0.21992039626415705   0.026220869959897114   0.014963995936705905
-0.21992039626415705   0.026220869959897114   0.014963995936705905
-0.21992039626415705   0.026220869959897114   0.014963995936705905
-0.21992039626415705   0.026220869959897114   0.014963995936705905
-0.15296822612666072   0.0003703507050286242   0.007207683288608765
-0.15296822612666072   0.0003703507050286242   0.007207683288608765
-0.15296822612666072   0.0003703507050286242   0.007207683288608765
-0.15296822612666072   0.0003703507050286242   0.007207683288608765
-0.24056754698379135   -0.02696685785173661   -0.03508402984983501
-0.24056754698379135   -0.02696685785173661   -0.03508402984983501
-0.24056754698379135   -0.02696685785173661   -0.03508402984983501
-0.24056754698379135   -0.02696685785173661   -0.03508402984983501
-0.05146767130042547   0.062556175733649   0.028187799841764463
-0.05146767130042547   0.062556175733649   0.028187799841764463
-0.05146767130042547   0.062556175733649   0.028187799841764463
-0.05146767130042547   0.062556175733649   0.028187799841764463
-0.059793994325630234   0.04526017057547201   -0.03630802546190877
-0.059793994325630234   0.04526017057547201   -0.03630802546190877
-0.059793994325630234   0.04526017057547201   -0.03630802546190877
-0.059793994325630234   0.04526017057547201   -0.03630802546190877
-0.2093872162858618   0.05992352138795784   0.007763805900011772
-0.2093872162858618   0.05992352138795784   0.007763805900011772
-0.2093872162858618   0.05992352138795784   0.007763805900011772
-0.2093872162858618   0.05992352138795784   0.007763805900011772
-0.13892446526497285   0.03220630857463585   0.021131124187349283
-0.13892446526497285   0.03220630857463585   0.021131124187349283
-0.13892446526497285   0.03220630857463585   0.021131124187349283
-0.13892446526497285   0.03220630857463585   0.021131124187349283
-0.11866685464670328   -0.10044176508517698   -0.04856906716377076
-0.11866685464670328   -0.10044176508517698   -0.04856906716377076
-0.11866685464670328   -0.10044176508517698   -0.04856906716377076
-0.11866685464670328   -0.10044176508517698   -0.04856906716377076
0.039997856023397796   0.029674108019019534   0.05975978443933003
0.039997856023397796   0.029674108019019534   0.05975978443933003
0.039997856023397796   0.029674108019019534   0.05975978443933003
0.039997856023397796   0.029674108019019534   0.05975978443933003
0.04029278747773267   -0.04947721802602656   -0.06431700469762429
0.04029278747773267   -0.04947721802602656   -0.06431700469762429
0.04029278747773267   -0.04947721802602656   -0.06431700469762429
0.04029278747773267   -0.04947721802602656   -0.06431700469762429
-0.06514251534751046   0.030996616482151827   0.048911104934815514
-0.06514251534751046   0.030996616482151827   0.048911104934815514
-0.06514251534751046   0.030996616482151827   0.048911104934815514
-0.06514251534751046   0.030996616482151827   0.048911104934815514
-0.027181351364735963   -0.02132943634337012   -0.011359396369049583
-0.027181351364735963   -0.02132943634337012   -0.011359396369049583
-0.027181351364735963   -0.02132943634337012   -0.011359396369049583
-0.027181351364735963   -0.02132943634337012   -0.011359396369049583
-0.10777071070438737   -0.07739430649700761   -0.05583894887040955
-0.10777071070438737   -0.07739430649700761   -0.05583894887040955
-0.10777071070438737   -0.07739430649700761   -0.05583894887040955
-0.10777071070438737   -0.07739430649700761   -0.05583894887040955
0.08594994549420425   0.061942667612733315   0.05254889974597754
0.08594994549420425   0.061942667612733315   0.05254889974597754
0.08594994549420425   0.061942667612733315   0.05254889974597754
0.08594994549420425   0.061942667612733315   0.05254889974597754
0.0741560785295993   -0.02971740703304121   -0.07640420531584732
0.0741560785295993   -0.02971740703304121   -0.07640420531584732
0.0741560785295993   -0.02971740703304121   -0.07640420531584732
0.0741560785295993   -0.02971740703304121   -0.07640420531584732
-0.05270400497460572   0.045334691068576044   0.0392276161359342
-0.05270400497460572   0.045334691068576044   0.0392276161359342
-0.05270400497460572   0.045334691068576044   0.0392276161359342
-0.05270400497460572   0.045334691068576044   0.0392276161359342
0.0006587008294847688   -0.0009983557745760073   0.003726962970822447
0.0006587008294847688   -0.0009983557745760073   0.003726962970822447
0.0006587008294847688   -0.0009983557745760073   0.003726962970822447
0.0006587008294847688   -0.0009983557745760073   0.003726962970822447
-0.09475969668047132   -0.06113579273070529   -0.06458035859411246
-0.09475969668047132   -0.06113579273070529   -0.06458035859411246
-0.09475969668047132   -0.06113579273070529   -0.06458035859411246
-0.09475969668047132   -0.06113579273070529   -0.06458035859411246
0.119243693788106   0.0797850003188889   0.03953146362475604
0.119243693788106   0.0797850003188889   0.03953146362475604
0.119243693788106   0.0797850003188889   0.03953146362475604
0.119243693788106   0.0797850003188889   0.03953146362475604
0.12161427087400188   0.008962342467053578   -0.08182296966754034
0.12161427087400188   0.008962342467053578   -0.08182296966754034
0.12161427087400188   0.008962342467053578   -0.08182296966754034
0.12161427087400188   0.008962342467053578   -0.08182296966754034
-0.04108403210375974   0.07062388640712322   0.031878069815792456
-0.04108403210375974   0.07062388640712322   0.031878069815792456
-0.04108403210375974   0.07062388640712322   0.031878069815792456
-0.04108403210375974   0.07062388640712322   0.031878069815792456
0.025749039132239665   0.020361983091773627   0.018474560799392525
0.025749039132239665   0.020361983091773627   0.018474560799392525
0.025749039132239665   0.020361983091773627   0.018474560799392525
0.025749039132239665   0.020361983091773627   0.018474560799392525
-0.24410726476422645   0.01396109805114179   0.06827489606178344
-0.24410726476422645   0.01396109805114179   0.06827489606178344
-0.24410726476422645   0.01396109805114179   0.06827489606178344
-0.24410726476422645   0.01396109805114179   0.06827489606178344
-0.2902614351025328   -0.08900256373612442   -0.04023489759050791
-0.2902614351025328   -0.08900256373612442   -0.04023489759050791
-0.2902614351025328   -0.08900256373612442   -0.04023489759050791
-0.2902614351025328   -0.08900256373612442   -0.04023489759050791
-0.23173748583215775   0.04136288707728987   0.055903100526755296
-0.23173748583215775   0.04136288707728987   0.055903100526755296
-0.23173748583215775   0.04136288707728987   0.055903100526755296
-0.23173748583215775   0.04136288707728987   0.055903100526755296
-0.2370480371149189   -0.05852256630531225   -0.05184967870900286
-0.2370480371149189   -0.05852256630531225   -0.05184967870900286
-0.2370480371149189   -0.05852256630531225   -0.05184967870900286
-0.2370480371149189   -0.05852256630531225   -0.05184967870900286
-0.24445060609968564   -0.0188025996472344   -0.01867820556795704
-0.24445060609968564   -0.0188025996472344   -0.01867820556795704
-0.24445060609968564   -0.0188025996472344   -0.01867820556795704
-0.24445060609968564   -0.0188025996472344   -0.01867820556795704
-0.19208927977648668   0.05083018043220187   0.0635913612456442
-0.19208927977648668   0.05083018043220187   0.0635913612456442
-0.19208927977648668   0.05083018043220187   0.0635913612456442
-0.19208927977648668   0.05083018043220187   0.0635913612456442
-0.27387827643955587   -0.06517189292919526   -0.04826607250375021
-0.27387827643955587   -0.06517189292919526   -0.04826607250375021
-0.27387827643955587   -0.06517189292919526   -0.04826607250375021
-0.27387827643955587   -0.06517189292919526   -0.04826607250375021
-0.21368619789602583   0.05705356722142032   0.04704533635345888
-0.21368619789602583   0.05705356722142032   0.04704533635345888
-0.21368619789602583   0.05705356722142032   0.04704533635345888
-0.21368619789602583   0.05705356722142032   0.04704533635345888
-0.19836799980050615   -0.04079005928330205   -0.06458640765454271
-0.19836799980050615   -0.04079005928330205   -0.06458640765454271
-0.19836799980050615   -0.04079005928330205   -0.06458640765454271
-0.19836799980050615   -0.04079005928330205   -0.06458640765454271
-0.21591535482380783   0.0012439551968859083   -0.0038895042280929475
-0.21591535482380783   0.0012439551968859083   -0.0038895042280929475
-0.21591535482380783   0.0012439551968859083   -0.0038895042280929475
-0.21591535482380783   0.0012439551968859083   -0.0038895042280929475
-0.1531501710911297   0.06991186719459605   0.050800809414441386
-0.1531501710911297   0.06991186719459605   0.050800809414441386
-0.1531501710911297   0.06991186719459605   0.050800809414441386
-0.1531501710911297   0.06991186719459605   0.050800809414441386
-0.2562466990764409   -0.05099103172751574   -0.057712570599676404
-0.2562466990764409   -0.05099103172751574   -0.057712570599676404
-0.2562466990764409   -0.05099103172751574   -0.057712570599676404
-0.2562466990764409   -0.05099103172751574   -0.057712570599676404
-0.19717210708035965   0.08101949080281043   0.04063282814447654
-0.19717210708035965   0.08101949080281043   0.04063282814447654
-0.19717210708035965   0.08101949080281043   0.04063282814447654
-0.19717210708035965   0.08101949080281043   0.04063282814447654
-0.1467370769269719   -0.007083075390246517   -0.07275779305394371
-0.1467370769269719   -0.007083075390246517   -0.07275779305394371
-0.1467370769269719   -0.007083075390246517   -0.07275779305394371
-0.1467370769269719   -0.007083075390246517   -0.07275779305394371
-0.18161037204260014   0.02218920228776579   0.01194373129845741
-0.18161037204260014   0.02218920228776579   0.01194373129845741
-0.18161037204260014   0.02218920228776579   0.01194373129845741
-0.18161037204260014   0.02218920228776579   0.01194373129845741
-0.2598430416052853   -0.015962421497559005   0.03881692765716001
-0.2598430416052853   -0.015962421497559005   0.03881692765716001
-0.2598430416052853   -0.015962421497559005   0.03881692765716001
-0.2598430416052853   -0.015962421497559005   0.03881692765716001
-0.32259919804088905   -0.07259884221978552   -0.015719698999746824
-0.32259919804088905   -0.07259884221978552   -0.015719698999746824
-0.32259919804088905   -0.07259884221978552   -0.015719698999746824
-0.32259919804088905   -0.07259884221978552   -0.015719698999746824
-0.2876044837334999   0.00733481242303996   0.02594101287875345
-0.2876044837334999   0.00733481242303996   0.02594101287875345
-0.2876044837334999   0.00733481242303996   0.02594101287875345
-0.2876044837334999   0.00733481242303996   0.02594101287875345
-0.26280944320572114   -0.03429151066653985   -0.023802288597227897
-0.26280944320572114   -0.03429151066653985   -0.023802288597227897
-0.26280944320572114   -0.03429151066653985   -0.023802288597227897
-0.26280944320572114   -0.03429151066653985   -0.023802288597227897
-0.28341652325216515   -0.02666561168668568   -0.013145273725904105
-0.28341652325216515   -0.02666561168668568   -0.013145273725904105
-0.28341652325216515   -0.02666561168668568   -0.013145273725904105
-0.28341652325216515   -0.02666561168668568   -0.013145273725904105
-0.24075649009152467   0.018292001530943174   0.033878964776263676
-0.24075649009152467   0.018292001530943174   0.033878964776263676
-0.24075649009152467   0.018292001530943174   0.033878964776263676
-0.24075649009152467   0.018292001530943174   0.033878964776263676
-0.3074502624563076   -0.04304152538305085   -0.02291154292919645
-0.3074502624563076   -0.04304152538305085   -0.02291154292919645
-0.3074502624563076   -0.04304152538305085   -0.02291154292919645
-0.3074502624563076   -0.04304152538305085   -0.02291154292919645
-0.2714863289786281   0.03855449710909503   0.019791656318238413
-0.2714863289786281   0.03855449710909503   0.019791656318238413
-0.2714863289786281   0.03855449710909503   0.019791656318238413
-0.2714863289786281   0.03855449710909503   0.019791656318238413
-0.24125524408670854   -0.004199366609320333   -0.029546960769206536
-0.24125524408670854   -0.004199366609320333   -0.029546960769206536
-0.24125524408670854   -0.004199366609320333   -0.029546960769206536
-0.24125524408670854   -0.004199366609320333   -0.029546960769206536
-0.26416255654192294   0.002468394951770342   0.0005052348483290513
-0.26416255654192294   0.002468394951770342   0.0005052348483290513
-0.26416255654192294   0.002468394951770342   0.0005052348483290513
-0.26416255654192294   0.002468394951770342   0.0005052348483290513
-0.2181297587230114   0.05136974982047256   0.030511349619478614
-0.2181297587230114   0.05136974982047256   0.030511349619478614
-0.2181297587230114   0.05136974982047256   0.030511349619478614
-0.2181297587230114   0.05136974982047256   0.030511349619478614
-0.2922591476513636   -0.014661952629733348   -0.030855987306616553
-0.2922591476513636   -0.014661952629733348   -0.030855987306616553
-0.2922591476513636   -0.014661952629733348   -0.030855987306616553
-0.2922591476513636   -0.014661952629733348   -0.030855987306616553
-0.25528993147048074   0.07310559450452263   0.0139468106560151
-0.25528993147048074   0.07310559450452263   0.0139468106560151
-0.25528993147048074   0.07310559450452263   0.0139468106560151
-0.25528993147048074   0.07310559450452263   0.0139468106560151
-0.22265481603403595   0.029195634853830935   -0.03495686067492531
-0.22265481603403595   0.029195634853830935   -0.03495686067492531
-0.22265481603403595   0.029195634853830935   -0.03495686067492531
-0.22265481603403595   0.029195634853830935   -0.03495686067492531
-0.24595948796194417   0.03255171175759568   0.01439731196921273
-0.24595948796194417   0.03255171175759568   0.01439731196921273
-0.24595948796194417   0.03255171175759568   0.01439731196921273
-0.24595948796194417   0.03255171175759568   0.01439731196921273
-0.31153761055291335   -0.043915024008268674   0.010904420228609026
-0.31153761055291335   -0.043915024008268674   0.010904420228609026
-0.31153761055291335   -0.043915024008268674   0.010904420228609026
-0.31153761055291335   -0.043915024008268674   0.010904420228609026
-0.35483279304065074   -0.04583663744813058   0.009508426322575104
-0.35483279304065074   -0.04583663744813058   0.009508426322575104
-0.35483279304065074   -0.04583663744813058   0.009508426322575104
-0.35483279304065074   -0.04583663744813058   0.009508426322575104
-0.3419157152078837   -0.020830576123462778   -0.0033614412847544194
-0.3419157152078837   -0.020830576123462778   -0.0033614412847544194
-0.3419157152078837   -0.020830576123462778   -0.0033614412847544194
-0.3419157152078837   -0.020830576123462778   -0.0033614412847544194
-0.29488292145003525   -0.0062164067027223255   0.003100043421836564
-0.29488292145003525   -0.0062164067027223255   0.003100043421836564
-0.29488292145003525   -0.0062164067027223255   0.003100043421836564
-0.29488292145003525   -0.0062164067027223255   0.003100043421836564
-0.3262809155481674   -0.02754433944944463   -0.008722868186628102
-0.3262809155481674   -0.02754433944944463   -0.008722868186628102
-0.3262809155481674   -0.02754433944944463   -0.008722868186628102
-0.3262809155481674   -0.02754433944944463   -0.008722868186628102
-0.29512103258561656   -0.009717279278181383   0.0054103603193854394
-0.29512103258561656   -0.009717279278181383   0.0054103603193854394
-0.29512103258561656   -0.009717279278181383   0.0054103603193854394
-0.29512103258561656   -0.009717279278181383   0.0054103603193854394
-0.3395965893393323   -0.015248688815033766   0.002652300749576413
-0.3395965893393323   -0.015248688815033766   0.002652300749576413
-0.3395965893393323   -0.015248688815033766   0.002652300749576413
-0.3395965893393323   -0.015248688815033766   0.002652300749576413
-0.324984235988577   0.013815425489917876   -0.008529860902173936
-0.324984235988577   0.013815425489917876   -0.008529860902173936
-0.324984235988577   0.013815425489917876   -0.008529860902173936
-0.324984235988577   0.013815425489917876   -0.008529860902173936
-0.27881912075802406   0.025216003369401982   -0.0035338088390484135
-0.27881912075802406   0.025216003369401982   -0.0035338088390484135
-0.27881912075802406   0.025216003369401982   -0.0035338088390484135
-0.27881912075802406   0.025216003369401982   -0.0035338088390484135
-0.30859302669774524   0.003425753451882868   0.004754554683068055
-0.30859302669774524   0.003425753451882868   0.004754554683068055
-0.30859302669774524   0.003425753451882868   0.004754554683068055
-0.30859302669774524   0.003425753451882868   0.004754554683068055
-0.27825564326086116   0.024805860515940262   -0.0003062784997778477
-0.27825564326086116   0.024805860515940262   -0.0003062784997778477
-0.27825564326086116   0.024805860515940262   -0.0003062784997778477
-0.27825564326086116   0.024805860515940262   -0.0003062784997778477
-0.3237324667723728   0.01604081505674579   -0.004496404387980678
-0.3237324667723728   0.01604081505674579   -0.004496404387980678
-0.3237324667723728   0.01604081505674579   -0.004496404387980678
-0.3237324667723728   0.01604081505674579   -0.004496404387980678
-0.3087719504897219   0.04867227564621179   -0.01436339008910946
-0.3087719504897219   0.04867227564621179   -0.01436339008910946
-0.3087719504897219   0.04867227564621179   -0.01436339008910946
-0.3087719504897219   0.04867227564621179   -0.01436339008910946
-0.2635086031487082   0.05677711220795029   -0.01081806543854797
-0.2635086031487082   0.05677711220795029   -0.01081806543854797
-0.2635086031487082   0.05677711220795029   -0.01081806543854797
-0.2635086031487082   0.05677711220795029   -0.01081806543854797
-0.2917231859633257   0.034452470719064904   0.017601310367447144
-0.2917231859633257   0.034452470719064904   0.017601310367447144
-0.2917231859633257   0.034452470719064904   0.017601310367447144
-0.2917231859633257   0.034452470719064904   0.017601310367447144
-0.36502942122040544   -0.06957773730147426   -0.01773361472286105
-0.36502942122040544   -0.06957773730147426   -0.01773361472286105
-0.36502942122040544   -0.06957773730147426   -0.01773361472286105
-0.36502942122040544   -0.06957773730147426   -0.01773361472286105
-0.38981237601867297   -0.019625930543340935   0.03361813809589026
-0.38981237601867297   -0.019625930543340935   0.03361813809589026
-0.38981237601867297   -0.019625930543340935   0.03361813809589026
-0.38981237601867297   -0.019625930543340935   0.03361813809589026
-0.3960886493891257   -0.04783665266454992   -0.03304477570284788
-0.3960886493891257   -0.04783665266454992   -0.03304477570284788
-0.3960886493891257   -0.04783665266454992   -0.03304477570284788
-0.3960886493891257   -0.04783665266454992   -0.03304477570284788
-0.3272335693900915   0.020852594282026307   0.02836611739871756
-0.3272335693900915   0.020852594282026307   0.02836611739871756
-0.3272335693900915   0.020852594282026307   0.02836611739871756
-0.3272335693900915   0.020852594282026307   0.02836611739871756
-0.3680053483336725   -0.02716713087709688   -0.00548205128171117
-0.3680053483336725   -0.02716713087709688   -0.00548205128171117
-0.3680053483336725   -0.02716713087709688   -0.00548205128171117
-0.3680053483336725   -0.02716713087709688   -0.00548205128171117
-0.3490598092648767   -0.03650368919813961   -0.023408798495045367
-0.3490598092648767   -0.03650368919813961   -0.023408798495045367
-0.3490598092648767   -0.03650368919813961   -0.023408798495045367
-0.3490598092648767   -0.03650368919813961   -0.023408798495045367
-0.37208036549278023   0.011701674837175782   0.027458316277153703
-0.37208036549278023   0.011701674837175782   0.027458316277153703
-0.37208036549278023   0.011701674837175782   0.027458316277153703
-0.37208036549278023   0.011701674837175782   0.027458316277153703
-0.3738998612658005   -0.014982834265607106   -0.037075060189141
-0.3738998612658005   -0.014982834265607106   -0.037075060189141
-0.3738998612658005   -0.014982834265607106   -0.037075060189141
-0.3738998612658005   -0.014982834265607106   -0.037075060189141
-0.31198811411407296   0.049202033668855116   0.021064140291406058
-0.31198811411407296   0.049202033668855116   0.021064140291406058
-0.31198811411407296   0.049202033668855116   0.021064140291406058
-0.31198811411407296   0.049202033668855116   0.021064140291406058
-0.34790857405355   0.002656914947854319   0.008429791978110505
-0.34790857405355   0.002656914947854319   0.008429791978110505
-0.34790857405355   0.002656914947854319   0.008429791978110505
-0.34790857405355   0.002656914947854319   0.008429791978110505
-0.33313797242208987   -0.0054267233125019215   -0.030056394267325797
-0.33313797242208987   -0.0054267233125019215   -0.030056394267325797
-0.33313797242208987   -0.0054267233125019215   -0.030056394267325797
-0.33313797242208987   -0.0054267233125019215   -0.030056394267325797
-0.3505447930245976   0.041851132648935474   0.022866314102332527
-0.3505447930245976   0.041851132648935474   0.022866314102332527
-0.3505447930245976   0.041851132648935474   0.022866314102332527
-0.3505447930245976   0.041851132648935474   0.022866314102332527
-0.3544828352563322   0.02121494041107508   -0.04068348001393166
-0.3544828352563322   0.02121494041107508   -0.04068348001393166
-0.3544828352563322   0.02121494041107508   -0.04068348001393166
-0.3544828352563322   0.02121494041107508   -0.04068348001393166
-0.2967006754242516   0.08080289167846658   0.01386236920598733
-0.2967006754242516   0.08080289167846658   0.01386236920598733
-0.2967006754242516   0.08080289167846658   0.01386236920598733
-0.2967006754242516   0.08080289167846658   0.01386236920598733
-0.33083936971381767   0.03225383582403872   0.021732394901027734
-0.33083936971381767   0.03225383582403872   0.021732394901027734
-0.33083936971381767   0.03225383582403872   0.021732394901027734
-0.33083936971381767   0.03225383582403872   0.021732394901027734
-0.41805011263398995   -0.08277228142094394   -0.04442419410309953
-0.41805011263398995   -0.08277228142094394   -0.04442419410309953
-0.41805011263398995   -0.08277228142094394   -0.04442419410309953
-0.41805011263398995   -0.08277228142094394   -0.04442419410309953
-0.46237656485712886   0.006380652506987786   0.06048517221287203
-0.46237656485712886   0.006380652506987786   0.06048517221287203
-0.46237656485712886   0.006380652506987786   0.06048517221287203
-0.46237656485712886   0.006380652506987786   0.06048517221287203
-0.45615823361421953   -0.06882291580890253   -0.05917083825377786
-0.45615823361421953   -0.06882291580890253   -0.05917083825377786
-0.45615823361421953   -0.06882291580890253   -0.05917083825377786
-0.45615823361421953   -0.06882291580890253   -0.05917083825377786
-0.3586320808890688   0.05218502575200552   0.05421638838087961
-0.3586320808890688   0.05218502575200552   0.05421638838087961
-0.3586320808890688   0.05218502575200552   0.05421638838087961
-0.3586320808890688   0.05218502575200552   0.05421638838087961
-0.40682089726459286   -0.01778215528408862   -0.002711111348391807
-0.40682089726459286   -0.01778215528408862   -0.002711111348391807
-0.40682089726459286   -0.01778215528408862   -0.002711111348391807
-0.40682089726459286   -0.01778215528408862   -0.002711111348391807
-0.4013069659390966   -0.05617758070548368   -0.05079543041177592
-0.4013069659390966   -0.05617758070548368   -0.05079543041177592
-0.4013069659390966   -0.05617758070548368   -0.05079543041177592
-0.4013069659390966   -0.05617758070548368   -0.05079543041177592
-0.4111767428051193   0.041846296407658176   0.055067403575162654
-0.4111767428051193   0.041846296407658176   0.055067403575162654
-0.4111767428051193   0.041846296407658176   0.055067403575162654
-0.4111767428051193   0.041846296407658176   0.055067403575162654
-0.41783718013256077   -0.049642582261020925   -0.07052557535412632
-0.41783718013256077   -0.049642582261020925   -0.07052557535412632
-0.41783718013256077   -0.049642582261020925   -0.07052557535412632
-0.41783718013256077   -0.049642582261020925   -0.07052557535412632
-0.34147367392069866   0.06569476887218842   0.044378273398572546
-0.34147367392069866   0.06569476887218842   0.044378273398572546
-0.34147367392069866   0.06569476887218842   0.044378273398572546
-0.34147367392069866   0.06569476887218842   0.044378273398572546
-0.38088247805413716   0.002262928076351964   0.010637479532115152
-0.38088247805413716   0.002262928076351964   0.010637479532115152
-0.38088247805413716   0.002262928076351964   0.010637479532115152
-0.38088247805413716   0.002262928076351964   0.010637479532115152
-0.38332029491887903   -0.040388418909573544   -0.05877164381057114
-0.38332029491887903   -0.040388418909573544   -0.05877164381057114
-0.38332029491887903   -0.040388418909573544   -0.05877164381057114
-0.38332029491887903   -0.040388418909573544   -0.05877164381057114
-0.3735731691033729   0.058857995551747866   0.04229390197904401
-0.3735731691033729   0.058857995551747866   0.04229390197904401
-0.3735731691033729   0.058857995551747866   0.04229390197904401
-0.3735731691033729   0.058857995551747866   0.04229390197904401
-0.3675403509933378   -0.016457771263555188   -0.07707389964802154
-0.3675403509933378   -0.016457771263555188   -0.07707389964802154
-0.3675403509933378   -0.016457771263555188   -0.07707389964802154
-0.3675403509933378   -0.016457771263555188   -0.07707389964802154
-0.3261081449572234   0.08585124558888726   0.03655366630379811
-0.3261081449572234   0.08585124558888726   0.03655366630379811
-0.3261081449572234   0.08585124558888726   0.03655366630379811
-0.3261081449572234   0.08585124558888726   0.03655366630379811
-0.34540088076639736   0.022291767550036687   0.026090868940212116
-0.34540088076639736   0.022291767550036687   0.026090868940212116
-0.34540088076639736   0.022291767550036687   0.026090868940212116
-0.34540088076639736   0.022291767550036687   0.026090868940212116
0.25297753392099187   0.04090020764430255   0.06603999028810226
0.25297753392099187   0.04090020764430255   0.06603999028810226
0.25297753392099187   0.04090020764430255   0.06603999028810226
0.25297753392099187   0.04090020764430255   0.06603999028810226
-0.006121613597371678   -0.10613229073733402   -0.043615364288073076
-0.006121613597371678   -0.10613229073733402   -0.043615364288073076
-0.006121613597371678   -0.10613229073733402   -0.043615364288073076
-0.006121613597371678   -0.10613229073733402   -0.043615364288073076
0.05630045071132236   0.02072152652670227   0.051022297624828454
0.05630045071132236   0.02072152652670227   0.051022297624828454
0.05630045071132236   0.02072152652670227   0.051022297624828454
0.05630045071132236   0.02072152652670227   0.051022297624828454
0.26393350973440016   -0.03718328052952971   -0.054589478474889236
0.26393350973440016   -0.03718328052952971   -0.054589478474889236
0.26393350973440016   -0.03718328052952971   -0.054589478474889236
0.26393350973440016   -0.03718328052952971   -0.054589478474889236
0.12909404822041495   -0.020621180990539757   -0.03145813053612197
0.12909404822041495   -0.020621180990539757   -0.03145813053612197
0.12909404822041495   -0.020621180990539757   -0.03145813053612197
0.12909404822041495   -0.020621180990539757   -0.03145813053612197
0.30879289643411834   0.07293365920427516   0.05959051528989686
0.30879289643411834   0.07293365920427516   0.05959051528989686
0.30879289643411834   0.07293365920427516   0.05959051528989686
0.30879289643411834   0.07293365920427516   0.05959051528989686
0.014199820107395924   -0.08663665711131084   -0.052122671756790626
0.014199820107395924   -0.08663665711131084   -0.052122671756790626
0.014199820107395924   -0.08663665711131084   -0.052122671756790626
0.014199820107395924   -0.08663665711131084   -0.052122671756790626
0.07906300019094421   0.03612993179951493   0.04258254776809184
0.07906300019094421   0.03612993179951493   0.04258254776809184
0.07906300019094421   0.03612993179951493   0.04258254776809184
0.07906300019094421   0.03612993179951493   0.04258254776809184
0.307514272694266   -0.01977675888116843   -0.06829410210502096
0.307514272694266   -0.01977675888116843   -0.06829410210502096
0.307514272694266   -0.01977675888116843   -0.06829410210502096
0.307514272694266   -0.01977675888116843   -0.06829410210502096
0.16842082868739977   -0.0014097859579217803   -0.014784734463776247
0.16842082868739977   -0.0014097859579217803   -0.014784734463776247
0.16842082868739977   -0.0014097859579217803   -0.014784734463776247
0.16842082868739977   -0.0014097859579217803   -0.014784734463776247
0.3528668997731175   0.09176054753662076   0.04693172687144763
0.3528668997731175   0.09176054753662076   0.04693172687144763
0.3528668997731175   0.09176054753662076   0.04693172687144763
0.3528668997731175   0.09176054753662076   0.04693172687144763
0.036409182706981805   -0.07270856502338448   -0.06184804282881699
0.036409182706981805   -0.07270856502338448   -0.06184804282881699
0.036409182706981805   -0.07270856502338448   -0.06184804282881699
0.036409182706981805   -0.07270856502338448   -0.06184804282881699
0.10115424954201807   0.06441657667525409   0.03684914080456936
0.10115424954201807   0.06441657667525409   0.03684914080456936
0.10115424954201807   0.06441657667525409   0.03684914080456936
0.10115424954201807   0.06441657667525409   0.03684914080456936
0.36536488273348683   0.019183744872682873   -0.075317554762574
0.36536488273348683   0.019183744872682873   -0.075317554762574
0.36536488273348683   0.019183744872682873   -0.075317554762574
0.36536488273348683   0.019183744872682873   -0.075317554762574
0.20143541431050765   0.020118988551495125   0.0009817948335310803
0.20143541431050765   0.020118988551495125   0.0009817948335310803
0.20143541431050765   0.020118988551495125   0.0009817948335310803
0.20143541431050765   0.020118988551495125   0.0009817948335310803
0.034998474721223374   0.011029324538416622   0.04482346202915153
0.034998474721223374   0.011029324538416622   0.04482346202915153
0.034998474721223374   0.011029324538416622   0.04482346202915153
0.034998474721223374   0.011029324538416622   0.04482346202915153
-0.24048364416263007   -0.09010665390680755   -0.02000824355623308
-0.24048364416263007   -0.09010665390680755   -0.02000824355623308
-0.24048364416263007   -0.09010665390680755   -0.02000824355623308
-0.24048364416263007   -0.09010665390680755   -0.02000824355623308
-0.2010922115044236   -0.013090951308896079   0.020483276489724145
-0.2010922115044236   -0.013090951308896079   0.020483276489724145
-0.2010922115044236   -0.013090951308896079   0.020483276489724145
-0.2010922115044236   -0.013090951308896079   0.020483276489724145
0.036703715670969264   -0.010346675636081194   -0.015893175414153554
0.036703715670969264   -0.010346675636081194   -0.015893175414153554
0.036703715670969264   -0.010346675636081194   -0.015893175414153554
0.036703715670969264   -0.010346675636081194   -0.015893175414153554
-0.09445153833324547   -0.02332127955445988   -0.015123216306207141
-0.09445153833324547   -0.02332127955445988   -0.015123216306207141
-0.09445153833324547   -0.02332127955445988   -0.015123216306207141
-0.09445153833324547   -0.02332127955445988   -0.015123216306207141
0.05843931683003104   0.04267194167422647   0.039766213070851514
0.05843931683003104   0.04267194167422647   0.039766213070851514
0.05843931683003104   0.04267194167422647   0.039766213070851514
0.05843931683003104   0.04267194167422647   0.039766213070851514
-0.22081973185663942   -0.06410148781235198   -0.027143788767898844
-0.22081973185663942   -0.06410148781235198   -0.027143788767898844
-0.22081973185663942   -0.06410148781235198   -0.027143788767898844
-0.22081973185663942   -0.06410148781235198   -0.027143788767898844
-0.18033640298127576   0.01678927143133898   0.014477388328687881
-0.18033640298127576   0.01678927143133898   0.014477388328687881
-0.18033640298127576   0.01678927143133898   0.014477388328687881
-0.18033640298127576   0.01678927143133898   0.014477388328687881
0.0626222617919453   0.018016366308525676   -0.021507578735913437
0.0626222617919453   0.018016366308525676   -0.021507578735913437
0.0626222617919453   0.018016366308525676   -0.021507578735913437
0.0626222617919453   0.018016366308525676   -0.021507578735913437
-0.0724520334441718   0.003043177810451162   -0.0018358784030889294
-0.0724520334441718   0.003043177810451162   -0.0018358784030889294
-0.0724520334441718   0.003043177810451162   -0.0018358784030889294
-0.0724520334441718   0.003043177810451162   -0.0018358784030889294
0.08527168528685251   0.0741388270238857   0.03561707802326257
0.08527168528685251   0.0741388270238857   0.03561707802326257
0.08527168528685251   0.0741388270238857   0.03561707802326257
0.08527168528685251   0.0741388270238857   0.03561707802326257
-0.20105346028324486   -0.03740082309107784   -0.03491780365874083
-0.20105346028324486   -0.03740082309107784   -0.03491780365874083
-0.20105346028324486   -0.03740082309107784   -0.03491780365874083
-0.20105346028324486   -0.03740082309107784   -0.03491780365874083
-0.15945724313478846   0.05057695665957779   0.00875217545456148
-0.15945724313478846   0.05057695665957779   0.00875217545456148
-0.15945724313478846   0.05057695665957779   0.00875217545456148
-0.15945724313478846   0.05057695665957779   0.00875217545456148
0.08544295370576367   0.05017401160244277   -0.02746477330389517
0.08544295370576367   0.05017401160244277   -0.02746477330389517
0.08544295370576367   0.05017401160244277   -0.02746477330389517
0.08544295370576367   0.05017401160244277   -0.02746477330389517
-0.048126158219347556   0.03214819923201918   0.012328560073475036
-0.048126158219347556   0.03214819923201918   0.012328560073475036
-0.048126158219347556   0.03214819923201918   0.012328560073475036
-0.048126158219347556   0.03214819923201918   0.012328560073475036
-0.21869292048117087   -0.017285503343248812   0.016124224287504152
-0.21869292048117087   -0.017285503343248812   0.016124224287504152
-0.21869292048117087   -0.017285503343248812   0.016124224287504152
-0.21869292048117087   -0.017285503343248812   0.016124224287504152
-0.47060252157809546   -0.06401109741929314   0.004153918988725011
-0.47060252157809546   -0.06401109741929314   0.004153918988725011
-0.47060252157809546   -0.06401109741929314   0.004153918988725011
-0.47060252157809546   -0.06401109741929314   0.004153918988725011
-0.4524270479293401   -0.04011860428756051   -0.008866818023049517
-0.4524270479293401   -0.04011860428756051   -0.008866818023049517
-0.4524270479293401   -0.04011860428756051   -0.008866818023049517
-0.4524270479293401   -0.04011860428756051   -0.008866818023049517
-0.19722912948528687   0.016703120929931266   0.010004614346582555
-0.19722912948528687   0.016703120929931266   0.010004614346582555
-0.19722912948528687   0.016703120929931266   0.010004614346582555
-0.19722912948528687   0.016703120929931266   0.010004614346582555
-0.3352271036378495   -0.024035512038366777   -0.008803064726506951
-0.3352271036378495   -0.024035512038366777   -0.008803064726506951
-0.3352271036378495   -0.024035512038366777   -0.008803064726506951
-0.3352271036378495   -0.024035512038366777   -0.008803064726506951
-0.19748770072799032   0.014771337141598895   0.010643541921397723
-0.19748770072799032   0.014771337141598895   0.010643541921397723
-0.19748770072799032   0.014771337141598895   0.010643541921397723
-0.19748770072799032   0.014771337141598895   0.010643541921397723
-0.4504462239426423   -0.03646456775523375   -0.002616734621887157
-0.4504462239426423   -0.03646456775523375   -0.002616734621887157
-0.4504462239426423   -0.03646456775523375   -0.002616734621887157
-0.4504462239426423   -0.03646456775523375   -0.002616734621887157
-0.4306024682534664   -0.007222637308255592   -0.013943664731894005
-0.4306024682534664   -0.007222637308255592   -0.013943664731894005
-0.4306024682534664   -0.007222637308255592   -0.013943664731894005
-0.4306024682534664   -0.007222637308255592   -0.013943664731894005
-0.17667876849372557   0.045875108942185584   0.003679723255592196
-0.17667876849372557   0.045875108942185584   0.003679723255592196
-0.17667876849372557   0.045875108942185584   0.003679723255592196
-0.17667876849372557   0.045875108942185584   0.003679723255592196
-0.31269408545925886   0.004859875467112557   0.004582671349496168
-0.31269408545925886   0.004859875467112557   0.004582671349496168
-0.31269408545925886   0.004859875467112557   0.004582671349496168
-0.31269408545925886   0.004859875467112557   0.004582671349496168
-0.17615114380408456   0.04741245971433012   0.004780495931652723
-0.17615114380408456   0.04741245971433012   0.004780495931652723
-0.17615114380408456   0.04741245971433012   0.004780495931652723
-0.17615114380408456   0.04741245971433012   0.004780495931652723
-0.4297538964903801   -0.007383791627673414   -0.009539651597048344
-0.4297538964903801   -0.007383791627673414   -0.009539651597048344
-0.4297538964903801   -0.007383791627673414   -0.009539651597048344
-0.4297538964903801   -0.007383791627673414   -0.009539651597048344
-0.4096588888105798   0.02576322687697004   -0.019737206431577628
-0.4096588888105798   0.02576322687697004   -0.019737206431577628
-0.4096588888105798   0.02576322687697004   -0.019737206431577628
-0.4096588888105798   0.02576322687697004   -0.019737206431577628
-0.15701723189651454   0.0751329847239084   -0.003603796418397514
-0.15701723189651454   0.0751329847239084   -0.003603796418397514
-0.15701723189651454   0.0751329847239084   -0.003603796418397514
-0.15701723189651454   0.0751329847239084   -0.003603796418397514
-0.2913359238487645   0.03367564627233269   0.017094611447547522
-0.2913359238487645   0.03367564627233269   0.017094611447547522
-0.2913359238487645   0.03367564627233269   0.017094611447547522
-0.2913359238487645   0.03367564627233269   0.017094611447547522
-0.4703525316962179   -0.04514919591855266   -0.0134580331026235
-0.4703525316962179   -0.04514919591855266   -0.0134580331026235
-0.4703525316962179   -0.04514919591855266   -0.0134580331026235
-0.4703525316962179   -0.04514919591855266   -0.0134580331026235
-0.6983213950116794   -0.03948571309917211   0.027877824596627732
-0.6983213950116794   -0.03948571309917211   0.027877824596627732
-0.6983213950116794   -0.03948571309917211   0.027877824596627732
-0.6983213950116794   -0.03948571309917211   0.027877824596627732
-0.6985327584793188   -0.06658397653445518   -0.03751754759446255
-0.6985327584793188   -0.06658397653445518   -0.03751754759446255
-0.6985327584793188   -0.06658397653445518   -0.03751754759446255
-0.6985327584793188   -0.06658397653445518   -0.03751754759446255
-0.42730389544626524   0.042512063671512224   0.03411827643325213
-0.42730389544626524   0.042512063671512224   0.03411827643325213
-0.42730389544626524   0.042512063671512224   0.03411827643325213
-0.42730389544626524   0.042512063671512224   0.03411827643325213
-0.5704207580966083   -0.024382928981290575   -0.0037047762669627296
-0.5704207580966083   -0.024382928981290575   -0.0037047762669627296
-0.5704207580966083   -0.024382928981290575   -0.0037047762669627296
-0.5704207580966083   -0.024382928981290575   -0.0037047762669627296
-0.44896455911336947   -0.012917852323774612   -0.018755125906978427
-0.44896455911336947   -0.012917852323774612   -0.018755125906978427
-0.44896455911336947   -0.012917852323774612   -0.018755125906978427
-0.44896455911336947   -0.012917852323774612   -0.018755125906978427
-0.6754486883051367   -0.009730654032093777   0.02104948077409366
-0.6754486883051367   -0.009730654032093777   0.02104948077409366
-0.6754486883051367   -0.009730654032093777   0.02104948077409366
-0.6754486883051367   -0.009730654032093777   0.02104948077409366
-0.6711933798309081   -0.03520080400455679   -0.04174478235881836
-0.6711933798309081   -0.03520080400455679   -0.04174478235881836
-0.6711933798309081   -0.03520080400455679   -0.04174478235881836
-0.6711933798309081   -0.03520080400455679   -0.04174478235881836
-0.40712613374868456   0.06906264459650703   0.027152725887252538
-0.40712613374868456   0.06906264459650703   0.027152725887252538
-0.40712613374868456   0.06906264459650703   0.027152725887252538
-0.40712613374868456   0.06906264459650703   0.027152725887252538
-0.5434000107251679   0.004743930300622451   0.01008687677645518
-0.5434000107251679   0.004743930300622451   0.01008687677645518
-0.5434000107251679   0.004743930300622451   0.01008687677645518
-0.5434000107251679   0.004743930300622451   0.01008687677645518
-0.42806891027589195   0.016727786623128432   -0.025226298775408374
-0.42806891027589195   0.016727786623128432   -0.025226298775408374
-0.42806891027589195   0.016727786623128432   -0.025226298775408374
-0.42806891027589195   0.016727786623128432   -0.025226298775408374
-0.6486497663097504   0.018734890962771644   0.01703759027964144
-0.6486497663097504   0.018734890962771644   0.01703759027964144
-0.6486497663097504   0.018734890962771644   0.01703759027964144
-0.6486497663097504   0.018734890962771644   0.01703759027964144
-0.6467347919951287   -0.0009633207512692588   -0.044934576371814645
-0.6467347919951287   -0.0009633207512692588   -0.044934576371814645
-0.6467347919951287   -0.0009633207512692588   -0.044934576371814645
-0.6467347919951287   -0.0009633207512692588   -0.044934576371814645
-0.38715812039541014   0.09839466714480052   0.020135195376440436
-0.38715812039541014   0.09839466714480052   0.020135195376440436
-0.38715812039541014   0.09839466714480052   0.020135195376440436
-0.38715812039541014   0.09839466714480052   0.020135195376440436
-0.523164838271888   0.03191523519875561   0.02244967883584722
-0.523164838271888   0.03191523519875561   0.02244967883584722
-0.523164838271888   0.03191523519875561   0.02244967883584722
-0.523164838271888   0.03191523519875561   0.02244967883584722
-0.7171484830001528   -0.06484952604431136   -0.04089380240059978
-0.7171484830001528   -0.06484952604431136   -0.04089380240059978
-0.7171484830001528   -0.06484952604431136   -0.04089380240059978
-0.7171484830001528   -0.06484952604431136   -0.04089380240059978
-0.9578839941610937   -0.016845089270328628   0.060376011994517205
-0.9578839941610937   -0.016845089270328628   0.060376011994517205
-0.9578839941610937   -0.016845089270328628   0.060376011994517205
-0.9578839941610937   -0.016845089270328628   0.060376011994517205
-0.9445186547514369   -0.08674941869803679   -0.054569260006994524
-0.9445186547514369   -0.08674941869803679   -0.054569260006994524
-0.9445186547514369   -0.08674941869803679   -0.054569260006994524
-0.9445186547514369   -0.08674941869803679   -0.054569260006994524
-0.6514408981217342   0.07183892588712845   0.05951885177187687
-0.6514408981217342   0.07183892588712845   0.05951885177187687
-0.6514408981217342   0.07183892588712845   0.05951885177187687
-0.6514408981217342   0.07183892588712845   0.05951885177187687
-0.7824970408983188   -0.013882596318029405   0.006490218529054292
-0.7824970408983188   -0.013882596318029405   0.006490218529054292
-0.7824970408983188   -0.013882596318029405   0.006490218529054292
-0.7824970408983188   -0.013882596318029405   0.006490218529054292
-0.6939576655422834   -0.03497381728629542   -0.04625224215744117
-0.6939576655422834   -0.03497381728629542   -0.04625224215744117
-0.6939576655422834   -0.03497381728629542   -0.04625224215744117
-0.6939576655422834   -0.03497381728629542   -0.04625224215744117
-0.9007103223799392   0.021354889426333096   0.05636809372610515
-0.9007103223799392   0.021354889426333096   0.05636809372610515
-0.9007103223799392   0.021354889426333096   0.05636809372610515
-0.9007103223799392   0.021354889426333096   0.05636809372610515
-0.9012678655570375   -0.06812889602723371   -0.06494585946219937
-0.9012678655570375   -0.06812889602723371   -0.06494585946219937
-0.9012678655570375   -0.06812889602723371   -0.06494585946219937
-0.9012678655570375   -0.06812889602723371   -0.06494585946219937
-0.6291746678592041   0.08408129818786692   0.0490666753072716
-0.6291746678592041   0.08408129818786692   0.0490666753072716
-0.6291746678592041   0.08408129818786692   0.0490666753072716
-0.6291746678592041   0.08408129818786692   0.0490666753072716
-0.7579640004663994   0.005657200080657093   0.017629602806876442
-0.7579640004663994   0.005657200080657093   0.017629602806876442
-0.7579640004663994   0.005657200080657093   0.017629602806876442
-0.7579640004663994   0.005657200080657093   0.017629602806876442
-0.6704161541885704   -0.019651061242864837   -0.053408396908822084
-0.6704161541885704   -0.019651061242864837   -0.053408396908822084
-0.6704161541885704   -0.019651061242864837   -0.053408396908822084
-0.6704161541885704   -0.019651061242864837   -0.053408396908822084
-0.8584464475202285   0.03718339511094115   0.043848939583667174
-0.8584464475202285   0.03718339511094115   0.043848939583667174
-0.8584464475202285   0.03718339511094115   0.043848939583667174
-0.8584464475202285   0.03718339511094115   0.043848939583667174
-0.8479869499622689   -0.04032014513906082   -0.0724244823308969
-0.8479869499622689   -0.04032014513906082   -0.0724244823308969
-0.8479869499622689   -0.04032014513906082   -0.0724244823308969
-0.8479869499622689   -0.04032014513906082   -0.0724244823308969
-0.6096073025554031   0.09886703769798982   0.04087251237755453
-0.6096073025554031   0.09886703769798982   0.04087251237755453
-0.6096073025554031   0.09886703769798982   0.04087251237755453
-0.6096073025554031   0.09886703769798982   0.04087251237755453
-0.7120460457131101   0.023962673870765755   0.03331816558895405
-0.7120460457131101   0.023962673870765755   0.03331816558895405
-0.7120460457131101   0.023962673870765755   0.03331816558895405
-0.7120460457131101   0.023962673870765755   0.03331816558895405
0.7604436011307573   0.06909756692496234   0.06596870929527981
0.7604436011307573   0.06909756692496234   0.06596870929527981
0.7604436011307573   0.06909756692496234   0.06596870929527981
0.7604436011307573   0.06909756692496234   0.06596870929527981
0.2785143172859779   -0.1264160213837074   -0.04342295739368541
0.2785143172859779   -0.1264160213837074   -0.04342295739368541
0.2785143172859779   -0.1264160213837074   -0.04342295739368541
0.2785143172859779   -0.1264160213837074   -0.04342295739368541
0.34392196197792124   -0.0007747214489137316   0.04746486468466957
0.34392196197792124   -0.0007747214489137316   0.04746486468466957
0.34392196197792124   -0.0007747214489137316   0.04746486468466957
0.34392196197792124   -0.0007747214489137316   0.04746486468466957
0.7742451860439478   -0.017541124728967378   -0.05543717667357327
0.7742451860439478   -0.017541124728967378   -0.05543717667357327
0.7742451860439478   -0.017541124728967378   -0.05543717667357327
0.7742451860439478   -0.017541124728967378   -0.05543717667357327
0.5061105098736092   -0.022877028233746127   -0.04886572571315348
0.5061105098736092   -0.022877028233746127   -0.04886572571315348
0.5061105098736092   -0.022877028233746127   -0.04886572571315348
0.5061105098736092   -0.022877028233746127   -0.04886572571315348
0.8195749149024324   0.09633080398085812   0.05733953890901765
0.8195749149024324   0.09633080398085812   0.05733953890901765
0.8195749149024324   0.09633080398085812   0.05733953890901765
0.8195749149024324   0.09633080398085812   0.05733953890901765
0.3018012879372531   -0.11143759534092383   -0.05247563162666104
0.3018012879372531   -0.11143759534092383   -0.05247563162666104
0.3018012879372531   -0.11143759534092383   -0.05247563162666104
0.3018012879372531   -0.11143759534092383   -0.05247563162666104
0.36972901310013234   0.01415323882688832   0.03914114602939649
0.36972901310013234   0.01415323882688832   0.03914114602939649
0.36972901310013234   0.01415323882688832   0.03914114602939649
0.36972901310013234   0.01415323882688832   0.03914114602939649
0.8212983738104777   -0.0005746330745264872   -0.06983437267661308
0.8212983738104777   -0.0005746330745264872   -0.06983437267661308
0.8212983738104777   -0.0005746330745264872   -0.06983437267661308
0.8212983738104777   -0.0005746330745264872   -0.06983437267661308
0.5552455837365147   -0.00455072313032874   -0.029597151247822345
0.5552455837365147   -0.00455072313032874   -0.029597151247822345
0.5552455837365147   -0.00455072313032874   -0.029597151247822345
0.5552455837365147   -0.00455072313032874   -0.029597151247822345
0.8671312851555548   0.11463047852245221   0.044125072451793465
0.8671312851555548   0.11463047852245221   0.044125072451793465
0.8671312851555548   0.11463047852245221   0.044125072451793465
0.8671312851555548   0.11463047852245221   0.044125072451793465
0.3273100096423357   -0.09763796488280993   -0.061162667549888285
0.3273100096423357   -0.09763796488280993   -0.061162667549888285
0.3273100096423357   -0.09763796488280993   -0.061162667549888285
0.3273100096423357   -0.09763796488280993   -0.061162667549888285
0.39550032902863813   0.047059088512777264   0.03392371714274662
0.39550032902863813   0.047059088512777264   0.03392371714274662
0.39550032902863813   0.047059088512777264   0.03392371714274662
0.39550032902863813   0.047059088512777264   0.03392371714274662
0.8830871546953764   0.04367385049985739   -0.07533189141073979
0.8830871546953764   0.04367385049985739   -0.07533189141073979
0.8830871546953764   0.04367385049985739   -0.07533189141073979
0.8830871546953764   0.04367385049985739   -0.07533189141073979
0.5855641864016167   0.01774450921568614   -0.012929350048494149
0.5855641864016167   0.01774450921568614   -0.012929350048494149
0.5855641864016167   0.01774450921568614   -0.012929350048494149
0.5855641864016167   0.01774450921568614   -0.012929350048494149
0.3307654423282386   0.0386901178244958   0.052726528609414944
0.3307654423282386   0.0386901178244958   0.052726528609414944
0.3307654423282386   0.0386901178244958   0.052726528609414944
0.3307654423282386   0.0386901178244958   0.052726528609414944
-0.16115406608833696   -0.11795264717400361   -0.022747405117993464
-0.16115406608833696   -0.11795264717400361   -0.022747405117993464
-0.16115406608833696   -0.11795264717400361   -0.022747405117993464
-0.16115406608833696   -0.11795264717400361   -0.022747405117993464
-0.11617180455678747   -0.03455005580160671   0.01596544398597561
-0.11617180455678747   -0.03455005580160671   0.01596544398597561
-0.11617180455678747   -0.03455005580160671   0.01596544398597561
-0.11617180455678747   -0.03455005580160671   0.01596544398597561
0.33338511774114576   0.0009762625648233048   -0.006970340512944921
0.33338511774114576   0.0009762625648233048   -0.006970340512944921
0.33338511774114576   0.0009762625648233048   -0.006970340512944921
0.33338511774114576   0.0009762625648233048   -0.006970340512944921
0.09235468155204207   -0.02493343950899943   -0.020820481017233328
0.09235468155204207   -0.02493343950899943   -0.020820481017233328
0.09235468155204207   -0.02493343950899943   -0.020820481017233328
0.09235468155204207   -0.02493343950899943   -0.020820481017233328
0.35727545702211905   0.06636485950694031   0.04709275894980423
0.35727545702211905   0.06636485950694031   0.04709275894980423
0.35727545702211905   0.06636485950694031   0.04709275894980423
0.35727545702211905   0.06636485950694031   0.04709275894980423
-0.13812869450575724   -0.09800520341172056   -0.030363858148761226
-0.13812869450575724   -0.09800520341172056   -0.030363858148761226
-0.13812869450575724   -0.09800520341172056   -0.030363858148761226
-0.13812869450575724   -0.09800520341172056   -0.030363858148761226
-0.09212979940202824   -0.006614199089570399   0.010091655467579707
-0.09212979940202824   -0.006614199089570399   0.010091655467579707
-0.09212979940202824   -0.006614199089570399   0.010091655467579707
-0.09212979940202824   -0.006614199089570399   0.010091655467579707
0.36167777782052013   0.026042519200039048   -0.013004310741815057
0.36167777782052013   0.026042519200039048   -0.013004310741815057
0.36167777782052013   0.026042519200039048   -0.013004310741815057
0.36167777782052013   0.026042519200039048   -0.013004310741815057
0.11558333531199663   -0.0028583671139391573   -0.008279526988624481
0.11558333531199663   -0.0028583671139391573   -0.008279526988624481
0.11558333531199663   -0.0028583671139391573   -0.008279526988624481
0.11558333531199663   -0.0028583671139391573   -0.008279526988624481
0.3865238355131345   0.09545991348683781   0.04180858343445801
0.3865238355131345   0.09545991348683781   0.04180858343445801
0.3865238355131345   0.09545991348683781   0.04180858343445801
0.3865238355131345   0.09545991348683781   0.04180858343445801
-0.11503813132518212   -0.07409386760690867   -0.03697033563085141
-0.11503813132518212   -0.07409386760690867   -0.03697033563085141
-0.11503813132518212   -0.07409386760690867   -0.03697033563085141
-0.11503813132518212   -0.07409386760690867   -0.03697033563085141
-0.06839007756247588   0.02574934115656208   0.004244905734940952
-0.06839007756247588   0.02574934115656208   0.004244905734940952
-0.06839007756247588   0.02574934115656208   0.004244905734940952
-0.06839007756247588   0.02574934115656208   0.004244905734940952
0.3867685950191753   0.05588957758847676   -0.01856544198026302
0.3867685950191753   0.05588957758847676   -0.01856544198026302
0.3867685950191753   0.05588957758847676   -0.01856544198026302
0.3867685950191753   0.05588957758847676   -0.01856544198026302
0.14427842468920118   0.024213339971078017   0.006361738688849123
0.14427842468920118   0.024213339971078017   0.006361738688849123
0.14427842468920118   0.024213339971078017   0.006361738688849123
0.14427842468920118   0.024213339971078017   0.006361738688849123
-0.12685216204542116   0.008391736895011194   0.022417731027572448
-0.12685216204542116   0.008391736895011194   0.022417731027572448
-0.12685216204542116   0.008391736895011194   0.022417731027572448
-0.12685216204542116   0.008391736895011194   0.022417731027572448
-0.5920946077281913   -0.10415073904420383   -0.0030074463727288708
-0.5920946077281913   -0.10415073904420383   -0.0030074463727288708
-0.5920946077281913   -0.10415073904420383   -0.0030074463727288708
-0.5920946077281913   -0.10415073904420383   -0.0030074463727288708
-0.5635873129871954   -0.061351669376681496   -0.013911153684572667
-0.5635873129871954   -0.061351669376681496   -0.013911153684572667
-0.5635873129871954   -0.061351669376681496   -0.013911153684572667
-0.5635873129871954   -0.061351669376681496   -0.013911153684572667
-0.10636920797055677   0.015523562645964967   0.014904808469555516
-0.10636920797055677   0.015523562645964967   0.014904808469555516
-0.10636920797055677   0.015523562645964967   0.014904808469555516
-0.10636920797055677   0.015523562645964967   0.014904808469555516
-0.34783644255090773   -0.032019167061294616   -0.012998500338094824
-0.34783644255090773   -0.032019167061294616   -0.012998500338094824
-0.34783644255090773   -0.032019167061294616   -0.012998500338094824
-0.34783644255090773   -0.032019167061294616   -0.012998500338094824
-0.10161973601418685   0.0372160191119243   0.01695971178544769
-0.10161973601418685   0.0372160191119243   0.01695971178544769
-0.10161973601418685   0.0372160191119243   0.01695971178544769
-0.10161973601418685   0.0372160191119243   0.01695971178544769
-0.567044898151156   -0.0817522390502311   -0.010798509830825588
-0.567044898151156   -0.0817522390502311   -0.010798509830825588
-0.567044898151156   -0.0817522390502311   -0.010798509830825588
-0.567044898151156   -0.0817522390502311   -0.010798509830825588
-0.5370891863557182   -0.03070146040835675   -0.018792705635126937
-0.5370891863557182   -0.03070146040835675   -0.018792705635126937
-0.5370891863557182   -0.03070146040835675   -0.018792705635126937
-0.5370891863557182   -0.03070146040835675   -0.018792705635126937
-0.08296861790022436   0.04084513836028359   0.008438225526746942
-0.08296861790022436   0.04084513836028359   0.008438225526746942
-0.08296861790022436   0.04084513836028359   0.008438225526746942
-0.08296861790022436   0.04084513836028359   0.008438225526746942
-0.3211100867084841   -0.006374681290040485   -0.00019893578902233436
-0.3211100867084841   -0.006374681290040485   -0.00019893578902233436
-0.3211100867084841   -0.006374681290040485   -0.00019893578902233436
-0.3211100867084841   -0.006374681290040485   -0.00019893578902233436
-0.07723699769571832   0.06717984286048397   0.010761622049076843
-0.07723699769571832   0.06717984286048397   0.010761622049076843
-0.07723699769571832   0.06717984286048397   0.010761622049076843
-0.07723699769571832   0.06717984286048397   0.010761622049076843
-0.5416209500766266   -0.05583630842495947   -0.016316676223066172
-0.5416209500766266   -0.05583630842495947   -0.016316676223066172
-0.5416209500766266   -0.05583630842495947   -0.016316676223066172
-0.5416209500766266   -0.05583630842495947   -0.016316676223066172
-0.5124232678015573   -0.00015293404184422987   -0.024627354342117953
-0.5124232678015573   -0.00015293404184422987   -0.024627354342117953
-0.5124232678015573   -0.00015293404184422987   -0.024627354342117953
-0.5124232678015573   -0.00015293404184422987   -0.024627354342117953
-0.06063352618162419   0.06670637073043466   0.0020706330653288384
-0.06063352618162419   0.06670637073043466   0.0020706330653288384
-0.06063352618162419   0.06670637073043466   0.0020706330653288384
-0.06063352618162419   0.06670637073043466   0.0020706330653288384
-0.29655929127067754   0.019173398234707026   0.011980580873964274
-0.29655929127067754   0.019173398234707026   0.011980580873964274
-0.29655929127067754   0.019173398234707026   0.011980580873964274
-0.29655929127067754   0.019173398234707026   0.011980580873964274
-0.5769367330019949   -0.02254842331145833   -0.008820388474487916
-0.5769367330019949   -0.02254842331145833   -0.008820388474487916
-0.5769367330019949   -0.02254842331145833   -0.008820388474487916
-0.5769367330019949   -0.02254842331145833   -0.008820388474487916
-1.0132317029937006   -0.08438856143550791   0.019538155267677826
-1.0132317029937006   -0.08438856143550791   0.019538155267677826
-1.0132317029937006   -0.08438856143550791   0.019538155267677826
-1.0132317029937006   -0.08438856143550791   0.019538155267677826
-0.999377188597895   -0.08709738390168792   -0.041855668281118585
-0.999377188597895   -0.08709738390168792   -0.041855668281118585
-0.999377188597895   -0.08709738390168792   -0.041855668281118585
-0.999377188597895   -0.08709738390168792   -0.041855668281118585
-0.5331928901153328   0.039255205282817174   0.037454086015247044
-0.5331928901153328   0.039255205282817174   0.037454086015247044
-0.5331928901153328   0.039255205282817174   0.037454086015247044
-0.5331928901153328   0.039255205282817174   0.037454086015247044
-0.7752836550287489   -0.03382110648387332   -0.004531663355697782
-0.7752836550287489   -0.03382110648387332   -0.004531663355697782
-0.7752836550287489   -0.03382110648387332   -0.004531663355697782
-0.7752836550287489   -0.03382110648387332   -0.004531663355697782
-0.5495067728633277   0.008563173677556046   -0.013423296119466285
-0.5495067728633277   0.008563173677556046   -0.013423296119466285
-0.5495067728633277   0.008563173677556046   -0.013423296119466285
-0.5495067728633277   0.008563173677556046   -0.013423296119466285
-0.982995348271627   -0.05633739471815205   0.009293544166695082
-0.982995348271627   -0.05633739471815205   0.009293544166695082
-0.982995348271627   -0.05633739471815205   0.009293544166695082
-0.982995348271627   -0.05633739471815205   0.009293544166695082
-0.9647508421587766   -0.05715188135521354   -0.046295195461258265
-0.9647508421587766   -0.05715188135521354   -0.046295195461258265
-0.9647508421587766   -0.05715188135521354   -0.046295195461258265
-0.9647508421587766   -0.05715188135521354   -0.046295195461258265
-0.5085234452172867   0.06339859256890432   0.029935947079774587
-0.5085234452172867   0.06339859256890432   0.029935947079774587
-0.5085234452172867   0.06339859256890432   0.029935947079774587
-0.5085234452172867   0.06339859256890432   0.029935947079774587
-0.7400577834835512   -0.005476523689345786   0.008304751153142803
-0.7400577834835512   -0.005476523689345786   0.008304751153142803
-0.7400577834835512   -0.005476523689345786   0.008304751153142803
-0.7400577834835512   -0.005476523689345786   0.008304751153142803
-0.5238378334424255   0.03636856598742068   -0.019605967464438226
-0.5238378334424255   0.03636856598742068   -0.019605967464438226
-0.5238378334424255   0.03636856598742068   -0.019605967464438226
-0.5238378334424255   0.03636856598742068   -0.019605967464438226
-0.9486246495954731   -0.0293100504355554   0.0064939364356011026
-0.9486246495954731   -0.0293100504355554   0.0064939364356011026
-0.9486246495954731   -0.0293100504355554   0.0064939364356011026
-0.9486246495954731   -0.0293100504355554   0.0064939364356011026
-0.9337887422026683   -0.02469368011483175   -0.04867591911446282
-0.9337887422026683   -0.02469368011483175   -0.04867591911446282
-0.9337887422026683   -0.02469368011483175   -0.04867591911446282
-0.9337887422026683   -0.02469368011483175   -0.04867591911446282
-0.48463037450966173   0.08994623125016861   0.02423794682535242
-0.48463037450966173   0.08994623125016861   0.02423794682535242
-0.48463037450966173   0.08994623125016861   0.02423794682535242
-0.48463037450966173   0.08994623125016861   0.02423794682535242
-0.716229473841581   0.018755683894077196   0.019378102406910257
-0.716229473841581   0.018755683894077196   0.019378102406910257
-0.716229473841581   0.018755683894077196   0.019378102406910257
-0.716229473841581   0.018755683894077196   0.019378102406910257
-1.0174863149052102   -0.048387874135947584   -0.03773559158943044
-1.0174863149052102   -0.048387874135947584   -0.03773559158943044
-1.0174863149052102   -0.048387874135947584   -0.03773559158943044
-1.0174863149052102   -0.048387874135947584   -0.03773559158943044
-1.4502259534242354   -0.05230360894343039   0.06538952417427403
-1.4502259534242354   -0.05230360894343039   0.06538952417427403
-1.4502259534242354   -0.05230360894343039   0.06538952417427403
-1.4502259534242354   -0.05230360894343039   0.06538952417427403
-1.4223682575192937   -0.10425070928267735   -0.05000196467959254
-1.4223682575192937   -0.10425070928267735   -0.05000196467959254
-1.4223682575192937   -0.10425070928267735   -0.05000196467959254
-1.4223682575192937   -0.10425070928267735   -0.05000196467959254
-0.9440724600234178   0.08110239545062192   0.0664681952389588
-0.9440724600234178   0.08110239545062192   0.0664681952389588
-0.9440724600234178   0.08110239545062192   0.0664681952389588
-0.9440724600234178   0.08110239545062192   0.0664681952389588
-1.154934059914529   -0.014276486089008139   0.013390793537732364
-1.154934059914529   -0.014276486089008139   0.013390793537732364
-1.154934059914529   -0.014276486089008139   0.013390793537732364
-1.154934059914529   -0.014276486089008139   0.013390793537732364
-0.9850104522907488   -0.01516885785872002   -0.04195051278835094
-0.9850104522907488   -0.01516885785872002   -0.04195051278835094
-0.9850104522907488   -0.01516885785872002   -0.04195051278835094
-0.9850104522907488   -0.01516885785872002   -0.04195051278835094
-1.3807539302816032   -0.007303121002982416   0.061122083229153315
-1.3807539302816032   -0.007303121002982416   0.061122083229153315
-1.3807539302816032   -0.007303121002982416   0.061122083229153315
-1.3807539302816032   -0.007303121002982416   0.061122083229153315
-1.3699657575183517   -0.08566775941956192   -0.058887523070755586
-1.3699657575183517   -0.08566775941956192   -0.058887523070755586
-1.3699657575183517   -0.08566775941956192   -0.058887523070755586
-1.3699657575183517   -0.08566775941956192   -0.058887523070755586
-0.9150145959092906   0.09256415070680474   0.052670003724153744
-0.9150145959092906   0.09256415070680474   0.052670003724153744
-0.9150145959092906   0.09256415070680474   0.052670003724153744
-0.9150145959092906   0.09256415070680474   0.052670003724153744
-1.1278964430347425   0.00600734750006976   0.02407248657815131
-1.1278964430347425   0.00600734750006976   0.02407248657815131
-1.1278964430347425   0.00600734750006976   0.02407248657815131
-1.1278964430347425   0.00600734750006976   0.02407248657815131
-0.9536450680929527   -0.00017479851483451214   -0.047743407972517575
-0.9536450680929527   -0.00017479851483451214   -0.047743407972517575
-0.9536450680929527   -0.00017479851483451214   -0.047743407972517575
-0.9536450680929527   -0.00017479851483451214   -0.047743407972517575
-1.3306609579589177   0.007745517177845107   0.04422319812898272
-1.3306609579589177   0.007745517177845107   0.04422319812898272
-1.3306609579589177   0.007745517177845107   0.04422319812898272
-1.3306609579589177   0.007745517177845107   0.04422319812898272
-1.312689166694706   -0.0633448898542342   -0.06710526124426265
-1.312689166694706   -0.0633448898542342   -0.06710526124426265
-1.312689166694706   -0.0633448898542342   -0.06710526124426265
-1.312689166694706   -0.0633448898542342   -0.06710526124426265
-0.8894776460770433   0.1033337784770269   0.04485210292180353
-0.8894776460770433   0.1033337784770269   0.04485210292180353
-0.8894776460770433   0.1033337784770269   0.04485210292180353
-0.8894776460770433   0.1033337784770269   0.04485210292180353
-1.0701112372302024   0.022870104134085634   0.04021586834224103
-1.0701112372302024   0.022870104134085634   0.04021586834224103
-1.0701112372302024   0.022870104134085634   0.04021586834224103
-1.0701112372302024   0.022870104134085634   0.04021586834224103
1.276585568619301   0.0954069222074441   0.06762050922877968
1.276585568619301   0.0954069222074441   0.06762050922877968
1.276585568619301   0.0954069222074441   0.06762050922877968
1.276585568619301   0.0954069222074441   0.06762050922877968
0.5631025717956831   -0.15032683419386678   -0.031077738224961474
0.5631025717956831   -0.15032683419386678   -0.031077738224961474
0.5631025717956831   -0.15032683419386678   -0.031077738224961474
0.5631025717956831   -0.15032683419386678   -0.031077738224961474
0.6278762379214342   -0.02643849251743563   0.0464449325066602
0.6278762379214342   -0.02643849251743563   0.0464449325066602
0.6278762379214342   -0.02643849251743563   0.0464449325066602
0.6278762379214342   -0.02643849251743563   0.0464449325066602
1.2906689573270373   -0.002352701934803414   -0.04870828253379303
1.2906689573270373   -0.002352701934803414   -0.04870828253379303
1.2906689573270373   -0.002352701934803414   -0.04870828253379303
1.2906689573270373   -0.002352701934803414   -0.04870828253379303
0.88452675520435   -0.026811350111574983   -0.0691803594059481
0.88452675520435   -0.026811350111574983   -0.0691803594059481
0.88452675520435   -0.026811350111574983   -0.0691803594059481
0.88452675520435   -0.026811350111574983   -0.0691803594059481
1.335622991515604   0.11713642416242684   0.0565727623118028
1.335622991515604   0.11713642416242684   0.0565727623118028
1.335622991515604   0.11713642416242684   0.0565727623118028
1.335622991515604   0.11713642416242684   0.0565727623118028
0.5872393126506256   -0.14161050969690786   -0.04156767666790359
0.5872393126506256   -0.14161050969690786   -0.04156767666790359
0.5872393126506256   -0.14161050969690786   -0.04156767666790359
0.5872393126506256   -0.14161050969690786   -0.04156767666790359
0.6532065047269258   -0.012716193954203009   0.037549692008617644
0.6532065047269258   -0.012716193954203009   0.037549692008617644
0.6532065047269258   -0.012716193954203009   0.037549692008617644
0.6532065047269258   -0.012716193954203009   0.037549692008617644
1.3349343933860531   0.012778243040770743   -0.06085927119344153
1.3349343933860531   0.012778243040770743   -0.06085927119344153
1.3349343933860531   0.012778243040770743   -0.06085927119344153
1.3349343933860531   0.012778243040770743   -0.06085927119344153
0.9401139061047906   -0.010640439165419041   -0.04705795098466475
0.9401139061047906   -0.010640439165419041   -0.04705795098466475
0.9401139061047906   -0.010640439165419041   -0.04705795098466475
0.9401139061047906   -0.010640439165419041   -0.04705795098466475
1.3796252417542365   0.13344354815598725   0.041929665532258215
1.3796252417542365   0.13344354815598725   0.041929665532258215
1.3796252417542365   0.13344354815598725   0.041929665532258215
1.3796252417542365   0.13344354815598725   0.041929665532258215
0.6122941185341979   -0.12960303689396402   -0.05012539601526009
0.6122941185341979   -0.12960303689396402   -0.05012539601526009
0.6122941185341979   -0.12960303689396402   -0.05012539601526009
0.6122941185341979   -0.12960303689396402   -0.05012539601526009
0.6761529419357426   0.023937592299114158   0.03292103034517792
0.6761529419357426   0.023937592299114158   0.03292103034517792
0.6761529419357426   0.023937592299114158   0.03292103034517792
0.6761529419357426   0.023937592299114158   0.03292103034517792
1.389394323396388   0.0570506649430583   -0.06373196095053102
1.389394323396388   0.0570506649430583   -0.06373196095053102
1.389394323396388   0.0570506649430583   -0.06373196095053102
1.389394323396388   0.0570506649430583   -0.06373196095053102
0.9608996384146714   0.011130508719695315   -0.03174538302984583
0.9608996384146714   0.011130508719695315   -0.03174538302984583
0.9608996384146714   0.011130508719695315   -0.03174538302984583
0.9608996384146714   0.011130508719695315   -0.03174538302984583
0.6229219376697004   0.05579207165954446   0.06190018529170946
0.6229219376697004   0.05579207165954446   0.06190018529170946
0.6229219376697004   0.05579207165954446   0.06190018529170946
0.6229219376697004   0.05579207165954446   0.06190018529170946
-0.07704143274625949   -0.18521624910803608   -0.017698188470559248
-0.07704143274625949   -0.18521624910803608   -0.017698188470559248
-0.07704143274625949   -0.18521624910803608   -0.017698188470559248
-0.07704143274625949   -0.18521624910803608   -0.017698188470559248
-0.021255947118449064   -0.06540972154411444   0.015740803801961176
-0.021255947118449064   -0.06540972154411444   0.015740803801961176
-0.021255947118449064   -0.06540972154411444   0.015740803801961176
-0.021255947118449064   -0.06540972154411444   0.015740803801961176
0.6176591796770465   -0.034148167852331573   0.003069316619618255
0.6176591796770465   -0.034148167852331573   0.003069316619618255
0.6176591796770465   -0.034148167852331573   0.003069316619618255
0.6176591796770465   -0.034148167852331573   0.003069316619618255
0.2778326461408457   -0.05162374027541901   -0.03296896982829234
0.2778326461408457   -0.05162374027541901   -0.03296896982829234
0.2778326461408457   -0.05162374027541901   -0.03296896982829234
0.2778326461408457   -0.05162374027541901   -0.03296896982829234
0.6501790935187807   0.07669439118177615   0.054826326794184456
0.6501790935187807   0.07669439118177615   0.054826326794184456
0.6501790935187807   0.07669439118177615   0.054826326794184456
0.6501790935187807   0.07669439118177615   0.054826326794184456
-0.05150062570821994   -0.17397704532625838   -0.02691526536474929
-0.05150062570821994   -0.17397704532625838   -0.02691526536474929
-0.05150062570821994   -0.17397704532625838   -0.02691526536474929
-0.05150062570821994   -0.17397704532625838   -0.02691526536474929
0.004573885408665749   -0.040856101490286637   0.009606478218410921
0.004573885408665749   -0.040856101490286637   0.009606478218410921
0.004573885408665749   -0.040856101490286637   0.009606478218410921
0.004573885408665749   -0.040856101490286637   0.009606478218410921
0.6441133237459589   -0.015634695284137023   -0.004997711566282759
0.6441133237459589   -0.015634695284137023   -0.004997711566282759
0.6441133237459589   -0.015634695284137023   -0.004997711566282759
0.6441133237459589   -0.015634695284137023   -0.004997711566282759
0.30026877519236234   -0.03654823943325056   -0.021371220396019734
0.30026877519236234   -0.03654823943325056   -0.021371220396019734
0.30026877519236234   -0.03654823943325056   -0.021371220396019734
0.30026877519236234   -0.03654823943325056   -0.021371220396019734
0.6783805471518544   0.10177056437540039   0.04893314580365751
0.6783805471518544   0.10177056437540039   0.04893314580365751
0.6783805471518544   0.10177056437540039   0.04893314580365751
0.6783805471518544   0.10177056437540039   0.04893314580365751
-0.028339804955725773   -0.1569078281083098   -0.03891024698552355
-0.028339804955725773   -0.1569078281083098   -0.03891024698552355
-0.028339804955725773   -0.1569078281083098   -0.03891024698552355
-0.028339804955725773   -0.1569078281083098   -0.03891024698552355
0.02484961074151353   -0.012099930843988818   0.003406000135070918
0.02484961074151353   -0.012099930843988818   0.003406000135070918
0.02484961074151353   -0.012099930843988818   0.003406000135070918
0.02484961074151353   -0.012099930843988818   0.003406000135070918
0.6639201686538441   0.007978612372774752   -0.01228385613798312
0.6639201686538441   0.007978612372774752   -0.01228385613798312
0.6639201686538441   0.007978612372774752   -0.01228385613798312
0.6639201686538441   0.007978612372774752   -0.01228385613798312
0.3277528762671361   -0.013998818816067057   -0.008928156582927609
0.3277528762671361   -0.013998818816067057   -0.008928156582927609
0.3277528762671361   -0.013998818816067057   -0.008928156582927609
0.3277528762671361   -0.013998818816067057   -0.008928156582927609
-0.02719182544769655   0.015581688724404002   0.030751910189815365
-0.02719182544769655   0.015581688724404002   0.030751910189815365
-0.02719182544769655   0.015581688724404002   0.030751910189815365
-0.02719182544769655   0.015581688724404002   0.030751910189815365
-0.7122429976344845   -0.23244233902408118   -0.01423147870743972
-0.7122429976344845   -0.23244233902408118   -0.01423147870743972
-0.7122429976344845   -0.23244233902408118   -0.01423147870743972
-0.7122429976344845   -0.23244233902408118   -0.01423147870743972
-0.6558148271823302   -0.10034457435546248   -0.014990257325808361
-0.6558148271823302   -0.10034457435546248   -0.014990257325808361
-0.6558148271823302   -0.10034457435546248   -0.014990257325808361
-0.6558148271823302   -0.10034457435546248   -0.014990257325808361
-0.024522866398623937   -0.07987690730300162   0.013873393159973987
-0.024522866398623937   -0.07987690730300162   0.013873393159973987
-0.024522866398623937   -0.07987690730300162   0.013873393159973987
-0.024522866398623937   -0.07987690730300162   0.013873393159973987
-0.35655721723568373   -0.09394926008129895   -0.029450897646595798
-0.35655721723568373   -0.09394926008129895   -0.029450897646595798
-0.35655721723568373   -0.09394926008129895   -0.029450897646595798
-0.35655721723568373   -0.09394926008129895   -0.029450897646595798
0.0014974193613407436   0.039112924458160434   0.024984990198635336
0.0014974193613407436   0.039112924458160434   0.024984990198635336
0.0014974193613407436   0.039112924458160434   0.024984990198635336
0.0014974193613407436   0.039112924458160434   0.024984990198635336
-0.6801919408133693   -0.21769123398770934   -0.019529165848757676
-0.6801919408133693   -0.21769123398770934   -0.019529165848757676
-0.6801919408133693   -0.21769123398770934   -0.019529165848757676
-0.6801919408133693   -0.21769123398770934   -0.019529165848757676
-0.623777111061865   -0.07308656906039407   -0.02041181841500076
-0.623777111061865   -0.07308656906039407   -0.02041181841500076
-0.623777111061865   -0.07308656906039407   -0.02041181841500076
-0.623777111061865   -0.07308656906039407   -0.02041181841500076
-0.0004590478717181913   -0.06208562411799847   0.0056713344442030425
-0.0004590478717181913   -0.06208562411799847   0.0056713344442030425
-0.0004590478717181913   -0.06208562411799847   0.0056713344442030425
-0.0004590478717181913   -0.06208562411799847   0.0056713344442030425
-0.32545639190618897   -0.0743525642705395   -0.016353683586473194
-0.32545639190618897   -0.0743525642705395   -0.016353683586473194
-0.32545639190618897   -0.0743525642705395   -0.016353683586473194
-0.32545639190618897   -0.0743525642705395   -0.016353683586473194
0.02775070034519684   0.06519020598847866   0.019444245422301075
0.02775070034519684   0.06519020598847866   0.019444245422301075
0.02775070034519684   0.06519020598847866   0.019444245422301075
0.02775070034519684   0.06519020598847866   0.019444245422301075
-0.6519965237252395   -0.2003720636133403   -0.03422338717892353
-0.6519965237252395   -0.2003720636133403   -0.03422338717892353
-0.6519965237252395   -0.2003720636133403   -0.03422338717892353
-0.6519965237252395   -0.2003720636133403   -0.03422338717892353
-0.6011370876009535   -0.04710312143236732   -0.02647326632941314
-0.6011370876009535   -0.04710312143236732   -0.02647326632941314
-0.6011370876009535   -0.04710312143236732   -0.02647326632941314
-0.6011370876009535   -0.04710312143236732   -0.02647326632941314
0.015341651623278336   -0.04786778021002917   -0.008365946090066599
0.015341651623278336   -0.04786778021002917   -0.008365946090066599
0.015341651623278336   -0.04786778021002917   -0.008365946090066599
0.015341651623278336   -0.04786778021002917   -0.008365946090066599
-0.3026450711511045   -0.05607484830341716   -0.00815327224565117
-0.3026450711511045   -0.05607484830341716   -0.00815327224565117
-0.3026450711511045   -0.05607484830341716   -0.00815327224565117
-0.3026450711511045   -0.05607484830341716   -0.00815327224565117
-0.6669558792392378   -0.01924056074099806   -0.0009976650142970167
-0.6669558792392378   -0.01924056074099806   -0.0009976650142970167
-0.6669558792392378   -0.01924056074099806   -0.0009976650142970167
-0.6669558792392378   -0.01924056074099806   -0.0009976650142970167
-1.3503828966913496   -0.24990332323884146   -0.011442881279877276
-1.3503828966913496   -0.24990332323884146   -0.011442881279877276
-1.3503828966913496   -0.24990332323884146   -0.011442881279877276
-1.3503828966913496   -0.24990332323884146   -0.011442881279877276
-1.2897877492190941   -0.12847255424899187   -0.04458985254009843
-1.2897877492190941   -0.12847255424899187   -0.04458985254009843
-1.2897877492190941   -0.12847255424899187   -0.04458985254009843
-1.2897877492190941   -0.12847255424899187   -0.04458985254009843
-0.6434618015152133   -0.0829857763891006   0.02941607304340988
-0.6434618015152133   -0.0829857763891006   0.02941607304340988
-0.6434618015152133   -0.0829857763891006   0.02941607304340988
-0.6434618015152133   -0.0829857763891006   0.02941607304340988
-0.9789975196046645   -0.1129464452917916   -0.020757817891420643
-0.9789975196046645   -0.1129464452917916   -0.020757817891420643
-0.9789975196046645   -0.1129464452917916   -0.020757817891420643
-0.9789975196046645   -0.1129464452917916   -0.020757817891420643
-0.6315632110200006   0.011062478104100854   -0.0051392289737281285
-0.6315632110200006   0.011062478104100854   -0.0051392289737281285
-0.6315632110200006   0.011062478104100854   -0.0051392289737281285
-0.6315632110200006   0.011062478104100854   -0.0051392289737281285
-1.3022052996236329   -0.22303976865150743   -0.012110390160266018
-1.3022052996236329   -0.22303976865150743   -0.012110390160266018
-1.3022052996236329   -0.22303976865150743   -0.012110390160266018
-1.3022052996236329   -0.22303976865150743   -0.012110390160266018
-1.2439897465534526   -0.10000982127445779   -0.0516398208009312
-1.2439897465534526   -0.10000982127445779   -0.0516398208009312
-1.2439897465534526   -0.10000982127445779   -0.0516398208009312
-1.2439897465534526   -0.10000982127445779   -0.0516398208009312
-0.6123496257761576   -0.06161542083590104   0.025254459789046328
-0.6123496257761576   -0.06161542083590104   0.025254459789046328
-0.6123496257761576   -0.06161542083590104   0.025254459789046328
-0.6123496257761576   -0.06161542083590104   0.025254459789046328
-0.9319299238988902   -0.08563872324497482   -0.00681688217769158
-0.9319299238988902   -0.08563872324497482   -0.00681688217769158
-0.9319299238988902   -0.08563872324497482   -0.00681688217769158
-0.9319299238988902   -0.08563872324497482   -0.00681688217769158
-0.5994496851648533   0.03737825297115044   -0.009239510961489533
-0.5994496851648533   0.03737825297115044   -0.009239510961489533
-0.5994496851648533   0.03737825297115044   -0.009239510961489533
-0.5994496851648533   0.03737825297115044   -0.009239510961489533
-1.2590954344006902   -0.20120924231744172   -0.025968838994124534
-1.2590954344006902   -0.20120924231744172   -0.025968838994124534
-1.2590954344006902   -0.20120924231744172   -0.025968838994124534
-1.2590954344006902   -0.20120924231744172   -0.025968838994124534
-1.2068349501102367   -0.06999947494902609   -0.05328600857004612
-1.2068349501102367   -0.06999947494902609   -0.05328600857004612
-1.2068349501102367   -0.06999947494902609   -0.05328600857004612
-1.2068349501102367   -0.06999947494902609   -0.05328600857004612
-0.5944778603463357   -0.04802917475684179   0.007748923268156932
-0.5944778603463357   -0.04802917475684179   0.007748923268156932
-0.5944778603463357   -0.04802917475684179   0.007748923268156932
-0.5944778603463357   -0.04802917475684179   0.007748923268156932
-0.9059711065121352   -0.06899169403613589   -0.0022660578832506967
-0.9059711065121352   -0.06899169403613589   -0.0022660578832506967
-0.9059711065121352   -0.06899169403613589   -0.0022660578832506967
-0.9059711065121352   -0.06899169403613589   -0.0022660578832506967
-1.3135357605806508   -0.04455465000218267   -0.03255587396304102
-1.3135357605806508   -0.04455465000218267   -0.03255587396304102
-1.3135357605806508   -0.04455465000218267   -0.03255587396304102
-1.3135357605806508   -0.04455465000218267   -0.03255587396304102
-1.9806575069533028   -0.16899324980183184   0.0748571356960646
-1.9806575069533028   -0.16899324980183184   0.0748571356960646
-1.9806575069533028   -0.16899324980183184   0.0748571356960646
-1.9806575069533028   -0.16899324980183184   0.0748571356960646
-1.912706881269306   -0.1346326205912065   -0.043572463724295296
-1.912706881269306   -0.1346326205912065   -0.043572463724295296
-1.912706881269306   -0.1346326205912065   -0.043572463724295296
-1.912706881269306   -0.1346326205912065   -0.043572463724295296
-1.2343311681566413   0.03539364120694283   0.06882685731622046
-1.2343311681566413   0.03539364120694283   0.06882685731622046
-1.2343311681566413   0.03539364120694283   0.06882685731622046
-1.2343311681566413   0.03539364120694283   0.06882685731622046
-1.5382604802505098   -0.053024532496833754   0.007381252170837696
-1.5382604802505098   -0.053024532496833754   0.007381252170837696
-1.5382604802505098   -0.053024532496833754   0.007381252170837696
-1.5382604802505098   -0.053024532496833754   0.007381252170837696
-1.263032702853594   -0.003200605962934866   -0.03608656899864873
-1.263032702853594   -0.003200605962934866   -0.03608656899864873
-1.263032702853594   -0.003200605962934866   -0.03608656899864873
-1.263032702853594   -0.003200605962934866   -0.03608656899864873
-1.879376453417548   -0.09140948026652107   0.07985653520980779
-1.879376453417548   -0.09140948026652107   0.07985653520980779
-1.879376453417548   -0.09140948026652107   0.07985653520980779
-1.879376453417548   -0.09140948026652107   0.07985653520980779
-1.8398110124752007   -0.11330716161771032   -0.051890141332511366
-1.8398110124752007   -0.11330716161771032   -0.051890141332511366
-1.8398110124752007   -0.11330716161771032   -0.051890141332511366
-1.8398110124752007   -0.11330716161771032   -0.051890141332511366
-1.1890396763907722   0.05664168376783846   0.0664590249701753
-1.1890396763907722   0.05664168376783846   0.0664590249701753
-1.1890396763907722   0.05664168376783846   0.0664590249701753
-1.1890396763907722   0.05664168376783846   0.0664590249701753
-1.4952453552782174   -0.02138895243516792   0.030643400856281283
-1.4952453552782174   -0.02138895243516792   0.030643400856281283
-1.4952453552782174   -0.02138895243516792   0.030643400856281283
-1.4952453552782174   -0.02138895243516792   0.030643400856281283
-1.218757035268849   0.013487037466330176   -0.03897312311869125
-1.218757035268849   0.013487037466330176   -0.03897312311869125
-1.218757035268849   0.013487037466330176   -0.03897312311869125
-1.218757035268849   0.013487037466330176   -0.03897312311869125
-1.8091562669132077   -0.06921512863229212   0.05729155349201934
-1.8091562669132077   -0.06921512863229212   0.05729155349201934
-1.8091562669132077   -0.06921512863229212   0.05729155349201934
-1.8091562669132077   -0.06921512863229212   0.05729155349201934
-1.764420222789358   -0.09316740531701206   -0.06271123933607642
-1.764420222789358   -0.09316740531701206   -0.06271123933607642
-1.764420222789358   -0.09316740531701206   -0.06271123933607642
-1.764420222789358   -0.09316740531701206   -0.06271123933607642
-1.1554836534168356   0.08206302856816555   0.051407971379767436
-1.1554836534168356   0.08206302856816555   0.051407971379767436
-1.1554836534168356   0.08206302856816555   0.051407971379767436
-1.1554836534168356   0.08206302856816555   0.051407971379767436
-1.4141745984398733   0.0056529160299962355   0.05395322194802957
-1.4141745984398733   0.0056529160299962355   0.05395322194802957
-1.4141745984398733   0.0056529160299962355   0.05395322194802957
-1.4141745984398733   0.0056529160299962355   0.05395322194802957
1.743196304176545   0.10454271392906189   0.06317627000888125
1.743196304176545   0.10454271392906189   0.06317627000888125
1.743196304176545   0.10454271392906189   0.06317627000888125
1.743196304176545   0.10454271392906189   0.06317627000888125
0.8309629668405953   -0.15560569382708409   0.01411777639873607
0.8309629668405953   -0.15560569382708409   0.01411777639873607
0.8309629668405953   -0.15560569382708409   0.01411777639873607
0.8309629668405953   -0.15560569382708409   0.01411777639873607
0.8768032008355953   -0.06566525608538992   0.048594703204716316
0.8768032008355953   -0.06566525608538992   0.048594703204716316
0.8768032008355953   -0.06566525608538992   0.048594703204716316
0.8768032008355953   -0.06566525608538992   0.048594703204716316
1.7523752755684812   0.014917463863705849   -0.014073003197367706
1.7523752755684812   0.014917463863705849   -0.014073003197367706
1.7523752755684812   0.014917463863705849   -0.014073003197367706
1.7523752755684812   0.014917463863705849   -0.014073003197367706
1.225558823926082   -0.03341692050749773   -0.08142739115256901
1.225558823926082   -0.03341692050749773   -0.08142739115256901
1.225558823926082   -0.03341692050749773   -0.08142739115256901
1.225558823926082   -0.03341692050749773   -0.08142739115256901
1.7854663606579433   0.1163403437173886   0.04995954239626085
1.7854663606579433   0.1163403437173886   0.04995954239626085
1.7854663606579433   0.1163403437173886   0.04995954239626085
1.7854663606579433   0.1163403437173886   0.04995954239626085
0.8516510563558282   -0.15914919532937755   0.01631792004986818
0.8516510563558282   -0.15914919532937755   0.01631792004986818
0.8516510563558282   -0.15914919532937755   0.01631792004986818
0.8516510563558282   -0.15914919532937755   0.01631792004986818
0.8941638976167501   -0.05580847231402192   0.036977647801898494
0.8941638976167501   -0.05580847231402192   0.036977647801898494
0.8941638976167501   -0.05580847231402192   0.036977647801898494
0.8941638976167501   -0.05580847231402192   0.036977647801898494
1.7830661476641518   0.026029661732326237   -0.004311772676382483
1.7830661476641518   0.026029661732326237   -0.004311772676382483
1.7830661476641518   0.026029661732326237   -0.004311772676382483
1.7830661476641518   0.026029661732326237   -0.004311772676382483
1.276098081527575   -0.026423910948642215   -0.055630844623048153
1.276098081527575   -0.026423910948642215   -0.055630844623048153
1.276098081527575   -0.026423910948642215   -0.055630844623048153
1.276098081527575   -0.026423910948642215   -0.055630844623048153
1.8110645942765777   0.12709846823431548   0.03461165388375764
1.8110645942765777   0.12709846823431548   0.03461165388375764
1.8110645942765777   0.12709846823431548   0.03461165388375764
1.8110645942765777   0.12709846823431548   0.03461165388375764
0.8716879537673451   -0.1513547760529901   0.02014423229384245
0.8716879537673451   -0.1513547760529901   0.02014423229384245
0.8716879537673451   -0.1513547760529901   0.02014423229384245
0.8716879537673451   -0.1513547760529901   0.02014423229384245
0.9197154933908873   -0.017377928751001553   0.033803900584670275
0.9197154933908873   -0.017377928751001553   0.033803900584670275
0.9197154933908873   -0.017377928751001553   0.033803900584670275
0.9197154933908873   -0.017377928751001553   0.033803900584670275
1.8149887645889415   0.05149743612095237   -0.0007152985725031591
1.8149887645889415   0.05149743612095237   -0.0007152985725031591
1.8149887645889415   0.05149743612095237   -0.0007152985725031591
1.8149887645889415   0.05149743612095237   -0.0007152985725031591
1.2823606512954941   -0.012177474423092582   -0.04158853839091657
1.2823606512954941   -0.012177474423092582   -0.04158853839091657
1.2823606512954941   -0.012177474423092582   -0.04158853839091657
1.2823606512954941   -0.012177474423092582   -0.04158853839091657
0.8769836085264062   0.02237621253395855   0.06623907846674822
0.8769836085264062   0.02237621253395855   0.06623907846674822
0.8769836085264062   0.02237621253395855   0.06623907846674822
0.8769836085264062   0.02237621253395855   0.06623907846674822
0.04603952090918577   -0.3098687682875218   0.03179093969283249
0.04603952090918577   -0.3098687682875218   0.03179093969283249
0.04603952090918577   -0.3098687682875218   0.03179093969283249
0.04603952090918577   -0.3098687682875218   0.03179093969283249
0.10576827746665837   -0.13120709472875683   0.02966558444788018
0.10576827746665837   -0.13120709472875683   0.02966558444788018
0.10576827746665837   -0.13120709472875683   0.02966558444788018
0.10576827746665837   -0.13120709472875683   0.02966558444788018
0.8544910902121263   -0.14881303819707414   0.020181932199044253
0.8544910902121263   -0.14881303819707414   0.020181932199044253
0.8544910902121263   -0.14881303819707414   0.020181932199044253
0.8544910902121263   -0.14881303819707414   0.020181932199044253
0.4555280858797959   -0.13887141569486747   -0.05204590860421732
0.4555280858797959   -0.13887141569486747   -0.05204590860421732
0.4555280858797959   -0.13887141569486747   -0.05204590860421732
0.4555280858797959   -0.13887141569486747   -0.05204590860421732
0.8977449836879468   0.032319001585117996   0.055319359795965826
0.8977449836879468   0.032319001585117996   0.055319359795965826
0.8977449836879468   0.032319001585117996   0.055319359795965826
0.8977449836879468   0.032319001585117996   0.055319359795965826
0.07393396898978248   -0.3009195495120025   0.04020649684674636
0.07393396898978248   -0.3009195495120025   0.04020649684674636
0.07393396898978248   -0.3009195495120025   0.04020649684674636
0.07393396898978248   -0.3009195495120025   0.04020649684674636
0.1297790800621412   -0.1132029007674261   0.021495504701089393
0.1297790800621412   -0.1132029007674261   0.021495504701089393
0.1297790800621412   -0.1132029007674261   0.021495504701089393
0.1297790800621412   -0.1132029007674261   0.021495504701089393
0.8750443737599678   -0.13937905532717193   0.02495061153113723
0.8750443737599678   -0.13937905532717193   0.02495061153113723
0.8750443737599678   -0.13937905532717193   0.02495061153113723
0.8750443737599678   -0.13937905532717193   0.02495061153113723
0.4759626958883483   -0.13197581561392094   -0.026024613588211967
0.4759626958883483   -0.13197581561392094   -0.026024613588211967
0.4759626958883483   -0.13197581561392094   -0.026024613588211967
0.4759626958883483   -0.13197581561392094   -0.026024613588211967
0.9171107833370367   0.049287549804341135   0.04661605428496868
0.9171107833370367   0.049287549804341135   0.04661605428496868
0.9171107833370367   0.049287549804341135   0.04661605428496868
0.9171107833370367   0.049287549804341135   0.04661605428496868
0.09869877813581587   -0.29088339824818504   0.043774492550223504
0.09869877813581587   -0.29088339824818504   0.043774492550223504
0.09869877813581587   -0.29088339824818504   0.043774492550223504
0.09869877813581587   -0.29088339824818504   0.043774492550223504
0.16663475614591922   -0.08617547159367955   0.014231136537731504
0.16663475614591922   -0.08617547159367955   0.014231136537731504
0.16663475614591922   -0.08617547159367955   0.014231136537731504
0.16663475614591922   -0.08617547159367955   0.014231136537731504
0.8975375030620203   -0.12504089764503482   0.03057691783436854
0.8975375030620203   -0.12504089764503482   0.03057691783436854
0.8975375030620203   -0.12504089764503482   0.03057691783436854
0.8975375030620203   -0.12504089764503482   0.03057691783436854
0.5118089498772633   -0.11527753913995012   0.0042592862756981945
0.5118089498772633   -0.11527753913995012   0.0042592862756981945
0.5118089498772633   -0.11527753913995012   0.0042592862756981945
0.5118089498772633   -0.11527753913995012   0.0042592862756981945
0.09839618073807918   -0.058939261248447665   0.0426447317982254
0.09839618073807918   -0.058939261248447665   0.0426447317982254
0.09839618073807918   -0.058939261248447665   0.0426447317982254
0.09839618073807918   -0.058939261248447665   0.0426447317982254
-0.7453278830102493   -0.5321938933458604   0.04607684058342261
-0.7453278830102493   -0.5321938933458604   0.04607684058342261
-0.7453278830102493   -0.5321938933458604   0.04607684058342261
-0.7453278830102493   -0.5321938933458604   0.04607684058342261
-0.6509115862049085   -0.20731737043707812   0.003059797295876087
-0.6509115862049085   -0.20731737043707812   0.003059797295876087
-0.6509115862049085   -0.20731737043707812   0.003059797295876087
-0.6509115862049085   -0.20731737043707812   0.003059797295876087
0.05218553369276012   -0.3870409375478491   0.01758570839748115
0.05218553369276012   -0.3870409375478491   0.01758570839748115
0.05218553369276012   -0.3870409375478491   0.01758570839748115
0.05218553369276012   -0.3870409375478491   0.01758570839748115
-0.32115370698426904   -0.29849564274737317   -0.062450495497579826
-0.32115370698426904   -0.29849564274737317   -0.062450495497579826
-0.32115370698426904   -0.29849564274737317   -0.062450495497579826
-0.32115370698426904   -0.29849564274737317   -0.062450495497579826
0.12353877063283598   -0.046314222848918465   0.03362517839892988
0.12353877063283598   -0.046314222848918465   0.03362517839892988
0.12353877063283598   -0.046314222848918465   0.03362517839892988
0.12353877063283598   -0.046314222848918465   0.03362517839892988
-0.705734758488295   -0.5315140204793181   0.0531405859211911
-0.705734758488295   -0.5315140204793181   0.0531405859211911
-0.705734758488295   -0.5315140204793181   0.0531405859211911
-0.705734758488295   -0.5315140204793181   0.0531405859211911
-0.6144919773907944   -0.1860381897750072   -5.8564321703001576e-05
-0.6144919773907944   -0.1860381897750072   -5.8564321703001576e-05
-0.6144919773907944   -0.1860381897750072   -5.8564321703001576e-05
-0.6144919773907944   -0.1860381897750072   -5.8564321703001576e-05
0.07749919823574684   -0.3785085481638727   0.02540174296556598
0.07749919823574684   -0.3785085481638727   0.02540174296556598
0.07749919823574684   -0.3785085481638727   0.02540174296556598
0.07749919823574684   -0.3785085481638727   0.02540174296556598
-0.28426379095652654   -0.28828665423685584   -0.023276598207884185
-0.28426379095652654   -0.28828665423685584   -0.023276598207884185
-0.28426379095652654   -0.28828665423685584   -0.023276598207884185
-0.28426379095652654   -0.28828665423685584   -0.023276598207884185
0.14652595424900258   -0.029514579674260646   0.02154155454223273
0.14652595424900258   -0.029514579674260646   0.02154155454223273
0.14652595424900258   -0.029514579674260646   0.02154155454223273
0.14652595424900258   -0.029514579674260646   0.02154155454223273
-0.6686019720421749   -0.5201153969027423   0.06346866954913931
-0.6686019720421749   -0.5201153969027423   0.06346866954913931
-0.6686019720421749   -0.5201153969027423   0.06346866954913931
-0.6686019720421749   -0.5201153969027423   0.06346866954913931
-0.5543922911961685   -0.16152813036040997   -0.006933754022523633
-0.5543922911961685   -0.16152813036040997   -0.006933754022523633
-0.5543922911961685   -0.16152813036040997   -0.006933754022523633
-0.5543922911961685   -0.16152813036040997   -0.006933754022523633
0.11701307901756068   -0.3547222942282919   0.0346695735305511
0.11701307901756068   -0.3547222942282919   0.0346695735305511
0.11701307901756068   -0.3547222942282919   0.0346695735305511
0.11701307901756068   -0.3547222942282919   0.0346695735305511
-0.23639334772283438   -0.2654572493696727   0.01771354186366983
-0.23639334772283438   -0.2654572493696727   0.01771354186366983
-0.23639334772283438   -0.2654572493696727   0.01771354186366983
-0.23639334772283438   -0.2654572493696727   0.01771354186366983
-0.6653473524587095   -0.10654209844772851   0.020327698442985816
-0.6653473524587095   -0.10654209844772851   0.020327698442985816
-0.6653473524587095   -0.10654209844772851   0.020327698442985816
-0.6653473524587095   -0.10654209844772851   0.020327698442985816
-1.6579447865002834   -0.8283282795977737   -0.038925478917535256
-1.6579447865002834   -0.8283282795977737   -0.038925478917535256
-1.6579447865002834   -0.8283282795977737   -0.038925478917535256
-1.6579447865002834   -0.8283282795977737   -0.038925478917535256
-1.5021452020165138   -0.26975896524735293   -0.045766470746612414
-1.5021452020165138   -0.26975896524735293   -0.045766470746612414
-1.5021452020165138   -0.26975896524735293   -0.045766470746612414
-1.5021452020165138   -0.26975896524735293   -0.045766470746612414
-0.7457564053137291   -0.6924263195643353   0.013944650879030157
-0.7457564053137291   -0.6924263195643353   0.013944650879030157
-0.7457564053137291   -0.6924263195643353   0.013944650879030157
-0.7457564053137291   -0.6924263195643353   0.013944650879030157
-1.141511192721295   -0.4899547921922847   -0.06561015996957974
-1.141511192721295   -0.4899547921922847   -0.06561015996957974
-1.141511192721295   -0.4899547921922847   -0.06561015996957974
-1.141511192721295   -0.4899547921922847   -0.06561015996957974
-0.6223248466360951   -0.08075531256781136   0.019431437270676397
-0.6223248466360951   -0.08075531256781136   0.019431437270676397
-0.6223248466360951   -0.08075531256781136   0.019431437270676397
-0.6223248466360951   -0.08075531256781136   0.019431437270676397
-1.6217951886503104   -0.8776484002000392   -0.03612696896290801
-1.6217951886503104   -0.8776484002000392   -0.03612696896290801
-1.6217951886503104   -0.8776484002000392   -0.03612696896290801
-1.6217951886503104   -0.8776484002000392   -0.03612696896290801
-1.4536499732631163   -0.24425485054446527   -0.04664234126675504
-1.4536499732631163   -0.24425485054446527   -0.04664234126675504
-1.4536499732631163   -0.24425485054446527   -0.04664234126675504
-1.4536499732631163   -0.24425485054446527   -0.04664234126675504
-0.7104389003185374   -0.6869449419886899   0.021113573253268264
-0.7104389003185374   -0.6869449419886899   0.021113573253268264
-0.7104389003185374   -0.6869449419886899   0.021113573253268264
-0.7104389003185374   -0.6869449419886899   0.021113573253268264
-1.0906017641678551   -0.4766579650018929   -0.04596207914190559
-1.0906017641678551   -0.4766579650018929   -0.04596207914190559
-1.0906017641678551   -0.4766579650018929   -0.04596207914190559
-1.0906017641678551   -0.4766579650018929   -0.04596207914190559
-0.5880657121209749   -0.060502179676840226   0.006536751929229031
-0.5880657121209749   -0.060502179676840226   0.006536751929229031
-0.5880657121209749   -0.060502179676840226   0.006536751929229031
-0.5880657121209749   -0.060502179676840226   0.006536751929229031
-1.5759273502222202   -0.870601801617855   -0.03168227498887477
-1.5759273502222202   -0.870601801617855   -0.03168227498887477
-1.5759273502222202   -0.870601801617855   -0.03168227498887477
-1.5759273502222202   -0.870601801617855   -0.03168227498887477
-1.3779872102054402   -0.21685614429229083   -0.05287657455004516
-1.3779872102054402   -0.21685614429229083   -0.05287657455004516
-1.3779872102054402   -0.21685614429229083   -0.05287657455004516
-1.3779872102054402   -0.21685614429229083   -0.05287657455004516
-0.6340278309093641   -0.6175384667542946   0.05089888380539068
-0.6340278309093641   -0.6175384667542946   0.05089888380539068
-0.6340278309093641   -0.6175384667542946   0.05089888380539068
-0.6340278309093641   -0.6175384667542946   0.05089888380539068
-1.0338275608494714   -0.4319647302531775   -0.025496131299257048
-1.0338275608494714   -0.4319647302531775   -0.025496131299257048
-1.0338275608494714   -0.4319647302531775   -0.025496131299257048
-1.0338275608494714   -0.4319647302531775   -0.025496131299257048
-1.5047763755647527   -0.09089232619238824   -0.010519377645267239
-1.5047763755647527   -0.09089232619238824   -0.010519377645267239
-1.5047763755647527   -0.09089232619238824   -0.010519377645267239
-1.5047763755647527   -0.09089232619238824   -0.010519377645267239
-2.654987900421826   -0.5255782873087161   0.02709646387824516
-2.654987900421826   -0.5255782873087161   0.02709646387824516
-2.654987900421826   -0.5255782873087161   0.02709646387824516
-2.654987900421826   -0.5255782873087161   0.02709646387824516
-2.5505370266404377   -0.25278846417631207   -0.055877811116257725
-2.5505370266404377   -0.25278846417631207   -0.055877811116257725
-2.5505370266404377   -0.25278846417631207   -0.055877811116257725
-2.5505370266404377   -0.25278846417631207   -0.055877811116257725
-1.471619812491333   -0.27241971680990085   0.1095212284418286
-1.471619812491333   -0.27241971680990085   0.1095212284418286
-1.471619812491333   -0.27241971680990085   0.1095212284418286
-1.471619812491333   -0.27241971680990085   0.1095212284418286
-1.962633276372602   -0.30480305091148985   0.02802642593931799
-1.962633276372602   -0.30480305091148985   0.02802642593931799
-1.962633276372602   -0.30480305091148985   0.02802642593931799
-1.962633276372602   -0.30480305091148985   0.02802642593931799
-1.4429798145558583   -0.020034299395235988   0.00033580070454319877
-1.4429798145558583   -0.020034299395235988   0.00033580070454319877
-1.4429798145558583   -0.020034299395235988   0.00033580070454319877
-1.4429798145558583   -0.020034299395235988   0.00033580070454319877
-2.5891056569841604   -0.5151025139992271   0.013593086988025083
-2.5891056569841604   -0.5151025139992271   0.013593086988025083
-2.5891056569841604   -0.5151025139992271   0.013593086988025083
-2.5891056569841604   -0.5151025139992271   0.013593086988025083
-2.4930583076539237   -0.23163899520381204   -0.0709257386249253
-2.4930583076539237   -0.23163899520381204   -0.0709257386249253
-2.4930583076539237   -0.23163899520381204   -0.0709257386249253
-2.4930583076539237   -0.23163899520381204   -0.0709257386249253
-1.421700108554537   -0.25880799613714206   0.12766012786882686
-1.421700108554537   -0.25880799613714206   0.12766012786882686
-1.421700108554537   -0.25880799613714206   0.12766012786882686
-1.421700108554537   -0.25880799613714206   0.12766012786882686
-1.9323417165571084   -0.25104307068327625   0.026965195613208072
-1.9323417165571084   -0.25104307068327625   0.026965195613208072
-1.9323417165571084   -0.25104307068327625   0.026965195613208072
-1.9323417165571084   -0.25104307068327625   0.026965195613208072
-1.3985089525561247   -0.0013186617621083752   -0.013873426514144777
-1.3985089525561247   -0.0013186617621083752   -0.013873426514144777
-1.3985089525561247   -0.0013186617621083752   -0.013873426514144777
-1.3985089525561247   -0.0013186617621083752   -0.013873426514144777
-2.519877747076455   -0.4927566130029783   0.05609468206156365
-2.519877747076455   -0.4927566130029783   0.05609468206156365
-2.519877747076455   -0.4927566130029783   0.05609468206156365
-2.519877747076455   -0.4927566130029783   0.05609468206156365
-2.373693367935635   -0.1877240383424471   -0.07931764865449603
-2.373693367935635   -0.1877240383424471   -0.07931764865449603
-2.373693367935635   -0.1877240383424471   -0.07931764865449603
-2.373693367935635   -0.1877240383424471   -0.07931764865449603
-1.3440386417691002   -0.24067141973828748   0.14068154307766273
-1.3440386417691002   -0.24067141973828748   0.14068154307766273
-1.3440386417691002   -0.24067141973828748   0.14068154307766273
-1.3440386417691002   -0.24067141973828748   0.14068154307766273
-1.816812176215047   -0.19192929849071008   0.05536294795671772
-1.816812176215047   -0.19192929849071008   0.05536294795671772
-1.816812176215047   -0.19192929849071008   0.05536294795671772
-1.816812176215047   -0.19192929849071008   0.05536294795671772
1.909341540934557   0.06261855951310658   0.02686046900572764
1.909341540934557   0.06261855951310658   0.02686046900572764
1.909341540934557   0.06261855951310658   0.02686046900572764
1.909341540934557   0.06261855951310658   0.02686046900572764
0.974835258370443   -0.051375659617952124   0.019746650172671174
0.974835258370443   -0.051375659617952124   0.019746650172671174
0.974835258370443   -0.051375659617952124   0.019746650172671174
0.974835258370443   -0.051375659617952124   0.019746650172671174
0.9367679157331914   -0.13761398591181678   0.038877107760308754
0.9367679157331914   -0.13761398591181678   0.038877107760308754
0.9367679157331914   -0.13761398591181678   0.038877107760308754
0.9367679157331914   -0.13761398591181678   0.038877107760308754
1.8954841119052848   0.10679386322143675   0.014283910192190927
1.8954841119052848   0.10679386322143675   0.014283910192190927
1.8954841119052848   0.10679386322143675   0.014283910192190927
1.8954841119052848   0.10679386322143675   0.014283910192190927
1.3529418637052437   -0.019200662425385928   -0.04996368242088449
1.3529418637052437   -0.019200662425385928   -0.04996368242088449
1.3529418637052437   -0.019200662425385928   -0.04996368242088449
1.3529418637052437   -0.019200662425385928   -0.04996368242088449
1.8850556399233451   0.04837935006244831   0.020556063441480588
1.8850556399233451   0.04837935006244831   0.020556063441480588
1.8850556399233451   0.04837935006244831   0.020556063441480588
1.8850556399233451   0.04837935006244831   0.020556063441480588
0.9440826725096971   -0.08231318795826248   0.020150093689282736
0.9440826725096971   -0.08231318795826248   0.020150093689282736
0.9440826725096971   -0.08231318795826248   0.020150093689282736
0.9440826725096971   -0.08231318795826248   0.020150093689282736
0.9124895767396504   -0.14079188049874575   0.03215708709275901
0.9124895767396504   -0.14079188049874575   0.03215708709275901
0.9124895767396504   -0.14079188049874575   0.03215708709275901
0.9124895767396504   -0.14079188049874575   0.03215708709275901
1.8732996504445152   0.1021698960564722   0.024732167196886146
1.8732996504445152   0.1021698960564722   0.024732167196886146
1.8732996504445152   0.1021698960564722   0.024732167196886146
1.8732996504445152   0.1021698960564722   0.024732167196886146
1.3489183789790944   -0.026486135425049406   -0.05783016133582833
1.3489183789790944   -0.026486135425049406   -0.05783016133582833
1.3489183789790944   -0.026486135425049406   -0.05783016133582833
1.3489183789790944   -0.026486135425049406   -0.05783016133582833
1.8577619997765762   0.043061623894014855   0.006152186019636255
1.8577619997765762   0.043061623894014855   0.006152186019636255
1.8577619997765762   0.043061623894014855   0.006152186019636255
1.8577619997765762   0.043061623894014855   0.006152186019636255
0.9224335739550933   -0.08727726178878661   0.028362454460013925
0.9224335739550933   -0.08727726178878661   0.028362454460013925
0.9224335739550933   -0.08727726178878661   0.028362454460013925
0.9224335739550933   -0.08727726178878661   0.028362454460013925
0.8868773263437282   -0.1284283118850482   0.02776739964270744
0.8868773263437282   -0.1284283118850482   0.02776739964270744
0.8868773263437282   -0.1284283118850482   0.02776739964270744
0.8868773263437282   -0.1284283118850482   0.02776739964270744
1.8391152946255005   0.10333024972585975   0.035577693035757224
1.8391152946255005   0.10333024972585975   0.035577693035757224
1.8391152946255005   0.10333024972585975   0.035577693035757224
1.8391152946255005   0.10333024972585975   0.035577693035757224
1.2982449570841101   -0.02668679707970939   -0.07807355426025488
1.2982449570841101   -0.02668679707970939   -0.07807355426025488
1.2982449570841101   -0.02668679707970939   -0.07807355426025488
1.2982449570841101   -0.02668679707970939   -0.07807355426025488
0.9661821395628069   -0.12264779432671358   0.04775319084325248
0.9661821395628069   -0.12264779432671358   0.04775319084325248
0.9661821395628069   -0.12264779432671358   0.04775319084325248
0.9661821395628069   -0.12264779432671358   0.04775319084325248
0.18749491042345506   -0.11505412823758937   0.010205718166416765
0.18749491042345506   -0.11505412823758937   0.010205718166416765
0.18749491042345506   -0.11505412823758937   0.010205718166416765
0.18749491042345506   -0.11505412823758937   0.010205718166416765
0.12184716418208257   -0.28915933900198804   0.05109435420451862
0.12184716418208257   -0.28915933900198804   0.05109435420451862
0.12184716418208257   -0.28915933900198804   0.05109435420451862
0.12184716418208257   -0.28915933900198804   0.05109435420451862
0.9714329623787563   0.037705860148659454   0.03688249492765614
0.9714329623787563   0.037705860148659454   0.03688249492765614
0.9714329623787563   0.037705860148659454   0.03688249492765614
0.9714329623787563   0.037705860148659454   0.03688249492765614
0.5531045997960147   -0.12277939269915514   -0.0021274204218905413
0.5531045997960147   -0.12277939269915514   -0.0021274204218905413
0.5531045997960147   -0.12277939269915514   -0.0021274204218905413
0.5531045997960147   -0.12277939269915514   -0.0021274204218905413
0.9389252973942347   -0.12796048097476698   0.040010511128471635
0.9389252973942347   -0.12796048097476698   0.040010511128471635
0.9389252973942347   -0.12796048097476698   0.040010511128471635
0.9389252973942347   -0.12796048097476698   0.040010511128471635
0.14614434529862766   -0.13170348174653854   0.015124402531794694
0.14614434529862766   -0.13170348174653854   0.015124402531794694
0.14614434529862766   -0.13170348174653854   0.015124402531794694
0.14614434529862766   -0.13170348174653854   0.015124402531794694
0.09244021687364487   -0.2917413309848751   0.04574339012894432
0.09244021687364487   -0.2917413309848751   0.04574339012894432
0.09244021687364487   -0.2917413309848751   0.04574339012894432
0.09244021687364487   -0.2917413309848751   0.04574339012894432
0.9490437513365151   0.03044261044336427   0.04369346913497166
0.9490437513365151   0.03044261044336427   0.04369346913497166
0.9490437513365151   0.03044261044336427   0.04369346913497166
0.9490437513365151   0.03044261044336427   0.04369346913497166
0.5131631008213683   -0.13085902317789175   -0.02651051727492565
0.5131631008213683   -0.13085902317789175   -0.02651051727492565
0.5131631008213683   -0.13085902317789175   -0.02651051727492565
0.5131631008213683   -0.13085902317789175   -0.02651051727492565
0.9148793572358229   -0.12978279926938893   0.03309690834425823
0.9148793572358229   -0.12978279926938893   0.03309690834425823
0.9148793572358229   -0.12978279926938893   0.03309690834425823
0.9148793572358229   -0.12978279926938893   0.03309690834425823
0.11768145531745716   -0.1404390769290129   0.020647328292143607
0.11768145531745716   -0.1404390769290129   0.020647328292143607
0.11768145531745716   -0.1404390769290129   0.020647328292143607
0.11768145531745716   -0.1404390769290129   0.020647328292143607
0.05953518490827624   -0.29159693138727794   0.03579906727689701
0.05953518490827624   -0.29159693138727794   0.03579906727689701
0.05953518490827624   -0.29159693138727794   0.03579906727689701
0.05953518490827624   -0.29159693138727794   0.03579906727689701
0.9236341841390714   0.030887789899845947   0.05223558683453529
0.9236341841390714   0.030887789899845947   0.05223558683453529
0.9236341841390714   0.030887789899845947   0.05223558683453529
0.9236341841390714   0.030887789899845947   0.05223558683453529
0.4887727596694982   -0.12985152498339325   -0.047248766048780554
0.4887727596694982   -0.12985152498339325   -0.047248766048780554
0.4887727596694982   -0.12985152498339325   -0.047248766048780554
0.4887727596694982   -0.12985152498339325   -0.047248766048780554
0.14613096501632344   -0.3545425993988307   0.04287446229199825
0.14613096501632344   -0.3545425993988307   0.04287446229199825
0.14613096501632344   -0.3545425993988307   0.04287446229199825
0.14613096501632344   -0.3545425993988307   0.04287446229199825
-0.5694231497730151   -0.1785096417571297   0.0006221214987144272
-0.5694231497730151   -0.1785096417571297   0.0006221214987144272
-0.5694231497730151   -0.1785096417571297   0.0006221214987144272
-0.5694231497730151   -0.1785096417571297   0.0006221214987144272
-0.6881896387624539   -0.5269213126020389   0.058559005581745996
-0.6881896387624539   -0.5269213126020389   0.058559005581745996
-0.6881896387624539   -0.5269213126020389   0.058559005581745996
-0.6881896387624539   -0.5269213126020389   0.058559005581745996
0.1681095903339259   -0.030076944861901253   0.023324090823648554
0.1681095903339259   -0.030076944861901253   0.023324090823648554
0.1681095903339259   -0.030076944861901253   0.023324090823648554
0.1681095903339259   -0.030076944861901253   0.023324090823648554
-0.2326905703006539   -0.2686745185550873   0.010105793692653998
-0.2326905703006539   -0.2686745185550873   0.010105793692653998
-0.2326905703006539   -0.2686745185550873   0.010105793692653998
-0.2326905703006539   -0.2686745185550873   0.010105793692653998
0.1006802976532221   -0.3746991582696727   0.030799840827901007
0.1006802976532221   -0.3746991582696727   0.030799840827901007
0.1006802976532221   -0.3746991582696727   0.030799840827901007
0.1006802976532221   -0.3746991582696727   0.030799840827901007
-0.6322513014030454   -0.19379005451556341   0.005119434292309027
-0.6322513014030454   -0.19379005451556341   0.005119434292309027
-0.6322513014030454   -0.19379005451556341   0.005119434292309027
-0.6322513014030454   -0.19379005451556341   0.005119434292309027
-0.7291493973812672   -0.5353817952423923   0.04768410318998183
-0.7291493973812672   -0.5353817952423923   0.04768410318998183
-0.7291493973812672   -0.5353817952423923   0.04768410318998183
-0.7291493973812672   -0.5353817952423923   0.04768410318998183
0.140555756315208   -0.03813968727711129   0.0327194436289962
0.140555756315208   -0.03813968727711129   0.0327194436289962
0.140555756315208   -0.03813968727711129   0.0327194436289962
0.140555756315208   -0.03813968727711129   0.0327194436289962
-0.2838740821374501   -0.2850079333228883   -0.024081311206598392
-0.2838740821374501   -0.2850079333228883   -0.024081311206598392
-0.2838740821374501   -0.2850079333228883   -0.024081311206598392
-0.2838740821374501   -0.2850079333228883   -0.024081311206598392
0.06935608342996798   -0.38125103444417024   0.019832426369856895
0.06935608342996798   -0.38125103444417024   0.019832426369856895
0.06935608342996798   -0.38125103444417024   0.019832426369856895
0.06935608342996798   -0.38125103444417024   0.019832426369856895
-0.671619373691426   -0.20594009727073267   0.0058925236675231585
-0.671619373691426   -0.20594009727073267   0.0058925236675231585
-0.671619373691426   -0.20594009727073267   0.0058925236675231585
-0.671619373691426   -0.20594009727073267   0.0058925236675231585
-0.7735399971335067   -0.5317354118565951   0.04015706154010239
-0.7735399971335067   -0.5317354118565951   0.04015706154010239
-0.7735399971335067   -0.5317354118565951   0.04015706154010239
-0.7735399971335067   -0.5317354118565951   0.04015706154010239
0.10989861552799926   -0.042632738943183646   0.03865202793141787
0.10989861552799926   -0.042632738943183646   0.03865202793141787
0.10989861552799926   -0.042632738943183646   0.03865202793141787
0.10989861552799926   -0.042632738943183646   0.03865202793141787
-0.32540209910121026   -0.29121497615317643   -0.05823369171712724
-0.32540209910121026   -0.29121497615317643   -0.05823369171712724
-0.32540209910121026   -0.29121497615317643   -0.05823369171712724
-0.32540209910121026   -0.29121497615317643   -0.05823369171712724
-0.6452098926513605   -0.6078003766454245   0.05097914199528755
-0.6452098926513605   -0.6078003766454245   0.05097914199528755
-0.6452098926513605   -0.6078003766454245   0.05097914199528755
-0.6452098926513605   -0.6078003766454245   0.05097914199528755
-1.4299163957578127   -0.22223865876855517   -0.033109037271842924
-1.4299163957578127   -0.22223865876855517   -0.033109037271842924
-1.4299163957578127   -0.22223865876855517   -0.033109037271842924
-1.4299163957578127   -0.22223865876855517   -0.033109037271842924
-1.6374729206886316   -0.882699627898179   -0.045705375415285965
-1.6374729206886316   -0.882699627898179   -0.045705375415285965
-1.6374729206886316   -0.882699627898179   -0.045705375415285965
-1.6374729206886316   -0.882699627898179   -0.045705375415285965
-0.6004522002850454   -0.049827795317490806   0.020152680684236132
-0.6004522002850454   -0.049827795317490806   0.020152680684236132
-0.6004522002850454   -0.049827795317490806   0.020152680684236132
-0.6004522002850454   -0.049827795317490806   0.020152680684236132
-1.0679301315071832   -0.4235187808234925   -0.036432216834351244
-1.0679301315071832   -0.4235187808234925   -0.036432216834351244
-1.0679301315071832   -0.4235187808234925   -0.036432216834351244
-1.0679301315071832   -0.4235187808234925   -0.036432216834351244
-0.7287617601100731   -0.6883840862092401   0.017161172450850692
-0.7287617601100731   -0.6883840862092401   0.017161172450850692
-0.7287617601100731   -0.6883840862092401   0.017161172450850692
-0.7287617601100731   -0.6883840862092401   0.017161172450850692
-1.5058890548834363   -0.2408690310262615   -0.029616643261226552
-1.5058890548834363   -0.2408690310262615   -0.029616643261226552
-1.5058890548834363   -0.2408690310262615   -0.029616643261226552
-1.5058890548834363   -0.2408690310262615   -0.029616643261226552
-1.6861943401467139   -0.8968897588014739   -0.05285507098247566
-1.6861943401467139   -0.8968897588014739   -0.05285507098247566
-1.6861943401467139   -0.8968897588014739   -0.05285507098247566
-1.6861943401467139   -0.8968897588014739   -0.05285507098247566
-0.6382075099525231   -0.06306204866185101   0.03007379375315598
-0.6382075099525231   -0.06306204866185101   0.03007379375315598
-0.6382075099525231   -0.06306204866185101   0.03007379375315598
-0.6382075099525231   -0.06306204866185101   0.03007379375315598
-1.127472113398218   -0.4692534655118299   -0.05159379938592264
-1.127472113398218   -0.4692534655118299   -0.05159379938592264
-1.127472113398218   -0.4692534655118299   -0.05159379938592264
-1.127472113398218   -0.4692534655118299   -0.05159379938592264
-0.7706408803112914   -0.7018658949820018   0.006710788279462976
-0.7706408803112914   -0.7018658949820018   0.006710788279462976
-0.7706408803112914   -0.7018658949820018   0.006710788279462976
-0.7706408803112914   -0.7018658949820018   0.006710788279462976
-1.5539880258976142   -0.25831296859099506   -0.030400289947473198
-1.5539880258976142   -0.25831296859099506   -0.030400289947473198
-1.5539880258976142   -0.25831296859099506   -0.030400289947473198
-1.5539880258976142   -0.25831296859099506   -0.030400289947473198
-1.7277474899500966   -0.858382670672599   -0.05960247674539887
-1.7277474899500966   -0.858382670672599   -0.05960247674539887
-1.7277474899500966   -0.858382670672599   -0.05960247674539887
-1.7277474899500966   -0.858382670672599   -0.05960247674539887
-0.6860042876329067   -0.08175280262239892   0.027852999808893372
-0.6860042876329067   -0.08175280262239892   0.027852999808893372
-0.6860042876329067   -0.08175280262239892   0.027852999808893372
-0.6860042876329067   -0.08175280262239892   0.027852999808893372
-1.1823169255541972   -0.48484353318487117   -0.06608947634913755
-1.1823169255541972   -0.48484353318487117   -0.06608947634913755
-1.1823169255541972   -0.48484353318487117   -0.06608947634913755
-1.1823169255541972   -0.48484353318487117   -0.06608947634913755
-1.4047384144157877   -0.2556993672910147   0.12624157796071406
-1.4047384144157877   -0.2556993672910147   0.12624157796071406
-1.4047384144157877   -0.2556993672910147   0.12624157796071406
-1.4047384144157877   -0.2556993672910147   0.12624157796071406
-2.4733729572184093   -0.1850502159340386   -0.04390056900574563
-2.4733729572184093   -0.1850502159340386   -0.04390056900574563
-2.4733729572184093   -0.1850502159340386   -0.04390056900574563
-2.4733729572184093   -0.1850502159340386   -0.04390056900574563
-2.6247885656883247   -0.5180284536253408   0.03464629756162052
-2.6247885656883247   -0.5180284536253408   0.03464629756162052
-2.6247885656883247   -0.5180284536253408   0.03464629756162052
-2.6247885656883247   -0.5180284536253408   0.03464629756162052
-1.4451250211416196   0.020864604180397595   0.0124698902411855
-1.4451250211416196   0.020864604180397595   0.0124698902411855
-1.4451250211416196   0.020864604180397595   0.0124698902411855
-1.4451250211416196   0.020864604180397595   0.0124698902411855
-1.8923798616287995   -0.18196994824617252   0.038028748172665605
-1.8923798616287995   -0.18196994824617252   0.038028748172665605
-1.8923798616287995   -0.18196994824617252   0.038028748172665605
-1.8923798616287995   -0.18196994824617252   0.038028748172665605
-1.4842794253601612   -0.27445282533854826   0.11201529866742
-1.4842794253601612   -0.27445282533854826   0.11201529866742
-1.4842794253601612   -0.27445282533854826   0.11201529866742
-1.4842794253601612   -0.27445282533854826   0.11201529866742
-2.579013378771424   -0.216090241408033   -0.03841598007116309
-2.579013378771424   -0.216090241408033   -0.03841598007116309
-2.579013378771424   -0.216090241408033   -0.03841598007116309
-2.579013378771424   -0.216090241408033   -0.03841598007116309
-2.6890274377699277   -0.5400829591956688   -0.011387358208416742
-2.6890274377699277   -0.5400829591956688   -0.011387358208416742
-2.6890274377699277   -0.5400829591956688   -0.011387358208416742
-2.6890274377699277   -0.5400829591956688   -0.011387358208416742
-1.4904729719982261   0.006018026197837423   0.022843984760634872
-1.4904729719982261   0.006018026197837423   0.022843984760634872
-1.4904729719982261   0.006018026197837423   0.022843984760634872
-1.4904729719982261   0.006018026197837423   0.022843984760634872
-2.0055652527716705   -0.2402259625105208   0.01565787594827424
-2.0055652527716705   -0.2402259625105208   0.01565787594827424
-2.0055652527716705   -0.2402259625105208   0.01565787594827424
-2.0055652527716705   -0.2402259625105208   0.01565787594827424
-1.5353772059390396   -0.2885060607807724   0.09284690203517748
-1.5353772059390396   -0.2885060607807724   0.09284690203517748
-1.5353772059390396   -0.2885060607807724   0.09284690203517748
-1.5353772059390396   -0.2885060607807724   0.09284690203517748
-2.630821879815346   -0.23225754820328326   -0.028184979427848422
-2.630821879815346   -0.23225754820328326   -0.028184979427848422
-2.630821879815346   -0.23225754820328326   -0.028184979427848422
-2.630821879815346   -0.23225754820328326   -0.028184979427848422
-2.7449057125493783   -0.549013604371209   -0.00016230930666716326
-2.7449057125493783   -0.549013604371209   -0.00016230930666716326
-2.7449057125493783   -0.549013604371209   -0.00016230930666716326
-2.7449057125493783   -0.549013604371209   -0.00016230930666716326
-1.5541549096915503   -0.05937597761433805   0.009353731489071718
-1.5541549096915503   -0.05937597761433805   0.009353731489071718
-1.5541549096915503   -0.05937597761433805   0.009353731489071718
-1.5541549096915503   -0.05937597761433805   0.009353731489071718
-2.0299702799927832   -0.29024718663098525   0.024715008904759427
-2.0299702799927832   -0.29024718663098525   0.024715008904759427
-2.0299702799927832   -0.29024718663098525   0.024715008904759427
-2.0299702799927832   -0.29024718663098525   0.024715008904759427
1.6723823688548465   0.07692228149162234   -0.03631075476386002
1.6723823688548465   0.07692228149162234   -0.03631075476386002
1.6723823688548465   0.07692228149162234   -0.03631075476386002
1.6723823688548465   0.07692228149162234   -0.03631075476386002
0.841761823845814   -0.016965384594064437   0.017862063952149954
0.841761823845814   -0.016965384594064437   0.017862063952149954
0.841761823845814   -0.016965384594064437   0.017862063952149954
0.841761823845814   -0.016965384594064437   0.017862063952149954
0.7882043741948103   -0.12393723469466841   -0.03209184167779862
0.7882043741948103   -0.12393723469466841   -0.03209184167779862
0.7882043741948103   -0.12393723469466841   -0.03209184167779862
0.7882043741948103   -0.12393723469466841   -0.03209184167779862
1.6530162933455301   0.12072969428027949   0.02089840360523259
1.6530162933455301   0.12072969428027949   0.02089840360523259
1.6530162933455301   0.12072969428027949   0.02089840360523259
1.6530162933455301   0.12072969428027949   0.02089840360523259
1.173901964940939   0.002879931172769523   -0.045345358581914186
1.173901964940939   0.002879931172769523   -0.045345358581914186
1.173901964940939   0.002879931172769523   -0.045345358581914186
1.173901964940939   0.002879931172769523   -0.045345358581914186
1.6259003366034215   0.04269165746467524   -0.03664334328969164
1.6259003366034215   0.04269165746467524   -0.03664334328969164
1.6259003366034215   0.04269165746467524   -0.03664334328969164
1.6259003366034215   0.04269165746467524   -0.03664334328969164
0.8138143713627953   -0.04740515745318627   0.019426066920638578
0.8138143713627953   -0.04740515745318627   0.019426066920638578
0.8138143713627953   -0.04740515745318627   0.019426066920638578
0.8138143713627953   -0.04740515745318627   0.019426066920638578
0.7593672115249325   -0.13086364307295564   -0.026503089530608842
0.7593672115249325   -0.13086364307295564   -0.026503089530608842
0.7593672115249325   -0.13086364307295564   -0.026503089530608842
0.7593672115249325   -0.13086364307295564   -0.026503089530608842
1.612956980774298   0.1109153412941494   0.030549816787371335
1.612956980774298   0.1109153412941494   0.030549816787371335
1.612956980774298   0.1109153412941494   0.030549816787371335
1.612956980774298   0.1109153412941494   0.030549816787371335
1.1581537195014682   -0.011749691377549665   -0.054131659413290956
1.1581537195014682   -0.011749691377549665   -0.054131659413290956
1.1581537195014682   -0.011749691377549665   -0.054131659413290956
1.1581537195014682   -0.011749691377549665   -0.054131659413290956
1.5856410870349034   0.033890739843401796   -0.029005050458854154
1.5856410870349034   0.033890739843401796   -0.029005050458854154
1.5856410870349034   0.033890739843401796   -0.029005050458854154
1.5856410870349034   0.033890739843401796   -0.029005050458854154
0.7845937816814567   -0.05592836520506814   0.024694483384125103
0.7845937816814567   -0.05592836520506814   0.024694483384125103
0.7845937816814567   -0.05592836520506814   0.024694483384125103
0.7845937816814567   -0.05592836520506814   0.024694483384125103
0.7314376208799251   -0.1289552920727572   -0.018172342211813797
0.7314376208799251   -0.1289552920727572   -0.018172342211813797
0.7314376208799251   -0.1289552920727572   -0.018172342211813797
0.7314376208799251   -0.1289552920727572   -0.018172342211813797
1.5633558946508654   0.10424588712642266   0.03974993351463769
1.5633558946508654   0.10424588712642266   0.03974993351463769
1.5633558946508654   0.10424588712642266   0.03974993351463769
1.5633558946508654   0.10424588712642266   0.03974993351463769
1.1008647933463451   -0.020502516427369055   -0.07110079210345259
1.1008647933463451   -0.020502516427369055   -0.07110079210345259
1.1008647933463451   -0.020502516427369055   -0.07110079210345259
1.1008647933463451   -0.020502516427369055   -0.07110079210345259
0.8463306745453901   0.01618338960392135   0.007557543252035316
0.8463306745453901   0.01618338960392135   0.007557543252035316
0.8463306745453901   0.01618338960392135   0.007557543252035316
0.8463306745453901   0.01618338960392135   0.007557543252035316
0.08142186983141567   -0.05070720963956221   -0.0019237241178405584
0.08142186983141567   -0.05070720963956221   -0.0019237241178405584
0.08142186983141567   -0.05070720963956221   -0.0019237241178405584
0.08142186983141567   -0.05070720963956221   -0.0019237241178405584
0.030954165330484902   -0.16394241592443531   -0.030880088389546454
0.030954165330484902   -0.16394241592443531   -0.030880088389546454
0.030954165330484902   -0.16394241592443531   -0.030880088389546454
0.030954165330484902   -0.16394241592443531   -0.030880088389546454
0.8473395341411817   0.09773003369112299   0.04191668966826097
0.8473395341411817   0.09773003369112299   0.04191668966826097
0.8473395341411817   0.09773003369112299   0.04191668966826097
0.8473395341411817   0.09773003369112299   0.04191668966826097
0.443225687943899   -0.02303328583921073   -0.017571262458149373
0.443225687943899   -0.02303328583921073   -0.017571262458149373
0.443225687943899   -0.02303328583921073   -0.017571262458149373
0.443225687943899   -0.02303328583921073   -0.017571262458149373
0.8226332564843304   0.0031604058327243945   0.012954929242406744
0.8226332564843304   0.0031604058327243945   0.012954929242406744
0.8226332564843304   0.0031604058327243945   0.012954929242406744
0.8226332564843304   0.0031604058327243945   0.012954929242406744
0.05659734734590108   -0.06843588370747124   0.0018292894705703514
0.05659734734590108   -0.06843588370747124   0.0018292894705703514
0.05659734734590108   -0.06843588370747124   0.0018292894705703514
0.05659734734590108   -0.06843588370747124   0.0018292894705703514
0.0031492702511111553   -0.17177266961081117   -0.021488450050563143
0.0031492702511111553   -0.17177266961081117   -0.021488450050563143
0.0031492702511111553   -0.17177266961081117   -0.021488450050563143
0.0031492702511111553   -0.17177266961081117   -0.021488450050563143
0.8168149496042365   0.08363728644449318   0.046234671348462694
0.8168149496042365   0.08363728644449318   0.046234671348462694
0.8168149496042365   0.08363728644449318   0.046234671348462694
0.8168149496042365   0.08363728644449318   0.046234671348462694
0.4112279203224736   -0.03600431641981841   -0.024878594253137924
0.4112279203224736   -0.03600431641981841   -0.024878594253137924
0.4112279203224736   -0.03600431641981841   -0.024878594253137924
0.4112279203224736   -0.03600431641981841   -0.024878594253137924
0.7934968307106656   -0.005624329036482051   0.018905692361589316
0.7934968307106656   -0.005624329036482051   0.018905692361589316
0.7934968307106656   -0.005624329036482051   0.018905692361589316
0.7934968307106656   -0.005624329036482051   0.018905692361589316
0.026335150036980382   -0.08264329323754685   0.005311572505518631
0.026335150036980382   -0.08264329323754685   0.005311572505518631
0.026335150036980382   -0.08264329323754685   0.005311572505518631
0.026335150036980382   -0.08264329323754685   0.005311572505518631
-0.02670060698633114   -0.17255681192574604   -0.014652631167960683
-0.02670060698633114   -0.17255681192574604   -0.014652631167960683
-0.02670060698633114   -0.17255681192574604   -0.014652631167960683
-0.02670060698633114   -0.17255681192574604   -0.014652631167960683
0.7860179443328713   0.07467416168728512   0.0510998212928787
0.7860179443328713   0.07467416168728512   0.0510998212928787
0.7860179443328713   0.07467416168728512   0.0510998212928787
0.7860179443328713   0.07467416168728512   0.0510998212928787
0.386191592097279   -0.04117868040647517   -0.03115876308936293
0.386191592097279   -0.04117868040647517   -0.03115876308936293
0.386191592097279   -0.04117868040647517   -0.03115876308936293
0.386191592097279   -0.04117868040647517   -0.03115876308936293
0.0829889866551523   -0.04759225724916307   0.002796907610441473
0.0829889866551523   -0.04759225724916307   0.002796907610441473
0.0829889866551523   -0.04759225724916307   0.002796907610441473
0.0829889866551523   -0.04759225724916307   0.002796907610441473
-0.6535334203971739   -0.07553093565304557   -0.02056295437275121
-0.6535334203971739   -0.07553093565304557   -0.02056295437275121
-0.6535334203971739   -0.07553093565304557   -0.02056295437275121
-0.6535334203971739   -0.07553093565304557   -0.02056295437275121
-0.709639818092053   -0.21732864736933338   -0.03518501328753311
-0.709639818092053   -0.21732864736933338   -0.03518501328753311
-0.709639818092053   -0.21732864736933338   -0.03518501328753311
-0.709639818092053   -0.21732864736933338   -0.03518501328753311
0.0890466192664568   0.07158091472399797   0.024058850641879705
0.0890466192664568   0.07158091472399797   0.024058850641879705
0.0890466192664568   0.07158091472399797   0.024058850641879705
0.0890466192664568   0.07158091472399797   0.024058850641879705
-0.2986664956905421   -0.06399845055861468   -0.01744103925819285
-0.2986664956905421   -0.06399845055861468   -0.01744103925819285
-0.2986664956905421   -0.06399845055861468   -0.01744103925819285
-0.2986664956905421   -0.06399845055861468   -0.01744103925819285
0.062096448194746454   -0.05313884121083502   0.014027751218159145
0.062096448194746454   -0.05313884121083502   0.014027751218159145
0.062096448194746454   -0.05313884121083502   0.014027751218159145
0.062096448194746454   -0.05313884121083502   0.014027751218159145
-0.6806271246919212   -0.0905463691060894   -0.016903824550117907
-0.6806271246919212   -0.0905463691060894   -0.016903824550117907
-0.6806271246919212   -0.0905463691060894   -0.016903824550117907
-0.6806271246919212   -0.0905463691060894   -0.016903824550117907
-0.7422473074436826   -0.22590472912212728   -0.023302701837131592
-0.7422473074436826   -0.22590472912212728   -0.023302701837131592
-0.7422473074436826   -0.22590472912212728   -0.023302701837131592
-0.7422473074436826   -0.22590472912212728   -0.023302701837131592
0.05854118032767141   0.05649433159417354   0.027204099127253377
0.05854118032767141   0.05649433159417354   0.027204099127253377
0.05854118032767141   0.05649433159417354   0.027204099127253377
0.05854118032767141   0.05649433159417354   0.027204099127253377
-0.3256417695003689   -0.07298280063695621   -0.020920423844662032
-0.3256417695003689   -0.07298280063695621   -0.020920423844662032
-0.3256417695003689   -0.07298280063695621   -0.020920423844662032
-0.3256417695003689   -0.07298280063695621   -0.020920423844662032
0.033225028356124085   -0.06227182285165771   0.01938949371534803
0.033225028356124085   -0.06227182285165771   0.01938949371534803
0.033225028356124085   -0.06227182285165771   0.01938949371534803
0.033225028356124085   -0.06227182285165771   0.01938949371534803
-0.7164984674967407   -0.1067058867008922   -0.013757344523663272
-0.7164984674967407   -0.1067058867008922   -0.013757344523663272
-0.7164984674967407   -0.1067058867008922   -0.013757344523663272
-0.7164984674967407   -0.1067058867008922   -0.013757344523663272
-0.7784284783980685   -0.23217168633187524   -0.020715615086033864
-0.7784284783980685   -0.23217168633187524   -0.020715615086033864
-0.7784284783980685   -0.23217168633187524   -0.020715615086033864
-0.7784284783980685   -0.23217168633187524   -0.020715615086033864
0.025545019321659306   0.04361373619690111   0.03040495224934439
0.025545019321659306   0.04361373619690111   0.03040495224934439
0.025545019321659306   0.04361373619690111   0.03040495224934439
0.025545019321659306   0.04361373619690111   0.03040495224934439
-0.3606878657862928   -0.08373933329190901   -0.029302111277135934
-0.3606878657862928   -0.08373933329190901   -0.029302111277135934
-0.3606878657862928   -0.08373933329190901   -0.029302111277135934
-0.3606878657862928   -0.08373933329190901   -0.029302111277135934
-0.6435231838683095   -0.05628895867714295   0.010246251295653666
-0.6435231838683095   -0.05628895867714295   0.010246251295653666
-0.6435231838683095   -0.05628895867714295   0.010246251295653666
-0.6435231838683095   -0.05628895867714295   0.010246251295653666
-1.3708509196408751   -0.08839619149967559   -0.036240647076642124
-1.3708509196408751   -0.08839619149967559   -0.036240647076642124
-1.3708509196408751   -0.08839619149967559   -0.036240647076642124
-1.3708509196408751   -0.08839619149967559   -0.036240647076642124
-1.434629671713263   -0.2277235602935559   -0.03514867276793314
-1.434629671713263   -0.2277235602935559   -0.03514867276793314
-1.434629671713263   -0.2277235602935559   -0.03514867276793314
-1.434629671713263   -0.2277235602935559   -0.03514867276793314
-0.6468395482861238   0.054671400993918706   0.006816287378851288
-0.6468395482861238   0.054671400993918706   0.006816287378851288
-0.6468395482861238   0.054671400993918706   0.006816287378851288
-0.6468395482861238   0.054671400993918706   0.006816287378851288
-1.015524435160292   -0.07575375465882109   -0.014654177302447592
-1.015524435160292   -0.07575375465882109   -0.014654177302447592
-1.015524435160292   -0.07575375465882109   -0.014654177302447592
-1.015524435160292   -0.07575375465882109   -0.014654177302447592
-0.6666634804900001   -0.06218915168719864   0.02455717904059025
-0.6666634804900001   -0.06218915168719864   0.02455717904059025
-0.6666634804900001   -0.06218915168719864   0.02455717904059025
-0.6666634804900001   -0.06218915168719864   0.02455717904059025
-1.4107624751049517   -0.1068197432080158   -0.036716506811931754
-1.4107624751049517   -0.1068197432080158   -0.036716506811931754
-1.4107624751049517   -0.1068197432080158   -0.036716506811931754
-1.4107624751049517   -0.1068197432080158   -0.036716506811931754
-1.4797409943591258   -0.24231890550418014   -0.024677006051948218
-1.4797409943591258   -0.24231890550418014   -0.024677006051948218
-1.4797409943591258   -0.24231890550418014   -0.024677006051948218
-1.4797409943591258   -0.24231890550418014   -0.024677006051948218
-0.6831090646409029   0.03814560147777474   0.008338181576858547
-0.6831090646409029   0.03814560147777474   0.008338181576858547
-0.6831090646409029   0.03814560147777474   0.008338181576858547
-0.6831090646409029   0.03814560147777474   0.008338181576858547
-1.0440479190190328   -0.08383604021477428   -0.01469745525740166
-1.0440479190190328   -0.08383604021477428   -0.01469745525740166
-1.0440479190190328   -0.08383604021477428   -0.01469745525740166
-1.0440479190190328   -0.08383604021477428   -0.01469745525740166
-0.7026817146025937   -0.07687295141105112   0.025493484657225934
-0.7026817146025937   -0.07687295141105112   0.025493484657225934
-0.7026817146025937   -0.07687295141105112   0.025493484657225934
-0.7026817146025937   -0.07687295141105112   0.025493484657225934
-1.4574584759373317   -0.12459048415525151   -0.030992835291905378
-1.4574584759373317   -0.12459048415525151   -0.030992835291905378
-1.4574584759373317   -0.12459048415525151   -0.030992835291905378
-1.4574584759373317   -0.12459048415525151   -0.030992835291905378
-1.5307871640127453   -0.2615619610735472   -0.026409916067009112
-1.5307871640127453   -0.2615619610735472   -0.026409916067009112
-1.5307871640127453   -0.2615619610735472   -0.026409916067009112
-1.5307871640127453   -0.2615619610735472   -0.026409916067009112
-0.7223064032350838   0.017750690606800346   0.009972383790206645
-0.7223064032350838   0.017750690606800346   0.009972383790206645
-0.7223064032350838   0.017750690606800346   0.009972383790206645
-0.7223064032350838   0.017750690606800346   0.009972383790206645
-1.0946870720280764   -0.10356762989541252   -0.023893840567153768
-1.0946870720280764   -0.10356762989541252   -0.023893840567153768
-1.0946870720280764   -0.10356762989541252   -0.023893840567153768
-1.0946870720280764   -0.10356762989541252   -0.023893840567153768
-1.3244354846550654   0.06250454970859426   0.04493578664413565
-1.3244354846550654   0.06250454970859426   0.04493578664413565
-1.3244354846550654   0.06250454970859426   0.04493578664413565
-1.3244354846550654   0.06250454970859426   0.04493578664413565
-2.0535563727116455   -0.10231428512513852   -0.027599575858547026
-2.0535563727116455   -0.10231428512513852   -0.027599575858547026
-2.0535563727116455   -0.10231428512513852   -0.027599575858547026
-2.0535563727116455   -0.10231428512513852   -0.027599575858547026
-2.1040566079825496   -0.10418869003165726   0.0461350060219026
-2.1040566079825496   -0.10418869003165726   0.0461350060219026
-2.1040566079825496   -0.10418869003165726   0.0461350060219026
-2.1040566079825496   -0.10418869003165726   0.0461350060219026
-1.3757317345242284   0.04262918719753922   -0.011011734313868995
-1.3757317345242284   0.04262918719753922   -0.011011734313868995
-1.3757317345242284   0.04262918719753922   -0.011011734313868995
-1.3757317345242284   0.04262918719753922   -0.011011734313868995
-1.6345443533611883   0.0012348222950355203   0.04148827609407059
-1.6345443533611883   0.0012348222950355203   0.04148827609407059
-1.6345443533611883   0.0012348222950355203   0.04148827609407059
-1.6345443533611883   0.0012348222950355203   0.04148827609407059
-1.3614139711451836   0.04646174173934425   0.0567445280395443
-1.3614139711451836   0.04646174173934425   0.0567445280395443
-1.3614139711451836   0.04646174173934425   0.0567445280395443
-1.3614139711451836   0.04646174173934425   0.0567445280395443
-2.1174321025435527   -0.10707897575542152   -0.017852181059348285
-2.1174321025435527   -0.10707897575542152   -0.017852181059348285
-2.1174321025435527   -0.10707897575542152   -0.017852181059348285
-2.1174321025435527   -0.10707897575542152   -0.017852181059348285
-2.167805426982541   -0.12146721878907163   0.06275021481040471
-2.167805426982541   -0.12146721878907163   0.06275021481040471
-2.167805426982541   -0.12146721878907163   0.06275021481040471
-2.167805426982541   -0.12146721878907163   0.06275021481040471
-1.4224671734847811   0.030888908884898092   -0.011515716069314508
-1.4224671734847811   0.030888908884898092   -0.011515716069314508
-1.4224671734847811   0.030888908884898092   -0.011515716069314508
-1.4224671734847811   0.030888908884898092   -0.011515716069314508
-1.7167907059888152   -0.018986767561928575   0.022690771469625018
-1.7167907059888152   -0.018986767561928575   0.022690771469625018
-1.7167907059888152   -0.018986767561928575   0.022690771469625018
-1.7167907059888152   -0.018986767561928575   0.022690771469625018
-1.4093787543322185   0.02885927541215949   0.055956013166237606
-1.4093787543322185   0.02885927541215949   0.055956013166237606
-1.4093787543322185   0.02885927541215949   0.055956013166237606
-1.4093787543322185   0.02885927541215949   0.055956013166237606
-2.1833587334144435   -0.12190247259568343   -0.014581063542497802
-2.1833587334144435   -0.12190247259568343   -0.014581063542497802
-2.1833587334144435   -0.12190247259568343   -0.014581063542497802
-2.1833587334144435   -0.12190247259568343   -0.014581063542497802
-2.2584340961815146   -0.19120181648149054   0.05450372364327406
-2.2584340961815146   -0.19120181648149054   0.05450372364327406
-2.2584340961815146   -0.19120181648149054   0.05450372364327406
-2.2584340961815146   -0.19120181648149054   0.05450372364327406
-1.476351125949479   -0.004948681967467949   -0.010843004856778915
-1.476351125949479   -0.004948681967467949   -0.010843004856778915
-1.476351125949479   -0.004948681967467949   -0.010843004856778915
-1.476351125949479   -0.004948681967467949   -0.010843004856778915
-1.751798305138558   -0.0444508118657887   0.006159645676097919
-1.751798305138558   -0.0444508118657887   0.006159645676097919
-1.751798305138558   -0.0444508118657887   0.006159645676097919
-1.751798305138558   -0.0444508118657887   0.006159645676097919
1.3552875779223155   0.07250906017053388   -0.0482914663013598
1.3552875779223155   0.07250906017053388   -0.0482914663013598
1.3552875779223155   0.07250906017053388   -0.0482914663013598
1.3552875779223155   0.07250906017053388   -0.0482914663013598
0.6718454443565461   -0.0007130289258132361   0.017490958911105574
0.6718454443565461   -0.0007130289258132361   0.017490958911105574
0.6718454443565461   -0.0007130289258132361   0.017490958911105574
0.6718454443565461   -0.0007130289258132361   0.017490958911105574
0.6140662466737856   -0.10010082363312969   -0.044304139290068774
0.6140662466737856   -0.10010082363312969   -0.044304139290068774
0.6140662466737856   -0.10010082363312969   -0.044304139290068774
0.6140662466737856   -0.10010082363312969   -0.044304139290068774
1.3297765175270557   0.10957899253332368   0.021936859815785324
1.3297765175270557   0.10957899253332368   0.021936859815785324
1.3297765175270557   0.10957899253332368   0.021936859815785324
1.3297765175270557   0.10957899253332368   0.021936859815785324
0.9414203078346873   0.008314253572397762   -0.03098330817350086
0.9414203078346873   0.008314253572397762   -0.03098330817350086
0.9414203078346873   0.008314253572397762   -0.03098330817350086
0.9414203078346873   0.008314253572397762   -0.03098330817350086
1.3015598598590932   0.03695436638650593   -0.046521802377198336
1.3015598598590932   0.03695436638650593   -0.046521802377198336
1.3015598598590932   0.03695436638650593   -0.046521802377198336
1.3015598598590932   0.03695436638650593   -0.046521802377198336
0.6410740553291464   -0.028685046498913735   0.019319126852507536
0.6410740553291464   -0.028685046498913735   0.019319126852507536
0.6410740553291464   -0.028685046498913735   0.019319126852507536
0.6410740553291464   -0.028685046498913735   0.019319126852507536
0.5851679090955213   -0.10845507834116253   -0.03851320971041148
0.5851679090955213   -0.10845507834116253   -0.03851320971041148
0.5851679090955213   -0.10845507834116253   -0.03851320971041148
0.5851679090955213   -0.10845507834116253   -0.03851320971041148
1.2865523783231707   0.0980947748816409   0.029998448318687164
1.2865523783231707   0.0980947748816409   0.029998448318687164
1.2865523783231707   0.0980947748816409   0.029998448318687164
1.2865523783231707   0.0980947748816409   0.029998448318687164
0.9188230328327187   -0.006745983219136054   -0.04069073875488445
0.9188230328327187   -0.006745983219136054   -0.04069073875488445
0.9188230328327187   -0.006745983219136054   -0.04069073875488445
0.9188230328327187   -0.006745983219136054   -0.04069073875488445
1.258938470464833   0.02667201054709531   -0.03664832663843388
1.258938470464833   0.02667201054709531   -0.03664832663843388
1.258938470464833   0.02667201054709531   -0.03664832663843388
1.258938470464833   0.02667201054709531   -0.03664832663843388
0.6116967650453746   -0.03811736591509857   0.02379335761278608
0.6116967650453746   -0.03811736591509857   0.02379335761278608
0.6116967650453746   -0.03811736591509857   0.02379335761278608
0.6116967650453746   -0.03811736591509857   0.02379335761278608
0.5587822229004537   -0.11091173436751237   -0.031464502204564336
0.5587822229004537   -0.11091173436751237   -0.031464502204564336
0.5587822229004537   -0.11091173436751237   -0.031464502204564336
0.5587822229004537   -0.11091173436751237   -0.031464502204564336
1.2378240984587938   0.08804202776001857   0.037337059155799254
1.2378240984587938   0.08804202776001857   0.037337059155799254
1.2378240984587938   0.08804202776001857   0.037337059155799254
1.2378240984587938   0.08804202776001857   0.037337059155799254
0.866108349094866   -0.017110621515418534   -0.05525969659697701
0.866108349094866   -0.017110621515418534   -0.05525969659697701
0.866108349094866   -0.017110621515418534   -0.05525969659697701
0.866108349094866   -0.017110621515418534   -0.05525969659697701
0.6834042696548538   0.07082368870338301   0.003748367773447392
0.6834042696548538   0.07082368870338301   0.003748367773447392
0.6834042696548538   0.07082368870338301   0.003748367773447392
0.6834042696548538   0.07082368870338301   0.003748367773447392
0.02332664240616797   -0.022409497484345006   -0.0027949393656952586
0.02332664240616797   -0.022409497484345006   -0.0027949393656952586
0.02332664240616797   -0.022409497484345006   -0.0027949393656952586
0.02332664240616797   -0.022409497484345006   -0.0027949393656952586
-0.02022524954891165   -0.0901964606184733   -0.030150998189688624
-0.02022524954891165   -0.0901964606184733   -0.030150998189688624
-0.02022524954891165   -0.0901964606184733   -0.030150998189688624
-0.02022524954891165   -0.0901964606184733   -0.030150998189688624
0.6702260564483318   0.09923699902907973   0.0371570869204413
0.6702260564483318   0.09923699902907973   0.0371570869204413
0.6702260564483318   0.09923699902907973   0.0371570869204413
0.6702260564483318   0.09923699902907973   0.0371570869204413
0.3338980554833108   0.014136282073252543   -0.0038186289735729455
0.3338980554833108   0.014136282073252543   -0.0038186289735729455
0.3338980554833108   0.014136282073252543   -0.0038186289735729455
0.3338980554833108   0.014136282073252543   -0.0038186289735729455
0.6549477694726833   0.052390727531689385   0.007611923539591295
0.6549477694726833   0.052390727531689385   0.007611923539591295
0.6549477694726833   0.052390727531689385   0.007611923539591295
0.6549477694726833   0.052390727531689385   0.007611923539591295
-0.004675593700140611   -0.0430788202479703   0.00047964068366356666
-0.004675593700140611   -0.0430788202479703   0.00047964068366356666
-0.004675593700140611   -0.0430788202479703   0.00047964068366356666
-0.004675593700140611   -0.0430788202479703   0.00047964068366356666
-0.04760032873154624   -0.10370553884693036   -0.026064176772810935
-0.04760032873154624   -0.10370553884693036   -0.026064176772810935
-0.04760032873154624   -0.10370553884693036   -0.026064176772810935
-0.04760032873154624   -0.10370553884693036   -0.026064176772810935
0.6392154034742343   0.0821539817172321   0.0411152021247543
0.6392154034742343   0.0821539817172321   0.0411152021247543
0.6392154034742343   0.0821539817172321   0.0411152021247543
0.6392154034742343   0.0821539817172321   0.0411152021247543
0.3004583248455962   -0.002699661702467271   -0.013385299884632055
0.3004583248455962   -0.002699661702467271   -0.013385299884632055
0.3004583248455962   -0.002699661702467271   -0.013385299884632055
0.3004583248455962   -0.002699661702467271   -0.013385299884632055
0.6245097303239292   0.038231226614026906   0.011509591476438614
0.6245097303239292   0.038231226614026906   0.011509591476438614
0.6245097303239292   0.038231226614026906   0.011509591476438614
0.6245097303239292   0.038231226614026906   0.011509591476438614
-0.03286831222891929   -0.059756440391402564   0.0036468072847960064
-0.03286831222891929   -0.059756440391402564   0.0036468072847960064
-0.03286831222891929   -0.059756440391402564   0.0036468072847960064
-0.03286831222891929   -0.059756440391402564   0.0036468072847960064
-0.07469783294738654   -0.1118356574126159   -0.02073349692636857
-0.07469783294738654   -0.1118356574126159   -0.02073349692636857
-0.07469783294738654   -0.1118356574126159   -0.02073349692636857
-0.07469783294738654   -0.1118356574126159   -0.02073349692636857
0.6097213357787398   0.06774798573072208   0.044571342088623254
0.6097213357787398   0.06774798573072208   0.044571342088623254
0.6097213357787398   0.06774798573072208   0.044571342088623254
0.6097213357787398   0.06774798573072208   0.044571342088623254
0.27573498410724023   -0.013466810461210607   -0.02043597974987092
0.27573498410724023   -0.013466810461210607   -0.02043597974987092
0.27573498410724023   -0.013466810461210607   -0.02043597974987092
0.27573498410724023   -0.013466810461210607   -0.02043597974987092
0.04574772284706794   0.07151506411771438   0.015385901236745218
0.04574772284706794   0.07151506411771438   0.015385901236745218
0.04574772284706794   0.07151506411771438   0.015385901236745218
0.04574772284706794   0.07151506411771438   0.015385901236745218
-0.6050796826177607   -0.039184372955068644   -0.020815844524524157
-0.6050796826177607   -0.039184372955068644   -0.020815844524524157
-0.6050796826177607   -0.039184372955068644   -0.020815844524524157
-0.6050796826177607   -0.039184372955068644   -0.020815844524524157
-0.6390578602240329   -0.08267091910832391   -0.019095839029178663
-0.6390578602240329   -0.08267091910832391   -0.019095839029178663
-0.6390578602240329   -0.08267091910832391   -0.019095839029178663
-0.6390578602240329   -0.08267091910832391   -0.019095839029178663
0.02369953103854163   0.08126242189288001   0.018014022236224475
0.02369953103854163   0.08126242189288001   0.018014022236224475
0.02369953103854163   0.08126242189288001   0.018014022236224475
0.02369953103854163   0.08126242189288001   0.018014022236224475
-0.2933044371508102   0.009105600899452365   0.0011177085364608222
-0.2933044371508102   0.009105600899452365   0.0011177085364608222
-0.2933044371508102   0.009105600899452365   0.0011177085364608222
-0.2933044371508102   0.009105600899452365   0.0011177085364608222
0.019037162871134924   0.05663347831246632   0.01933112497960463
0.019037162871134924   0.05663347831246632   0.01933112497960463
0.019037162871134924   0.05663347831246632   0.01933112497960463
0.019037162871134924   0.05663347831246632   0.01933112497960463
-0.6336487591191866   -0.0572952425904706   -0.017426010022800326
-0.6336487591191866   -0.0572952425904706   -0.017426010022800326
-0.6336487591191866   -0.0572952425904706   -0.017426010022800326
-0.6336487591191866   -0.0572952425904706   -0.017426010022800326
-0.6684357703615461   -0.09751368160592255   -0.015859016184009547
-0.6684357703615461   -0.09751368160592255   -0.015859016184009547
-0.6684357703615461   -0.09751368160592255   -0.015859016184009547
-0.6684357703615461   -0.09751368160592255   -0.015859016184009547
-0.004536313701026615   0.06368924899981365   0.021861110533043158
-0.004536313701026615   0.06368924899981365   0.021861110533043158
-0.004536313701026615   0.06368924899981365   0.021861110533043158
-0.004536313701026615   0.06368924899981365   0.021861110533043158
-0.3214504929946052   -0.005420705328447198   -0.006072644590486582
-0.3214504929946052   -0.005420705328447198   -0.006072644590486582
-0.3214504929946052   -0.005420705328447198   -0.006072644590486582
-0.3214504929946052   -0.005420705328447198   -0.006072644590486582
-0.00851862932821769   0.04230775509742755   0.023331026299473895
-0.00851862932821769   0.04230775509742755   0.023331026299473895
-0.00851862932821769   0.04230775509742755   0.023331026299473895
-0.00851862932821769   0.04230775509742755   0.023331026299473895
-0.6638121413824918   -0.07549087435168268   -0.01476367854297338
-0.6638121413824918   -0.07549087435168268   -0.01476367854297338
-0.6638121413824918   -0.07549087435168268   -0.01476367854297338
-0.6638121413824918   -0.07549087435168268   -0.01476367854297338
-0.6976147409837231   -0.10919488613564635   -0.010478399108010567
-0.6976147409837231   -0.10919488613564635   -0.010478399108010567
-0.6976147409837231   -0.10919488613564635   -0.010478399108010567
-0.6976147409837231   -0.10919488613564635   -0.010478399108010567
-0.03378884106954569   0.047134846212723486   0.024840958837496326
-0.03378884106954569   0.047134846212723486   0.024840958837496326
-0.03378884106954569   0.047134846212723486   0.024840958837496326
-0.03378884106954569   0.047134846212723486   0.024840958837496326
-0.35173533471113877   -0.02019404712550455   -0.013929917259842826
-0.35173533471113877   -0.02019404712550455   -0.013929917259842826
-0.35173533471113877   -0.02019404712550455   -0.013929917259842826
-0.35173533471113877   -0.02019404712550455   -0.013929917259842826
-0.5705684771684072   0.08451632363630862   0.028039486130872565
-0.5705684771684072   0.08451632363630862   0.028039486130872565
-0.5705684771684072   0.08451632363630862   0.028039486130872565
-0.5705684771684072   0.08451632363630862   0.028039486130872565
-1.212645512853816   -0.053883520241243876   -0.0341087828944765
-1.212645512853816   -0.053883520241243876   -0.0341087828944765
-1.212645512853816   -0.053883520241243876   -0.0341087828944765
-1.212645512853816   -0.053883520241243876   -0.0341087828944765
-1.2391371114341572   -0.06624489431096947   -0.005467625997556513
-1.2391371114341572   -0.06624489431096947   -0.005467625997556513
-1.2391371114341572   -0.06624489431096947   -0.005467625997556513
-1.2391371114341572   -0.06624489431096947   -0.005467625997556513
-0.6066087377951074   0.061469695813426595   -0.0009908418062940794
-0.6066087377951074   0.061469695813426595   -0.0009908418062940794
-0.6066087377951074   0.061469695813426595   -0.0009908418062940794
-0.6066087377951074   0.061469695813426595   -0.0009908418062940794
-0.9006870689795345   0.009247255916532443   0.006565664545984937
-0.9006870689795345   0.009247255916532443   0.006565664545984937
-0.9006870689795345   0.009247255916532443   0.006565664545984937
-0.9006870689795345   0.009247255916532443   0.006565664545984937
-0.5985586408336885   0.0692584939762341   0.03147084483799295
-0.5985586408336885   0.0692584939762341   0.03147084483799295
-0.5985586408336885   0.0692584939762341   0.03147084483799295
-0.5985586408336885   0.0692584939762341   0.03147084483799295
-1.2461730330131293   -0.07301951709133231   -0.033872611112066506
-1.2461730330131293   -0.07301951709133231   -0.033872611112066506
-1.2461730330131293   -0.07301951709133231   -0.033872611112066506
-1.2461730330131293   -0.07301951709133231   -0.033872611112066506
-1.2753164649329407   -0.08293352721165592   -0.004850061578257195
-1.2753164649329407   -0.08293352721165592   -0.004850061578257195
-1.2753164649329407   -0.08293352721165592   -0.004850061578257195
-1.2753164649329407   -0.08293352721165592   -0.004850061578257195
-0.636334000629891   0.044700133895995586   0.002436016972352434
-0.636334000629891   0.044700133895995586   0.002436016972352434
-0.636334000629891   0.044700133895995586   0.002436016972352434
-0.636334000629891   0.044700133895995586   0.002436016972352434
-0.9260174541859291   -0.004040666474764754   0.0006675187148465905
-0.9260174541859291   -0.004040666474764754   0.0006675187148465905
-0.9260174541859291   -0.004040666474764754   0.0006675187148465905
-0.9260174541859291   -0.004040666474764754   0.0006675187148465905
-0.6275171163354986   0.05486705774295492   0.03635351459735496
-0.6275171163354986   0.05486705774295492   0.03635351459735496
-0.6275171163354986   0.05486705774295492   0.03635351459735496
-0.6275171163354986   0.05486705774295492   0.03635351459735496
-1.2820732609129293   -0.0910403627442026   -0.030527205945661724
-1.2820732609129293   -0.0910403627442026   -0.030527205945661724
-1.2820732609129293   -0.0910403627442026   -0.030527205945661724
-1.2820732609129293   -0.0910403627442026   -0.030527205945661724
-1.3086284754450626   -0.10080202944344252   0.0035308557489098363
-1.3086284754450626   -0.10080202944344252   0.0035308557489098363
-1.3086284754450626   -0.10080202944344252   0.0035308557489098363
-1.3086284754450626   -0.10080202944344252   0.0035308557489098363
-0.6678350304672692   0.02474612402351653   0.004479143315110956
-0.6678350304672692   0.02474612402351653   0.004479143315110956
-0.6678350304672692   0.02474612402351653   0.004479143315110956
-0.6678350304672692   0.02474612402351653   0.004479143315110956
-0.9655565459280848   -0.02269019101797648   -0.007262045576309328
-0.9655565459280848   -0.02269019101797648   -0.007262045576309328
-0.9655565459280848   -0.02269019101797648   -0.007262045576309328
-0.9655565459280848   -0.02269019101797648   -0.007262045576309328
-1.1696284803239756   0.08784148368899969   0.039251375824473606
-1.1696284803239756   0.08784148368899969   0.039251375824473606
-1.1696284803239756   0.08784148368899969   0.039251375824473606
-1.1696284803239756   0.08784148368899969   0.039251375824473606
-1.7900522428869479   -0.08280074871851373   -0.031455572430956494
-1.7900522428869479   -0.08280074871851373   -0.031455572430956494
-1.7900522428869479   -0.08280074871851373   -0.031455572430956494
-1.7900522428869479   -0.08280074871851373   -0.031455572430956494
-1.8146227136080444   -0.03626735329063541   0.033396542329073894
-1.8146227136080444   -0.03626735329063541   0.033396542329073894
-1.8146227136080444   -0.03626735329063541   0.033396542329073894
-1.8146227136080444   -0.03626735329063541   0.033396542329073894
-1.2209642188902015   0.036789802053964316   -0.017637859642711945
-1.2209642188902015   0.036789802053964316   -0.017637859642711945
-1.2209642188902015   0.036789802053964316   -0.017637859642711945
-1.2209642188902015   0.036789802053964316   -0.017637859642711945
-1.4325835616068612   0.01827957505010014   0.03291442717697138
-1.4325835616068612   0.01827957505010014   0.03291442717697138
-1.4325835616068612   0.01827957505010014   0.03291442717697138
-1.4325835616068612   0.01827957505010014   0.03291442717697138
-1.197889058798329   0.08942134814966624   0.04510639472092838
-1.197889058798329   0.08942134814966624   0.04510639472092838
-1.197889058798329   0.08942134814966624   0.04510639472092838
-1.197889058798329   0.08942134814966624   0.04510639472092838
-1.8363358976901043   -0.08753692337653385   -0.023899807995299893
-1.8363358976901043   -0.08753692337653385   -0.023899807995299893
-1.8363358976901043   -0.08753692337653385   -0.023899807995299893
-1.8363358976901043   -0.08753692337653385   -0.023899807995299893
-1.859557919570835   -0.04499834060542307   0.04613878256519496
-1.859557919570835   -0.04499834060542307   0.04613878256519496
-1.859557919570835   -0.04499834060542307   0.04613878256519496
-1.859557919570835   -0.04499834060542307   0.04613878256519496
-1.2554687844914003   0.02715222617270141   -0.015697412754913154
-1.2554687844914003   0.02715222617270141   -0.015697412754913154
-1.2554687844914003   0.02715222617270141   -0.015697412754913154
-1.2554687844914003   0.02715222617270141   -0.015697412754913154
-1.494394114163341   0.009017779023824168   0.021151514278091907
-1.494394114163341   0.009017779023824168   0.021151514278091907
-1.494394114163341   0.009017779023824168   0.021151514278091907
-1.494394114163341   0.009017779023824168   0.021151514278091907
-1.2299823736604176   0.08288865464847828   0.05599821292422297
-1.2299823736604176   0.08288865464847828   0.05599821292422297
-1.2299823736604176   0.08288865464847828   0.05599821292422297
-1.2299823736604176   0.08288865464847828   0.05599821292422297
-1.8837285827847252   -0.09941902146409243   -0.020293852645557442
-1.8837285827847252   -0.09941902146409243   -0.020293852645557442
-1.8837285827847252   -0.09941902146409243   -0.020293852645557442
-1.8837285827847252   -0.09941902146409243   -0.020293852645557442
-1.9205052105370288   -0.08243424042001063   0.04588328746811901
-1.9205052105370288   -0.08243424042001063   0.04588328746811901
-1.9205052105370288   -0.08243424042001063   0.04588328746811901
-1.9205052105370288   -0.08243424042001063   0.04588328746811901
-1.2924711686635773   -0.0017382707001303288   -0.01474636908697613
-1.2924711686635773   -0.0017382707001303288   -0.01474636908697613
-1.2924711686635773   -0.0017382707001303288   -0.01474636908697613
-1.2924711686635773   -0.0017382707001303288   -0.01474636908697613
-1.5124013302060975   -0.004309393022940755   0.01725298237095843
-1.5124013302060975   -0.004309393022940755   0.01725298237095843
-1.5124013302060975   -0.004309393022940755   0.01725298237095843
-1.5124013302060975   -0.004309393022940755   0.01725298237095843
1.0273814844307485   0.057087914838310355   -0.04904036234247878
1.0273814844307485   0.057087914838310355   -0.04904036234247878
1.0273814844307485   0.057087914838310355   -0.04904036234247878
1.0273814844307485   0.057087914838310355   -0.04904036234247878
0.4885534382681838   0.009792605965795703   0.018696108987334457
0.4885534382681838   0.009792605965795703   0.018696108987334457
0.4885534382681838   0.009792605965795703   0.018696108987334457
0.4885534382681838   0.009792605965795703   0.018696108987334457
0.43407008377824263   -0.0832645496494526   -0.046574417349283005
0.43407008377824263   -0.0832645496494526   -0.046574417349283005
0.43407008377824263   -0.0832645496494526   -0.046574417349283005
0.43407008377824263   -0.0832645496494526   -0.046574417349283005
1.0051300140604846   0.09442830961546622   0.023119141256711793
1.0051300140604846   0.09442830961546622   0.023119141256711793
1.0051300140604846   0.09442830961546622   0.023119141256711793
1.0051300140604846   0.09442830961546622   0.023119141256711793
0.7006287898559548   0.009474887471083798   -0.020718146197985128
0.7006287898559548   0.009474887471083798   -0.020718146197985128
0.7006287898559548   0.009474887471083798   -0.020718146197985128
0.7006287898559548   0.009474887471083798   -0.020718146197985128
0.9774409528574102   0.02545411383966556   -0.04635196898285968
0.9774409528574102   0.02545411383966556   -0.04635196898285968
0.9774409528574102   0.02545411383966556   -0.04635196898285968
0.9774409528574102   0.02545411383966556   -0.04635196898285968
0.4612135974425217   -0.014835901412447852   0.020714502735104202
0.4612135974425217   -0.014835901412447852   0.020714502735104202
0.4612135974425217   -0.014835901412447852   0.020714502735104202
0.4612135974425217   -0.014835901412447852   0.020714502735104202
0.408617433989581   -0.09143639715826984   -0.039722467547276756
0.408617433989581   -0.09143639715826984   -0.039722467547276756
0.408617433989581   -0.09143639715826984   -0.039722467547276756
0.408617433989581   -0.09143639715826984   -0.039722467547276756
0.9655536487453692   0.0827482367553049   0.03040910887326239
0.9655536487453692   0.0827482367553049   0.03040910887326239
0.9655536487453692   0.0827482367553049   0.03040910887326239
0.9655536487453692   0.0827482367553049   0.03040910887326239
0.6778475382735226   -0.004695608232916065   -0.029090481225103958
0.6778475382735226   -0.004695608232916065   -0.029090481225103958
0.6778475382735226   -0.004695608232916065   -0.029090481225103958
0.6778475382735226   -0.004695608232916065   -0.029090481225103958
0.9385103227622008   0.015062347706880225   -0.03712163199414623
0.9385103227622008   0.015062347706880225   -0.03712163199414623
0.9385103227622008   0.015062347706880225   -0.03712163199414623
0.9385103227622008   0.015062347706880225   -0.03712163199414623
0.4349717612665322   -0.02443950681606158   0.025052278495266915
0.4349717612665322   -0.02443950681606158   0.025052278495266915
0.4349717612665322   -0.02443950681606158   0.025052278495266915
0.4349717612665322   -0.02443950681606158   0.025052278495266915
0.3856786487082523   -0.09647065887038882   -0.03308092424569606
0.3856786487082523   -0.09647065887038882   -0.03308092424569606
0.3856786487082523   -0.09647065887038882   -0.03308092424569606
0.3856786487082523   -0.09647065887038882   -0.03308092424569606
0.9209242272864814   0.07010230006018814   0.03612647541599158
0.9209242272864814   0.07010230006018814   0.03612647541599158
0.9209242272864814   0.07010230006018814   0.03612647541599158
0.9209242272864814   0.07010230006018814   0.03612647541599158
0.6328062024758264   -0.015403724768742744   -0.04148056936299765
0.6328062024758264   -0.015403724768742744   -0.04148056936299765
0.6328062024758264   -0.015403724768742744   -0.04148056936299765
0.6328062024758264   -0.015403724768742744   -0.04148056936299765
0.49671428301187354   0.07223800520354381   -0.0029450665319567682
0.49671428301187354   0.07223800520354381   -0.0029450665319567682
0.49671428301187354   0.07223800520354381   -0.0029450665319567682
0.49671428301187354   0.07223800520354381   -0.0029450665319567682
-0.03245619047166218   -0.007049927429961091   -0.0002557003517454175
-0.03245619047166218   -0.007049927429961091   -0.0002557003517454175
-0.03245619047166218   -0.007049927429961091   -0.0002557003517454175
-0.03245619047166218   -0.007049927429961091   -0.0002557003517454175
-0.07083708009599501   -0.06232937764346423   -0.029611659897951698
-0.07083708009599501   -0.06232937764346423   -0.029611659897951698
-0.07083708009599501   -0.06232937764346423   -0.029611659897951698
-0.07083708009599501   -0.06232937764346423   -0.029611659897951698
0.4837944099614799   0.08583073482051051   0.032951929096936616
0.4837944099614799   0.08583073482051051   0.032951929096936616
0.4837944099614799   0.08583073482051051   0.032951929096936616
0.4837944099614799   0.08583073482051051   0.032951929096936616
0.21592436465857984   0.02117896025605234   0.00154010458186678
0.21592436465857984   0.02117896025605234   0.00154010458186678
0.21592436465857984   0.02117896025605234   0.00154010458186678
0.21592436465857984   0.02117896025605234   0.00154010458186678
0.4707647789315954   0.05220018991270855   0.0014343188553218016
0.4707647789315954   0.05220018991270855   0.0014343188553218016
0.4707647789315954   0.05220018991270855   0.0014343188553218016
0.4707647789315954   0.05220018991270855   0.0014343188553218016
-0.05758438204973421   -0.02847576571928502   0.0027982184091730677
-0.05758438204973421   -0.02847576571928502   0.0027982184091730677
-0.05758438204973421   -0.02847576571928502   0.0027982184091730677
-0.05758438204973421   -0.02847576571928502   0.0027982184091730677
-0.09481144870616687   -0.07777164833062583   -0.02448609593407279
-0.09481144870616687   -0.07777164833062583   -0.02448609593407279
-0.09481144870616687   -0.07777164833062583   -0.02448609593407279
-0.09481144870616687   -0.07777164833062583   -0.02448609593407279
0.45553172330443853   0.06738939473229996   0.03602318713643713
0.45553172330443853   0.06738939473229996   0.03602318713643713
0.45553172330443853   0.06738939473229996   0.03602318713643713
0.45553172330443853   0.06738939473229996   0.03602318713643713
0.18637705374926858   0.002943242447895164   -0.007614980532147101
0.18637705374926858   0.002943242447895164   -0.007614980532147101
0.18637705374926858   0.002943242447895164   -0.007614980532147101
0.18637705374926858   0.002943242447895164   -0.007614980532147101
0.4429339350296985   0.03563281308530832   0.004790827409732619
0.4429339350296985   0.03563281308530832   0.004790827409732619
0.4429339350296985   0.03563281308530832   0.004790827409732619
0.4429339350296985   0.03563281308530832   0.004790827409732619
-0.08239693079163264   -0.046198337043839355   0.006013182351811796
-0.08239693079163264   -0.046198337043839355   0.006013182351811796
-0.08239693079163264   -0.046198337043839355   0.006013182351811796
-0.08239693079163264   -0.046198337043839355   0.006013182351811796
-0.11847218272955867   -0.0907390855584089   -0.019670495848733136
-0.11847218272955867   -0.0907390855584089   -0.019670495848733136
-0.11847218272955867   -0.0907390855584089   -0.019670495848733136
-0.11847218272955867   -0.0907390855584089   -0.019670495848733136
0.42943726870077414   0.05034019625099659   0.03890132059552694
0.42943726870077414   0.05034019625099659   0.03890132059552694
0.42943726870077414   0.05034019625099659   0.03890132059552694
0.42943726870077414   0.05034019625099659   0.03890132059552694
0.1637159809159429   -0.010876429682523753   -0.015241016173264878
0.1637159809159429   -0.010876429682523753   -0.015241016173264878
0.1637159809159429   -0.010876429682523753   -0.015241016173264878
0.1637159809159429   -0.010876429682523753   -0.015241016173264878
-0.011378859871654174   0.08611263795227016   0.011968387266063345
-0.011378859871654174   0.08611263795227016   0.011968387266063345
-0.011378859871654174   0.08611263795227016   0.011968387266063345
-0.011378859871654174   0.08611263795227016   0.011968387266063345
-0.542371127910891   -0.023544682694352587   -0.0179895456511149
-0.542371127910891   -0.023544682694352587   -0.0179895456511149
-0.542371127910891   -0.023544682694352587   -0.0179895456511149
-0.542371127910891   -0.023544682694352587   -0.0179895456511149
-0.5671070387320221   -0.043311025770573   -0.014046646310476921
-0.5671070387320221   -0.043311025770573   -0.014046646310476921
-0.5671070387320221   -0.043311025770573   -0.014046646310476921
-0.5671070387320221   -0.043311025770573   -0.014046646310476921
-0.03571202621012105   0.06931759491783203   0.014366636970121815
-0.03571202621012105   0.06931759491783203   0.014366636970121815
-0.03571202621012105   0.06931759491783203   0.014366636970121815
-0.03571202621012105   0.06931759491783203   0.014366636970121815
-0.2884569876897144   0.02229054871157095   0.005657938834848119
-0.2884569876897144   0.02229054871157095   0.005657938834848119
-0.2884569876897144   0.02229054871157095   0.005657938834848119
-0.2884569876897144   0.02229054871157095   0.005657938834848119
-0.03523479323323188   0.06923902662146696   0.016831370150932765
-0.03523479323323188   0.06923902662146696   0.016831370150932765
-0.03523479323323188   0.06923902662146696   0.016831370150932765
-0.03523479323323188   0.06923902662146696   0.016831370150932765
-0.5671215733151629   -0.04276975908045966   -0.014660585916294815
-0.5671215733151629   -0.04276975908045966   -0.014660585916294815
-0.5671215733151629   -0.04276975908045966   -0.014660585916294815
-0.5671215733151629   -0.04276975908045966   -0.014660585916294815
-0.591663982854413   -0.06002344602898184   -0.009574695457547872
-0.591663982854413   -0.06002344602898184   -0.009574695457547872
-0.591663982854413   -0.06002344602898184   -0.009574695457547872
-0.591663982854413   -0.06002344602898184   -0.009574695457547872
-0.06070722964833145   0.05032879082597319   0.017934560198505263
-0.06070722964833145   0.05032879082597319   0.017934560198505263
-0.06070722964833145   0.05032879082597319   0.017934560198505263
-0.06070722964833145   0.05032879082597319   0.017934560198505263
-0.3132667200575413   0.005800506158660013   -0.0017691590405527619
-0.3132667200575413   0.005800506158660013   -0.0017691590405527619
-0.3132667200575413   0.005800506158660013   -0.0017691590405527619
-0.3132667200575413   0.005800506158660013   -0.0017691590405527619
-0.05973431999184384   0.05241917124702073   0.020708728059895758
-0.05973431999184384   0.05241917124702073   0.020708728059895758
-0.05973431999184384   0.05241917124702073   0.020708728059895758
-0.05973431999184384   0.05241917124702073   0.020708728059895758
-0.5925015410630653   -0.06197847500219408   -0.01180745752759712
-0.5925015410630653   -0.06197847500219408   -0.01180745752759712
-0.5925015410630653   -0.06197847500219408   -0.01180745752759712
-0.5925015410630653   -0.06197847500219408   -0.01180745752759712
-0.615931235908177   -0.07529134274796298   -0.005147591127366102
-0.615931235908177   -0.07529134274796298   -0.005147591127366102
-0.615931235908177   -0.07529134274796298   -0.005147591127366102
-0.615931235908177   -0.07529134274796298   -0.005147591127366102
-0.08580479283443271   0.031963408930390104   0.020963959138097676
-0.08580479283443271   0.031963408930390104   0.020963959138097676
-0.08580479283443271   0.031963408930390104   0.020963959138097676
-0.08580479283443271   0.031963408930390104   0.020963959138097676
-0.3392133623826527   -0.010828213628114675   -0.010040598856826219
-0.3392133623826527   -0.010828213628114675   -0.010040598856826219
-0.3392133623826527   -0.010828213628114675   -0.010040598856826219
-0.3392133623826527   -0.010828213628114675   -0.010040598856826219
-0.509098006519092   0.09884501110608425   0.025986367507440156
-0.509098006519092   0.09884501110608425   0.025986367507440156
-0.509098006519092   0.09884501110608425   0.025986367507440156
-0.509098006519092   0.09884501110608425   0.025986367507440156
-1.0406408365669575   -0.040395808225711094   -0.03242702286649961
-1.0406408365669575   -0.040395808225711094   -0.03242702286649961
-1.0406408365669575   -0.040395808225711094   -0.03242702286649961
-1.0406408365669575   -0.040395808225711094   -0.03242702286649961
-1.0541581269498013   -0.027259306238894054   0.002913537086796411
-1.0541581269498013   -0.027259306238894054   0.002913537086796411
-1.0541581269498013   -0.027259306238894054   0.002913537086796411
-1.0541581269498013   -0.027259306238894054   0.002913537086796411
-0.5465094366171392   0.049782174455718226   -0.004151835962350386
-0.5465094366171392   0.049782174455718226   -0.004151835962350386
-0.5465094366171392   0.049782174455718226   -0.004151835962350386
-0.5465094366171392   0.049782174455718226   -0.004151835962350386
-0.7824852595393627   0.021238208073637882   0.009587995934677206
-0.7824852595393627   0.021238208073637882   0.009587995934677206
-0.7824852595393627   0.021238208073637882   0.009587995934677206
-0.7824852595393627   0.021238208073637882   0.009587995934677206
-0.532997115336225   0.08252381470504075   0.030668130192894258
-0.532997115336225   0.08252381470504075   0.030668130192894258
-0.532997115336225   0.08252381470504075   0.030668130192894258
-0.532997115336225   0.08252381470504075   0.030668130192894258
-1.067545869625818   -0.059876367883319875   -0.03140811464886202
-1.067545869625818   -0.059876367883319875   -0.03140811464886202
-1.067545869625818   -0.059876367883319875   -0.03140811464886202
-1.067545869625818   -0.059876367883319875   -0.03140811464886202
-1.082754101261906   -0.04415424363915507   0.004584229928614042
-1.082754101261906   -0.04415424363915507   0.004584229928614042
-1.082754101261906   -0.04415424363915507   0.004584229928614042
-1.082754101261906   -0.04415424363915507   0.004584229928614042
-0.571410392794157   0.03219517234230032   -0.0005253635275420179
-0.571410392794157   0.03219517234230032   -0.0005253635275420179
-0.571410392794157   0.03219517234230032   -0.0005253635275420179
-0.571410392794157   0.03219517234230032   -0.0005253635275420179
-0.8034613921359731   0.006531004041171712   0.002675570097675592
-0.8034613921359731   0.006531004041171712   0.002675570097675592
-0.8034613921359731   0.006531004041171712   0.002675570097675592
-0.8034613921359731   0.006531004041171712   0.002675570097675592
-0.5573335452769629   0.06701985904354646   0.035034187357178614
-0.5573335452769629   0.06701985904354646   0.035034187357178614
-0.5573335452769629   0.06701985904354646   0.035034187357178614
-0.5573335452769629   0.06701985904354646   0.035034187357178614
-1.0961067503116562   -0.07825473187295803   -0.028078527086334633
-1.0961067503116562   -0.07825473187295803   -0.028078527086334633
-1.0961067503116562   -0.07825473187295803   -0.028078527086334633
-1.0961067503116562   -0.07825473187295803   -0.028078527086334633
-1.1086909123063224   -0.06234313931501684   0.00988870846149717
-1.1086909123063224   -0.06234313931501684   0.00988870846149717
-1.1086909123063224   -0.06234313931501684   0.00988870846149717
-1.1086909123063224   -0.06234313931501684   0.00988870846149717
-0.5970091127289509   0.012070799067616933   0.002100882953188374
-0.5970091127289509   0.012070799067616933   0.002100882953188374
-0.5970091127289509   0.012070799067616933   0.002100882953188374
-0.5970091127289509   0.012070799067616933   0.002100882953188374
-0.8354231933019544   -0.011920554836956143   -0.006103544669749529
-0.8354231933019544   -0.011920554836956143   -0.006103544669749529
-0.8354231933019544   -0.011920554836956143   -0.006103544669749529
-0.8354231933019544   -0.011920554836956143   -0.006103544669749529
-1.001002012034572   0.08864555854341344   0.03672573302630337
-1.001002012034572   0.08864555854341344   0.03672573302630337
-1.001002012034572   0.08864555854341344   0.03672573302630337
-1.001002012034572   0.08864555854341344   0.03672573302630337
-1.5145341344724157   -0.06988729423652296   -0.0357173456916559
-1.5145341344724157   -0.06988729423652296   -0.0357173456916559
-1.5145341344724157   -0.06988729423652296   -0.0357173456916559
-1.5145341344724157   -0.06988729423652296   -0.0357173456916559
-1.5313666727469353   -0.014994560959065262   0.033842779148935395
-1.5313666727469353   -0.014994560959065262   0.033842779148935395
-1.5313666727469353   -0.014994560959065262   0.033842779148935395
-1.5313666727469353   -0.014994560959065262   0.033842779148935395
-1.0484431196048898   0.02511465450116923   -0.020885386928710004
-1.0484431196048898   0.02511465450116923   -0.020885386928710004
-1.0484431196048898   0.02511465450116923   -0.020885386928710004
-1.0484431196048898   0.02511465450116923   -0.020885386928710004
-1.217481748933715   0.019922768214571618   0.02982279913804098
-1.217481748933715   0.019922768214571618   0.02982279913804098
-1.217481748933715   0.019922768214571618   0.02982279913804098
-1.217481748933715   0.019922768214571618   0.02982279913804098
-1.022966604391153   0.08853272134212034   0.04307912229901972
-1.022966604391153   0.08853272134212034   0.04307912229901972
-1.022966604391153   0.08853272134212034   0.04307912229901972
-1.022966604391153   0.08853272134212034   0.04307912229901972
-1.5564138171135562   -0.07798325695288827   -0.028404246690331203
-1.5564138171135562   -0.07798325695288827   -0.028404246690331203
-1.5564138171135562   -0.07798325695288827   -0.028404246690331203
-1.5564138171135562   -0.07798325695288827   -0.028404246690331203
-1.5688032318622518   -0.02390870706394088   0.04233236843278808
-1.5688032318622518   -0.02390870706394088   0.04233236843278808
-1.5688032318622518   -0.02390870706394088   0.04233236843278808
-1.5688032318622518   -0.02390870706394088   0.04233236843278808
-1.0753243387571028   0.015472778093274214   -0.01789397927980016
-1.0753243387571028   0.015472778093274214   -0.01789397927980016
-1.0753243387571028   0.015472778093274214   -0.01789397927980016
-1.0753243387571028   0.015472778093274214   -0.01789397927980016
-1.2697881353993854   0.009975790047232258   0.018144993736245812
-1.2697881353993854   0.009975790047232258   0.018144993736245812
-1.2697881353993854   0.009975790047232258   0.018144993736245812
-1.2697881353993854   0.009975790047232258   0.018144993736245812
-1.0482998360198506   0.08188813409828433   0.050813178401451775
-1.0482998360198506   0.08188813409828433   0.050813178401451775
-1.0482998360198506   0.08188813409828433   0.050813178401451775
-1.0482998360198506   0.08188813409828433   0.050813178401451775
-1.5951182547522604   -0.08961458322169474   -0.02353686985948722
-1.5951182547522604   -0.08961458322169474   -0.02353686985948722
-1.5951182547522604   -0.08961458322169474   -0.02353686985948722
-1.5951182547522604   -0.08961458322169474   -0.02353686985948722
-1.6182129277882598   -0.055623679352472144   0.04156834677605856
-1.6182129277882598   -0.055623679352472144   0.04156834677605856
-1.6182129277882598   -0.055623679352472144   0.04156834677605856
-1.6182129277882598   -0.055623679352472144   0.04156834677605856
-1.1037111184496944   -0.011339172692524518   -0.01621628887785557
-1.1037111184496944   -0.011339172692524518   -0.01621628887785557
-1.1037111184496944   -0.011339172692524518   -0.01621628887785557
-1.1037111184496944   -0.011339172692524518   -0.01621628887785557
-1.283260616831719   -0.0024008076132305822   0.014252241642724775
-1.283260616831719   -0.0024008076132305822   0.014252241642724775
-1.283260616831719   -0.0024008076132305822   0.014252241642724775
-1.283260616831719   -0.0024008076132305822   0.014252241642724775
0.7057412582141913   0.03996051436500249   -0.04765216896263903
0.7057412582141913   0.03996051436500249   -0.04765216896263903
0.7057412582141913   0.03996051436500249   -0.04765216896263903
0.7057412582141913   0.03996051436500249   -0.04765216896263903
0.30145051185871835   0.019244097722645924   0.020445571638989454
0.30145051185871835   0.019244097722645924   0.020445571638989454
0.30145051185871835   0.019244097722645924   0.020445571638989454
0.30145051185871835   0.019244097722645924   0.020445571638989454
0.2523390705208002   -0.06964037968215968   -0.04443336169173336
0.2523390705208002   -0.06964037968215968   -0.04443336169173336
0.2523390705208002   -0.06964037968215968   -0.04443336169173336
0.2523390705208002   -0.06964037968215968   -0.04443336169173336
0.6891938727815472   0.0801651825723979   0.024841732013605154
0.6891938727815472   0.0801651825723979   0.024841732013605154
0.6891938727815472   0.0801651825723979   0.024841732013605154
0.6891938727815472   0.0801651825723979   0.024841732013605154
0.4613809017068205   0.010229899770830206   -0.012605571157632136
0.4613809017068205   0.010229899770830206   -0.012605571157632136
0.4613809017068205   0.010229899770830206   -0.012605571157632136
0.4613809017068205   0.010229899770830206   -0.012605571157632136
0.6617492138284845   0.012237537734884119   -0.044453917914198705
0.6617492138284845   0.012237537734884119   -0.044453917914198705
0.6617492138284845   0.012237537734884119   -0.044453917914198705
0.6617492138284845   0.012237537734884119   -0.044453917914198705
0.27926807286425664   -0.002228391454252035   0.02279966179764614
0.27926807286425664   -0.002228391454252035   0.02279966179764614
0.27926807286425664   -0.002228391454252035   0.02279966179764614
0.27926807286425664   -0.002228391454252035   0.02279966179764614
0.23142129047565563   -0.07772438786296476   -0.0378216559483724
0.23142129047565563   -0.07772438786296476   -0.0378216559483724
0.23142129047565563   -0.07772438786296476   -0.0378216559483724
0.23142129047565563   -0.07772438786296476   -0.0378216559483724
0.6547777711665792   0.06869437821236929   0.032019307197639846
0.6547777711665792   0.06869437821236929   0.032019307197639846
0.6547777711665792   0.06869437821236929   0.032019307197639846
0.6547777711665792   0.06869437821236929   0.032019307197639846
0.4397602143303832   -0.0031051412090898206   -0.020524898726194726
0.4397602143303832   -0.0031051412090898206   -0.020524898726194726
0.4397602143303832   -0.0031051412090898206   -0.020524898726194726
0.4397602143303832   -0.0031051412090898206   -0.020524898726194726
0.6277824976434861   0.0018830402659862633   -0.03614572247144782
0.6277824976434861   0.0018830402659862633   -0.03614572247144782
0.6277824976434861   0.0018830402659862633   -0.03614572247144782
0.6277824976434861   0.0018830402659862633   -0.03614572247144782
0.25765533379434163   -0.011674280120989311   0.02729845290308442
0.25765533379434163   -0.011674280120989311   0.02729845290308442
0.25765533379434163   -0.011674280120989311   0.02729845290308442
0.25765533379434163   -0.011674280120989311   0.02729845290308442
0.2127241510923083   -0.08506758197616449   -0.03152285857159845
0.2127241510923083   -0.08506758197616449   -0.03152285857159845
0.2127241510923083   -0.08506758197616449   -0.03152285857159845
0.2127241510923083   -0.08506758197616449   -0.03152285857159845
0.6145996489826266   0.05361401542968729   0.03654800525489922
0.6145996489826266   0.05361401542968729   0.03654800525489922
0.6145996489826266   0.05361401542968729   0.03654800525489922
0.6145996489826266   0.05361401542968729   0.03654800525489922
0.4031682157337579   -0.014046440568091595   -0.031401772685253904
0.4031682157337579   -0.014046440568091595   -0.031401772685253904
0.4031682157337579   -0.014046440568091595   -0.031401772685253904
0.4031682157337579   -0.014046440568091595   -0.031401772685253904
0.30349157300578566   0.058474800296059136   -0.008579825199092114
0.30349157300578566   0.058474800296059136   -0.008579825199092114
0.30349157300578566   0.058474800296059136   -0.008579825199092114
0.30349157300578566   0.058474800296059136   -0.008579825199092114
-0.09316470667517014   0.005041301684833122   0.0027678334874836888
-0.09316470667517014   0.005041301684833122   0.0027678334874836888
-0.09316470667517014   0.005041301684833122   0.0027678334874836888
-0.09316470667517014   0.005041301684833122   0.0027678334874836888
-0.12673951978437328   -0.048340534472610976   -0.02737048762281762
-0.12673951978437328   -0.048340534472610976   -0.02737048762281762
-0.12673951978437328   -0.048340534472610976   -0.02737048762281762
-0.12673951978437328   -0.048340534472610976   -0.02737048762281762
0.29509049206250537   0.07029884849951681   0.029384517835121034
0.29509049206250537   0.07029884849951681   0.029384517835121034
0.29509049206250537   0.07029884849951681   0.029384517835121034
0.29509049206250537   0.07029884849951681   0.029384517835121034
0.09259310570541449   0.02033021039755802   0.0035514337784459445
0.09259310570541449   0.02033021039755802   0.0035514337784459445
0.09259310570541449   0.02033021039755802   0.0035514337784459445
0.09259310570541449   0.02033021039755802   0.0035514337784459445
0.28181547381117494   0.03792184732221564   -0.004613572244232836
0.28181547381117494   0.03792184732221564   -0.004613572244232836
0.28181547381117494   0.03792184732221564   -0.004613572244232836
0.28181547381117494   0.03792184732221564   -0.004613572244232836
-0.11366115467569267   -0.016160186437960092   0.005840989885934596
-0.11366115467569267   -0.016160186437960092   0.005840989885934596
-0.11366115467569267   -0.016160186437960092   0.005840989885934596
-0.11366115467569267   -0.016160186437960092   0.005840989885934596
-0.14619457382120576   -0.06458982862538457   -0.022146632526341158
-0.14619457382120576   -0.06458982862538457   -0.022146632526341158
-0.14619457382120576   -0.06458982862538457   -0.022146632526341158
-0.14619457382120576   -0.06458982862538457   -0.022146632526341158
0.27122930871702716   0.05154705011372672   0.031946997281795994
0.27122930871702716   0.05154705011372672   0.031946997281795994
0.27122930871702716   0.05154705011372672   0.031946997281795994
0.27122930871702716   0.05154705011372672   0.031946997281795994
0.06859954341611676   0.0019520829261135998   -0.005276879830473402
0.06859954341611676   0.0019520829261135998   -0.005276879830473402
0.06859954341611676   0.0019520829261135998   -0.005276879830473402
0.06859954341611676   0.0019520829261135998   -0.005276879830473402
0.25837395477805336   0.020497215949887772   -0.0012799382492386015
0.25837395477805336   0.020497215949887772   -0.0012799382492386015
0.25837395477805336   0.020497215949887772   -0.0012799382492386015
0.25837395477805336   0.020497215949887772   -0.0012799382492386015
-0.13383631372347823   -0.034037088302792624   0.009091927639704643
-0.13383631372347823   -0.034037088302792624   0.009091927639704643
-0.13383631372347823   -0.034037088302792624   0.009091927639704643
-0.13383631372347823   -0.034037088302792624   0.009091927639704643
-0.16539084862049885   -0.0798696646806272   -0.01731986674131901
-0.16539084862049885   -0.0798696646806272   -0.01731986674131901
-0.16539084862049885   -0.0798696646806272   -0.01731986674131901
-0.16539084862049885   -0.0798696646806272   -0.01731986674131901
0.24969670120454562   0.033525606336754506   0.03474670367667398
0.24969670120454562   0.033525606336754506   0.03474670367667398
0.24969670120454562   0.033525606336754506   0.03474670367667398
0.24969670120454562   0.033525606336754506   0.03474670367667398
0.04933812999369314   -0.013302984176282033   -0.013074944849682229
0.04933812999369314   -0.013302984176282033   -0.013074944849682229
0.04933812999369314   -0.013302984176282033   -0.013074944849682229
0.04933812999369314   -0.013302984176282033   -0.013074944849682229
-0.07853698877553109   0.0741746659975322   0.006773058672979837
-0.07853698877553109   0.0741746659975322   0.006773058672979837
-0.07853698877553109   0.0741746659975322   0.006773058672979837
-0.07853698877553109   0.0741746659975322   0.006773058672979837
-0.48192421680218184   -0.012179944294577832   -0.014654681745491144
-0.48192421680218184   -0.012179944294577832   -0.014654681745491144
-0.48192421680218184   -0.012179944294577832   -0.014654681745491144
-0.48192421680218184   -0.012179944294577832   -0.014654681745491144
-0.5011204325537297   -0.02879532057612126   -0.010789534156036
-0.5011204325537297   -0.02879532057612126   -0.010789534156036
-0.5011204325537297   -0.02879532057612126   -0.010789534156036
-0.5011204325537297   -0.02879532057612126   -0.010789534156036
-0.09859847234248535   0.05360116258079611   0.01139305253321305
-0.09859847234248535   0.05360116258079611   0.01139305253321305
-0.09859847234248535   0.05360116258079611   0.01139305253321305
-0.09859847234248535   0.05360116258079611   0.01139305253321305
-0.28933823218596805   0.021361922445896048   0.005722443837810835
-0.28933823218596805   0.021361922445896048   0.005722443837810835
-0.28933823218596805   0.021361922445896048   0.005722443837810835
-0.28933823218596805   0.021361922445896048   0.005722443837810835
-0.09799787242565053   0.05632211768361569   0.011675097014569563
-0.09799787242565053   0.05632211768361569   0.011675097014569563
-0.09799787242565053   0.05632211768361569   0.011675097014569563
-0.09799787242565053   0.05632211768361569   0.011675097014569563
-0.5017764151324252   -0.03157165834080114   -0.011293109284833402
-0.5017764151324252   -0.03157165834080114   -0.011293109284833402
-0.5017764151324252   -0.03157165834080114   -0.011293109284833402
-0.5017764151324252   -0.03157165834080114   -0.011293109284833402
-0.5207767411129729   -0.04649953858188452   -0.0061375753761417975
-0.5207767411129729   -0.04649953858188452   -0.0061375753761417975
-0.5207767411129729   -0.04649953858188452   -0.0061375753761417975
-0.5207767411129729   -0.04649953858188452   -0.0061375753761417975
-0.11901400681728791   0.034303264268878655   0.014863109598983112
-0.11901400681728791   0.034303264268878655   0.014863109598983112
-0.11901400681728791   0.034303264268878655   0.014863109598983112
-0.11901400681728791   0.034303264268878655   0.014863109598983112
-0.30954720030535815   0.004123702283046871   -0.0018666826099853692
-0.30954720030535815   0.004123702283046871   -0.0018666826099853692
-0.30954720030535815   0.004123702283046871   -0.0018666826099853692
-0.30954720030535815   0.004123702283046871   -0.0018666826099853692
-0.11799265714683277   0.03844951477549979   0.015823607444639606
-0.11799265714683277   0.03844951477549979   0.015823607444639606
-0.11799265714683277   0.03844951477549979   0.015823607444639606
-0.11799265714683277   0.03844951477549979   0.015823607444639606
-0.5221129603290965   -0.05096065863417376   -0.008357551404470344
-0.5221129603290965   -0.05096065863417376   -0.008357551404470344
-0.5221129603290965   -0.05096065863417376   -0.008357551404470344
-0.5221129603290965   -0.05096065863417376   -0.008357551404470344
-0.5401011577569638   -0.06341145109887827   -0.0016139760857132365
-0.5401011577569638   -0.06341145109887827   -0.0016139760857132365
-0.5401011577569638   -0.06341145109887827   -0.0016139760857132365
-0.5401011577569638   -0.06341145109887827   -0.0016139760857132365
-0.13925745085014068   0.01555194962909335   0.01792550780074935
-0.13925745085014068   0.01555194962909335   0.01792550780074935
-0.13925745085014068   0.01555194962909335   0.01792550780074935
-0.13925745085014068   0.01555194962909335   0.01792550780074935
-0.3305893158117207   -0.013133446680037977   -0.010093300686077118
-0.3305893158117207   -0.013133446680037977   -0.010093300686077118
-0.3305893158117207   -0.013133446680037977   -0.010093300686077118
-0.3305893158117207   -0.013133446680037977   -0.010093300686077118
-0.45467160729048667   0.08764093875547538   0.02178748276293116
-0.45467160729048667   0.08764093875547538   0.02178748276293116
-0.45467160729048667   0.08764093875547538   0.02178748276293116
-0.45467160729048667   0.08764093875547538   0.02178748276293116
-0.8638318036547203   -0.029313994217861433   -0.02982010891882339
-0.8638318036547203   -0.029313994217861433   -0.02982010891882339
-0.8638318036547203   -0.029313994217861433   -0.02982010891882339
-0.8638318036547203   -0.029313994217861433   -0.02982010891882339
-0.8710435623581714   -0.012895796641602286   0.006992434292079366
-0.8710435623581714   -0.012895796641602286   0.006992434292079366
-0.8710435623581714   -0.012895796641602286   0.006992434292079366
-0.8710435623581714   -0.012895796641602286   0.006992434292079366
-0.4874859477165634   0.03493217376926555   -0.00634460431559878
-0.4874859477165634   0.03493217376926555   -0.00634460431559878
-0.4874859477165634   0.03493217376926555   -0.00634460431559878
-0.4874859477165634   0.03493217376926555   -0.00634460431559878
-0.6652859358229067   0.0202861922550569   0.008307647380798838
-0.6652859358229067   0.0202861922550569   0.008307647380798838
-0.6652859358229067   0.0202861922550569   0.008307647380798838
-0.6652859358229067   0.0202861922550569   0.008307647380798838
-0.4737727046929871   0.07049220412276977   0.02666158044878584
-0.4737727046929871   0.07049220412276977   0.02666158044878584
-0.4737727046929871   0.07049220412276977   0.02666158044878584
-0.4737727046929871   0.07049220412276977   0.02666158044878584
-0.8853569226675   -0.04905594428086524   -0.02841421961531606
-0.8853569226675   -0.04905594428086524   -0.02841421961531606
-0.8853569226675   -0.04905594428086524   -0.02841421961531606
-0.8853569226675   -0.04905594428086524   -0.02841421961531606
-0.8942158742313664   -0.03043147878989033   0.009146862248714215
-0.8942158742313664   -0.03043147878989033   0.009146862248714215
-0.8942158742313664   -0.03043147878989033   0.009146862248714215
-0.8942158742313664   -0.03043147878989033   0.009146862248714215
-0.507352787088475   0.017147256810283437   -0.002664600645827221
-0.507352787088475   0.017147256810283437   -0.002664600645827221
-0.507352787088475   0.017147256810283437   -0.002664600645827221
-0.507352787088475   0.017147256810283437   -0.002664600645827221
-0.682295927133788   0.004657009776140475   0.0006996015084848525
-0.682295927133788   0.004657009776140475   0.0006996015084848525
-0.682295927133788   0.004657009776140475   0.0006996015084848525
-0.682295927133788   0.004657009776140475   0.0006996015084848525
-0.4931462233314924   0.05421347827518018   0.03130199667419272
-0.4931462233314924   0.05421347827518018   0.03130199667419272
-0.4931462233314924   0.05421347827518018   0.03130199667419272
-0.4931462233314924   0.05421347827518018   0.03130199667419272
-0.9084753124670615   -0.0675505747334989   -0.025031232986152376
-0.9084753124670615   -0.0675505747334989   -0.025031232986152376
-0.9084753124670615   -0.0675505747334989   -0.025031232986152376
-0.9084753124670615   -0.0675505747334989   -0.025031232986152376
-0.914846530618152   -0.04911663380778064   0.014001136465401673
-0.914846530618152   -0.04911663380778064   0.014001136465401673
-0.914846530618152   -0.04911663380778064   0.014001136465401673
-0.914846530618152   -0.04911663380778064   0.014001136465401673
-0.5275672893458879   -0.0025831663735220584   0.00022708124430171825
-0.5275672893458879   -0.0025831663735220584   0.00022708124430171825
-0.5275672893458879   -0.0025831663735220584   0.00022708124430171825
-0.5275672893458879   -0.0025831663735220584   0.00022708124430171825
-0.7078376444347927   -0.013490027214116546   -0.008133323411448401
-0.7078376444347927   -0.013490027214116546   -0.008133323411448401
-0.7078376444347927   -0.013490027214116546   -0.008133323411448401
-0.7078376444347927   -0.013490027214116546   -0.008133323411448401
-0.8289101733947817   0.08122981395827544   0.034244234204732854
-0.8289101733947817   0.08122981395827544   0.034244234204732854
-0.8289101733947817   0.08122981395827544   0.034244234204732854
-0.8289101733947817   0.08122981395827544   0.034244234204732854
-1.2231430879115919   -0.05632859434810075   -0.038706508248250164
-1.2231430879115919   -0.05632859434810075   -0.038706508248250164
-1.2231430879115919   -0.05632859434810075   -0.038706508248250164
-1.2231430879115919   -0.05632859434810075   -0.038706508248250164
-1.2349379155413458   -0.0012201624083346685   0.033935324460195745
-1.2349379155413458   -0.0012201624083346685   0.033935324460195745
-1.2349379155413458   -0.0012201624083346685   0.033935324460195745
-1.2349379155413458   -0.0012201624083346685   0.033935324460195745
-0.8721208395308567   0.011937807531261974   -0.023227555744226337
-0.8721208395308567   0.011937807531261974   -0.023227555744226337
-0.8721208395308567   0.011937807531261974   -0.023227555744226337
-0.8721208395308567   0.011937807531261974   -0.023227555744226337
-0.9940216217539627   0.018832064572071427   0.025173517111661187
-0.9940216217539627   0.018832064572071427   0.025173517111661187
-0.9940216217539627   0.018832064572071427   0.025173517111661187
-0.9940216217539627   0.018832064572071427   0.025173517111661187
-0.8462207974700556   0.07781524061007825   0.04039522148097009
-0.8462207974700556   0.07781524061007825   0.04039522148097009
-0.8462207974700556   0.07781524061007825   0.04039522148097009
-0.8462207974700556   0.07781524061007825   0.04039522148097009
-1.2613506453602135   -0.06761028324520871   -0.03173820379725369
-1.2613506453602135   -0.06761028324520871   -0.03173820379725369
-1.2613506453602135   -0.06761028324520871   -0.03173820379725369
-1.2613506453602135   -0.06761028324520871   -0.03173820379725369
-1.2676794466217016   -0.010866241524954134   0.04276603049362618
-1.2676794466217016   -0.010866241524954134   0.04276603049362618
-1.2676794466217016   -0.010866241524954134   0.04276603049362618
-1.2676794466217016   -0.010866241524954134   0.04276603049362618
-0.8934799832529445   0.002185401022631206   -0.01979056267170566
-0.8934799832529445   0.002185401022631206   -0.01979056267170566
-0.8934799832529445   0.002185401022631206   -0.01979056267170566
-0.8934799832529445   0.002185401022631206   -0.01979056267170566
-1.0381962313391726   0.007746381888611459   0.013198620693412814
-1.0381962313391726   0.007746381888611459   0.013198620693412814
-1.0381962313391726   0.007746381888611459   0.013198620693412814
-1.0381962313391726   0.007746381888611459   0.013198620693412814
-0.8663682201781338   0.07036127367502121   0.04759238004996569
-0.8663682201781338   0.07036127367502121   0.04759238004996569
-0.8663682201781338   0.07036127367502121   0.04759238004996569
-0.8663682201781338   0.07036127367502121   0.04759238004996569
-1.2951613859192184   -0.07941229040005426   -0.02609761711885901
-1.2951613859192184   -0.07941229040005426   -0.02609761711885901
-1.2951613859192184   -0.07941229040005426   -0.02609761711885901
-1.2951613859192184   -0.07941229040005426   -0.02609761711885901
-1.3114806635808505   -0.04106990722849782   0.04289958357343384
-1.3114806635808505   -0.04106990722849782   0.04289958357343384
-1.3114806635808505   -0.04106990722849782   0.04289958357343384
-1.3114806635808505   -0.04106990722849782   0.04289958357343384
-0.9158305978692632   -0.02253638206505401   -0.017499451532903748
-0.9158305978692632   -0.02253638206505401   -0.017499451532903748
-0.9158305978692632   -0.02253638206505401   -0.017499451532903748
-0.9158305978692632   -0.02253638206505401   -0.017499451532903748
-1.0506696802075746   -0.004906934531335089   0.007506950434877063
-1.0506696802075746   -0.004906934531335089   0.007506950434877063
-1.0506696802075746   -0.004906934531335089   0.007506950434877063
-1.0506696802075746   -0.004906934531335089   0.007506950434877063
0.3886411338963128   0.023263268069565253   -0.046649198664008275
0.3886411338963128   0.023263268069565253   -0.046649198664008275
0.3886411338963128   0.023263268069565253   -0.046649198664008275
0.3886411338963128   0.023263268069565253   -0.046649198664008275
0.1131163619882792   0.028014703998720962   0.02230455008519042
0.1131163619882792   0.028014703998720962   0.02230455008519042
0.1131163619882792   0.028014703998720962   0.02230455008519042
0.1131163619882792   0.028014703998720962   0.02230455008519042
0.06969799988500254   -0.05693030048925902   -0.041139810398134705
0.06969799988500254   -0.05693030048925902   -0.041139810398134705
0.06969799988500254   -0.05693030048925902   -0.041139810398134705
0.06969799988500254   -0.05693030048925902   -0.041139810398134705
0.3779549574833466   0.06619627347116555   0.02683620062060303
0.3779549574833466   0.06619627347116555   0.02683620062060303
0.3779549574833466   0.06619627347116555   0.02683620062060303
0.3779549574833466   0.06619627347116555   0.02683620062060303
0.22349374216819415   0.011042037554929156   -0.005166692202222609
0.22349374216819415   0.011042037554929156   -0.005166692202222609
0.22349374216819415   0.011042037554929156   -0.005166692202222609
0.22349374216819415   0.011042037554929156   -0.005166692202222609
0.350576885998665   -0.0010817815443572715   -0.04277610178728833
0.350576885998665   -0.0010817815443572715   -0.04277610178728833
0.350576885998665   -0.0010817815443572715   -0.04277610178728833
0.350576885998665   -0.0010817815443572715   -0.04277610178728833
0.09622172894355174   0.009493412100130431   0.02505512230522234
0.09622172894355174   0.009493412100130431   0.02505512230522234
0.09622172894355174   0.009493412100130431   0.02505512230522234
0.09622172894355174   0.009493412100130431   0.02505512230522234
0.05330845206579499   -0.06499235818912585   -0.034945055709020956
0.05330845206579499   -0.06499235818912585   -0.034945055709020956
0.05330845206579499   -0.06499235818912585   -0.034945055709020956
0.05330845206579499   -0.06499235818912585   -0.034945055709020956
0.3484941518223272   0.055071952512468894   0.03448098212518805
0.3484941518223272   0.055071952512468894   0.03448098212518805
0.3484941518223272   0.055071952512468894   0.03448098212518805
0.3484941518223272   0.055071952512468894   0.03448098212518805
0.20293628711488648   -0.0015534420812596123   -0.013335095507162033
0.20293628711488648   -0.0015534420812596123   -0.013335095507162033
0.20293628711488648   -0.0015534420812596123   -0.013335095507162033
0.20293628711488648   -0.0015534420812596123   -0.013335095507162033
0.32127069291420607   -0.011436475715191616   -0.03512788418776086
0.32127069291420607   -0.011436475715191616   -0.03512788418776086
0.32127069291420607   -0.011436475715191616   -0.03512788418776086
0.32127069291420607   -0.011436475715191616   -0.03512788418776086
0.07938727658288064   0.0003714356474987038   0.030085273039783707
0.07938727658288064   0.0003714356474987038   0.030085273039783707
0.07938727658288064   0.0003714356474987038   0.030085273039783707
0.07938727658288064   0.0003714356474987038   0.030085273039783707
0.03865518721901746   -0.07470606463705941   -0.029107933315194436
0.03865518721901746   -0.07470606463705941   -0.029107933315194436
0.03865518721901746   -0.07470606463705941   -0.029107933315194436
0.03865518721901746   -0.07470606463705941   -0.029107933315194436
0.31200975611944437   0.0372834088852014   0.038287425973826755
0.31200975611944437   0.0372834088852014   0.038287425973826755
0.31200975611944437   0.0372834088852014   0.038287425973826755
0.31200975611944437   0.0372834088852014   0.038287425973826755
0.17449118886486603   -0.01276591500383683   -0.02332695164554597
0.17449118886486603   -0.01276591500383683   -0.02332695164554597
0.17449118886486603   -0.01276591500383683   -0.02332695164554597
0.17449118886486603   -0.01276591500383683   -0.02332695164554597
0.10878815853640984   0.0421782961621376   -0.013500059337573915
0.10878815853640984   0.0421782961621376   -0.013500059337573915
0.10878815853640984   0.0421782961621376   -0.013500059337573915
0.10878815853640984   0.0421782961621376   -0.013500059337573915
-0.15756434531642569   0.013557921895314767   0.00540838362709954
-0.15756434531642569   0.013557921895314767   0.00540838362709954
-0.15756434531642569   0.013557921895314767   0.00540838362709954
-0.15756434531642569   0.013557921895314767   0.00540838362709954
-0.18553395341528917   -0.03650604104434131   -0.024015484406375
-0.18553395341528917   -0.03650604104434131   -0.024015484406375
-0.18553395341528917   -0.03650604104434131   -0.024015484406375
-0.18553395341528917   -0.03650604104434131   -0.024015484406375
0.10488594477501008   0.05234507309987611   0.0255245404627684
0.10488594477501008   0.05234507309987611   0.0255245404627684
0.10488594477501008   0.05234507309987611   0.0255245404627684
0.10488594477501008   0.05234507309987611   0.0255245404627684
-0.03328664128240134   0.01713802238423184   0.004355942451676004
-0.03328664128240134   0.01713802238423184   0.004355942451676004
-0.03328664128240134   0.01713802238423184   0.004355942451676004
-0.03328664128240134   0.01713802238423184   0.004355942451676004
0.09167879452376719   0.02175531490502572   -0.0099214525985962
0.09167879452376719   0.02175531490502572   -0.0099214525985962
0.09167879452376719   0.02175531490502572   -0.0099214525985962
0.09167879452376719   0.02175531490502572   -0.0099214525985962
-0.1730559969571335   -0.006645476642583328   0.008513733482645398
-0.1730559969571335   -0.006645476642583328   0.008513733482645398
-0.1730559969571335   -0.006645476642583328   0.008513733482645398
-0.1730559969571335   -0.006645476642583328   0.008513733482645398
-0.20019501672851953   -0.0528895452907808   -0.018811654295194914
-0.20019501672851953   -0.0528895452907808   -0.018811654295194914
-0.20019501672851953   -0.0528895452907808   -0.018811654295194914
-0.20019501672851953   -0.0528895452907808   -0.018811654295194914
0.08565022409163062   0.03394108943018296   0.027830356800849387
0.08565022409163062   0.03394108943018296   0.027830356800849387
0.08565022409163062   0.03394108943018296   0.027830356800849387
0.08565022409163062   0.03394108943018296   0.027830356800849387
-0.051404589267545944   -0.0005398444326861849   -0.004115769336290604
-0.051404589267545944   -0.0005398444326861849   -0.004115769336290604
-0.051404589267545944   -0.0005398444326861849   -0.004115769336290604
-0.051404589267545944   -0.0005398444326861849   -0.004115769336290604
0.07283271401779813   0.004179259074912912   -0.006495363213044027
0.07283271401779813   0.004179259074912912   -0.006495363213044027
0.07283271401779813   0.004179259074912912   -0.006495363213044027
0.07283271401779813   0.004179259074912912   -0.006495363213044027
-0.18832144059412437   -0.02407164887494761   0.011738329960951551
-0.18832144059412437   -0.02407164887494761   0.011738329960951551
-0.18832144059412437   -0.02407164887494761   0.011738329960951551
-0.18832144059412437   -0.02407164887494761   0.011738329960951551
-0.21474366482236898   -0.06913357561235424   -0.014108840041985829
-0.21474366482236898   -0.06913357561235424   -0.014108840041985829
-0.21474366482236898   -0.06913357561235424   -0.014108840041985829
-0.21474366482236898   -0.06913357561235424   -0.014108840041985829
0.06880810514200981   0.01587953336716483   0.031071058295543533
0.06880810514200981   0.01587953336716483   0.031071058295543533
0.06880810514200981   0.01587953336716483   0.031071058295543533
0.06880810514200981   0.01587953336716483   0.031071058295543533
-0.06707812005813932   -0.016360067036312556   -0.012113601106120659
-0.06707812005813932   -0.016360067036312556   -0.012113601106120659
-0.06707812005813932   -0.016360067036312556   -0.012113601106120659
-0.06707812005813932   -0.016360067036312556   -0.012113601106120659
-0.1494172432730907   0.057660624923463716   0.002041190815625503
-0.1494172432730907   0.057660624923463716   0.002041190815625503
-0.1494172432730907   0.057660624923463716   0.002041190815625503
-0.1494172432730907   0.057660624923463716   0.002041190815625503
-0.4246258664850609   -0.0051053312340416795   -0.011680977895011938
-0.4246258664850609   -0.0051053312340416795   -0.011680977895011938
-0.4246258664850609   -0.0051053312340416795   -0.011680977895011938
-0.4246258664850609   -0.0051053312340416795   -0.011680977895011938
-0.43783408325019313   -0.01792156598189959   -0.006984979372557751
-0.43783408325019313   -0.01792156598189959   -0.006984979372557751
-0.43783408325019313   -0.01792156598189959   -0.006984979372557751
-0.43783408325019313   -0.01792156598189959   -0.006984979372557751
-0.1649139365961765   0.034459731377298713   0.008118827267546161
-0.1649139365961765   0.034459731377298713   0.008118827267546161
-0.1649139365961765   0.034459731377298713   0.008118827267546161
-0.1649139365961765   0.034459731377298713   0.008118827267546161
-0.2934989406055217   0.01690769969936856   0.0045125585884549305
-0.2934989406055217   0.01690769969936856   0.0045125585884549305
-0.2934989406055217   0.01690769969936856   0.0045125585884549305
-0.2934989406055217   0.01690769969936856   0.0045125585884549305
-0.16413085795812996   0.0395957210983671   0.006898230736712578
-0.16413085795812996   0.0395957210983671   0.006898230736712578
-0.16413085795812996   0.0395957210983671   0.006898230736712578
-0.16413085795812996   0.0395957210983671   0.006898230736712578
-0.43925606261957006   -0.023696456434298685   -0.008319985767047303
-0.43925606261957006   -0.023696456434298685   -0.008319985767047303
-0.43925606261957006   -0.023696456434298685   -0.008319985767047303
-0.43925606261957006   -0.023696456434298685   -0.008319985767047303
-0.45243202276816935   -0.035807229864429725   -0.0022713451167079655
-0.45243202276816935   -0.035807229864429725   -0.0022713451167079655
-0.45243202276816935   -0.035807229864429725   -0.0022713451167079655
-0.45243202276816935   -0.035807229864429725   -0.0022713451167079655
-0.18038883664750888   0.01579453328832555   0.011535167530751907
-0.18038883664750888   0.01579453328832555   0.011535167530751907
-0.18038883664750888   0.01579453328832555   0.011535167530751907
-0.18038883664750888   0.01579453328832555   0.011535167530751907
-0.3087287376867616   -8.139408547716553e-05   -0.0030812409011576544
-0.3087287376867616   -8.139408547716553e-05   -0.0030812409011576544
-0.3087287376867616   -8.139408547716553e-05   -0.0030812409011576544
-0.3087287376867616   -8.139408547716553e-05   -0.0030812409011576544
-0.17933862652438778   0.021484890578837963   0.011095860855848847
-0.17933862652438778   0.021484890578837963   0.011095860855848847
-0.17933862652438778   0.021484890578837963   0.011095860855848847
-0.17933862652438778   0.021484890578837963   0.011095860855848847
-0.45439035494245716   -0.042405709206108796   -0.005464526646471554
-0.45439035494245716   -0.042405709206108796   -0.005464526646471554
-0.45439035494245716   -0.042405709206108796   -0.005464526646471554
-0.45439035494245716   -0.042405709206108796   -0.005464526646471554
-0.466748675728024   -0.0530728223522056   0.002292872772137985
-0.466748675728024   -0.0530728223522056   0.002292872772137985
-0.466748675728024   -0.0530728223522056   0.002292872772137985
-0.466748675728024   -0.0530728223522056   0.002292872772137985
-0.19560012214895234   -0.002184688093528425   0.0146599858062696
-0.19560012214895234   -0.002184688093528425   0.0146599858062696
-0.19560012214895234   -0.002184688093528425   0.0146599858062696
-0.19560012214895234   -0.002184688093528425   0.0146599858062696
-0.32475399560841717   -0.01711042339538285   -0.011326718039569687
-0.32475399560841717   -0.01711042339538285   -0.011326718039569687
-0.32475399560841717   -0.01711042339538285   -0.011326718039569687
-0.32475399560841717   -0.01711042339538285   -0.011326718039569687
-0.4031921888517479   0.07237863861166664   0.018003440425844536
-0.4031921888517479   0.07237863861166664   0.018003440425844536
-0.4031921888517479   0.07237863861166664   0.018003440425844536
-0.4031921888517479   0.07237863861166664   0.018003440425844536
-0.685891505674137   -0.020436850989488275   -0.026637986350266464
-0.685891505674137   -0.020436850989488275   -0.026637986350266464
-0.685891505674137   -0.020436850989488275   -0.026637986350266464
-0.685891505674137   -0.020436850989488275   -0.026637986350266464
-0.6871971003331255   -0.0015283435136598522   0.0110639618863363
-0.6871971003331255   -0.0015283435136598522   0.0110639618863363
-0.6871971003331255   -0.0015283435136598522   0.0110639618863363
-0.6871971003331255   -0.0015283435136598522   0.0110639618863363
-0.4309862964039507   0.01772032209060738   -0.008387933213860287
-0.4309862964039507   0.01772032209060738   -0.008387933213860287
-0.4309862964039507   0.01772032209060738   -0.008387933213860287
-0.4309862964039507   0.01772032209060738   -0.008387933213860287
-0.5490002077897082   0.016998548820434778   0.005934891061988926
-0.5490002077897082   0.016998548820434778   0.005934891061988926
-0.5490002077897082   0.016998548820434778   0.005934891061988926
-0.5490002077897082   0.016998548820434778   0.005934891061988926
-0.41731564086991574   0.05481024109258392   0.02287542545434549
-0.41731564086991574   0.05481024109258392   0.02287542545434549
-0.41731564086991574   0.05481024109258392   0.02287542545434549
-0.41731564086991574   0.05481024109258392   0.02287542545434549
-0.7020938811934473   -0.03984438784191682   -0.02510389808701538
-0.7020938811934473   -0.03984438784191682   -0.02510389808701538
-0.7020938811934473   -0.03984438784191682   -0.02510389808701538
-0.7020938811934473   -0.03984438784191682   -0.02510389808701538
-0.7051697787756901   -0.01916285603557319   0.013601826812104721
-0.7051697787756901   -0.01916285603557319   0.013601826812104721
-0.7051697787756901   -0.01916285603557319   0.013601826812104721
-0.7051697787756901   -0.01916285603557319   0.013601826812104721
-0.44566096141956546   0.0005320050017175171   -0.004755273239842928
-0.44566096141956546   0.0005320050017175171   -0.004755273239842928
-0.44566096141956546   0.0005320050017175171   -0.004755273239842928
-0.44566096141956546   0.0005320050017175171   -0.004755273239842928
-0.5619377241351892   0.0011686009064928171   -0.002025627377212104
-0.5619377241351892   0.0011686009064928171   -0.002025627377212104
-0.5619377241351892   0.0011686009064928171   -0.002025627377212104
-0.5619377241351892   0.0011686009064928171   -0.002025627377212104
-0.4316270345395666   0.038345500568004814   0.02760086559387135
-0.4316270345395666   0.038345500568004814   0.02760086559387135
-0.4316270345395666   0.038345500568004814   0.02760086559387135
-0.4316270345395666   0.038345500568004814   0.02760086559387135
-0.7199683054440491   -0.05774095139022206   -0.021812711175057203
-0.7199683054440491   -0.05774095139022206   -0.021812711175057203
-0.7199683054440491   -0.05774095139022206   -0.021812711175057203
-0.7199683054440491   -0.05774095139022206   -0.021812711175057203
-0.7206921602285409   -0.03754838991382162   0.018525834425487567
-0.7206921602285409   -0.03754838991382162   0.018525834425487567
-0.7206921602285409   -0.03754838991382162   0.018525834425487567
-0.7206921602285409   -0.03754838991382162   0.018525834425487567
-0.46051994335987834   -0.017855821042176936   -0.0017804666971696116
-0.46051994335987834   -0.017855821042176936   -0.0017804666971696116
-0.46051994335987834   -0.017855821042176936   -0.0017804666971696116
-0.46051994335987834   -0.017855821042176936   -0.0017804666971696116
-0.5811962312740129   -0.01608885172270054   -0.010705098949867046
-0.5811962312740129   -0.01608885172270054   -0.010705098949867046
-0.5811962312740129   -0.01608885172270054   -0.010705098949867046
-0.5811962312740129   -0.01608885172270054   -0.010705098949867046
-0.6558488270236639   0.07124939221804891   0.03188916369456999
-0.6558488270236639   0.07124939221804891   0.03188916369456999
-0.6558488270236639   0.07124939221804891   0.03188916369456999
-0.6558488270236639   0.07124939221804891   0.03188916369456999
-0.923292705906717   -0.042516899504461136   -0.04039798247619894
-0.923292705906717   -0.042516899504461136   -0.04039798247619894
-0.923292705906717   -0.042516899504461136   -0.04039798247619894
-0.923292705906717   -0.042516899504461136   -0.04039798247619894
-0.930040269467584   0.011703528702918992   0.03352048005075537
-0.930040269467584   0.011703528702918992   0.03352048005075537
-0.930040269467584   0.011703528702918992   0.03352048005075537
-0.930040269467584   0.011703528702918992   0.03352048005075537
-0.6944470079147619   -0.00204350244584936   -0.02467041708966365
-0.6944470079147619   -0.00204350244584936   -0.02467041708966365
-0.6944470079147619   -0.00204350244584936   -0.02467041708966365
-0.6944470079147619   -0.00204350244584936   -0.02467041708966365
-0.7664756969754745   0.017059856568323817   0.018581979367652615
-0.7664756969754745   0.017059856568323817   0.018581979367652615
-0.7664756969754745   0.017059856568323817   0.018581979367652615
-0.7664756969754745   0.017059856568323817   0.018581979367652615
-0.6685947376861116   0.06483168780883677   0.03771574379890243
-0.6685947376861116   0.06483168780883677   0.03771574379890243
-0.6685947376861116   0.06483168780883677   0.03771574379890243
-0.6685947376861116   0.06483168780883677   0.03771574379890243
-0.9571979972150944   -0.05647711907063477   -0.03408751091322754
-0.9571979972150944   -0.05647711907063477   -0.03408751091322754
-0.9571979972150944   -0.05647711907063477   -0.03408751091322754
-0.9571979972150944   -0.05647711907063477   -0.03408751091322754
-0.958036624560797   0.0017932465601417369   0.04280530632369932
-0.958036624560797   0.0017932465601417369   0.04280530632369932
-0.958036624560797   0.0017932465601417369   0.04280530632369932
-0.958036624560797   0.0017932465601417369   0.04280530632369932
-0.7106177850406427   -0.011634382716812913   -0.021166677831433847
-0.7106177850406427   -0.011634382716812913   -0.021166677831433847
-0.7106177850406427   -0.011634382716812913   -0.021166677831433847
-0.7106177850406427   -0.011634382716812913   -0.021166677831433847
-0.8022815571674037   0.005342509695947212   0.006727514420855417
-0.8022815571674037   0.005342509695947212   0.006727514420855417
-0.8022815571674037   0.005342509695947212   0.006727514420855417
-0.8022815571674037   0.005342509695947212   0.006727514420855417
-0.6836713436284606   0.057076225653669405   0.04485492085900146
-0.6836713436284606   0.057076225653669405   0.04485492085900146
-0.6836713436284606   0.057076225653669405   0.04485492085900146
-0.6836713436284606   0.057076225653669405   0.04485492085900146
-0.986217535097042   -0.06815183093439475   -0.028154168862974234
-0.986217535097042   -0.06815183093439475   -0.028154168862974234
-0.986217535097042   -0.06815183093439475   -0.028154168862974234
-0.986217535097042   -0.06815183093439475   -0.028154168862974234
-0.9967480635991399   -0.026381753978557354   0.04419115462945611
-0.9967480635991399   -0.026381753978557354   0.04419115462945611
-0.9967480635991399   -0.026381753978557354   0.04419115462945611
-0.9967480635991399   -0.026381753978557354   0.04419115462945611
-0.7273061291536753   -0.033633595395902854   -0.018458804718118595
-0.7273061291536753   -0.033633595395902854   -0.018458804718118595
-0.7273061291536753   -0.033633595395902854   -0.018458804718118595
-0.7273061291536753   -0.033633595395902854   -0.018458804718118595
-0.8139205596463386   -0.007126538429027773   -0.00031614012323433194
-0.8139205596463386   -0.007126538429027773   -0.00031614012323433194
-0.8139205596463386   -0.007126538429027773   -0.00031614012323433194
-0.8139205596463386   -0.007126538429027773   -0.00031614012323433194
0.07120337016630336   0.005854709697791609   -0.04658242959748051
0.07120337016630336   0.005854709697791609   -0.04658242959748051
0.07120337016630336   0.005854709697791609   -0.04658242959748051
0.07120337016630336   0.005854709697791609   -0.04658242959748051
-0.07516512124014245   0.034899200155593765   0.023805366091020855
-0.07516512124014245   0.034899200155593765   0.023805366091020855
-0.07516512124014245   0.034899200155593765   0.023805366091020855
-0.07516512124014245   0.034899200155593765   0.023805366091020855
-0.11312934046069542   -0.04489305466940306   -0.03752614213822864
-0.11312934046069542   -0.04489305466940306   -0.03752614213822864
-0.11312934046069542   -0.04489305466940306   -0.03752614213822864
-0.11312934046069542   -0.04489305466940306   -0.03752614213822864
0.06545147114677809   0.04946567191725671   0.029219344664734546
0.06545147114677809   0.04946567191725671   0.029219344664734546
0.06545147114677809   0.04946567191725671   0.029219344664734546
0.06545147114677809   0.04946567191725671   0.029219344664734546
-0.014550561899501092   0.010857549370453808   0.004040177617324346
-0.014550561899501092   0.010857549370453808   0.004040177617324346
-0.014550561899501092   0.010857549370453808   0.004040177617324346
-0.014550561899501092   0.010857549370453808   0.004040177617324346
0.03829546511948053   -0.015434889863851204   -0.04166012369064531
0.03829546511948053   -0.015434889863851204   -0.04166012369064531
0.03829546511948053   -0.015434889863851204   -0.04166012369064531
0.03829546511948053   -0.015434889863851204   -0.04166012369064531
-0.08757545066659166   0.01840539087851107   0.026944861284376086
-0.08757545066659166   0.01840539087851107   0.026944861284376086
-0.08757545066659166   0.01840539087851107   0.026944861284376086
-0.08757545066659166   0.01840539087851107   0.026944861284376086
-0.12564549677602754   -0.0530162236291558   -0.03182024998455
-0.12564549677602754   -0.0530162236291558   -0.03182024998455
-0.12564549677602754   -0.0530162236291558   -0.03182024998455
-0.12564549677602754   -0.0530162236291558   -0.03182024998455
0.03970085174530774   0.038437305699300886   0.04008787047735515
0.03970085174530774   0.038437305699300886   0.04008787047735515
0.03970085174530774   0.038437305699300886   0.04008787047735515
0.03970085174530774   0.038437305699300886   0.04008787047735515
-0.03484598849943202   -0.0013144882608767576   -0.005337124448676786
-0.03484598849943202   -0.0013144882608767576   -0.005337124448676786
-0.03484598849943202   -0.0013144882608767576   -0.005337124448676786
-0.03484598849943202   -0.0013144882608767576   -0.005337124448676786
0.011913606871045406   -0.026018802118135294   -0.034392246076520375
0.011913606871045406   -0.026018802118135294   -0.034392246076520375
0.011913606871045406   -0.026018802118135294   -0.034392246076520375
0.011913606871045406   -0.026018802118135294   -0.034392246076520375
-0.10008289213213623   0.009215243957909184   0.033761305647840634
-0.10008289213213623   0.009215243957909184   0.033761305647840634
-0.10008289213213623   0.009215243957909184   0.033761305647840634
-0.10008289213213623   0.009215243957909184   0.033761305647840634
-0.13710839523696222   -0.0654743086162313   -0.026383010176930097
-0.13710839523696222   -0.0654743086162313   -0.026383010176930097
-0.13710839523696222   -0.0654743086162313   -0.026383010176930097
-0.13710839523696222   -0.0654743086162313   -0.026383010176930097
0.003938331848760444   0.015339031630166112   0.04571609063341951
0.003938331848760444   0.015339031630166112   0.04571609063341951
0.003938331848760444   0.015339031630166112   0.04571609063341951
0.003938331848760444   0.015339031630166112   0.04571609063341951
-0.05670037395787365   -0.013558022547232965   -0.016161060812304614
-0.05670037395787365   -0.013558022547232965   -0.016161060812304614
-0.05670037395787365   -0.013558022547232965   -0.016161060812304614
-0.05670037395787365   -0.013558022547232965   -0.016161060812304614
-0.08598796856580292   0.023091322036401574   -0.01850099241808921
-0.08598796856580292   0.023091322036401574   -0.01850099241808921
-0.08598796856580292   0.023091322036401574   -0.01850099241808921
-0.08598796856580292   0.023091322036401574   -0.01850099241808921
-0.22293350418441493   0.009383800040414274   0.006200688004614723
-0.22293350418441493   0.009383800040414274   0.006200688004614723
-0.22293350418441493   0.009383800040414274   0.006200688004614723
-0.22293350418441493   0.009383800040414274   0.006200688004614723
-0.24253346370064557   -0.026149084972475322   -0.01952684142330246
-0.24253346370064557   -0.026149084972475322   -0.01952684142330246
-0.24253346370064557   -0.026149084972475322   -0.01952684142330246
-0.24253346370064557   -0.026149084972475322   -0.01952684142330246
-0.08842728756797368   0.022431645718034313   0.01865942193794272
-0.08842728756797368   0.022431645718034313   0.01865942193794272
-0.08842728756797368   0.022431645718034313   0.01865942193794272
-0.08842728756797368   0.022431645718034313   0.01865942193794272
-0.15964914886380588   0.006731680114063429   0.00359656819614094
-0.15964914886380588   0.006731680114063429   0.00359656819614094
-0.15964914886380588   0.006731680114063429   0.00359656819614094
-0.15964914886380588   0.006731680114063429   0.00359656819614094
-0.09900192617996559   0.0034218047796040416   -0.015203930183585637
-0.09900192617996559   0.0034218047796040416   -0.015203930183585637
-0.09900192617996559   0.0034218047796040416   -0.015203930183585637
-0.09900192617996559   0.0034218047796040416   -0.015203930183585637
-0.2332763413506219   -0.008456760296013471   0.009066445650352044
-0.2332763413506219   -0.008456760296013471   0.009066445650352044
-0.2332763413506219   -0.008456760296013471   0.009066445650352044
-0.2332763413506219   -0.008456760296013471   0.009066445650352044
-0.2522809439180787   -0.042095466300139765   -0.01442125384105493
-0.2522809439180787   -0.042095466300139765   -0.01442125384105493
-0.2522809439180787   -0.042095466300139765   -0.01442125384105493
-0.2522809439180787   -0.042095466300139765   -0.01442125384105493
-0.10350865862441475   0.004808813022706564   0.021038904121650562
-0.10350865862441475   0.004808813022706564   0.021038904121650562
-0.10350865862441475   0.004808813022706564   0.021038904121650562
-0.10350865862441475   0.004808813022706564   0.021038904121650562
-0.17196203370040497   -0.00927957757876519   -0.00443978958128782
-0.17196203370040497   -0.00927957757876519   -0.00443978958128782
-0.17196203370040497   -0.00927957757876519   -0.00443978958128782
-0.17196203370040497   -0.00927957757876519   -0.00443978958128782
-0.11370397343548606   -0.013767994014674953   -0.0113608628963235
-0.11370397343548606   -0.013767994014674953   -0.0113608628963235
-0.11370397343548606   -0.013767994014674953   -0.0113608628963235
-0.11370397343548606   -0.013767994014674953   -0.0113608628963235
-0.24350040200887954   -0.024933432164630245   0.012319421569431301
-0.24350040200887954   -0.024933432164630245   0.012319421569431301
-0.24350040200887954   -0.024933432164630245   0.012319421569431301
-0.24350040200887954   -0.024933432164630245   0.012319421569431301
-0.2620926644856832   -0.05849494711036508   -0.009900574464443703
-0.2620926644856832   -0.05849494711036508   -0.009900574464443703
-0.2620926644856832   -0.05849494711036508   -0.009900574464443703
-0.2620926644856832   -0.05849494711036508   -0.009900574464443703
-0.11612339537938121   -0.013035396426722103   0.02610307692146538
-0.11612339537938121   -0.013035396426722103   0.02610307692146538
-0.11612339537938121   -0.013035396426722103   0.02610307692146538
-0.11612339537938121   -0.013035396426722103   0.02610307692146538
-0.1842533974742537   -0.02510323885329212   -0.012609385814332384
-0.1842533974742537   -0.02510323885329212   -0.012609385814332384
-0.1842533974742537   -0.02510323885329212   -0.012609385814332384
-0.1842533974742537   -0.02510323885329212   -0.012609385814332384
-0.21884330589455228   0.037995393634942365   -0.001959914140600264
-0.21884330589455228   0.037995393634942365   -0.001959914140600264
-0.21884330589455228   0.037995393634942365   -0.001959914140600264
-0.21884330589455228   0.037995393634942365   -0.001959914140600264
-0.36931382193022333   -0.01268229375695236   -0.010454505989414206
-0.36931382193022333   -0.01268229375695236   -0.010454505989414206
-0.36931382193022333   -0.01268229375695236   -0.010454505989414206
-0.36931382193022333   -0.01268229375695236   -0.010454505989414206
-0.37320684608660737   -0.009268580716665906   -0.002229823711846088
-0.37320684608660737   -0.009268580716665906   -0.002229823711846088
-0.37320684608660737   -0.009268580716665906   -0.002229823711846088
-0.37320684608660737   -0.009268580716665906   -0.002229823711846088
-0.23237601560648877   0.0022299069690727286   0.002881407105931648
-0.23237601560648877   0.0022299069690727286   0.002881407105931648
-0.23237601560648877   0.0022299069690727286   0.002881407105931648
-0.23237601560648877   0.0022299069690727286   0.002881407105931648
-0.2978092741313168   0.004274566707750324   0.0012423089759228782
-0.2978092741313168   0.004274566707750324   0.0012423089759228782
-0.2978092741313168   0.004274566707750324   0.0012423089759228782
-0.2978092741313168   0.004274566707750324   0.0012423089759228782
-0.22870009228898477   0.02064743409811058   0.002843496564413739
-0.22870009228898477   0.02064743409811058   0.002843496564413739
-0.22870009228898477   0.02064743409811058   0.002843496564413739
-0.22870009228898477   0.02064743409811058   0.002843496564413739
-0.3781509206307024   -0.02895425907229482   -0.007264518076692393
-0.3781509206307024   -0.02895425907229482   -0.007264518076692393
-0.3781509206307024   -0.02895425907229482   -0.007264518076692393
-0.3781509206307024   -0.02895425907229482   -0.007264518076692393
-0.38234822296808096   -0.026400211241580374   0.002520831201794388
-0.38234822296808096   -0.026400211241580374   0.002520831201794388
-0.38234822296808096   -0.026400211241580374   0.002520831201794388
-0.38234822296808096   -0.026400211241580374   0.002520831201794388
-0.24271059014052723   -0.014613249337509272   0.005948298084071817
-0.24271059014052723   -0.014613249337509272   0.005948298084071817
-0.24271059014052723   -0.014613249337509272   0.005948298084071817
-0.24271059014052723   -0.014613249337509272   0.005948298084071817
-0.3077165947496736   -0.011306244688801731   -0.006137989634922694
-0.3077165947496736   -0.011306244688801731   -0.006137989634922694
-0.3077165947496736   -0.011306244688801731   -0.006137989634922694
-0.3077165947496736   -0.011306244688801731   -0.006137989634922694
-0.23892449572025448   0.0031945601143427704   0.007070960733583605
-0.23892449572025448   0.0031945601143427704   0.007070960733583605
-0.23892449572025448   0.0031945601143427704   0.007070960733583605
-0.23892449572025448   0.0031945601143427704   0.007070960733583605
-0.3876634006807828   -0.045737103985862115   -0.004718164617436911
-0.3876634006807828   -0.045737103985862115   -0.004718164617436911
-0.3876634006807828   -0.045737103985862115   -0.004718164617436911
-0.3876634006807828   -0.045737103985862115   -0.004718164617436911
-0.3912504943082211   -0.04283108564824642   0.007078370191948499
-0.3912504943082211   -0.04283108564824642   0.007078370191948499
-0.3912504943082211   -0.04283108564824642   0.007078370191948499
-0.3912504943082211   -0.04283108564824642   0.007078370191948499
-0.2526377695375222   -0.03049973444219396   0.009378687608190026
-0.2526377695375222   -0.03049973444219396   0.009378687608190026
-0.2526377695375222   -0.03049973444219396   0.009378687608190026
-0.2526377695375222   -0.03049973444219396   0.009378687608190026
-0.31837761228205075   -0.02698231380392812   -0.01415775689079724
-0.31837761228205075   -0.02698231380392812   -0.01415775689079724
-0.31837761228205075   -0.02698231380392812   -0.01415775689079724
-0.31837761228205075   -0.02698231380392812   -0.01415775689079724
-0.35066987190544585   0.05495971925817414   0.015123231119354423
-0.35066987190544585   0.05495971925817414   0.015123231119354423
-0.35066987190544585   0.05495971925817414   0.015123231119354423
-0.35066987190544585   0.05495971925817414   0.015123231119354423
-0.5099676562437636   -0.021120990309882598   -0.023441767877150577
-0.5099676562437636   -0.021120990309882598   -0.023441767877150577
-0.5099676562437636   -0.021120990309882598   -0.023441767877150577
-0.5099676562437636   -0.021120990309882598   -0.023441767877150577
-0.5031502136964605   0.008088180961996816   0.015615278435566066
-0.5031502136964605   0.008088180961996816   0.015615278435566066
-0.5031502136964605   0.008088180961996816   0.015615278435566066
-0.5031502136964605   0.008088180961996816   0.015615278435566066
-0.37445937195212015   -0.0073448970947272985   -0.010416136661348566
-0.37445937195212015   -0.0073448970947272985   -0.010416136661348566
-0.37445937195212015   -0.0073448970947272985   -0.010416136661348566
-0.37445937195212015   -0.0073448970947272985   -0.010416136661348566
-0.43304948488322603   0.008703387264623913   0.002103805078795075
-0.43304948488322603   0.008703387264623913   0.002103805078795075
-0.43304948488322603   0.008703387264623913   0.002103805078795075
-0.43304948488322603   0.008703387264623913   0.002103805078795075
-0.35937860409603267   0.03770667358320123   0.019936131941160368
-0.35937860409603267   0.03770667358320123   0.019936131941160368
-0.35937860409603267   0.03770667358320123   0.019936131941160368
-0.35937860409603267   0.03770667358320123   0.019936131941160368
-0.5200831053429807   -0.038815513506368374   -0.022145485328677904
-0.5200831053429807   -0.038815513506368374   -0.022145485328677904
-0.5200831053429807   -0.038815513506368374   -0.022145485328677904
-0.5200831053429807   -0.038815513506368374   -0.022145485328677904
-0.515398757691667   -0.008774686217078637   0.018449066938308514
-0.515398757691667   -0.008774686217078637   0.018449066938308514
-0.515398757691667   -0.008774686217078637   0.018449066938308514
-0.515398757691667   -0.008774686217078637   0.018449066938308514
-0.38352139293602616   -0.022664557630178023   -0.007080672249333966
-0.38352139293602616   -0.022664557630178023   -0.007080672249333966
-0.38352139293602616   -0.022664557630178023   -0.007080672249333966
-0.38352139293602616   -0.022664557630178023   -0.007080672249333966
-0.4413676311362955   -0.006309640738071026   -0.005896252595138096
-0.4413676311362955   -0.006309640738071026   -0.005896252595138096
-0.4413676311362955   -0.006309640738071026   -0.005896252595138096
-0.4413676311362955   -0.006309640738071026   -0.005896252595138096
-0.36827206936768087   0.021884263043754293   0.02461712491845633
-0.36827206936768087   0.021884263043754293   0.02461712491845633
-0.36827206936768087   0.021884263043754293   0.02461712491845633
-0.36827206936768087   0.021884263043754293   0.02461712491845633
-0.5321106433774198   -0.05478606900841651   -0.019098978699132768
-0.5321106433774198   -0.05478606900841651   -0.019098978699132768
-0.5321106433774198   -0.05478606900841651   -0.019098978699132768
-0.5321106433774198   -0.05478606900841651   -0.019098978699132768
-0.5253547960384185   -0.025765689626696134   0.023505043058774513
-0.5253547960384185   -0.025765689626696134   0.023505043058774513
-0.5253547960384185   -0.025765689626696134   0.023505043058774513
-0.5253547960384185   -0.025765689626696134   0.023505043058774513
-0.3926176359921754   -0.038355694161275246   -0.004232729714797977
-0.3926176359921754   -0.038355694161275246   -0.004232729714797977
-0.3926176359921754   -0.038355694161275246   -0.004232729714797977
-0.3926176359921754   -0.038355694161275246   -0.004232729714797977
-0.4538956619751135   -0.021630561997128303   -0.014098654826057235
-0.4538956619751135   -0.021630561997128303   -0.014098654826057235
-0.4538956619751135   -0.021630561997128303   -0.014098654826057235
-0.4538956619751135   -0.021630561997128303   -0.014098654826057235
-0.4831587486863448   0.059571536962392924   0.029910242637668435
-0.4831587486863448   0.059571536962392924   0.029910242637668435
-0.4831587486863448   0.059571536962392924   0.029910242637668435
-0.4831587486863448   0.059571536962392924   0.029910242637668435
-0.6222748682739219   -0.031158927939373776   -0.03916774231504543
-0.6222748682739219   -0.031158927939373776   -0.03916774231504543
-0.6222748682739219   -0.031158927939373776   -0.03916774231504543
-0.6222748682739219   -0.031158927939373776   -0.03916774231504543
-0.6227775218362628   0.023818921912014374   0.0329722186211866
-0.6227775218362628   0.023818921912014374   0.0329722186211866
-0.6227775218362628   0.023818921912014374   0.0329722186211866
-0.6227775218362628   0.023818921912014374   0.0329722186211866
-0.516182825099072   -0.01749916169105517   -0.023960435924446945
-0.516182825099072   -0.01749916169105517   -0.023960435924446945
-0.516182825099072   -0.01749916169105517   -0.023960435924446945
-0.516182825099072   -0.01749916169105517   -0.023960435924446945
-0.5383828833990764   0.014102425752872905   0.01044573064263045
-0.5383828833990764   0.014102425752872905   0.01044573064263045
-0.5383828833990764   0.014102425752872905   0.01044573064263045
-0.5383828833990764   0.014102425752872905   0.01044573064263045
-0.49069441223022203   0.050697994545612246   0.035284472183135296
-0.49069441223022203   0.050697994545612246   0.035284472183135296
-0.49069441223022203   0.050697994545612246   0.035284472183135296
-0.49069441223022203   0.050697994545612246   0.035284472183135296
-0.6501910055517848   -0.046303305171322584   -0.03397297287307135
-0.6501910055517848   -0.046303305171322584   -0.03397297287307135
-0.6501910055517848   -0.046303305171322584   -0.03397297287307135
-0.6501910055517848   -0.046303305171322584   -0.03397297287307135
-0.6450544128006328   0.014207242973160478   0.042478078378423254
-0.6450544128006328   0.014207242973160478   0.042478078378423254
-0.6450544128006328   0.014207242973160478   0.042478078378423254
-0.6450544128006328   0.014207242973160478   0.042478078378423254
-0.5267921071775371   -0.0263068197615111   -0.020985546946617722
-0.5267921071775371   -0.0263068197615111   -0.020985546946617722
-0.5267921071775371   -0.0263068197615111   -0.020985546946617722
-0.5267921071775371   -0.0263068197615111   -0.020985546946617722
-0.56491396549272   0.0024195226540967563   -0.0006621939198573346
-0.56491396549272   0.0024195226540967563   -0.0006621939198573346
-0.56491396549272   0.0024195226540967563   -0.0006621939198573346
-0.56491396549272   0.0024195226540967563   -0.0006621939198573346
-0.5002452459150667   0.04313487382953324   0.04230706577469034
-0.5002452459150667   0.04313487382953324   0.04230706577469034
-0.5002452459150667   0.04313487382953324   0.04230706577469034
-0.5002452459150667   0.04313487382953324   0.04230706577469034
-0.6735615045802537   -0.0571946811350279   -0.028655456411485244
-0.6735615045802537   -0.0571946811350279   -0.028655456411485244
-0.6735615045802537   -0.0571946811350279   -0.028655456411485244
-0.6735615045802537   -0.0571946811350279   -0.028655456411485244
-0.6779600093504681   -0.011090697913535286   0.04490956289051209
-0.6779600093504681   -0.011090697913535286   0.04490956289051209
-0.6779600093504681   -0.011090697913535286   0.04490956289051209
-0.6779600093504681   -0.011090697913535286   0.04490956289051209
-0.5374458110107658   -0.04458910250462288   -0.018126618925043258
-0.5374458110107658   -0.04458910250462288   -0.018126618925043258
-0.5374458110107658   -0.04458910250462288   -0.018126618925043258
-0.5374458110107658   -0.04458910250462288   -0.018126618925043258
-0.5750790250022492   -0.00916158355418556   -0.00853984199429051
-0.5750790250022492   -0.00916158355418556   -0.00853984199429051
-0.5750790250022492   -0.00916158355418556   -0.00853984199429051
-0.5750790250022492   -0.00916158355418556   -0.00853984199429051
-0.2616407012391964   -0.01705774364750369   -0.04950377292541244
-0.2616407012391964   -0.01705774364750369   -0.04950377292541244
-0.2616407012391964   -0.01705774364750369   -0.04950377292541244
-0.2616407012391964   -0.01705774364750369   -0.04950377292541244
-0.25983506291250197   0.03785483541156375   0.02225584326464996
-0.25983506291250197   0.03785483541156375   0.02225584326464996
-0.25983506291250197   0.03785483541156375   0.02225584326464996
-0.25983506291250197   0.03785483541156375   0.02225584326464996
-0.2925175895791022   -0.034688544460879385   -0.03358267650006571
-0.2925175895791022   -0.034688544460879385   -0.03358267650006571
-0.2925175895791022   -0.034688544460879385   -0.03358267650006571
-0.2925175895791022   -0.034688544460879385   -0.03358267650006571
-0.26711497335440626   0.01994462671956302   0.033403739867223246
-0.26711497335440626   0.01994462671956302   0.033403739867223246
-0.26711497335440626   0.01994462671956302   0.033403739867223246
-0.26711497335440626   0.01994462671956302   0.033403739867223246
-0.2567055686534452   0.006416459310326618   0.02270667553883269
-0.2567055686534452   0.006416459310326618   0.02270667553883269
-0.2567055686534452   0.006416459310326618   0.02270667553883269
-0.2567055686534452   0.006416459310326618   0.02270667553883269
-0.2933741219287967   -0.03644399240653159   -0.04150338387863218
-0.2933741219287967   -0.03644399240653159   -0.04150338387863218
-0.2933741219287967   -0.03644399240653159   -0.04150338387863218
-0.2933741219287967   -0.03644399240653159   -0.04150338387863218
-0.26951087344588737   0.018447642224039953   0.028314717481088984
-0.26951087344588737   0.018447642224039953   0.028314717481088984
-0.26951087344588737   0.018447642224039953   0.028314717481088984
-0.26951087344588737   0.018447642224039953   0.028314717481088984
-0.30237940354203535   -0.04368304265304347   -0.028433615997023567
-0.30237940354203535   -0.04368304265304347   -0.028433615997023567
-0.30237940354203535   -0.04368304265304347   -0.028433615997023567
-0.30237940354203535   -0.04368304265304347   -0.028433615997023567
-0.2924670110229045   0.007709565007689427   0.062139998388877064
-0.2924670110229045   0.007709565007689427   0.062139998388877064
-0.2924670110229045   0.007709565007689427   0.062139998388877064
-0.2924670110229045   0.007709565007689427   0.062139998388877064
-0.2800488559895398   -0.009032261032534517   0.009093895608926381
-0.2800488559895398   -0.009032261032534517   0.009093895608926381
-0.2800488559895398   -0.009032261032534517   0.009093895608926381
-0.2800488559895398   -0.009032261032534517   0.009093895608926381
-0.3226131987823528   -0.04851612798486407   -0.0323652474158091
-0.3226131987823528   -0.04851612798486407   -0.0323652474158091
-0.3226131987823528   -0.04851612798486407   -0.0323652474158091
-0.3226131987823528   -0.04851612798486407   -0.0323652474158091
-0.27994487428025405   0.004830991841843324   0.0352249958169961
-0.27994487428025405   0.004830991841843324   0.0352249958169961
-0.27994487428025405   0.004830991841843324   0.0352249958169961
-0.27994487428025405   0.004830991841843324   0.0352249958169961
-0.31045864449769855   -0.06116141717622951   -0.022389177052099574
-0.31045864449769855   -0.06116141717622951   -0.022389177052099574
-0.31045864449769855   -0.06116141717622951   -0.022389177052099574
-0.31045864449769855   -0.06116141717622951   -0.022389177052099574
-0.3318613018592561   -0.03272372455568663   0.05814636008239733
-0.3318613018592561   -0.03272372455568663   0.05814636008239733
-0.3318613018592561   -0.03272372455568663   0.05814636008239733
-0.3318613018592561   -0.03272372455568663   0.05814636008239733
-0.30033085622720873   -0.027290058696495735   -0.01249504926719973
-0.30033085622720873   -0.027290058696495735   -0.01249504926719973
-0.30033085622720873   -0.027290058696495735   -0.01249504926719973
-0.30033085622720873   -0.027290058696495735   -0.01249504926719973
-0.2785666336129652   -0.008076998676202374   -0.025470176149902917
-0.2785666336129652   -0.008076998676202374   -0.025470176149902917
-0.2785666336129652   -0.008076998676202374   -0.025470176149902917
-0.2785666336129652   -0.008076998676202374   -0.025470176149902917
-0.28299721169379444   -0.03479660654074834   -0.001485928090179789
-0.28299721169379444   -0.03479660654074834   -0.001485928090179789
-0.28299721169379444   -0.03479660654074834   -0.001485928090179789
-0.28299721169379444   -0.03479660654074834   -0.001485928090179789
-0.2851002523566922   -0.023184079119672615   -0.012746237461858104
-0.2851002523566922   -0.023184079119672615   -0.012746237461858104
-0.2851002523566922   -0.023184079119672615   -0.012746237461858104
-0.2851002523566922   -0.023184079119672615   -0.012746237461858104
-0.2883938698417061   -0.04718811422538443   -0.00046450804858051307
-0.2883938698417061   -0.04718811422538443   -0.00046450804858051307
-0.2883938698417061   -0.04718811422538443   -0.00046450804858051307
-0.2883938698417061   -0.04718811422538443   -0.00046450804858051307
-0.28135438034673044   -0.02954217441061264   -0.0009670227049525977
-0.28135438034673044   -0.02954217441061264   -0.0009670227049525977
-0.28135438034673044   -0.02954217441061264   -0.0009670227049525977
-0.28135438034673044   -0.02954217441061264   -0.0009670227049525977
-0.2884136915171164   -0.025706554657988538   -0.022045175993028784
-0.2884136915171164   -0.025706554657988538   -0.022045175993028784
-0.2884136915171164   -0.025706554657988538   -0.022045175993028784
-0.2884136915171164   -0.025706554657988538   -0.022045175993028784
-0.2868975567373404   -0.04648276474312531   0.0015659262583494521
-0.2868975567373404   -0.04648276474312531   0.0015659262583494521
-0.2868975567373404   -0.04648276474312531   0.0015659262583494521
-0.2868975567373404   -0.04648276474312531   0.0015659262583494521
-0.28991861740210567   -0.03832821985136469   -0.008236301471014843
-0.28991861740210567   -0.03832821985136469   -0.008236301471014843
-0.28991861740210567   -0.03832821985136469   -0.008236301471014843
-0.28991861740210567   -0.03832821985136469   -0.008236301471014843
-0.2989044190609891   -0.06124018013174695   0.006498443886911252
-0.2989044190609891   -0.06124018013174695   0.006498443886911252
-0.2989044190609891   -0.06124018013174695   0.006498443886911252
-0.2989044190609891   -0.06124018013174695   0.006498443886911252
-0.2878688070128477   -0.04178290711740562   -0.00798888148044356
-0.2878688070128477   -0.04178290711740562   -0.00798888148044356
-0.2878688070128477   -0.04178290711740562   -0.00798888148044356
-0.2878688070128477   -0.04178290711740562   -0.00798888148044356
-0.29960741334503865   -0.04189171689896833   -0.016364990766115313
-0.29960741334503865   -0.04189171689896833   -0.016364990766115313
-0.29960741334503865   -0.04189171689896833   -0.016364990766115313
-0.29960741334503865   -0.04189171689896833   -0.016364990766115313
-0.2915389601404887   -0.0600000201065741   0.0053337850922751465
-0.2915389601404887   -0.0600000201065741   0.0053337850922751465
-0.2915389601404887   -0.0600000201065741   0.0053337850922751465
-0.2915389601404887   -0.0600000201065741   0.0053337850922751465
-0.2942493567677514   -0.05463535487351315   -0.0037707539241196514
-0.2942493567677514   -0.05463535487351315   -0.0037707539241196514
-0.2942493567677514   -0.05463535487351315   -0.0037707539241196514
-0.2942493567677514   -0.05463535487351315   -0.0037707539241196514
-0.3069531665880007   -0.07906695305576635   0.013043748375924827
-0.3069531665880007   -0.07906695305576635   0.013043748375924827
-0.3069531665880007   -0.07906695305576635   0.013043748375924827
-0.3069531665880007   -0.07906695305576635   0.013043748375924827
-0.2968086038996161   -0.05655183507462324   -0.016912633089622466
-0.2968086038996161   -0.05655183507462324   -0.016912633089622466
-0.2968086038996161   -0.05655183507462324   -0.016912633089622466
-0.2968086038996161   -0.05655183507462324   -0.016912633089622466
-0.2752168940027919   0.007293169826029233   -0.004674116001937595
-0.2752168940027919   0.007293169826029233   -0.004674116001937595
-0.2752168940027919   0.007293169826029233   -0.004674116001937595
-0.2752168940027919   0.007293169826029233   -0.004674116001937595
-0.3119303872276646   -0.05922658269729429   -0.01496539784601917
-0.3119303872276646   -0.05922658269729429   -0.01496539784601917
-0.3119303872276646   -0.05922658269729429   -0.01496539784601917
-0.3119303872276646   -0.05922658269729429   -0.01496539784601917
-0.2992334440848086   -0.010935681751630982   0.003910891980733001
-0.2992334440848086   -0.010935681751630982   0.003910891980733001
-0.2992334440848086   -0.010935681751630982   0.003910891980733001
-0.2992334440848086   -0.010935681751630982   0.003910891980733001
-0.2925422724203639   -0.06392066497712418   -0.009219751922768794
-0.2925422724203639   -0.06392066497712418   -0.009219751922768794
-0.2925422724203639   -0.06392066497712418   -0.009219751922768794
-0.2925422724203639   -0.06392066497712418   -0.009219751922768794
-0.2945244157685379   -0.03270281873114264   -0.006644887531794408
-0.2945244157685379   -0.03270281873114264   -0.006644887531794408
-0.2945244157685379   -0.03270281873114264   -0.006644887531794408
-0.2945244157685379   -0.03270281873114264   -0.006644887531794408
-0.27947635042018826   -0.007773835662213742   -3.6971236801179586e-05
-0.27947635042018826   -0.007773835662213742   -3.6971236801179586e-05
-0.27947635042018826   -0.007773835662213742   -3.6971236801179586e-05
-0.27947635042018826   -0.007773835662213742   -3.6971236801179586e-05
-0.31394998964436244   -0.06873313462592023   -0.011874382942750537
-0.31394998964436244   -0.06873313462592023   -0.011874382942750537
-0.31394998964436244   -0.06873313462592023   -0.011874382942750537
-0.31394998964436244   -0.06873313462592023   -0.011874382942750537
-0.3027068731836502   -0.026124100955742496   0.008390323036028623
-0.3027068731836502   -0.026124100955742496   0.008390323036028623
-0.3027068731836502   -0.026124100955742496   0.008390323036028623
-0.3027068731836502   -0.026124100955742496   0.008390323036028623
-0.2970524930925556   -0.07588782642546721   -0.006346073349161991
-0.2970524930925556   -0.07588782642546721   -0.006346073349161991
-0.2970524930925556   -0.07588782642546721   -0.006346073349161991
-0.2970524930925556   -0.07588782642546721   -0.006346073349161991
-0.2982096699910639   -0.04426938301696219   -0.012666373640345879
-0.2982096699910639   -0.04426938301696219   -0.012666373640345879
-0.2982096699910639   -0.04426938301696219   -0.012666373640345879
-0.2982096699910639   -0.04426938301696219   -0.012666373640345879
-0.2843548486312788   -0.023234080121769196   0.004488402653523758
-0.2843548486312788   -0.023234080121769196   0.004488402653523758
-0.2843548486312788   -0.023234080121769196   0.004488402653523758
-0.2843548486312788   -0.023234080121769196   0.004488402653523758
-0.31724843201365266   -0.08062176162816939   -0.009819810441560505
-0.31724843201365266   -0.08062176162816939   -0.009819810441560505
-0.31724843201365266   -0.08062176162816939   -0.009819810441560505
-0.31724843201365266   -0.08062176162816939   -0.009819810441560505
-0.3055414459021875   -0.04040153938507715   0.01277333925843942
-0.3055414459021875   -0.04040153938507715   0.01277333925843942
-0.3055414459021875   -0.04040153938507715   0.01277333925843942
-0.3055414459021875   -0.04040153938507715   0.01277333925843942
-0.3004229954413023   -0.08735940351568189   -0.0019148986497090513
-0.3004229954413023   -0.08735940351568189   -0.0019148986497090513
-0.3004229954413023   -0.08735940351568189   -0.0019148986497090513
-0.3004229954413023   -0.08735940351568189   -0.0019148986497090513
-0.30259665605965264   -0.056364433132704984   -0.019281826740918315
-0.30259665605965264   -0.056364433132704984   -0.019281826740918315
-0.30259665605965264   -0.056364433132704984   -0.019281826740918315
-0.30259665605965264   -0.056364433132704984   -0.019281826740918315
-0.28801732022602405   0.030860084468394444   0.014513269996495007
-0.28801732022602405   0.030860084468394444   0.014513269996495007
-0.28801732022602405   0.030860084468394444   0.014513269996495007
-0.28801732022602405   0.030860084468394444   0.014513269996495007
-0.34090385610882273   -0.04424734711577953   -0.020876471827413097
-0.34090385610882273   -0.04424734711577953   -0.020876471827413097
-0.34090385610882273   -0.04424734711577953   -0.020876471827413097
-0.34090385610882273   -0.04424734711577953   -0.020876471827413097
-0.3225839771017488   0.0091304608440234   0.02008525818203359
-0.3225839771017488   0.0091304608440234   0.02008525818203359
-0.3225839771017488   0.0091304608440234   0.02008525818203359
-0.3225839771017488   0.0091304608440234   0.02008525818203359
-0.31020795605359197   -0.0492681287858905   -0.012629220828924079
-0.31020795605359197   -0.0492681287858905   -0.012629220828924079
-0.31020795605359197   -0.0492681287858905   -0.012629220828924079
-0.31020795605359197   -0.0492681287858905   -0.012629220828924079
-0.31539329552854967   -0.013051807654112547   -0.003967947682340394
-0.31539329552854967   -0.013051807654112547   -0.003967947682340394
-0.31539329552854967   -0.013051807654112547   -0.003967947682340394
-0.31539329552854967   -0.013051807654112547   -0.003967947682340394
-0.29097978389740164   0.015235791734758697   0.01900771943137828
-0.29097978389740164   0.015235791734758697   0.01900771943137828
-0.29097978389740164   0.015235791734758697   0.01900771943137828
-0.29097978389740164   0.015235791734758697   0.01900771943137828
-0.3440050987633   -0.05756640918198927   -0.020323480099709815
-0.3440050987633   -0.05756640918198927   -0.020323480099709815
-0.3440050987633   -0.05756640918198927   -0.020323480099709815
-0.3440050987633   -0.05756640918198927   -0.020323480099709815
-0.32858178593071585   -0.0057051307585826855   0.02277685510333241
-0.32858178593071585   -0.0057051307585826855   0.02277685510333241
-0.32858178593071585   -0.0057051307585826855   0.02277685510333241
-0.32858178593071585   -0.0057051307585826855   0.02277685510333241
-0.31323572059933225   -0.06032759399130629   -0.010050421006821719
-0.31323572059933225   -0.06032759399130629   -0.010050421006821719
-0.31323572059933225   -0.06032759399130629   -0.010050421006821719
-0.31323572059933225   -0.06032759399130629   -0.010050421006821719
-0.31843180669912247   -0.025592302222144744   -0.011031057939709436
-0.31843180669912247   -0.025592302222144744   -0.011031057939709436
-0.31843180669912247   -0.025592302222144744   -0.011031057939709436
-0.31843180669912247   -0.025592302222144744   -0.011031057939709436
-0.2942285218544565   0.001284788984374792   0.023373189741875806
-0.2942285218544565   0.001284788984374792   0.023373189741875806
-0.2942285218544565   0.001284788984374792   0.023373189741875806
-0.2942285218544565   0.001284788984374792   0.023373189741875806
-0.34948905180317485   -0.06921758086184962   -0.018247024155695714
-0.34948905180317485   -0.06921758086184962   -0.018247024155695714
-0.34948905180317485   -0.06921758086184962   -0.018247024155695714
-0.34948905180317485   -0.06921758086184962   -0.018247024155695714
-0.3325586144898417   -0.019941266397745454   0.02778038760051725
-0.3325586144898417   -0.019941266397745454   0.02778038760051725
-0.3325586144898417   -0.019941266397745454   0.02778038760051725
-0.3325586144898417   -0.019941266397745454   0.02778038760051725
-0.3158439696816338   -0.07143854447862175   -0.007702274545247254
-0.3158439696816338   -0.07143854447862175   -0.007702274545247254
-0.3158439696816338   -0.07143854447862175   -0.007702274545247254
-0.3158439696816338   -0.07143854447862175   -0.007702274545247254
-0.32373583751958485   -0.03742011821954392   -0.017877548132929952
-0.32373583751958485   -0.03742011821954392   -0.017877548132929952
-0.32373583751958485   -0.03742011821954392   -0.017877548132929952
-0.32373583751958485   -0.03742011821954392   -0.017877548132929952
-0.313225226019094   0.044282012729742554   0.028987318775708378
-0.313225226019094   0.044282012729742554   0.028987318775708378
-0.313225226019094   0.044282012729742554   0.028987318775708378
-0.313225226019094   0.044282012729742554   0.028987318775708378
-0.3353653958964405   -0.026774016543560937   -0.030233812224165227
-0.3353653958964405   -0.026774016543560937   -0.030233812224165227
-0.3353653958964405   -0.026774016543560937   -0.030233812224165227
-0.3353653958964405   -0.026774016543560937   -0.030233812224165227
-0.32790145697439077   0.03139265023470576   0.032217255579676495
-0.32790145697439077   0.03139265023470576   0.032217255579676495
-0.32790145697439077   0.03139265023470576   0.032217255579676495
-0.32790145697439077   0.03139265023470576   0.032217255579676495
-0.33896564169069515   -0.0342110369983755   -0.01848156692030687
-0.33896564169069515   -0.0342110369983755   -0.01848156692030687
-0.33896564169069515   -0.0342110369983755   -0.01848156692030687
-0.33896564169069515   -0.0342110369983755   -0.01848156692030687
-0.3176617371142122   0.007878711966514143   0.0012804024994217782
-0.3176617371142122   0.007878711966514143   0.0012804024994217782
-0.3176617371142122   0.007878711966514143   0.0012804024994217782
-0.3176617371142122   0.007878711966514143   0.0012804024994217782
-0.3148735429647206   0.03425696655245215   0.03351092315873825
-0.3148735429647206   0.03425696655245215   0.03351092315873825
-0.3148735429647206   0.03425696655245215   0.03351092315873825
-0.3148735429647206   0.03425696655245215   0.03351092315873825
-0.3537829388222915   -0.038864736438048074   -0.02693276698707333
-0.3537829388222915   -0.038864736438048074   -0.02693276698707333
-0.3537829388222915   -0.038864736438048074   -0.02693276698707333
-0.3537829388222915   -0.038864736438048074   -0.02693276698707333
-0.34234145097930146   0.023074938211042298   0.041472586717898274
-0.34234145097930146   0.023074938211042298   0.041472586717898274
-0.34234145097930146   0.023074938211042298   0.041472586717898274
-0.34234145097930146   0.023074938211042298   0.041472586717898274
-0.3435121403093976   -0.04072370081344569   -0.0168563467352207
-0.3435121403093976   -0.04072370081344569   -0.0168563467352207
-0.3435121403093976   -0.04072370081344569   -0.0168563467352207
-0.3435121403093976   -0.04072370081344569   -0.0168563467352207
-0.3332223777705047   -0.002195535230823678   -0.007067464690771543
-0.3332223777705047   -0.002195535230823678   -0.007067464690771543
-0.3332223777705047   -0.002195535230823678   -0.007067464690771543
-0.3332223777705047   -0.002195535230823678   -0.007067464690771543
-0.31845984676591743   0.027577521453236054   0.040103898715498215
-0.31845984676591743   0.027577521453236054   0.040103898715498215
-0.31845984676591743   0.027577521453236054   0.040103898715498215
-0.31845984676591743   0.027577521453236054   0.040103898715498215
-0.3697219932027323   -0.047554532735591404   -0.02480065345261454
-0.3697219932027323   -0.047554532735591404   -0.02480065345261454
-0.3697219932027323   -0.047554532735591404   -0.02480065345261454
-0.3697219932027323   -0.047554532735591404   -0.02480065345261454
-0.36776312513622955   0.0018347808293312506   0.04431011187019103
-0.36776312513622955   0.0018347808293312506   0.04431011187019103
-0.36776312513622955   0.0018347808293312506   0.04431011187019103
-0.36776312513622955   0.0018347808293312506   0.04431011187019103
-0.3476643443735007   -0.053042468098443485   -0.014647060117079645
-0.3476643443735007   -0.053042468098443485   -0.014647060117079645
-0.3476643443735007   -0.053042468098443485   -0.014647060117079645
-0.3476643443735007   -0.053042468098443485   -0.014647060117079645
-0.3405980712381175   -0.011472571721454022   -0.014588858306326898
-0.3405980712381175   -0.011472571721454022   -0.014588858306326898
-0.3405980712381175   -0.011472571721454022   -0.014588858306326898
-0.3405980712381175   -0.011472571721454022   -0.014588858306326898
-0.6696005285056125   -0.061214464230598425   -0.06332518935305037
-0.6696005285056125   -0.061214464230598425   -0.06332518935305037
-0.6696005285056125   -0.061214464230598425   -0.06332518935305037
-0.6696005285056125   -0.061214464230598425   -0.06332518935305037
-0.4250779482569079   0.03617292418881253   0.014918784266902935
-0.4250779482569079   0.03617292418881253   0.014918784266902935
-0.4250779482569079   0.03617292418881253   0.014918784266902935
-0.4250779482569079   0.03617292418881253   0.014918784266902935
-0.4463961223260151   -0.028247727279454654   -0.028276881156256338
-0.4463961223260151   -0.028247727279454654   -0.028276881156256338
-0.4463961223260151   -0.028247727279454654   -0.028276881156256338
-0.4463961223260151   -0.028247727279454654   -0.028276881156256338
-0.7120472099383937   -0.08035648695172855   0.07090210114835908
-0.7120472099383937   -0.08035648695172855   0.07090210114835908
-0.7120472099383937   -0.08035648695172855   0.07090210114835908
-0.7120472099383937   -0.08035648695172855   0.07090210114835908
-0.51779340226575   -0.019756358028302487   0.06879520758656242
-0.51779340226575   -0.019756358028302487   0.06879520758656242
-0.51779340226575   -0.019756358028302487   0.06879520758656242
-0.51779340226575   -0.019756358028302487   0.06879520758656242
-0.7374574916949904   -0.09008815319938959   -0.04641764138695576
-0.7374574916949904   -0.09008815319938959   -0.04641764138695576
-0.7374574916949904   -0.09008815319938959   -0.04641764138695576
-0.7374574916949904   -0.09008815319938959   -0.04641764138695576
-0.438860814527782   -0.03639103499015593   0.017542965545610478
-0.438860814527782   -0.03639103499015593   0.017542965545610478
-0.438860814527782   -0.03639103499015593   0.017542965545610478
-0.438860814527782   -0.03639103499015593   0.017542965545610478
-0.4532870349925255   -0.04094630012356196   -0.020319303297758877
-0.4532870349925255   -0.04094630012356196   -0.020319303297758877
-0.4532870349925255   -0.04094630012356196   -0.020319303297758877
-0.4532870349925255   -0.04094630012356196   -0.020319303297758877
-0.7347719045648049   -0.1122633618675887   0.001716399185600093
-0.7347719045648049   -0.1122633618675887   0.001716399185600093
-0.7347719045648049   -0.1122633618675887   0.001716399185600093
-0.7347719045648049   -0.1122633618675887   0.001716399185600093
-0.5733722664811292   -0.06773852176126913   0.015908048871841593
-0.5733722664811292   -0.06773852176126913   0.015908048871841593
-0.5733722664811292   -0.06773852176126913   0.015908048871841593
-0.5733722664811292   -0.06773852176126913   0.015908048871841593
-0.7405032542260424   -0.10180535459028967   -0.037398356397880465
-0.7405032542260424   -0.10180535459028967   -0.037398356397880465
-0.7405032542260424   -0.10180535459028967   -0.037398356397880465
-0.7405032542260424   -0.10180535459028967   -0.037398356397880465
-0.4529665192025969   -0.056815141272169516   -0.0028478831995121714
-0.4529665192025969   -0.056815141272169516   -0.0028478831995121714
-0.4529665192025969   -0.056815141272169516   -0.0028478831995121714
-0.4529665192025969   -0.056815141272169516   -0.0028478831995121714
-0.4536295793547176   -0.07166904248386606   -0.014811952063038297
-0.4536295793547176   -0.07166904248386606   -0.014811952063038297
-0.4536295793547176   -0.07166904248386606   -0.014811952063038297
-0.4536295793547176   -0.07166904248386606   -0.014811952063038297
-0.7524305441977784   -0.1714169594585325   0.011200060717825899
-0.7524305441977784   -0.1714169594585325   0.011200060717825899
-0.7524305441977784   -0.1714169594585325   0.011200060717825899
-0.7524305441977784   -0.1714169594585325   0.011200060717825899
-0.57280014961248   -0.09310605939725834   0.0012094637500182593
-0.57280014961248   -0.09310605939725834   0.0012094637500182593
-0.57280014961248   -0.09310605939725834   0.0012094637500182593
-0.57280014961248   -0.09310605939725834   0.0012094637500182593
-0.45900923600314525   -0.07784564319973002   -0.040719087075737334
-0.45900923600314525   -0.07784564319973002   -0.040719087075737334
-0.45900923600314525   -0.07784564319973002   -0.040719087075737334
-0.45900923600314525   -0.07784564319973002   -0.040719087075737334
-0.3156388325277677   -0.20430625294228966   -0.03828895873493136
-0.3156388325277677   -0.20430625294228966   -0.03828895873493136
-0.3156388325277677   -0.20430625294228966   -0.03828895873493136
-0.3156388325277677   -0.20430625294228966   -0.03828895873493136
-0.277225775222525   -0.045350059988945146   -0.002442331485565215
-0.277225775222525   -0.045350059988945146   -0.002442331485565215
-0.277225775222525   -0.045350059988945146   -0.002442331485565215
-0.277225775222525   -0.045350059988945146   -0.002442331485565215
-0.4880619716086051   -0.2166177080062186   -0.048236146842442734
-0.4880619716086051   -0.2166177080062186   -0.048236146842442734
-0.4880619716086051   -0.2166177080062186   -0.048236146842442734
-0.4880619716086051   -0.2166177080062186   -0.048236146842442734
-0.3805236369788776   -0.1443563506956782   -0.011100287777745615
-0.3805236369788776   -0.1443563506956782   -0.011100287777745615
-0.3805236369788776   -0.1443563506956782   -0.011100287777745615
-0.3805236369788776   -0.1443563506956782   -0.011100287777745615
-0.4586816326326002   -0.08728599763964524   -0.03066616232899048
-0.4586816326326002   -0.08728599763964524   -0.03066616232899048
-0.4586816326326002   -0.08728599763964524   -0.03066616232899048
-0.4586816326326002   -0.08728599763964524   -0.03066616232899048
-0.3084642559680606   -0.17653991212504966   -0.02744488307714261
-0.3084642559680606   -0.17653991212504966   -0.02744488307714261
-0.3084642559680606   -0.17653991212504966   -0.02744488307714261
-0.3084642559680606   -0.17653991212504966   -0.02744488307714261
-0.28039725367161883   -0.058756174861699366   0.0004113048477789247
-0.28039725367161883   -0.058756174861699366   0.0004113048477789247
-0.28039725367161883   -0.058756174861699366   0.0004113048477789247
-0.28039725367161883   -0.058756174861699366   0.0004113048477789247
-0.4898252766383592   -0.21548757647668304   -0.02846923517381039
-0.4898252766383592   -0.21548757647668304   -0.02846923517381039
-0.4898252766383592   -0.21548757647668304   -0.02846923517381039
-0.4898252766383592   -0.21548757647668304   -0.02846923517381039
-0.37631032425063643   -0.13531276322535293   -0.01179356292318879
-0.37631032425063643   -0.13531276322535293   -0.01179356292318879
-0.37631032425063643   -0.13531276322535293   -0.01179356292318879
-0.37631032425063643   -0.13531276322535293   -0.01179356292318879
-0.4657352416736939   -0.10050613399758568   -0.02300050282957749
-0.4657352416736939   -0.10050613399758568   -0.02300050282957749
-0.4657352416736939   -0.10050613399758568   -0.02300050282957749
-0.4657352416736939   -0.10050613399758568   -0.02300050282957749
-0.3083382919905351   -0.17758862069504772   -0.020461440913457887
-0.3083382919905351   -0.17758862069504772   -0.020461440913457887
-0.3083382919905351   -0.17758862069504772   -0.020461440913457887
-0.3083382919905351   -0.17758862069504772   -0.020461440913457887
-0.2803083791079971   -0.07544871267805511   0.004490162784477337
-0.2803083791079971   -0.07544871267805511   0.004490162784477337
-0.2803083791079971   -0.07544871267805511   0.004490162784477337
-0.2803083791079971   -0.07544871267805511   0.004490162784477337
-0.4886229669899226   -0.21902649018365955   -0.042421442539275316
-0.4886229669899226   -0.21902649018365955   -0.042421442539275316
-0.4886229669899226   -0.21902649018365955   -0.042421442539275316
-0.4886229669899226   -0.21902649018365955   -0.042421442539275316
-0.3820044450679391   -0.1455426432557777   -0.021910169130386046
-0.3820044450679391   -0.1455426432557777   -0.021910169130386046
-0.3820044450679391   -0.1455426432557777   -0.021910169130386046
-0.3820044450679391   -0.1455426432557777   -0.021910169130386046
-0.277848264137534   -0.050121293712729074   -0.0035210760133236657
-0.277848264137534   -0.050121293712729074   -0.0035210760133236657
-0.277848264137534   -0.050121293712729074   -0.0035210760133236657
-0.277848264137534   -0.050121293712729074   -0.0035210760133236657
-0.23329104639690354   -0.15636551816946664   -0.02699243189405907
-0.23329104639690354   -0.15636551816946664   -0.02699243189405907
-0.23329104639690354   -0.15636551816946664   -0.02699243189405907
-0.23329104639690354   -0.15636551816946664   -0.02699243189405907
-0.20105728678313095   -0.04163417677984853   0.010727703426376519
-0.20105728678313095   -0.04163417677984853   0.010727703426376519
-0.20105728678313095   -0.04163417677984853   0.010727703426376519
-0.20105728678313095   -0.04163417677984853   0.010727703426376519
-0.3076146380090235   -0.16992819680356844   -0.02980850860343845
-0.3076146380090235   -0.16992819680356844   -0.02980850860343845
-0.3076146380090235   -0.16992819680356844   -0.02980850860343845
-0.3076146380090235   -0.16992819680356844   -0.02980850860343845
-0.2538325525998685   -0.105964902657364   -0.01244948239879203
-0.2538325525998685   -0.105964902657364   -0.01244948239879203
-0.2538325525998685   -0.105964902657364   -0.01244948239879203
-0.2538325525998685   -0.105964902657364   -0.01244948239879203
-0.2794431825734844   -0.05936065189088061   0.0004812236615695201
-0.2794431825734844   -0.05936065189088061   0.0004812236615695201
-0.2794431825734844   -0.05936065189088061   0.0004812236615695201
-0.2794431825734844   -0.05936065189088061   0.0004812236615695201
-0.23087709876821116   -0.1538500782420755   -0.026155455036793788
-0.23087709876821116   -0.1538500782420755   -0.026155455036793788
-0.23087709876821116   -0.1538500782420755   -0.026155455036793788
-0.23087709876821116   -0.1538500782420755   -0.026155455036793788
-0.20113492239393588   -0.05265421471813239   0.013904414488892423
-0.20113492239393588   -0.05265421471813239   0.013904414488892423
-0.20113492239393588   -0.05265421471813239   0.013904414488892423
-0.20113492239393588   -0.05265421471813239   0.013904414488892423
-0.30858979630748606   -0.17262131206103543   -0.02668627113222494
-0.30858979630748606   -0.17262131206103543   -0.02668627113222494
-0.30858979630748606   -0.17262131206103543   -0.02668627113222494
-0.30858979630748606   -0.17262131206103543   -0.02668627113222494
-0.25338440505965065   -0.11010863986096872   -0.016155642120642653
-0.25338440505965065   -0.11010863986096872   -0.016155642120642653
-0.25338440505965065   -0.11010863986096872   -0.016155642120642653
-0.25338440505965065   -0.11010863986096872   -0.016155642120642653
-0.2817999029641041   -0.07053309752101479   0.00517498104466402
-0.2817999029641041   -0.07053309752101479   0.00517498104466402
-0.2817999029641041   -0.07053309752101479   0.00517498104466402
-0.2817999029641041   -0.07053309752101479   0.00517498104466402
-0.22883147318119784   -0.15564908670203692   -0.02158346746351289
-0.22883147318119784   -0.15564908670203692   -0.02158346746351289
-0.22883147318119784   -0.15564908670203692   -0.02158346746351289
-0.22883147318119784   -0.15564908670203692   -0.02158346746351289
-0.19877355933825286   -0.0631735763346902   0.017364801152215288
-0.19877355933825286   -0.0631735763346902   0.017364801152215288
-0.19877355933825286   -0.0631735763346902   0.017364801152215288
-0.19877355933825286   -0.0631735763346902   0.017364801152215288
-0.30492315120258845   -0.1748097681247296   -0.019222642241805022
-0.30492315120258845   -0.1748097681247296   -0.019222642241805022
-0.30492315120258845   -0.1748097681247296   -0.019222642241805022
-0.30492315120258845   -0.1748097681247296   -0.019222642241805022
-0.2526331959831483   -0.11556977112693045   -0.018729609957516356
-0.2526331959831483   -0.11556977112693045   -0.018729609957516356
-0.2526331959831483   -0.11556977112693045   -0.018729609957516356
-0.2526331959831483   -0.11556977112693045   -0.018729609957516356
-0.1941953085906537   -0.006921829544265342   0.01904256851198881
-0.1941953085906537   -0.006921829544265342   0.01904256851198881
-0.1941953085906537   -0.006921829544265342   0.01904256851198881
-0.1941953085906537   -0.006921829544265342   0.01904256851198881
-0.18384811338612578   -0.08281709944201608   -0.016179401164291153
-0.18384811338612578   -0.08281709944201608   -0.016179401164291153
-0.18384811338612578   -0.08281709944201608   -0.016179401164291153
-0.18384811338612578   -0.08281709944201608   -0.016179401164291153
-0.15853027960888755   -0.011997090366686305   0.02204829482239249
-0.15853027960888755   -0.011997090366686305   0.02204829482239249
-0.15853027960888755   -0.011997090366686305   0.02204829482239249
-0.15853027960888755   -0.011997090366686305   0.02204829482239249
-0.2162973982174052   -0.09565535991714748   -0.011451670607695754
-0.2162973982174052   -0.09565535991714748   -0.011451670607695754
-0.2162973982174052   -0.09565535991714748   -0.011451670607695754
-0.2162973982174052   -0.09565535991714748   -0.011451670607695754
-0.18884418124240235   -0.04888820166749193   -0.006754986154685869
-0.18884418124240235   -0.04888820166749193   -0.006754986154685869
-0.18884418124240235   -0.04888820166749193   -0.006754986154685869
-0.18884418124240235   -0.04888820166749193   -0.006754986154685869
-0.19431733887439653   -0.01917125662185548   0.02196452281205559
-0.19431733887439653   -0.01917125662185548   0.02196452281205559
-0.19431733887439653   -0.01917125662185548   0.02196452281205559
-0.19431733887439653   -0.01917125662185548   0.02196452281205559
-0.18226627215639757   -0.09023712686647964   -0.018391631415364207
-0.18226627215639757   -0.09023712686647964   -0.018391631415364207
-0.18226627215639757   -0.09023712686647964   -0.018391631415364207
-0.18226627215639757   -0.09023712686647964   -0.018391631415364207
-0.1587657316708219   -0.022683309347083437   0.023701013285766875
-0.1587657316708219   -0.022683309347083437   0.023701013285766875
-0.1587657316708219   -0.022683309347083437   0.023701013285766875
-0.1587657316708219   -0.022683309347083437   0.023701013285766875
-0.21623312970937705   -0.1014868260248647   -0.0127540107815849
-0.21623312970937705   -0.1014868260248647   -0.0127540107815849
-0.21623312970937705   -0.1014868260248647   -0.0127540107815849
-0.21623312970937705   -0.1014868260248647   -0.0127540107815849
-0.1880232266445334   -0.05746796671530519   -0.011467428012777269
-0.1880232266445334   -0.05746796671530519   -0.011467428012777269
-0.1880232266445334   -0.05746796671530519   -0.011467428012777269
-0.1880232266445334   -0.05746796671530519   -0.011467428012777269
-0.19429332965989363   -0.029531165761548045   0.024989329202515564
-0.19429332965989363   -0.029531165761548045   0.024989329202515564
-0.19429332965989363   -0.029531165761548045   0.024989329202515564
-0.19429332965989363   -0.029531165761548045   0.024989329202515564
-0.18176894825025444   -0.09570238614035047   -0.01829599281812875
-0.18176894825025444   -0.09570238614035047   -0.01829599281812875
-0.18176894825025444   -0.09570238614035047   -0.01829599281812875
-0.18176894825025444   -0.09570238614035047   -0.01829599281812875
-0.1574143227404843   -0.03271861730780921   0.027467714367650584
-0.1574143227404843   -0.03271861730780921   0.027467714367650584
-0.1574143227404843   -0.03271861730780921   0.027467714367650584
-0.1574143227404843   -0.03271861730780921   0.027467714367650584
-0.21281802395005134   -0.1073167816371591   -0.008714316604308246
-0.21281802395005134   -0.1073167816371591   -0.008714316604308246
-0.21281802395005134   -0.1073167816371591   -0.008714316604308246
-0.21281802395005134   -0.1073167816371591   -0.008714316604308246
-0.1874642999002225   -0.06485071635071803   -0.014746342344905454
-0.1874642999002225   -0.06485071635071803   -0.014746342344905454
-0.1874642999002225   -0.06485071635071803   -0.014746342344905454
-0.1874642999002225   -0.06485071635071803   -0.014746342344905454
-0.15380434976705276   0.021524515520801032   0.029697801968256915
-0.15380434976705276   0.021524515520801032   0.029697801968256915
-0.15380434976705276   0.021524515520801032   0.029697801968256915
-0.15380434976705276   0.021524515520801032   0.029697801968256915
-0.1025059998060558   -0.027269486811238274   -0.009966382716563263
-0.1025059998060558   -0.027269486811238274   -0.009966382716563263
-0.1025059998060558   -0.027269486811238274   -0.009966382716563263
-0.1025059998060558   -0.027269486811238274   -0.009966382716563263
-0.08955775601801837   0.025232663887778645   0.029329051837787105
-0.08955775601801837   0.025232663887778645   0.029329051837787105
-0.08955775601801837   0.025232663887778645   0.029329051837787105
-0.08955775601801837   0.025232663887778645   0.029329051837787105
-0.16990904328993245   -0.04167870557739072   -0.005163908372127605
-0.16990904328993245   -0.04167870557739072   -0.005163908372127605
-0.16990904328993245   -0.04167870557739072   -0.005163908372127605
-0.16990904328993245   -0.04167870557739072   -0.005163908372127605
-0.12716148025955082   -0.0026730032621803436   -0.005346694553221641
-0.12716148025955082   -0.0026730032621803436   -0.005346694553221641
-0.12716148025955082   -0.0026730032621803436   -0.005346694553221641
-0.12716148025955082   -0.0026730032621803436   -0.005346694553221641
-0.15135912660748396   0.013489977745727431   0.032416991716996635
-0.15135912660748396   0.013489977745727431   0.032416991716996635
-0.15135912660748396   0.013489977745727431   0.032416991716996635
-0.15135912660748396   0.013489977745727431   0.032416991716996635
-0.10828828430904608   -0.030116631043918738   -0.008974294685654045
-0.10828828430904608   -0.030116631043918738   -0.008974294685654045
-0.10828828430904608   -0.030116631043918738   -0.008974294685654045
-0.10828828430904608   -0.030116631043918738   -0.008974294685654045
-0.09352986153580584   0.02002310774987863   0.03689541730780915
-0.09352986153580584   0.02002310774987863   0.03689541730780915
-0.09352986153580584   0.02002310774987863   0.03689541730780915
-0.09352986153580584   0.02002310774987863   0.03689541730780915
-0.1691631464788003   -0.044371490995549615   -0.0065978791056588515
-0.1691631464788003   -0.044371490995549615   -0.0065978791056588515
-0.1691631464788003   -0.044371490995549615   -0.0065978791056588515
-0.1691631464788003   -0.044371490995549615   -0.0065978791056588515
-0.13097371293336046   -0.008361449273988564   -0.007571931185787962
-0.13097371293336046   -0.008361449273988564   -0.007571931185787962
-0.13097371293336046   -0.008361449273988564   -0.007571931185787962
-0.13097371293336046   -0.008361449273988564   -0.007571931185787962
-0.14973133079484727   0.008868060083513974   0.03732164823504263
-0.14973133079484727   0.008868060083513974   0.03732164823504263
-0.14973133079484727   0.008868060083513974   0.03732164823504263
-0.14973133079484727   0.008868060083513974   0.03732164823504263
-0.1142920714601419   -0.03454683756957057   -0.012345686994421984
-0.1142920714601419   -0.03454683756957057   -0.012345686994421984
-0.1142920714601419   -0.03454683756957057   -0.012345686994421984
-0.1142920714601419   -0.03454683756957057   -0.012345686994421984
-0.10700335138921338   0.005697852930491049   0.03839355204330574
-0.10700335138921338   0.005697852930491049   0.03839355204330574
-0.10700335138921338   0.005697852930491049   0.03839355204330574
-0.10700335138921338   0.005697852930491049   0.03839355204330574
-0.16682934608695812   -0.046798687095940227   -0.005527332576587631
-0.16682934608695812   -0.046798687095940227   -0.005527332576587631
-0.16682934608695812   -0.046798687095940227   -0.005527332576587631
-0.16682934608695812   -0.046798687095940227   -0.005527332576587631
-0.13282158002970804   -0.012484395195979648   -0.011160803422143706
-0.13282158002970804   -0.012484395195979648   -0.011160803422143706
-0.13282158002970804   -0.012484395195979648   -0.011160803422143706
-0.13282158002970804   -0.012484395195979648   -0.011160803422143706
-1.5816910477892254   -0.22450471497637892   -0.13185631202673656
-1.5816910477892254   -0.22450471497637892   -0.13185631202673656
-1.5816910477892254   -0.22450471497637892   -0.13185631202673656
-1.5816910477892254   -0.22450471497637892   -0.13185631202673656
-0.5494357486239709   -0.8686847561811628   -0.10312638863520547
-0.5494357486239709   -0.8686847561811628   -0.10312638863520547
-0.5494357486239709   -0.8686847561811628   -0.10312638863520547
-0.5494357486239709   -0.8686847561811628   -0.10312638863520547
-0.42403252431809363   -0.03682845126453974   0.0005275939639953955
-0.42403252431809363   -0.03682845126453974   0.0005275939639953955
-0.42403252431809363   -0.03682845126453974   0.0005275939639953955
-0.42403252431809363   -0.03682845126453974   0.0005275939639953955
-1.6899839609664093   -1.020161913196423   -0.5420291748325665
-1.6899839609664093   -1.020161913196423   -0.5420291748325665
-1.6899839609664093   -1.020161913196423   -0.5420291748325665
-1.6899839609664093   -1.020161913196423   -0.5420291748325665
-1.0347369328353706   -0.5073825335697164   -0.07394983841809862
-1.0347369328353706   -0.5073825335697164   -0.07394983841809862
-1.0347369328353706   -0.5073825335697164   -0.07394983841809862
-1.0347369328353706   -0.5073825335697164   -0.07394983841809862
-1.469774162823355   -0.28192559768428066   -0.17921649962944788
-1.469774162823355   -0.28192559768428066   -0.17921649962944788
-1.469774162823355   -0.28192559768428066   -0.17921649962944788
-1.469774162823355   -0.28192559768428066   -0.17921649962944788
-0.5935090939234762   -0.7243315382390114   -0.15935216708844221
-0.5935090939234762   -0.7243315382390114   -0.15935216708844221
-0.5935090939234762   -0.7243315382390114   -0.15935216708844221
-0.5935090939234762   -0.7243315382390114   -0.15935216708844221
-0.43273831609165425   -0.048948739129067824   0.01625592440505371
-0.43273831609165425   -0.048948739129067824   0.01625592440505371
-0.43273831609165425   -0.048948739129067824   0.01625592440505371
-0.43273831609165425   -0.048948739129067824   0.01625592440505371
-1.5815419988768435   -0.9105292816646434   -0.49841425610829737
-1.5815419988768435   -0.9105292816646434   -0.49841425610829737
-1.5815419988768435   -0.9105292816646434   -0.49841425610829737
-1.5815419988768435   -0.9105292816646434   -0.49841425610829737
-0.9746765294087321   -0.4576924068966451   0.039320078969649466
-0.9746765294087321   -0.4576924068966451   0.039320078969649466
-0.9746765294087321   -0.4576924068966451   0.039320078969649466
-0.9746765294087321   -0.4576924068966451   0.039320078969649466
-1.38019329573102   -0.2684424369555988   -0.13375758508823535
-1.38019329573102   -0.2684424369555988   -0.13375758508823535
-1.38019329573102   -0.2684424369555988   -0.13375758508823535
-1.38019329573102   -0.2684424369555988   -0.13375758508823535
-0.5776972448633308   -0.6346458094639665   -0.12284164911842547
-0.5776972448633308   -0.6346458094639665   -0.12284164911842547
-0.5776972448633308   -0.6346458094639665   -0.12284164911842547
-0.5776972448633308   -0.6346458094639665   -0.12284164911842547
-0.4976409652331064   -0.12789896316604094   -0.025999536784388287
-0.4976409652331064   -0.12789896316604094   -0.025999536784388287
-0.4976409652331064   -0.12789896316604094   -0.025999536784388287
-0.4976409652331064   -0.12789896316604094   -0.025999536784388287
-1.441519581529989   -0.765933450946483   -0.4414906064952944
-1.441519581529989   -0.765933450946483   -0.4414906064952944
-1.441519581529989   -0.765933450946483   -0.4414906064952944
-1.441519581529989   -0.765933450946483   -0.4414906064952944
-0.9029397742063573   -0.3969321078009223   0.16732108370273108
-0.9029397742063573   -0.3969321078009223   0.16732108370273108
-0.9029397742063573   -0.3969321078009223   0.16732108370273108
-0.9029397742063573   -0.3969321078009223   0.16732108370273108
-0.40586527340333745   -0.2212379192608817   -0.03272084945232175
-0.40586527340333745   -0.2212379192608817   -0.03272084945232175
-0.40586527340333745   -0.2212379192608817   -0.03272084945232175
-0.40586527340333745   -0.2212379192608817   -0.03272084945232175
-0.18814415405975204   -0.2757909412005121   -0.04651030240987458
-0.18814415405975204   -0.2757909412005121   -0.04651030240987458
-0.18814415405975204   -0.2757909412005121   -0.04651030240987458
-0.18814415405975204   -0.2757909412005121   -0.04651030240987458
-0.16565118650116964   -0.14163995562966172   0.004241829932913714
-0.16565118650116964   -0.14163995562966172   0.004241829932913714
-0.16565118650116964   -0.14163995562966172   0.004241829932913714
-0.16565118650116964   -0.14163995562966172   0.004241829932913714
-0.4972247331938704   -0.40276222280539364   0.000500321125968442
-0.4972247331938704   -0.40276222280539364   0.000500321125968442
-0.4972247331938704   -0.40276222280539364   0.000500321125968442
-0.4972247331938704   -0.40276222280539364   0.000500321125968442
-0.26685455742615466   -0.19520034535817737   0.08567433012666739
-0.26685455742615466   -0.19520034535817737   0.08567433012666739
-0.26685455742615466   -0.19520034535817737   0.08567433012666739
-0.26685455742615466   -0.19520034535817737   0.08567433012666739
-0.46218171119409707   -0.20600315407578562   -0.021043637604778405
-0.46218171119409707   -0.20600315407578562   -0.021043637604778405
-0.46218171119409707   -0.20600315407578562   -0.021043637604778405
-0.46218171119409707   -0.20600315407578562   -0.021043637604778405
-0.214782070667915   -0.3524868865262426   -0.03056566000423204
-0.214782070667915   -0.3524868865262426   -0.03056566000423204
-0.214782070667915   -0.3524868865262426   -0.03056566000423204
-0.214782070667915   -0.3524868865262426   -0.03056566000423204
-0.17905817667449947   -0.1467619233414928   0.004391930538280967
-0.17905817667449947   -0.1467619233414928   0.004391930538280967
-0.17905817667449947   -0.1467619233414928   0.004391930538280967
-0.17905817667449947   -0.1467619233414928   0.004391930538280967
-0.5216907621537842   -0.39777737662329815   -0.07967766841136102
-0.5216907621537842   -0.39777737662329815   -0.07967766841136102
-0.5216907621537842   -0.39777737662329815   -0.07967766841136102
-0.5216907621537842   -0.39777737662329815   -0.07967766841136102
-0.31846831877234066   -0.25024291203806875   0.03898491262090028
-0.31846831877234066   -0.25024291203806875   0.03898491262090028
-0.31846831877234066   -0.25024291203806875   0.03898491262090028
-0.31846831877234066   -0.25024291203806875   0.03898491262090028
-0.47708867716839265   -0.2151127779745574   -0.03933184213314883
-0.47708867716839265   -0.2151127779745574   -0.03933184213314883
-0.47708867716839265   -0.2151127779745574   -0.03933184213314883
-0.47708867716839265   -0.2151127779745574   -0.03933184213314883
-0.2223533139261052   -0.3281195742564485   -0.03072610480479185
-0.2223533139261052   -0.3281195742564485   -0.03072610480479185
-0.2223533139261052   -0.3281195742564485   -0.03072610480479185
-0.2223533139261052   -0.3281195742564485   -0.03072610480479185
-0.19977722318827076   -0.15147849324820284   0.006472798336364084
-0.19977722318827076   -0.15147849324820284   0.006472798336364084
-0.19977722318827076   -0.15147849324820284   0.006472798336364084
-0.19977722318827076   -0.15147849324820284   0.006472798336364084
-0.5580490308588851   -0.38662998637881424   -0.06930884170050565
-0.5580490308588851   -0.38662998637881424   -0.06930884170050565
-0.5580490308588851   -0.38662998637881424   -0.06930884170050565
-0.5580490308588851   -0.38662998637881424   -0.06930884170050565
-0.3334032461421971   -0.2358836584469587   0.04122228378596377
-0.3334032461421971   -0.2358836584469587   0.04122228378596377
-0.3334032461421971   -0.2358836584469587   0.04122228378596377
-0.3334032461421971   -0.2358836584469587   0.04122228378596377
-0.14815121819524718   -0.132005315839914   0.00966875155204788
-0.14815121819524718   -0.132005315839914   0.00966875155204788
-0.14815121819524718   -0.132005315839914   0.00966875155204788
-0.14815121819524718   -0.132005315839914   0.00966875155204788
-0.09089225618932101   -0.0866815102639654   -0.0227391051047669
-0.09089225618932101   -0.0866815102639654   -0.0227391051047669
-0.09089225618932101   -0.0866815102639654   -0.0227391051047669
-0.09089225618932101   -0.0866815102639654   -0.0227391051047669
-0.08801090681931723   -0.11810250928527882   0.009716197798295616
-0.08801090681931723   -0.11810250928527882   0.009716197798295616
-0.08801090681931723   -0.11810250928527882   0.009716197798295616
-0.08801090681931723   -0.11810250928527882   0.009716197798295616
-0.16392196557824262   -0.11853695384053564   -0.010215067241577336
-0.16392196557824262   -0.11853695384053564   -0.010215067241577336
-0.16392196557824262   -0.11853695384053564   -0.010215067241577336
-0.16392196557824262   -0.11853695384053564   -0.010215067241577336
-0.10361449014948226   -0.09598894333146604   0.04299186189667416
-0.10361449014948226   -0.09598894333146604   0.04299186189667416
-0.10361449014948226   -0.09598894333146604   0.04299186189667416
-0.10361449014948226   -0.09598894333146604   0.04299186189667416
-0.16265940621857644   -0.13288607798462185   0.010446853700839778
-0.16265940621857644   -0.13288607798462185   0.010446853700839778
-0.16265940621857644   -0.13288607798462185   0.010446853700839778
-0.16265940621857644   -0.13288607798462185   0.010446853700839778
-0.09072187064698425   -0.10520178960919348   -0.01673934101612492
-0.09072187064698425   -0.10520178960919348   -0.01673934101612492
-0.09072187064698425   -0.10520178960919348   -0.01673934101612492
-0.09072187064698425   -0.10520178960919348   -0.01673934101612492
-0.08905847121157395   -0.12164805790710237   0.008648674541528286
-0.08905847121157395   -0.12164805790710237   0.008648674541528286
-0.08905847121157395   -0.12164805790710237   0.008648674541528286
-0.08905847121157395   -0.12164805790710237   0.008648674541528286
-0.17415176478664385   -0.1382464265343371   0.02040849317040344
-0.17415176478664385   -0.1382464265343371   0.02040849317040344
-0.17415176478664385   -0.1382464265343371   0.02040849317040344
-0.17415176478664385   -0.1382464265343371   0.02040849317040344
-0.11276845437269281   -0.10697628993769356   0.03635647168838508
-0.11276845437269281   -0.10697628993769356   0.03635647168838508
-0.11276845437269281   -0.10697628993769356   0.03635647168838508
-0.11276845437269281   -0.10697628993769356   0.03635647168838508
-0.17532746372357305   -0.13781239743960316   0.014095969391023432
-0.17532746372357305   -0.13781239743960316   0.014095969391023432
-0.17532746372357305   -0.13781239743960316   0.014095969391023432
-0.17532746372357305   -0.13781239743960316   0.014095969391023432
-0.09545394186793844   -0.12965325659513002   -0.015323480052266535
-0.09545394186793844   -0.12965325659513002   -0.015323480052266535
-0.09545394186793844   -0.12965325659513002   -0.015323480052266535
-0.09545394186793844   -0.12965325659513002   -0.015323480052266535
-0.09017738548776016   -0.12558401359404844   0.012160364696772289
-0.09017738548776016   -0.12558401359404844   0.012160364696772289
-0.09017738548776016   -0.12558401359404844   0.012160364696772289
-0.09017738548776016   -0.12558401359404844   0.012160364696772289
-0.20384423432803328   -0.16995031381396983   0.004609563203318401
-0.20384423432803328   -0.16995031381396983   0.004609563203318401
-0.20384423432803328   -0.16995031381396983   0.004609563203318401
-0.20384423432803328   -0.16995031381396983   0.004609563203318401
-0.12602442337078187   -0.12190828564084215   0.017090773480209025
-0.12602442337078187   -0.12190828564084215   0.017090773480209025
-0.12602442337078187   -0.12190828564084215   0.017090773480209025
-0.12602442337078187   -0.12190828564084215   0.017090773480209025
-0.07441812443750404   -0.05258767728446787   0.025537720674820446
-0.07441812443750404   -0.05258767728446787   0.025537720674820446
-0.07441812443750404   -0.05258767728446787   0.025537720674820446
-0.07441812443750404   -0.05258767728446787   0.025537720674820446
-0.05239522924814073   -0.0005158993209543345   -0.005119018355880323
-0.05239522924814073   -0.0005158993209543345   -0.005119018355880323
-0.05239522924814073   -0.0005158993209543345   -0.005119018355880323
-0.05239522924814073   -0.0005158993209543345   -0.005119018355880323
-0.04970854442154114   -0.05688007138857265   0.015835918239314364
-0.04970854442154114   -0.05688007138857265   0.015835918239314364
-0.04970854442154114   -0.05688007138857265   0.015835918239314364
-0.04970854442154114   -0.05688007138857265   0.015835918239314364
-0.0690708039855154   -0.010539403922301214   -0.0031463933956729197
-0.0690708039855154   -0.010539403922301214   -0.0031463933956729197
-0.0690708039855154   -0.010539403922301214   -0.0031463933956729197
-0.0690708039855154   -0.010539403922301214   -0.0031463933956729197
-0.056761368413222504   -0.028937810899758762   0.012666291048382298
-0.056761368413222504   -0.028937810899758762   0.012666291048382298
-0.056761368413222504   -0.028937810899758762   0.012666291048382298
-0.056761368413222504   -0.028937810899758762   0.012666291048382298
-0.07351392885404058   -0.0599905135458795   0.024089091885279537
-0.07351392885404058   -0.0599905135458795   0.024089091885279537
-0.07351392885404058   -0.0599905135458795   0.024089091885279537
-0.07351392885404058   -0.0599905135458795   0.024089091885279537
-0.04398072636848588   -0.006144268580464258   -0.006260794303517665
-0.04398072636848588   -0.006144268580464258   -0.006260794303517665
-0.04398072636848588   -0.006144268580464258   -0.006260794303517665
-0.04398072636848588   -0.006144268580464258   -0.006260794303517665
-0.04560215118484033   -0.061887608888743006   0.01461109637449446
-0.04560215118484033   -0.061887608888743006   0.01461109637449446
-0.04560215118484033   -0.061887608888743006   0.01461109637449446
-0.04560215118484033   -0.061887608888743006   0.01461109637449446
-0.06964017500932115   -0.020354381989630466   0.004446479635320331
-0.06964017500932115   -0.020354381989630466   0.004446479635320331
-0.06964017500932115   -0.020354381989630466   0.004446479635320331
-0.06964017500932115   -0.020354381989630466   0.004446479635320331
-0.05213963940933385   -0.033183816186553694   0.015053883523955279
-0.05213963940933385   -0.033183816186553694   0.015053883523955279
-0.05213963940933385   -0.033183816186553694   0.015053883523955279
-0.05213963940933385   -0.033183816186553694   0.015053883523955279
-0.07394753654649344   -0.06497320603667237   0.027528495996500785
-0.07394753654649344   -0.06497320603667237   0.027528495996500785
-0.07394753654649344   -0.06497320603667237   0.027528495996500785
-0.07394753654649344   -0.06497320603667237   0.027528495996500785
-0.04170408846869685   -0.017678083662729913   -0.010108115270801226
-0.04170408846869685   -0.017678083662729913   -0.010108115270801226
-0.04170408846869685   -0.017678083662729913   -0.010108115270801226
-0.04170408846869685   -0.017678083662729913   -0.010108115270801226
-0.03821140921710068   -0.0674389551316593   0.016068201190240144
-0.03821140921710068   -0.0674389551316593   0.016068201190240144
-0.03821140921710068   -0.0674389551316593   0.016068201190240144
-0.03821140921710068   -0.0674389551316593   0.016068201190240144
-0.07517260722360838   -0.044219329810119   0.0058195722336017025
-0.07517260722360838   -0.044219329810119   0.0058195722336017025
-0.07517260722360838   -0.044219329810119   0.0058195722336017025
-0.07517260722360838   -0.044219329810119   0.0058195722336017025
-0.05023019263935531   -0.041854483426085345   0.012964901552192824
-0.05023019263935531   -0.041854483426085345   0.012964901552192824
-0.05023019263935531   -0.041854483426085345   0.012964901552192824
-0.05023019263935531   -0.041854483426085345   0.012964901552192824
-0.04797065326568679   -0.009226290427304006   0.02571425266273906
-0.04797065326568679   -0.009226290427304006   0.02571425266273906
-0.04797065326568679   -0.009226290427304006   0.02571425266273906
-0.04797065326568679   -0.009226290427304006   0.02571425266273906
-0.008561480155585372   0.00551508840981561   -0.0005193772386168625
-0.008561480155585372   0.00551508840981561   -0.0005193772386168625
-0.008561480155585372   0.00551508840981561   -0.0005193772386168625
-0.008561480155585372   0.00551508840981561   -0.0005193772386168625
0.0026245540887635836   -0.0029546659815586924   0.015922692228336532
0.0026245540887635836   -0.0029546659815586924   0.015922692228336532
0.0026245540887635836   -0.0029546659815586924   0.015922692228336532
0.0026245540887635836   -0.0029546659815586924   0.015922692228336532
-0.04107115600071229   0.004078177330908159   -0.0019353883760221346
-0.04107115600071229   0.004078177330908159   -0.0019353883760221346
-0.04107115600071229   0.004078177330908159   -0.0019353883760221346
-0.04107115600071229   0.004078177330908159   -0.0019353883760221346
-0.02413809551030056   -0.0018303818169598273   -0.0019775160700909213
-0.02413809551030056   -0.0018303818169598273   -0.0019775160700909213
-0.02413809551030056   -0.0018303818169598273   -0.0019775160700909213
-0.02413809551030056   -0.0018303818169598273   -0.0019775160700909213
-0.03793164500625707   -0.008901979550664758   0.026742323477826863
-0.03793164500625707   -0.008901979550664758   0.026742323477826863
-0.03793164500625707   -0.008901979550664758   0.026742323477826863
-0.03793164500625707   -0.008901979550664758   0.026742323477826863
0.0009144091274547049   0.011454856933160562   -0.007037555492927115
0.0009144091274547049   0.011454856933160562   -0.007037555492927115
0.0009144091274547049   0.011454856933160562   -0.007037555492927115
0.0009144091274547049   0.011454856933160562   -0.007037555492927115
0.008243565406363553   -0.0036453046918137923   0.019626340527848778
0.008243565406363553   -0.0036453046918137923   0.019626340527848778
0.008243565406363553   -0.0036453046918137923   0.019626340527848778
0.008243565406363553   -0.0036453046918137923   0.019626340527848778
-0.036106116809193234   0.003050565032961028   -0.0028469056689740795
-0.036106116809193234   0.003050565032961028   -0.0028469056689740795
-0.036106116809193234   0.003050565032961028   -0.0028469056689740795
-0.036106116809193234   0.003050565032961028   -0.0028469056689740795
-0.01588070379266312   -0.0004573103547256289   0.002521435425546765
-0.01588070379266312   -0.0004573103547256289   0.002521435425546765
-0.01588070379266312   -0.0004573103547256289   0.002521435425546765
-0.01588070379266312   -0.0004573103547256289   0.002521435425546765
-0.03239122404073007   -0.009951588371286043   0.028729711577588822
-0.03239122404073007   -0.009951588371286043   0.028729711577588822
-0.03239122404073007   -0.009951588371286043   0.028729711577588822
-0.03239122404073007   -0.009951588371286043   0.028729711577588822
0.005809219130906677   0.010637395205439566   -0.006828090746681299
0.005809219130906677   0.010637395205439566   -0.006828090746681299
0.005809219130906677   0.010637395205439566   -0.006828090746681299
0.005809219130906677   0.010637395205439566   -0.006828090746681299
0.013953507527638135   -0.005723011035722725   0.019068194109903593
0.013953507527638135   -0.005723011035722725   0.019068194109903593
0.013953507527638135   -0.005723011035722725   0.019068194109903593
0.013953507527638135   -0.005723011035722725   0.019068194109903593
-0.027975847627374213   0.0030282536476699184   -0.003221199640456732
-0.027975847627374213   0.0030282536476699184   -0.003221199640456732
-0.027975847627374213   0.0030282536476699184   -0.003221199640456732
-0.027975847627374213   0.0030282536476699184   -0.003221199640456732
-0.008516593277080745   0.0003755871095658084   0.006465820708936682
-0.008516593277080745   0.0003755871095658084   0.006465820708936682
-0.008516593277080745   0.0003755871095658084   0.006465820708936682
-0.008516593277080745   0.0003755871095658084   0.006465820708936682
              </DataArray>   
             <DataArray type="Float64" NumberOfComponents="3" Name="Displacements" format="ascii">   
0.0   0.0   0.0
-0.004405735388641261   -0.0028923810056726987   -0.0014759884374641145
0.0   0.0   0.0
0.0   0.0   0.0
-0.004405735388641261   -0.0028923810056726987   -0.0014759884374641145
-0.002803366843304943   -0.0025996091908327907   -0.0010844378686963537
0.0   0.0   0.0
-0.002747872515055537   -0.002729954154857141   -0.0009085514639415358
0.0   0.0   0.0
0.0   0.0   0.0
-0.002747872515055537   -0.002729954154857141   -0.0009085514639415358
0.0   0.0   0.0
0.0   0.0   0.0
-0.002747872515055537   -0.002729954154857141   -0.0009085514639415358
-0.004610745293984596   -0.0030813290160394717   -0.0011850494901674185
-0.004405735388641261   -0.0028923810056726987   -0.0014759884374641145
0.0   0.0   0.0
-0.002747872515055537   -0.002729954154857141   -0.0009085514639415358
-0.004405735388641261   -0.0028923810056726987   -0.0014759884374641145
0.0   0.0   0.0
0.0   0.0   0.0
-0.004610745293984596   -0.0030813290160394717   -0.0011850494901674185
0.0   0.0   0.0
0.0   0.0   0.0
-0.004610745293984596   -0.0030813290160394717   -0.0011850494901674185
-0.002747872515055537   -0.002729954154857141   -0.0009085514639415358
0.0   0.0   0.0
-0.0027555649031177796   -0.0027967584716910325   -0.0007329249306883805
0.0   0.0   0.0
0.0   0.0   0.0
-0.0027555649031177796   -0.0027967584716910325   -0.0007329249306883805
0.0   0.0   0.0
0.0   0.0   0.0
-0.0027555649031177796   -0.0027967584716910325   -0.0007329249306883805
-0.00475469552889404   -0.0031732128617576448   -0.0009062971012110325
-0.004610745293984596   -0.0030813290160394717   -0.0011850494901674185
0.0   0.0   0.0
-0.0027555649031177796   -0.0027967584716910325   -0.0007329249306883805
-0.004610745293984596   -0.0030813290160394717   -0.0011850494901674185
0.0   0.0   0.0
0.0   0.0   0.0
-0.00475469552889404   -0.0031732128617576448   -0.0009062971012110325
0.0   0.0   0.0
0.0   0.0   0.0
-0.00475469552889404   -0.0031732128617576448   -0.0009062971012110325
-0.0027555649031177796   -0.0027967584716910325   -0.0007329249306883805
0.0   0.0   0.0
-0.0027540521511831926   -0.0028139335206445177   -0.0005513328894103159
0.0   0.0   0.0
0.0   0.0   0.0
-0.0027540521511831926   -0.0028139335206445177   -0.0005513328894103159
0.0   0.0   0.0
0.0   0.0   0.0
-0.0027540521511831926   -0.0028139335206445177   -0.0005513328894103159
-0.005064860656327326   -0.003242820907541408   -0.0005829127153729432
-0.00475469552889404   -0.0031732128617576448   -0.0009062971012110325
0.0   0.0   0.0
-0.0027540521511831926   -0.0028139335206445177   -0.0005513328894103159
-0.00475469552889404   -0.0031732128617576448   -0.0009062971012110325
0.0   0.0   0.0
0.0   0.0   0.0
-0.002803366843304943   -0.0025996091908327907   -0.0010844378686963537
0.0   0.0   0.0
0.0   0.0   0.0
-0.002803366843304943   -0.0025996091908327907   -0.0010844378686963537
-0.0012767344503458085   -0.0024922456582691624   -0.000824870284058008
0.0   0.0   0.0
-0.0012278894814982538   -0.0025770784245756637   -0.000741829158078639
0.0   0.0   0.0
0.0   0.0   0.0
-0.0012278894814982538   -0.0025770784245756637   -0.000741829158078639
0.0   0.0   0.0
0.0   0.0   0.0
-0.0012278894814982538   -0.0025770784245756637   -0.000741829158078639
-0.002747872515055537   -0.002729954154857141   -0.0009085514639415358
-0.002803366843304943   -0.0025996091908327907   -0.0010844378686963537
0.0   0.0   0.0
-0.0012278894814982538   -0.0025770784245756637   -0.000741829158078639
-0.002803366843304943   -0.0025996091908327907   -0.0010844378686963537
0.0   0.0   0.0
0.0   0.0   0.0
-0.002747872515055537   -0.002729954154857141   -0.0009085514639415358
0.0   0.0   0.0
0.0   0.0   0.0
-0.002747872515055537   -0.002729954154857141   -0.0009085514639415358
-0.0012278894814982538   -0.0025770784245756637   -0.000741829158078639
0.0   0.0   0.0
-0.0012004333025697294   -0.0026094159032896557   -0.0006609630206726715
0.0   0.0   0.0
0.0   0.0   0.0
-0.0012004333025697294   -0.0026094159032896557   -0.0006609630206726715
0.0   0.0   0.0
0.0   0.0   0.0
-0.0012004333025697294   -0.0026094159032896557   -0.0006609630206726715
-0.0027555649031177796   -0.0027967584716910325   -0.0007329249306883805
-0.002747872515055537   -0.002729954154857141   -0.0009085514639415358
0.0   0.0   0.0
-0.0012004333025697294   -0.0026094159032896557   -0.0006609630206726715
-0.002747872515055537   -0.002729954154857141   -0.0009085514639415358
0.0   0.0   0.0
0.0   0.0   0.0
-0.0027555649031177796   -0.0027967584716910325   -0.0007329249306883805
0.0   0.0   0.0
0.0   0.0   0.0
-0.0027555649031177796   -0.0027967584716910325   -0.0007329249306883805
-0.0012004333025697294   -0.0026094159032896557   -0.0006609630206726715
0.0   0.0   0.0
-0.00117542286868133   -0.0025959304512368337   -0.0005773687986609391
0.0   0.0   0.0
0.0   0.0   0.0
-0.00117542286868133   -0.0025959304512368337   -0.0005773687986609391
0.0   0.0   0.0
0.0   0.0   0.0
-0.00117542286868133   -0.0025959304512368337   -0.0005773687986609391
-0.0027540521511831926   -0.0028139335206445177   -0.0005513328894103159
-0.0027555649031177796   -0.0027967584716910325   -0.0007329249306883805
0.0   0.0   0.0
-0.00117542286868133   -0.0025959304512368337   -0.0005773687986609391
-0.0027555649031177796   -0.0027967584716910325   -0.0007329249306883805
0.0   0.0   0.0
0.0   0.0   0.0
-0.0012767344503458085   -0.0024922456582691624   -0.000824870284058008
0.0   0.0   0.0
0.0   0.0   0.0
-0.0012767344503458085   -0.0024922456582691624   -0.000824870284058008
0.00016559757602250126   -0.0025060107832013184   -0.0006594923615675246
0.0   0.0   0.0
0.0001968017075196327   -0.002549971225722919   -0.0006709662280898403
0.0   0.0   0.0
0.0   0.0   0.0
0.0001968017075196327   -0.002549971225722919   -0.0006709662280898403
0.0   0.0   0.0
0.0   0.0   0.0
0.0001968017075196327   -0.002549971225722919   -0.0006709662280898403
-0.0012278894814982538   -0.0025770784245756637   -0.000741829158078639
-0.0012767344503458085   -0.0024922456582691624   -0.000824870284058008
0.0   0.0   0.0
0.0001968017075196327   -0.002549971225722919   -0.0006709662280898403
-0.0012767344503458085   -0.0024922456582691624   -0.000824870284058008
0.0   0.0   0.0
0.0   0.0   0.0
-0.0012278894814982538   -0.0025770784245756637   -0.000741829158078639
0.0   0.0   0.0
0.0   0.0   0.0
-0.0012278894814982538   -0.0025770784245756637   -0.000741829158078639
0.0001968017075196327   -0.002549971225722919   -0.0006709662280898403
0.0   0.0   0.0
0.00022143753304541372   -0.002546318722473351   -0.0006813360233858988
0.0   0.0   0.0
0.0   0.0   0.0
0.00022143753304541372   -0.002546318722473351   -0.0006813360233858988
0.0   0.0   0.0
0.0   0.0   0.0
0.00022143753304541372   -0.002546318722473351   -0.0006813360233858988
-0.0012004333025697294   -0.0026094159032896557   -0.0006609630206726715
-0.0012278894814982538   -0.0025770784245756637   -0.000741829158078639
0.0   0.0   0.0
0.00022143753304541372   -0.002546318722473351   -0.0006813360233858988
-0.0012278894814982538   -0.0025770784245756637   -0.000741829158078639
0.0   0.0   0.0
0.0   0.0   0.0
-0.0012004333025697294   -0.0026094159032896557   -0.0006609630206726715
0.0   0.0   0.0
0.0   0.0   0.0
-0.0012004333025697294   -0.0026094159032896557   -0.0006609630206726715
0.00022143753304541372   -0.002546318722473351   -0.0006813360233858988
0.0   0.0   0.0
0.0002545661997385949   -0.002491149735801602   -0.0006920005248111417
0.0   0.0   0.0
0.0   0.0   0.0
0.0002545661997385949   -0.002491149735801602   -0.0006920005248111417
0.0   0.0   0.0
0.0   0.0   0.0
0.0002545661997385949   -0.002491149735801602   -0.0006920005248111417
-0.00117542286868133   -0.0025959304512368337   -0.0005773687986609391
-0.0012004333025697294   -0.0026094159032896557   -0.0006609630206726715
0.0   0.0   0.0
0.0002545661997385949   -0.002491149735801602   -0.0006920005248111417
-0.0012004333025697294   -0.0026094159032896557   -0.0006609630206726715
0.0   0.0   0.0
0.0   0.0   0.0
0.00016559757602250126   -0.0025060107832013184   -0.0006594923615675246
0.0   0.0   0.0
0.0   0.0   0.0
0.00016559757602250126   -0.0025060107832013184   -0.0006594923615675246
0.0017312757451773916   -0.002627847540623488   -0.0005777428512297357
0.0   0.0   0.0
0.0017343995133992807   -0.0026418103612120443   -0.0006886681745354072
0.0   0.0   0.0
0.0   0.0   0.0
0.0017343995133992807   -0.0026418103612120443   -0.0006886681745354072
0.0   0.0   0.0
0.0   0.0   0.0
0.0017343995133992807   -0.0026418103612120443   -0.0006886681745354072
0.0001968017075196327   -0.002549971225722919   -0.0006709662280898403
0.00016559757602250126   -0.0025060107832013184   -0.0006594923615675246
0.0   0.0   0.0
0.0017343995133992807   -0.0026418103612120443   -0.0006886681745354072
0.00016559757602250126   -0.0025060107832013184   -0.0006594923615675246
0.0   0.0   0.0
0.0   0.0   0.0
0.0001968017075196327   -0.002549971225722919   -0.0006709662280898403
0.0   0.0   0.0
0.0   0.0   0.0
0.0001968017075196327   -0.002549971225722919   -0.0006709662280898403
0.0017343995133992807   -0.0026418103612120443   -0.0006886681745354072
0.0   0.0   0.0
0.0017270103434988602   -0.002604086631024452   -0.0007950931852815845
0.0   0.0   0.0
0.0   0.0   0.0
0.0017270103434988602   -0.002604086631024452   -0.0007950931852815845
0.0   0.0   0.0
0.0   0.0   0.0
0.0017270103434988602   -0.002604086631024452   -0.0007950931852815845
0.00022143753304541372   -0.002546318722473351   -0.0006813360233858988
0.0001968017075196327   -0.002549971225722919   -0.0006709662280898403
0.0   0.0   0.0
0.0017270103434988602   -0.002604086631024452   -0.0007950931852815845
0.0001968017075196327   -0.002549971225722919   -0.0006709662280898403
0.0   0.0   0.0
0.0   0.0   0.0
0.00022143753304541372   -0.002546318722473351   -0.0006813360233858988
0.0   0.0   0.0
0.0   0.0   0.0
0.00022143753304541372   -0.002546318722473351   -0.0006813360233858988
0.0017270103434988602   -0.002604086631024452   -0.0007950931852815845
0.0   0.0   0.0
0.001760494822253645   -0.0025031349491998994   -0.0008995013175313653
0.0   0.0   0.0
0.0   0.0   0.0
0.001760494822253645   -0.0025031349491998994   -0.0008995013175313653
0.0   0.0   0.0
0.0   0.0   0.0
0.001760494822253645   -0.0025031349491998994   -0.0008995013175313653
0.0002545661997385949   -0.002491149735801602   -0.0006920005248111417
0.00022143753304541372   -0.002546318722473351   -0.0006813360233858988
0.0   0.0   0.0
0.001760494822253645   -0.0025031349491998994   -0.0008995013175313653
0.00022143753304541372   -0.002546318722473351   -0.0006813360233858988
0.0   0.0   0.0
0.0   0.0   0.0
0.0017312757451773916   -0.002627847540623488   -0.0005777428512297357
0.0   0.0   0.0
0.0   0.0   0.0
0.0017312757451773916   -0.002627847540623488   -0.0005777428512297357
0.003908841569843279   -0.0029367214306788205   -0.0005452314576935512
0.0   0.0   0.0
0.0036710918380027336   -0.002904598545667227   -0.0007967532701709909
0.0   0.0   0.0
0.0   0.0   0.0
0.0036710918380027336   -0.002904598545667227   -0.0007967532701709909
0.0   0.0   0.0
0.0   0.0   0.0
0.0036710918380027336   -0.002904598545667227   -0.0007967532701709909
0.0017343995133992807   -0.0026418103612120443   -0.0006886681745354072
0.0017312757451773916   -0.002627847540623488   -0.0005777428512297357
0.0   0.0   0.0
0.0036710918380027336   -0.002904598545667227   -0.0007967532701709909
0.0017312757451773916   -0.002627847540623488   -0.0005777428512297357
0.0   0.0   0.0
0.0   0.0   0.0
0.0017343995133992807   -0.0026418103612120443   -0.0006886681745354072
0.0   0.0   0.0
0.0   0.0   0.0
0.0017343995133992807   -0.0026418103612120443   -0.0006886681745354072
0.0036710918380027336   -0.002904598545667227   -0.0007967532701709909
0.0   0.0   0.0
0.003561473551520343   -0.0028442107799778096   -0.0010094569616134852
0.0   0.0   0.0
0.0   0.0   0.0
0.003561473551520343   -0.0028442107799778096   -0.0010094569616134852
0.0   0.0   0.0
0.0   0.0   0.0
0.003561473551520343   -0.0028442107799778096   -0.0010094569616134852
0.0017270103434988602   -0.002604086631024452   -0.0007950931852815845
0.0017343995133992807   -0.0026418103612120443   -0.0006886681745354072
0.0   0.0   0.0
0.003561473551520343   -0.0028442107799778096   -0.0010094569616134852
0.0017343995133992807   -0.0026418103612120443   -0.0006886681745354072
0.0   0.0   0.0
0.0   0.0   0.0
0.0017270103434988602   -0.002604086631024452   -0.0007950931852815845
0.0   0.0   0.0
0.0   0.0   0.0
0.0017270103434988602   -0.002604086631024452   -0.0007950931852815845
0.003561473551520343   -0.0028442107799778096   -0.0010094569616134852
0.0   0.0   0.0
0.0033982554894505016   -0.002689748362477894   -0.001234565353235028
0.0   0.0   0.0
0.0   0.0   0.0
0.0033982554894505016   -0.002689748362477894   -0.001234565353235028
0.0   0.0   0.0
0.0   0.0   0.0
0.0033982554894505016   -0.002689748362477894   -0.001234565353235028
0.001760494822253645   -0.0025031349491998994   -0.0008995013175313653
0.0017270103434988602   -0.002604086631024452   -0.0007950931852815845
0.0   0.0   0.0
0.0033982554894505016   -0.002689748362477894   -0.001234565353235028
0.0017270103434988602   -0.002604086631024452   -0.0007950931852815845
0.0   0.0   0.0
-0.004405735388641261   -0.0028923810056726987   -0.0014759884374641145
-0.008227678802220348   -0.008071275122060802   -0.001988607738029601
-0.002803366843304943   -0.0025996091908327907   -0.0010844378686963537
-0.004610745293984596   -0.0030813290160394717   -0.0011850494901674185
-0.008227678802220348   -0.008071275122060802   -0.001988607738029601
-0.005251349594142727   -0.00780801436053455   -0.0016369906820555146
-0.002803366843304943   -0.0025996091908327907   -0.0010844378686963537
-0.00525742565354315   -0.007941350457979099   -0.0014743482817093814
-0.004610745293984596   -0.0030813290160394717   -0.0011850494901674185
-0.002747872515055537   -0.002729954154857141   -0.0009085514639415358
-0.00525742565354315   -0.007941350457979099   -0.0014743482817093814
-0.002803366843304943   -0.0025996091908327907   -0.0010844378686963537
-0.004610745293984596   -0.0030813290160394717   -0.0011850494901674185
-0.00525742565354315   -0.007941350457979099   -0.0014743482817093814
-0.008474015793541912   -0.008257344971833846   -0.001724521919603912
-0.008227678802220348   -0.008071275122060802   -0.001988607738029601
-0.004610745293984596   -0.0030813290160394717   -0.0011850494901674185
-0.00525742565354315   -0.007941350457979099   -0.0014743482817093814
-0.008227678802220348   -0.008071275122060802   -0.001988607738029601
-0.002803366843304943   -0.0025996091908327907   -0.0010844378686963537
-0.004610745293984596   -0.0030813290160394717   -0.0011850494901674185
-0.008474015793541912   -0.008257344971833846   -0.001724521919603912
-0.002747872515055537   -0.002729954154857141   -0.0009085514639415358
-0.00475469552889404   -0.0031732128617576448   -0.0009062971012110325
-0.008474015793541912   -0.008257344971833846   -0.001724521919603912
-0.00525742565354315   -0.007941350457979099   -0.0014743482817093814
-0.002747872515055537   -0.002729954154857141   -0.0009085514639415358
-0.005277993929079279   -0.008022645338644158   -0.0013180640609984152
-0.00475469552889404   -0.0031732128617576448   -0.0009062971012110325
-0.0027555649031177796   -0.0027967584716910325   -0.0007329249306883805
-0.005277993929079279   -0.008022645338644158   -0.0013180640609984152
-0.002747872515055537   -0.002729954154857141   -0.0009085514639415358
-0.00475469552889404   -0.0031732128617576448   -0.0009062971012110325
-0.005277993929079279   -0.008022645338644158   -0.0013180640609984152
-0.008645114803276163   -0.008362440883530045   -0.0014659484860302364
-0.008474015793541912   -0.008257344971833846   -0.001724521919603912
-0.00475469552889404   -0.0031732128617576448   -0.0009062971012110325
-0.005277993929079279   -0.008022645338644158   -0.0013180640609984152
-0.008474015793541912   -0.008257344971833846   -0.001724521919603912
-0.002747872515055537   -0.002729954154857141   -0.0009085514639415358
-0.00475469552889404   -0.0031732128617576448   -0.0009062971012110325
-0.008645114803276163   -0.008362440883530045   -0.0014659484860302364
-0.0027555649031177796   -0.0027967584716910325   -0.0007329249306883805
-0.005064860656327326   -0.003242820907541408   -0.0005829127153729432
-0.008645114803276163   -0.008362440883530045   -0.0014659484860302364
-0.005277993929079279   -0.008022645338644158   -0.0013180640609984152
-0.0027555649031177796   -0.0027967584716910325   -0.0007329249306883805
-0.005262126620083938   -0.008064852130672893   -0.001171785158934337
-0.005064860656327326   -0.003242820907541408   -0.0005829127153729432
-0.0027540521511831926   -0.0028139335206445177   -0.0005513328894103159
-0.005262126620083938   -0.008064852130672893   -0.001171785158934337
-0.0027555649031177796   -0.0027967584716910325   -0.0007329249306883805
-0.005064860656327326   -0.003242820907541408   -0.0005829127153729432
-0.005262126620083938   -0.008064852130672893   -0.001171785158934337
-0.008847341154504031   -0.00842358524313499   -0.0012307135372035833
-0.008645114803276163   -0.008362440883530045   -0.0014659484860302364
-0.005064860656327326   -0.003242820907541408   -0.0005829127153729432
-0.005262126620083938   -0.008064852130672893   -0.001171785158934337
-0.008645114803276163   -0.008362440883530045   -0.0014659484860302364
-0.0027555649031177796   -0.0027967584716910325   -0.0007329249306883805
-0.002803366843304943   -0.0025996091908327907   -0.0010844378686963537
-0.005251349594142727   -0.00780801436053455   -0.0016369906820555146
-0.0012767344503458085   -0.0024922456582691624   -0.000824870284058008
-0.002747872515055537   -0.002729954154857141   -0.0009085514639415358
-0.005251349594142727   -0.00780801436053455   -0.0016369906820555146
-0.002436833082374931   -0.007685514323015402   -0.0013969790743283614
-0.0012767344503458085   -0.0024922456582691624   -0.000824870284058008
-0.002415681761546841   -0.007770358822222008   -0.001313621323176741
-0.002747872515055537   -0.002729954154857141   -0.0009085514639415358
-0.0012278894814982538   -0.0025770784245756637   -0.000741829158078639
-0.002415681761546841   -0.007770358822222008   -0.001313621323176741
-0.0012767344503458085   -0.0024922456582691624   -0.000824870284058008
-0.002747872515055537   -0.002729954154857141   -0.0009085514639415358
-0.002415681761546841   -0.007770358822222008   -0.001313621323176741
-0.00525742565354315   -0.007941350457979099   -0.0014743482817093814
-0.005251349594142727   -0.00780801436053455   -0.0016369906820555146
-0.002747872515055537   -0.002729954154857141   -0.0009085514639415358
-0.002415681761546841   -0.007770358822222008   -0.001313621323176741
-0.005251349594142727   -0.00780801436053455   -0.0016369906820555146
-0.0012767344503458085   -0.0024922456582691624   -0.000824870284058008
-0.002747872515055537   -0.002729954154857141   -0.0009085514639415358
-0.00525742565354315   -0.007941350457979099   -0.0014743482817093814
-0.0012278894814982538   -0.0025770784245756637   -0.000741829158078639
-0.0027555649031177796   -0.0027967584716910325   -0.0007329249306883805
-0.00525742565354315   -0.007941350457979099   -0.0014743482817093814
-0.002415681761546841   -0.007770358822222008   -0.001313621323176741
-0.0012278894814982538   -0.0025770784245756637   -0.000741829158078639
-0.0023969238649022514   -0.007811513228199422   -0.0012380616754655628
-0.0027555649031177796   -0.0027967584716910325   -0.0007329249306883805
-0.0012004333025697294   -0.0026094159032896557   -0.0006609630206726715
-0.0023969238649022514   -0.007811513228199422   -0.0012380616754655628
-0.0012278894814982538   -0.0025770784245756637   -0.000741829158078639
-0.0027555649031177796   -0.0027967584716910325   -0.0007329249306883805
-0.0023969238649022514   -0.007811513228199422   -0.0012380616754655628
-0.005277993929079279   -0.008022645338644158   -0.0013180640609984152
-0.00525742565354315   -0.007941350457979099   -0.0014743482817093814
-0.0027555649031177796   -0.0027967584716910325   -0.0007329249306883805
-0.0023969238649022514   -0.007811513228199422   -0.0012380616754655628
-0.00525742565354315   -0.007941350457979099   -0.0014743482817093814
-0.0012278894814982538   -0.0025770784245756637   -0.000741829158078639
-0.0027555649031177796   -0.0027967584716910325   -0.0007329249306883805
-0.005277993929079279   -0.008022645338644158   -0.0013180640609984152
-0.0012004333025697294   -0.0026094159032896557   -0.0006609630206726715
-0.0027540521511831926   -0.0028139335206445177   -0.0005513328894103159
-0.005277993929079279   -0.008022645338644158   -0.0013180640609984152
-0.0023969238649022514   -0.007811513228199422   -0.0012380616754655628
-0.0012004333025697294   -0.0026094159032896557   -0.0006609630206726715
-0.002368991162468747   -0.00781052850706402   -0.001172284961719028
-0.0027540521511831926   -0.0028139335206445177   -0.0005513328894103159
-0.00117542286868133   -0.0025959304512368337   -0.0005773687986609391
-0.002368991162468747   -0.00781052850706402   -0.001172284961719028
-0.0012004333025697294   -0.0026094159032896557   -0.0006609630206726715
-0.0027540521511831926   -0.0028139335206445177   -0.0005513328894103159
-0.002368991162468747   -0.00781052850706402   -0.001172284961719028
-0.005262126620083938   -0.008064852130672893   -0.001171785158934337
-0.005277993929079279   -0.008022645338644158   -0.0013180640609984152
-0.0027540521511831926   -0.0028139335206445177   -0.0005513328894103159
-0.002368991162468747   -0.00781052850706402   -0.001172284961719028
-0.005277993929079279   -0.008022645338644158   -0.0013180640609984152
-0.0012004333025697294   -0.0026094159032896557   -0.0006609630206726715
-0.0012767344503458085   -0.0024922456582691624   -0.000824870284058008
-0.002436833082374931   -0.007685514323015402   -0.0013969790743283614
0.00016559757602250126   -0.0025060107832013184   -0.0006594923615675246
-0.0012278894814982538   -0.0025770784245756637   -0.000741829158078639
-0.002436833082374931   -0.007685514323015402   -0.0013969790743283614
0.0002771333140703744   -0.00768916929215435   -0.0012452808537485878
0.00016559757602250126   -0.0025060107832013184   -0.0006594923615675246
0.00030310900602935445   -0.007729334625276782   -0.0012397376804325205
-0.0012278894814982538   -0.0025770784245756637   -0.000741829158078639
0.0001968017075196327   -0.002549971225722919   -0.0006709662280898403
0.00030310900602935445   -0.007729334625276782   -0.0012397376804325205
0.00016559757602250126   -0.0025060107832013184   -0.0006594923615675246
-0.0012278894814982538   -0.0025770784245756637   -0.000741829158078639
0.00030310900602935445   -0.007729334625276782   -0.0012397376804325205
-0.002415681761546841   -0.007770358822222008   -0.001313621323176741
-0.002436833082374931   -0.007685514323015402   -0.0013969790743283614
-0.0012278894814982538   -0.0025770784245756637   -0.000741829158078639
0.00030310900602935445   -0.007729334625276782   -0.0012397376804325205
-0.002436833082374931   -0.007685514323015402   -0.0013969790743283614
0.00016559757602250126   -0.0025060107832013184   -0.0006594923615675246
-0.0012278894814982538   -0.0025770784245756637   -0.000741829158078639
-0.002415681761546841   -0.007770358822222008   -0.001313621323176741
0.0001968017075196327   -0.002549971225722919   -0.0006709662280898403
-0.0012004333025697294   -0.0026094159032896557   -0.0006609630206726715
-0.002415681761546841   -0.007770358822222008   -0.001313621323176741
0.00030310900602935445   -0.007729334625276782   -0.0012397376804325205
0.0001968017075196327   -0.002549971225722919   -0.0006709662280898403
0.00032062746157309347   -0.007726833590227033   -0.001243044742244444
-0.0012004333025697294   -0.0026094159032896557   -0.0006609630206726715
0.00022143753304541372   -0.002546318722473351   -0.0006813360233858988
0.00032062746157309347   -0.007726833590227033   -0.001243044742244444
0.0001968017075196327   -0.002549971225722919   -0.0006709662280898403
-0.0012004333025697294   -0.0026094159032896557   -0.0006609630206726715
0.00032062746157309347   -0.007726833590227033   -0.001243044742244444
-0.0023969238649022514   -0.007811513228199422   -0.0012380616754655628
-0.002415681761546841   -0.007770358822222008   -0.001313621323176741
-0.0012004333025697294   -0.0026094159032896557   -0.0006609630206726715
0.00032062746157309347   -0.007726833590227033   -0.001243044742244444
-0.002415681761546841   -0.007770358822222008   -0.001313621323176741
0.0001968017075196327   -0.002549971225722919   -0.0006709662280898403
-0.0012004333025697294   -0.0026094159032896557   -0.0006609630206726715
-0.0023969238649022514   -0.007811513228199422   -0.0012380616754655628
0.00022143753304541372   -0.002546318722473351   -0.0006813360233858988
-0.00117542286868133   -0.0025959304512368337   -0.0005773687986609391
-0.0023969238649022514   -0.007811513228199422   -0.0012380616754655628
0.00032062746157309347   -0.007726833590227033   -0.001243044742244444
0.00022143753304541372   -0.002546318722473351   -0.0006813360233858988
0.0003394126212942261   -0.007680364833916922   -0.0012553418195786362
-0.00117542286868133   -0.0025959304512368337   -0.0005773687986609391
0.0002545661997385949   -0.002491149735801602   -0.0006920005248111417
0.0003394126212942261   -0.007680364833916922   -0.0012553418195786362
0.00022143753304541372   -0.002546318722473351   -0.0006813360233858988
-0.00117542286868133   -0.0025959304512368337   -0.0005773687986609391
0.0003394126212942261   -0.007680364833916922   -0.0012553418195786362
-0.002368991162468747   -0.00781052850706402   -0.001172284961719028
-0.0023969238649022514   -0.007811513228199422   -0.0012380616754655628
-0.00117542286868133   -0.0025959304512368337   -0.0005773687986609391
0.0003394126212942261   -0.007680364833916922   -0.0012553418195786362
-0.0023969238649022514   -0.007811513228199422   -0.0012380616754655628
0.00022143753304541372   -0.002546318722473351   -0.0006813360233858988
0.00016559757602250126   -0.0025060107832013184   -0.0006594923615675246
0.0002771333140703744   -0.00768916929215435   -0.0012452808537485878
0.0017312757451773916   -0.002627847540623488   -0.0005777428512297357
0.0001968017075196327   -0.002549971225722919   -0.0006709662280898403
0.0002771333140703744   -0.00768916929215435   -0.0012452808537485878
0.0031532490559525225   -0.007814428103407494   -0.0011745900376762778
0.0017312757451773916   -0.002627847540623488   -0.0005777428512297357
0.003168033076053061   -0.00781399294327673   -0.0012493839472157953
0.0001968017075196327   -0.002549971225722919   -0.0006709662280898403
0.0017343995133992807   -0.0026418103612120443   -0.0006886681745354072
0.003168033076053061   -0.00781399294327673   -0.0012493839472157953
0.0017312757451773916   -0.002627847540623488   -0.0005777428512297357
0.0001968017075196327   -0.002549971225722919   -0.0006709662280898403
0.003168033076053061   -0.00781399294327673   -0.0012493839472157953
0.00030310900602935445   -0.007729334625276782   -0.0012397376804325205
0.0002771333140703744   -0.00768916929215435   -0.0012452808537485878
0.0001968017075196327   -0.002549971225722919   -0.0006709662280898403
0.003168033076053061   -0.00781399294327673   -0.0012493839472157953
0.0002771333140703744   -0.00768916929215435   -0.0012452808537485878
0.0017312757451773916   -0.002627847540623488   -0.0005777428512297357
0.0001968017075196327   -0.002549971225722919   -0.0006709662280898403
0.00030310900602935445   -0.007729334625276782   -0.0012397376804325205
0.0017343995133992807   -0.0026418103612120443   -0.0006886681745354072
0.00022143753304541372   -0.002546318722473351   -0.0006813360233858988
0.00030310900602935445   -0.007729334625276782   -0.0012397376804325205
0.003168033076053061   -0.00781399294327673   -0.0012493839472157953
0.0017343995133992807   -0.0026418103612120443   -0.0006886681745354072
0.003153561540046766   -0.007771724878324922   -0.0013341908097916696
0.00022143753304541372   -0.002546318722473351   -0.0006813360233858988
0.0017270103434988602   -0.002604086631024452   -0.0007950931852815845
0.003153561540046766   -0.007771724878324922   -0.0013341908097916696
0.0017343995133992807   -0.0026418103612120443   -0.0006886681745354072
0.00022143753304541372   -0.002546318722473351   -0.0006813360233858988
0.003153561540046766   -0.007771724878324922   -0.0013341908097916696
0.00032062746157309347   -0.007726833590227033   -0.001243044742244444
0.00030310900602935445   -0.007729334625276782   -0.0012397376804325205
0.00022143753304541372   -0.002546318722473351   -0.0006813360233858988
0.003153561540046766   -0.007771724878324922   -0.0013341908097916696
0.00030310900602935445   -0.007729334625276782   -0.0012397376804325205
0.0017343995133992807   -0.0026418103612120443   -0.0006886681745354072
0.00022143753304541372   -0.002546318722473351   -0.0006813360233858988
0.00032062746157309347   -0.007726833590227033   -0.001243044742244444
0.0017270103434988602   -0.002604086631024452   -0.0007950931852815845
0.0002545661997385949   -0.002491149735801602   -0.0006920005248111417
0.00032062746157309347   -0.007726833590227033   -0.001243044742244444
0.003153561540046766   -0.007771724878324922   -0.0013341908097916696
0.0017270103434988602   -0.002604086631024452   -0.0007950931852815845
0.003145329349704796   -0.007676073146512739   -0.0014258723355852182
0.0002545661997385949   -0.002491149735801602   -0.0006920005248111417
0.001760494822253645   -0.0025031349491998994   -0.0008995013175313653
0.003145329349704796   -0.007676073146512739   -0.0014258723355852182
0.0017270103434988602   -0.002604086631024452   -0.0007950931852815845
0.0002545661997385949   -0.002491149735801602   -0.0006920005248111417
0.003145329349704796   -0.007676073146512739   -0.0014258723355852182
0.0003394126212942261   -0.007680364833916922   -0.0012553418195786362
0.00032062746157309347   -0.007726833590227033   -0.001243044742244444
0.0002545661997385949   -0.002491149735801602   -0.0006920005248111417
0.003145329349704796   -0.007676073146512739   -0.0014258723355852182
0.00032062746157309347   -0.007726833590227033   -0.001243044742244444
0.0017270103434988602   -0.002604086631024452   -0.0007950931852815845
0.0017312757451773916   -0.002627847540623488   -0.0005777428512297357
0.0031532490559525225   -0.007814428103407494   -0.0011745900376762778
0.003908841569843279   -0.0029367214306788205   -0.0005452314576935512
0.0017343995133992807   -0.0026418103612120443   -0.0006886681745354072
0.0031532490559525225   -0.007814428103407494   -0.0011745900376762778
0.0066241191292731125   -0.008047223290467653   -0.0011557366751842502
0.003908841569843279   -0.0029367214306788205   -0.0005452314576935512
0.00648961483158112   -0.008025166274309322   -0.0013240273124251046
0.0017343995133992807   -0.0026418103612120443   -0.0006886681745354072
0.0036710918380027336   -0.002904598545667227   -0.0007967532701709909
0.00648961483158112   -0.008025166274309322   -0.0013240273124251046
0.003908841569843279   -0.0029367214306788205   -0.0005452314576935512
0.0017343995133992807   -0.0026418103612120443   -0.0006886681745354072
0.00648961483158112   -0.008025166274309322   -0.0013240273124251046
0.003168033076053061   -0.00781399294327673   -0.0012493839472157953
0.0031532490559525225   -0.007814428103407494   -0.0011745900376762778
0.0017343995133992807   -0.0026418103612120443   -0.0006886681745354072
0.00648961483158112   -0.008025166274309322   -0.0013240273124251046
0.0031532490559525225   -0.007814428103407494   -0.0011745900376762778
0.003908841569843279   -0.0029367214306788205   -0.0005452314576935512
0.0017343995133992807   -0.0026418103612120443   -0.0006886681745354072
0.003168033076053061   -0.00781399294327673   -0.0012493839472157953
0.0036710918380027336   -0.002904598545667227   -0.0007967532701709909
0.0017270103434988602   -0.002604086631024452   -0.0007950931852815845
0.003168033076053061   -0.00781399294327673   -0.0012493839472157953
0.00648961483158112   -0.008025166274309322   -0.0013240273124251046
0.0036710918380027336   -0.002904598545667227   -0.0007967532701709909
0.006369388415567004   -0.00796001379746098   -0.0015133837620839234
0.0017270103434988602   -0.002604086631024452   -0.0007950931852815845
0.003561473551520343   -0.0028442107799778096   -0.0010094569616134852
0.006369388415567004   -0.00796001379746098   -0.0015133837620839234
0.0036710918380027336   -0.002904598545667227   -0.0007967532701709909
0.0017270103434988602   -0.002604086631024452   -0.0007950931852815845
0.006369388415567004   -0.00796001379746098   -0.0015133837620839234
0.003153561540046766   -0.007771724878324922   -0.0013341908097916696
0.003168033076053061   -0.00781399294327673   -0.0012493839472157953
0.0017270103434988602   -0.002604086631024452   -0.0007950931852815845
0.006369388415567004   -0.00796001379746098   -0.0015133837620839234
0.003168033076053061   -0.00781399294327673   -0.0012493839472157953
0.0036710918380027336   -0.002904598545667227   -0.0007967532701709909
0.0017270103434988602   -0.002604086631024452   -0.0007950931852815845
0.003153561540046766   -0.007771724878324922   -0.0013341908097916696
0.003561473551520343   -0.0028442107799778096   -0.0010094569616134852
0.001760494822253645   -0.0025031349491998994   -0.0008995013175313653
0.003153561540046766   -0.007771724878324922   -0.0013341908097916696
0.006369388415567004   -0.00796001379746098   -0.0015133837620839234
0.003561473551520343   -0.0028442107799778096   -0.0010094569616134852
0.006189122369874419   -0.007815117335514116   -0.00171051698830052
0.001760494822253645   -0.0025031349491998994   -0.0008995013175313653
0.0033982554894505016   -0.002689748362477894   -0.001234565353235028
0.006189122369874419   -0.007815117335514116   -0.00171051698830052
0.003561473551520343   -0.0028442107799778096   -0.0010094569616134852
0.001760494822253645   -0.0025031349491998994   -0.0008995013175313653
0.006189122369874419   -0.007815117335514116   -0.00171051698830052
0.003145329349704796   -0.007676073146512739   -0.0014258723355852182
0.003153561540046766   -0.007771724878324922   -0.0013341908097916696
0.001760494822253645   -0.0025031349491998994   -0.0008995013175313653
0.006189122369874419   -0.007815117335514116   -0.00171051698830052
0.003153561540046766   -0.007771724878324922   -0.0013341908097916696
0.003561473551520343   -0.0028442107799778096   -0.0010094569616134852
-0.008227678802220348   -0.008071275122060802   -0.001988607738029601
-0.011271661545114105   -0.015133295933137487   -0.0022652190213203758
-0.005251349594142727   -0.00780801436053455   -0.0016369906820555146
-0.008474015793541912   -0.008257344971833846   -0.001724521919603912
-0.011271661545114105   -0.015133295933137487   -0.0022652190213203758
-0.007247089176389626   -0.01493216664247928   -0.0019801423978732585
-0.005251349594142727   -0.00780801436053455   -0.0016369906820555146
-0.0072628089527115944   -0.015047216041729452   -0.0018539909316319903
-0.008474015793541912   -0.008257344971833846   -0.001724521919603912
-0.00525742565354315   -0.007941350457979099   -0.0014743482817093814
-0.0072628089527115944   -0.015047216041729452   -0.0018539909316319903
-0.005251349594142727   -0.00780801436053455   -0.0016369906820555146
-0.008474015793541912   -0.008257344971833846   -0.001724521919603912
-0.0072628089527115944   -0.015047216041729452   -0.0018539909316319903
-0.011471861141002017   -0.015290540277549627   -0.0020683480735589842
-0.011271661545114105   -0.015133295933137487   -0.0022652190213203758
-0.008474015793541912   -0.008257344971833846   -0.001724521919603912
-0.0072628089527115944   -0.015047216041729452   -0.0018539909316319903
-0.011271661545114105   -0.015133295933137487   -0.0022652190213203758
-0.005251349594142727   -0.00780801436053455   -0.0016369906820555146
-0.008474015793541912   -0.008257344971833846   -0.001724521919603912
-0.011471861141002017   -0.015290540277549627   -0.0020683480735589842
-0.00525742565354315   -0.007941350457979099   -0.0014743482817093814
-0.008645114803276163   -0.008362440883530045   -0.0014659484860302364
-0.011471861141002017   -0.015290540277549627   -0.0020683480735589842
-0.0072628089527115944   -0.015047216041729452   -0.0018539909316319903
-0.00525742565354315   -0.007941350457979099   -0.0014743482817093814
-0.007281340955291415   -0.01512729923857114   -0.0017369754968213354
-0.008645114803276163   -0.008362440883530045   -0.0014659484860302364
-0.005277993929079279   -0.008022645338644158   -0.0013180640609984152
-0.007281340955291415   -0.01512729923857114   -0.0017369754968213354
-0.00525742565354315   -0.007941350457979099   -0.0014743482817093814
-0.008645114803276163   -0.008362440883530045   -0.0014659484860302364
-0.007281340955291415   -0.01512729923857114   -0.0017369754968213354
-0.011597991424086629   -0.015389164965132568   -0.0018848686242316421
-0.011471861141002017   -0.015290540277549627   -0.0020683480735589842
-0.008645114803276163   -0.008362440883530045   -0.0014659484860302364
-0.007281340955291415   -0.01512729923857114   -0.0017369754968213354
-0.011471861141002017   -0.015290540277549627   -0.0020683480735589842
-0.00525742565354315   -0.007941350457979099   -0.0014743482817093814
-0.008645114803276163   -0.008362440883530045   -0.0014659484860302364
-0.011597991424086629   -0.015389164965132568   -0.0018848686242316421
-0.005277993929079279   -0.008022645338644158   -0.0013180640609984152
-0.008847341154504031   -0.00842358524313499   -0.0012307135372035833
-0.011597991424086629   -0.015389164965132568   -0.0018848686242316421
-0.007281340955291415   -0.01512729923857114   -0.0017369754968213354
-0.005277993929079279   -0.008022645338644158   -0.0013180640609984152
-0.007267511915053086   -0.015180015624994013   -0.001627149263522471
-0.008847341154504031   -0.00842358524313499   -0.0012307135372035833
-0.005262126620083938   -0.008064852130672893   -0.001171785158934337
-0.007267511915053086   -0.015180015624994013   -0.001627149263522471
-0.005277993929079279   -0.008022645338644158   -0.0013180640609984152
-0.008847341154504031   -0.00842358524313499   -0.0012307135372035833
-0.007267511915053086   -0.015180015624994013   -0.001627149263522471
-0.011741501985631295   -0.015460141058667085   -0.0017160331738097477
-0.011597991424086629   -0.015389164965132568   -0.0018848686242316421
-0.008847341154504031   -0.00842358524313499   -0.0012307135372035833
-0.007267511915053086   -0.015180015624994013   -0.001627149263522471
-0.011597991424086629   -0.015389164965132568   -0.0018848686242316421
-0.005277993929079279   -0.008022645338644158   -0.0013180640609984152
-0.005251349594142727   -0.00780801436053455   -0.0016369906820555146
-0.007247089176389626   -0.01493216664247928   -0.0019801423978732585
-0.002436833082374931   -0.007685514323015402   -0.0013969790743283614
-0.00525742565354315   -0.007941350457979099   -0.0014743482817093814
-0.007247089176389626   -0.01493216664247928   -0.0019801423978732585
-0.0034527350709479365   -0.014831866542153509   -0.001782093515537575
-0.002436833082374931   -0.007685514323015402   -0.0013969790743283614
-0.0034439214963982176   -0.014905415235220897   -0.0017107796148161994
-0.00525742565354315   -0.007941350457979099   -0.0014743482817093814
-0.002415681761546841   -0.007770358822222008   -0.001313621323176741
-0.0034439214963982176   -0.014905415235220897   -0.0017107796148161994
-0.002436833082374931   -0.007685514323015402   -0.0013969790743283614
-0.00525742565354315   -0.007941350457979099   -0.0014743482817093814
-0.0034439214963982176   -0.014905415235220897   -0.0017107796148161994
-0.0072628089527115944   -0.015047216041729452   -0.0018539909316319903
-0.007247089176389626   -0.01493216664247928   -0.0019801423978732585
-0.00525742565354315   -0.007941350457979099   -0.0014743482817093814
-0.0034439214963982176   -0.014905415235220897   -0.0017107796148161994
-0.007247089176389626   -0.01493216664247928   -0.0019801423978732585
-0.002436833082374931   -0.007685514323015402   -0.0013969790743283614
-0.00525742565354315   -0.007941350457979099   -0.0014743482817093814
-0.0072628089527115944   -0.015047216041729452   -0.0018539909316319903
-0.002415681761546841   -0.007770358822222008   -0.001313621323176741
-0.005277993929079279   -0.008022645338644158   -0.0013180640609984152
-0.0072628089527115944   -0.015047216041729452   -0.0018539909316319903
-0.0034439214963982176   -0.014905415235220897   -0.0017107796148161994
-0.002415681761546841   -0.007770358822222008   -0.001313621323176741
-0.0034331639899157643   -0.014948624883581436   -0.0016481641661956503
-0.005277993929079279   -0.008022645338644158   -0.0013180640609984152
-0.0023969238649022514   -0.007811513228199422   -0.0012380616754655628
-0.0034331639899157643   -0.014948624883581436   -0.0016481641661956503
-0.002415681761546841   -0.007770358822222008   -0.001313621323176741
-0.005277993929079279   -0.008022645338644158   -0.0013180640609984152
-0.0034331639899157643   -0.014948624883581436   -0.0016481641661956503
-0.007281340955291415   -0.01512729923857114   -0.0017369754968213354
-0.0072628089527115944   -0.015047216041729452   -0.0018539909316319903
-0.005277993929079279   -0.008022645338644158   -0.0013180640609984152
-0.0034331639899157643   -0.014948624883581436   -0.0016481641661956503
-0.0072628089527115944   -0.015047216041729452   -0.0018539909316319903
-0.002415681761546841   -0.007770358822222008   -0.001313621323176741
-0.005277993929079279   -0.008022645338644158   -0.0013180640609984152
-0.007281340955291415   -0.01512729923857114   -0.0017369754968213354
-0.0023969238649022514   -0.007811513228199422   -0.0012380616754655628
-0.005262126620083938   -0.008064852130672893   -0.001171785158934337
-0.007281340955291415   -0.01512729923857114   -0.0017369754968213354
-0.0034331639899157643   -0.014948624883581436   -0.0016481641661956503
-0.0023969238649022514   -0.007811513228199422   -0.0012380616754655628
-0.0034155841212510003   -0.014962113171164432   -0.001594221798860741
-0.005262126620083938   -0.008064852130672893   -0.001171785158934337
-0.002368991162468747   -0.00781052850706402   -0.001172284961719028
-0.0034155841212510003   -0.014962113171164432   -0.001594221798860741
-0.0023969238649022514   -0.007811513228199422   -0.0012380616754655628
-0.005262126620083938   -0.008064852130672893   -0.001171785158934337
-0.0034155841212510003   -0.014962113171164432   -0.001594221798860741
-0.007267511915053086   -0.015180015624994013   -0.001627149263522471
-0.007281340955291415   -0.01512729923857114   -0.0017369754968213354
-0.005262126620083938   -0.008064852130672893   -0.001171785158934337
-0.0034155841212510003   -0.014962113171164432   -0.001594221798860741
-0.007281340955291415   -0.01512729923857114   -0.0017369754968213354
-0.0023969238649022514   -0.007811513228199422   -0.0012380616754655628
-0.002436833082374931   -0.007685514323015402   -0.0013969790743283614
-0.0034527350709479365   -0.014831866542153509   -0.001782093515537575
0.0002771333140703744   -0.00768916929215435   -0.0012452808537485878
-0.002415681761546841   -0.007770358822222008   -0.001313621323176741
-0.0034527350709479365   -0.014831866542153509   -0.001782093515537575
0.00023010890761699884   -0.01482652442664243   -0.0016593505801844165
0.0002771333140703744   -0.00768916929215435   -0.0012452808537485878
0.00024618534428461693   -0.014859218331327046   -0.0016425816221000953
-0.002415681761546841   -0.007770358822222008   -0.001313621323176741
0.00030310900602935445   -0.007729334625276782   -0.0012397376804325205
0.00024618534428461693   -0.014859218331327046   -0.0016425816221000953
0.0002771333140703744   -0.00768916929215435   -0.0012452808537485878
-0.002415681761546841   -0.007770358822222008   -0.001313621323176741
0.00024618534428461693   -0.014859218331327046   -0.0016425816221000953
-0.0034439214963982176   -0.014905415235220897   -0.0017107796148161994
-0.0034527350709479365   -0.014831866542153509   -0.001782093515537575
-0.002415681761546841   -0.007770358822222008   -0.001313621323176741
0.00024618534428461693   -0.014859218331327046   -0.0016425816221000953
-0.0034527350709479365   -0.014831866542153509   -0.001782093515537575
0.0002771333140703744   -0.00768916929215435   -0.0012452808537485878
-0.002415681761546841   -0.007770358822222008   -0.001313621323176741
-0.0034439214963982176   -0.014905415235220897   -0.0017107796148161994
0.00030310900602935445   -0.007729334625276782   -0.0012397376804325205
-0.0023969238649022514   -0.007811513228199422   -0.0012380616754655628
-0.0034439214963982176   -0.014905415235220897   -0.0017107796148161994
0.00024618534428461693   -0.014859218331327046   -0.0016425816221000953
0.00030310900602935445   -0.007729334625276782   -0.0012397376804325205
0.0002565511404583676   -0.014861694600510815   -0.0016342845166881735
-0.0023969238649022514   -0.007811513228199422   -0.0012380616754655628
0.00032062746157309347   -0.007726833590227033   -0.001243044742244444
0.0002565511404583676   -0.014861694600510815   -0.0016342845166881735
0.00030310900602935445   -0.007729334625276782   -0.0012397376804325205
-0.0023969238649022514   -0.007811513228199422   -0.0012380616754655628
0.0002565511404583676   -0.014861694600510815   -0.0016342845166881735
-0.0034331639899157643   -0.014948624883581436   -0.0016481641661956503
-0.0034439214963982176   -0.014905415235220897   -0.0017107796148161994
-0.0023969238649022514   -0.007811513228199422   -0.0012380616754655628
0.0002565511404583676   -0.014861694600510815   -0.0016342845166881735
-0.0034439214963982176   -0.014905415235220897   -0.0017107796148161994
0.00030310900602935445   -0.007729334625276782   -0.0012397376804325205
-0.0023969238649022514   -0.007811513228199422   -0.0012380616754655628
-0.0034331639899157643   -0.014948624883581436   -0.0016481641661956503
0.00032062746157309347   -0.007726833590227033   -0.001243044742244444
-0.002368991162468747   -0.00781052850706402   -0.001172284961719028
-0.0034331639899157643   -0.014948624883581436   -0.0016481641661956503
0.0002565511404583676   -0.014861694600510815   -0.0016342845166881735
0.00032062746157309347   -0.007726833590227033   -0.001243044742244444
0.0002640973862793375   -0.014833502966854938   -0.001634973417777655
-0.002368991162468747   -0.00781052850706402   -0.001172284961719028
0.0003394126212942261   -0.007680364833916922   -0.0012553418195786362
0.0002640973862793375   -0.014833502966854938   -0.001634973417777655
0.00032062746157309347   -0.007726833590227033   -0.001243044742244444
-0.002368991162468747   -0.00781052850706402   -0.001172284961719028
0.0002640973862793375   -0.014833502966854938   -0.001634973417777655
-0.0034155841212510003   -0.014962113171164432   -0.001594221798860741
-0.0034331639899157643   -0.014948624883581436   -0.0016481641661956503
-0.002368991162468747   -0.00781052850706402   -0.001172284961719028
0.0002640973862793375   -0.014833502966854938   -0.001634973417777655
-0.0034331639899157643   -0.014948624883581436   -0.0016481641661956503
0.00032062746157309347   -0.007726833590227033   -0.001243044742244444
0.0002771333140703744   -0.00768916929215435   -0.0012452808537485878
0.00023010890761699884   -0.01482652442664243   -0.0016593505801844165
0.0031532490559525225   -0.007814428103407494   -0.0011745900376762778
0.00030310900602935445   -0.007729334625276782   -0.0012397376804325205
0.00023010890761699884   -0.01482652442664243   -0.0016593505801844165
0.004070188490015458   -0.0149104941827247   -0.0016098218554247048
0.0031532490559525225   -0.007814428103407494   -0.0011745900376762778
0.004084270062482635   -0.014905734386620545   -0.0016487290966034197
0.00030310900602935445   -0.007729334625276782   -0.0012397376804325205
0.003168033076053061   -0.00781399294327673   -0.0012493839472157953
0.004084270062482635   -0.014905734386620545   -0.0016487290966034197
0.0031532490559525225   -0.007814428103407494   -0.0011745900376762778
0.00030310900602935445   -0.007729334625276782   -0.0012397376804325205
0.004084270062482635   -0.014905734386620545   -0.0016487290966034197
0.00024618534428461693   -0.014859218331327046   -0.0016425816221000953
0.00023010890761699884   -0.01482652442664243   -0.0016593505801844165
0.00030310900602935445   -0.007729334625276782   -0.0012397376804325205
0.004084270062482635   -0.014905734386620545   -0.0016487290966034197
0.00023010890761699884   -0.01482652442664243   -0.0016593505801844165
0.0031532490559525225   -0.007814428103407494   -0.0011745900376762778
0.00030310900602935445   -0.007729334625276782   -0.0012397376804325205
0.00024618534428461693   -0.014859218331327046   -0.0016425816221000953
0.003168033076053061   -0.00781399294327673   -0.0012493839472157953
0.00032062746157309347   -0.007726833590227033   -0.001243044742244444
0.00024618534428461693   -0.014859218331327046   -0.0016425816221000953
0.004084270062482635   -0.014905734386620545   -0.0016487290966034197
0.003168033076053061   -0.00781399294327673   -0.0012493839472157953
0.004074135513550203   -0.01487141201086637   -0.001695485685918503
0.00032062746157309347   -0.007726833590227033   -0.001243044742244444
0.003153561540046766   -0.007771724878324922   -0.0013341908097916696
0.004074135513550203   -0.01487141201086637   -0.001695485685918503
0.003168033076053061   -0.00781399294327673   -0.0012493839472157953
0.00032062746157309347   -0.007726833590227033   -0.001243044742244444
0.004074135513550203   -0.01487141201086637   -0.001695485685918503
0.0002565511404583676   -0.014861694600510815   -0.0016342845166881735
0.00024618534428461693   -0.014859218331327046   -0.0016425816221000953
0.00032062746157309347   -0.007726833590227033   -0.001243044742244444
0.004074135513550203   -0.01487141201086637   -0.001695485685918503
0.00024618534428461693   -0.014859218331327046   -0.0016425816221000953
0.003168033076053061   -0.00781399294327673   -0.0012493839472157953
0.00032062746157309347   -0.007726833590227033   -0.001243044742244444
0.0002565511404583676   -0.014861694600510815   -0.0016342845166881735
0.003153561540046766   -0.007771724878324922   -0.0013341908097916696
0.0003394126212942261   -0.007680364833916922   -0.0012553418195786362
0.0002565511404583676   -0.014861694600510815   -0.0016342845166881735
0.004074135513550203   -0.01487141201086637   -0.001695485685918503
0.003153561540046766   -0.007771724878324922   -0.0013341908097916696
0.004058837188247258   -0.014800199044123297   -0.0017510221591032424
0.0003394126212942261   -0.007680364833916922   -0.0012553418195786362
0.003145329349704796   -0.007676073146512739   -0.0014258723355852182
0.004058837188247258   -0.014800199044123297   -0.0017510221591032424
0.003153561540046766   -0.007771724878324922   -0.0013341908097916696
0.0003394126212942261   -0.007680364833916922   -0.0012553418195786362
0.004058837188247258   -0.014800199044123297   -0.0017510221591032424
0.0002640973862793375   -0.014833502966854938   -0.001634973417777655
0.0002565511404583676   -0.014861694600510815   -0.0016342845166881735
0.0003394126212942261   -0.007680364833916922   -0.0012553418195786362
0.004058837188247258   -0.014800199044123297   -0.0017510221591032424
0.0002565511404583676   -0.014861694600510815   -0.0016342845166881735
0.003153561540046766   -0.007771724878324922   -0.0013341908097916696
0.0031532490559525225   -0.007814428103407494   -0.0011745900376762778
0.004070188490015458   -0.0149104941827247   -0.0016098218554247048
0.0066241191292731125   -0.008047223290467653   -0.0011557366751842502
0.003168033076053061   -0.00781399294327673   -0.0012493839472157953
0.004070188490015458   -0.0149104941827247   -0.0016098218554247048
0.008443573145057802   -0.015062753678850259   -0.0016109996882118195
0.0066241191292731125   -0.008047223290467653   -0.0011557366751842502
0.008370454229388303   -0.0150364024963965   -0.0017127261358388635
0.003168033076053061   -0.00781399294327673   -0.0012493839472157953
0.00648961483158112   -0.008025166274309322   -0.0013240273124251046
0.008370454229388303   -0.0150364024963965   -0.0017127261358388635
0.0066241191292731125   -0.008047223290467653   -0.0011557366751842502
0.003168033076053061   -0.00781399294327673   -0.0012493839472157953
0.008370454229388303   -0.0150364024963965   -0.0017127261358388635
0.004084270062482635   -0.014905734386620545   -0.0016487290966034197
0.004070188490015458   -0.0149104941827247   -0.0016098218554247048
0.003168033076053061   -0.00781399294327673   -0.0012493839472157953
0.008370454229388303   -0.0150364024963965   -0.0017127261358388635
0.004070188490015458   -0.0149104941827247   -0.0016098218554247048
0.0066241191292731125   -0.008047223290467653   -0.0011557366751842502
0.003168033076053061   -0.00781399294327673   -0.0012493839472157953
0.004084270062482635   -0.014905734386620545   -0.0016487290966034197
0.00648961483158112   -0.008025166274309322   -0.0013240273124251046
0.003153561540046766   -0.007771724878324922   -0.0013341908097916696
0.004084270062482635   -0.014905734386620545   -0.0016487290966034197
0.008370454229388303   -0.0150364024963965   -0.0017127261358388635
0.00648961483158112   -0.008025166274309322   -0.0013240273124251046
0.008297419303369651   -0.01498357237764569   -0.0018286071029771668
0.003153561540046766   -0.007771724878324922   -0.0013341908097916696
0.006369388415567004   -0.00796001379746098   -0.0015133837620839234
0.008297419303369651   -0.01498357237764569   -0.0018286071029771668
0.00648961483158112   -0.008025166274309322   -0.0013240273124251046
0.003153561540046766   -0.007771724878324922   -0.0013341908097916696
0.008297419303369651   -0.01498357237764569   -0.0018286071029771668
0.004074135513550203   -0.01487141201086637   -0.001695485685918503
0.004084270062482635   -0.014905734386620545   -0.0016487290966034197
0.003153561540046766   -0.007771724878324922   -0.0013341908097916696
0.008297419303369651   -0.01498357237764569   -0.0018286071029771668
0.004084270062482635   -0.014905734386620545   -0.0016487290966034197
0.00648961483158112   -0.008025166274309322   -0.0013240273124251046
0.003153561540046766   -0.007771724878324922   -0.0013341908097916696
0.004074135513550203   -0.01487141201086637   -0.001695485685918503
0.006369388415567004   -0.00796001379746098   -0.0015133837620839234
0.003145329349704796   -0.007676073146512739   -0.0014258723355852182
0.004074135513550203   -0.01487141201086637   -0.001695485685918503
0.008297419303369651   -0.01498357237764569   -0.0018286071029771668
0.006369388415567004   -0.00796001379746098   -0.0015133837620839234
0.008167450668984317   -0.014872832225416346   -0.0019586577298403587
0.003145329349704796   -0.007676073146512739   -0.0014258723355852182
0.006189122369874419   -0.007815117335514116   -0.00171051698830052
0.008167450668984317   -0.014872832225416346   -0.0019586577298403587
0.006369388415567004   -0.00796001379746098   -0.0015133837620839234
0.003145329349704796   -0.007676073146512739   -0.0014258723355852182
0.008167450668984317   -0.014872832225416346   -0.0019586577298403587
0.004058837188247258   -0.014800199044123297   -0.0017510221591032424
0.004074135513550203   -0.01487141201086637   -0.001695485685918503
0.003145329349704796   -0.007676073146512739   -0.0014258723355852182
0.008167450668984317   -0.014872832225416346   -0.0019586577298403587
0.004074135513550203   -0.01487141201086637   -0.001695485685918503
0.006369388415567004   -0.00796001379746098   -0.0015133837620839234
-0.011271661545114105   -0.015133295933137487   -0.0022652190213203758
-0.013458585269917863   -0.023505062642116627   -0.002416083422324771
-0.007247089176389626   -0.01493216664247928   -0.0019801423978732585
-0.011471861141002017   -0.015290540277549627   -0.0020683480735589842
-0.013458585269917863   -0.023505062642116627   -0.002416083422324771
-0.008736376873219202   -0.023377147406989544   -0.0021837502583955865
-0.007247089176389626   -0.01493216664247928   -0.0019801423978732585
-0.008746671276378626   -0.023476074090146015   -0.002093481794722278
-0.011471861141002017   -0.015290540277549627   -0.0020683480735589842
-0.0072628089527115944   -0.015047216041729452   -0.0018539909316319903
-0.008746671276378626   -0.023476074090146015   -0.002093481794722278
-0.007247089176389626   -0.01493216664247928   -0.0019801423978732585
-0.011471861141002017   -0.015290540277549627   -0.0020683480735589842
-0.008746671276378626   -0.023476074090146015   -0.002093481794722278
-0.013593322403198388   -0.023638908589088948   -0.0022854221290856142
-0.013458585269917863   -0.023505062642116627   -0.002416083422324771
-0.011471861141002017   -0.015290540277549627   -0.0020683480735589842
-0.008746671276378626   -0.023476074090146015   -0.002093481794722278
-0.013458585269917863   -0.023505062642116627   -0.002416083422324771
-0.007247089176389626   -0.01493216664247928   -0.0019801423978732585
-0.011471861141002017   -0.015290540277549627   -0.0020683480735589842
-0.013593322403198388   -0.023638908589088948   -0.0022854221290856142
-0.0072628089527115944   -0.015047216041729452   -0.0018539909316319903
-0.011597991424086629   -0.015389164965132568   -0.0018848686242316421
-0.013593322403198388   -0.023638908589088948   -0.0022854221290856142
-0.008746671276378626   -0.023476074090146015   -0.002093481794722278
-0.0072628089527115944   -0.015047216041729452   -0.0018539909316319903
-0.00875394711527833   -0.023554523443545847   -0.002012212462670427
-0.011597991424086629   -0.015389164965132568   -0.0018848686242316421
-0.007281340955291415   -0.01512729923857114   -0.0017369754968213354
-0.00875394711527833   -0.023554523443545847   -0.002012212462670427
-0.0072628089527115944   -0.015047216041729452   -0.0018539909316319903
-0.011597991424086629   -0.015389164965132568   -0.0018848686242316421
-0.00875394711527833   -0.023554523443545847   -0.002012212462670427
-0.013670527285544746   -0.023733632977116947   -0.0021673081441767423
-0.013593322403198388   -0.023638908589088948   -0.0022854221290856142
-0.011597991424086629   -0.015389164965132568   -0.0018848686242316421
-0.00875394711527833   -0.023554523443545847   -0.002012212462670427
-0.013593322403198388   -0.023638908589088948   -0.0022854221290856142
-0.0072628089527115944   -0.015047216041729452   -0.0018539909316319903
-0.011597991424086629   -0.015389164965132568   -0.0018848686242316421
-0.013670527285544746   -0.023733632977116947   -0.0021673081441767423
-0.007281340955291415   -0.01512729923857114   -0.0017369754968213354
-0.011741501985631295   -0.015460141058667085   -0.0017160331738097477
-0.013670527285544746   -0.023733632977116947   -0.0021673081441767423
-0.00875394711527833   -0.023554523443545847   -0.002012212462670427
-0.007281340955291415   -0.01512729923857114   -0.0017369754968213354
-0.008735618434398655   -0.023619003564065134   -0.0019387446081321072
-0.011741501985631295   -0.015460141058667085   -0.0017160331738097477
-0.007267511915053086   -0.015180015624994013   -0.001627149263522471
-0.008735618434398655   -0.023619003564065134   -0.0019387446081321072
-0.007281340955291415   -0.01512729923857114   -0.0017369754968213354
-0.011741501985631295   -0.015460141058667085   -0.0017160331738097477
-0.008735618434398655   -0.023619003564065134   -0.0019387446081321072
-0.013750034123271027   -0.023818586740915138   -0.002063234198223928
-0.013670527285544746   -0.023733632977116947   -0.0021673081441767423
-0.011741501985631295   -0.015460141058667085   -0.0017160331738097477
-0.008735618434398655   -0.023619003564065134   -0.0019387446081321072
-0.013670527285544746   -0.023733632977116947   -0.0021673081441767423
-0.007281340955291415   -0.01512729923857114   -0.0017369754968213354
-0.007247089176389626   -0.01493216664247928   -0.0019801423978732585
-0.008736376873219202   -0.023377147406989544   -0.0021837502583955865
-0.0034527350709479365   -0.014831866542153509   -0.001782093515537575
-0.0072628089527115944   -0.015047216041729452   -0.0018539909316319903
-0.008736376873219202   -0.023377147406989544   -0.0021837502583955865
-0.0043096121903149305   -0.023310992714368848   -0.0020228804050315932
-0.0034527350709479365   -0.014831866542153509   -0.001782093515537575
-0.004301216962746182   -0.023373050535466695   -0.001963256389115478
-0.0072628089527115944   -0.015047216041729452   -0.0018539909316319903
-0.0034439214963982176   -0.014905415235220897   -0.0017107796148161994
-0.004301216962746182   -0.023373050535466695   -0.001963256389115478
-0.0034527350709479365   -0.014831866542153509   -0.001782093515537575
-0.0072628089527115944   -0.015047216041729452   -0.0018539909316319903
-0.004301216962746182   -0.023373050535466695   -0.001963256389115478
-0.008746671276378626   -0.023476074090146015   -0.002093481794722278
-0.008736376873219202   -0.023377147406989544   -0.0021837502583955865
-0.0072628089527115944   -0.015047216041729452   -0.0018539909316319903
-0.004301216962746182   -0.023373050535466695   -0.001963256389115478
-0.008736376873219202   -0.023377147406989544   -0.0021837502583955865
-0.0034527350709479365   -0.014831866542153509   -0.001782093515537575
-0.0072628089527115944   -0.015047216041729452   -0.0018539909316319903
-0.008746671276378626   -0.023476074090146015   -0.002093481794722278
-0.0034439214963982176   -0.014905415235220897   -0.0017107796148161994
-0.007281340955291415   -0.01512729923857114   -0.0017369754968213354
-0.008746671276378626   -0.023476074090146015   -0.002093481794722278
-0.004301216962746182   -0.023373050535466695   -0.001963256389115478
-0.0034439214963982176   -0.014905415235220897   -0.0017107796148161994
-0.004289827854203655   -0.023417946452657608   -0.0019124951047578749
-0.007281340955291415   -0.01512729923857114   -0.0017369754968213354
-0.0034331639899157643   -0.014948624883581436   -0.0016481641661956503
-0.004289827854203655   -0.023417946452657608   -0.0019124951047578749
-0.0034439214963982176   -0.014905415235220897   -0.0017107796148161994
-0.007281340955291415   -0.01512729923857114   -0.0017369754968213354
-0.004289827854203655   -0.023417946452657608   -0.0019124951047578749
-0.00875394711527833   -0.023554523443545847   -0.002012212462670427
-0.008746671276378626   -0.023476074090146015   -0.002093481794722278
-0.007281340955291415   -0.01512729923857114   -0.0017369754968213354
-0.004289827854203655   -0.023417946452657608   -0.0019124951047578749
-0.008746671276378626   -0.023476074090146015   -0.002093481794722278
-0.0034439214963982176   -0.014905415235220897   -0.0017107796148161994
-0.007281340955291415   -0.01512729923857114   -0.0017369754968213354
-0.00875394711527833   -0.023554523443545847   -0.002012212462670427
-0.0034331639899157643   -0.014948624883581436   -0.0016481641661956503
-0.007267511915053086   -0.015180015624994013   -0.001627149263522471
-0.00875394711527833   -0.023554523443545847   -0.002012212462670427
-0.004289827854203655   -0.023417946452657608   -0.0019124951047578749
-0.0034331639899157643   -0.014948624883581436   -0.0016481641661956503
-0.004272936660440651   -0.023445975000998716   -0.001870744244090635
-0.007267511915053086   -0.015180015624994013   -0.001627149263522471
-0.0034155841212510003   -0.014962113171164432   -0.001594221798860741
-0.004272936660440651   -0.023445975000998716   -0.001870744244090635
-0.0034331639899157643   -0.014948624883581436   -0.0016481641661956503
-0.007267511915053086   -0.015180015624994013   -0.001627149263522471
-0.004272936660440651   -0.023445975000998716   -0.001870744244090635
-0.008735618434398655   -0.023619003564065134   -0.0019387446081321072
-0.00875394711527833   -0.023554523443545847   -0.002012212462670427
-0.007267511915053086   -0.015180015624994013   -0.001627149263522471
-0.004272936660440651   -0.023445975000998716   -0.001870744244090635
-0.00875394711527833   -0.023554523443545847   -0.002012212462670427
-0.0034331639899157643   -0.014948624883581436   -0.0016481641661956503
-0.0034527350709479365   -0.014831866542153509   -0.001782093515537575
-0.0043096121903149305   -0.023310992714368848   -0.0020228804050315932
0.00023010890761699884   -0.01482652442664243   -0.0016593505801844165
-0.0034439214963982176   -0.014905415235220897   -0.0017107796148161994
-0.0043096121903149305   -0.023310992714368848   -0.0020228804050315932
-3.1110576105454235e-06   -0.023299589413744104   -0.0019292435162450731
0.00023010890761699884   -0.01482652442664243   -0.0016593505801844165
1.2519038613090574e-05   -0.023324572837340598   -0.0019005048046867286
-0.0034439214963982176   -0.014905415235220897   -0.0017107796148161994
0.00024618534428461693   -0.014859218331327046   -0.0016425816221000953
1.2519038613090574e-05   -0.023324572837340598   -0.0019005048046867286
0.00023010890761699884   -0.01482652442664243   -0.0016593505801844165
-0.0034439214963982176   -0.014905415235220897   -0.0017107796148161994
1.2519038613090574e-05   -0.023324572837340598   -0.0019005048046867286
-0.004301216962746182   -0.023373050535466695   -0.001963256389115478
-0.0043096121903149305   -0.023310992714368848   -0.0020228804050315932
-0.0034439214963982176   -0.014905415235220897   -0.0017107796148161994
1.2519038613090574e-05   -0.023324572837340598   -0.0019005048046867286
-0.0043096121903149305   -0.023310992714368848   -0.0020228804050315932
0.00023010890761699884   -0.01482652442664243   -0.0016593505801844165
-0.0034439214963982176   -0.014905415235220897   -0.0017107796148161994
-0.004301216962746182   -0.023373050535466695   -0.001963256389115478
0.00024618534428461693   -0.014859218331327046   -0.0016425816221000953
-0.0034331639899157643   -0.014948624883581436   -0.0016481641661956503
-0.004301216962746182   -0.023373050535466695   -0.001963256389115478
1.2519038613090574e-05   -0.023324572837340598   -0.0019005048046867286
0.00024618534428461693   -0.014859218331327046   -0.0016425816221000953
2.3704264011349104e-05   -0.023332275748992624   -0.0018805172835794893
-0.0034331639899157643   -0.014948624883581436   -0.0016481641661956503
0.0002565511404583676   -0.014861694600510815   -0.0016342845166881735
2.3704264011349104e-05   -0.023332275748992624   -0.0018805172835794893
0.00024618534428461693   -0.014859218331327046   -0.0016425816221000953
-0.0034331639899157643   -0.014948624883581436   -0.0016481641661956503
2.3704264011349104e-05   -0.023332275748992624   -0.0018805172835794893
-0.004289827854203655   -0.023417946452657608   -0.0019124951047578749
-0.004301216962746182   -0.023373050535466695   -0.001963256389115478
-0.0034331639899157643   -0.014948624883581436   -0.0016481641661956503
2.3704264011349104e-05   -0.023332275748992624   -0.0018805172835794893
-0.004301216962746182   -0.023373050535466695   -0.001963256389115478
0.00024618534428461693   -0.014859218331327046   -0.0016425816221000953
-0.0034331639899157643   -0.014948624883581436   -0.0016481641661956503
-0.004289827854203655   -0.023417946452657608   -0.0019124951047578749
0.0002565511404583676   -0.014861694600510815   -0.0016342845166881735
-0.0034155841212510003   -0.014962113171164432   -0.001594221798860741
-0.004289827854203655   -0.023417946452657608   -0.0019124951047578749
2.3704264011349104e-05   -0.023332275748992624   -0.0018805172835794893
0.0002565511404583676   -0.014861694600510815   -0.0016342845166881735
3.0884051717444324e-05   -0.023322461012194182   -0.001869667547939165
-0.0034155841212510003   -0.014962113171164432   -0.001594221798860741
0.0002640973862793375   -0.014833502966854938   -0.001634973417777655
3.0884051717444324e-05   -0.023322461012194182   -0.001869667547939165
0.0002565511404583676   -0.014861694600510815   -0.0016342845166881735
-0.0034155841212510003   -0.014962113171164432   -0.001594221798860741
3.0884051717444324e-05   -0.023322461012194182   -0.001869667547939165
-0.004272936660440651   -0.023445975000998716   -0.001870744244090635
-0.004289827854203655   -0.023417946452657608   -0.0019124951047578749
-0.0034155841212510003   -0.014962113171164432   -0.001594221798860741
3.0884051717444324e-05   -0.023322461012194182   -0.001869667547939165
-0.004289827854203655   -0.023417946452657608   -0.0019124951047578749
0.0002565511404583676   -0.014861694600510815   -0.0016342845166881735
0.00023010890761699884   -0.01482652442664243   -0.0016593505801844165
-3.1110576105454235e-06   -0.023299589413744104   -0.0019292435162450731
0.004070188490015458   -0.0149104941827247   -0.0016098218554247048
0.00024618534428461693   -0.014859218331327046   -0.0016425816221000953
-3.1110576105454235e-06   -0.023299589413744104   -0.0019292435162450731
0.004451494549357313   -0.023338254855124658   -0.001902469993795119
0.004070188490015458   -0.0149104941827247   -0.0016098218554247048
0.004470591719396191   -0.023328312416298205   -0.001905265837857189
0.00024618534428461693   -0.014859218331327046   -0.0016425816221000953
0.004084270062482635   -0.014905734386620545   -0.0016487290966034197
0.004470591719396191   -0.023328312416298205   -0.001905265837857189
0.004070188490015458   -0.0149104941827247   -0.0016098218554247048
0.00024618534428461693   -0.014859218331327046   -0.0016425816221000953
0.004470591719396191   -0.023328312416298205   -0.001905265837857189
1.2519038613090574e-05   -0.023324572837340598   -0.0019005048046867286
-3.1110576105454235e-06   -0.023299589413744104   -0.0019292435162450731
0.00024618534428461693   -0.014859218331327046   -0.0016425816221000953
0.004470591719396191   -0.023328312416298205   -0.001905265837857189
-3.1110576105454235e-06   -0.023299589413744104   -0.0019292435162450731
0.004070188490015458   -0.0149104941827247   -0.0016098218554247048
0.00024618534428461693   -0.014859218331327046   -0.0016425816221000953
1.2519038613090574e-05   -0.023324572837340598   -0.0019005048046867286
0.004084270062482635   -0.014905734386620545   -0.0016487290966034197
0.0002565511404583676   -0.014861694600510815   -0.0016342845166881735
1.2519038613090574e-05   -0.023324572837340598   -0.0019005048046867286
0.004470591719396191   -0.023328312416298205   -0.001905265837857189
0.004084270062482635   -0.014905734386620545   -0.0016487290966034197
0.004472292305345807   -0.023302420493676382   -0.0019163411885227545
0.0002565511404583676   -0.014861694600510815   -0.0016342845166881735
0.004074135513550203   -0.01487141201086637   -0.001695485685918503
0.004472292305345807   -0.023302420493676382   -0.0019163411885227545
0.004084270062482635   -0.014905734386620545   -0.0016487290966034197
0.0002565511404583676   -0.014861694600510815   -0.0016342845166881735
0.004472292305345807   -0.023302420493676382   -0.0019163411885227545
2.3704264011349104e-05   -0.023332275748992624   -0.0018805172835794893
1.2519038613090574e-05   -0.023324572837340598   -0.0019005048046867286
0.0002565511404583676   -0.014861694600510815   -0.0016342845166881735
0.004472292305345807   -0.023302420493676382   -0.0019163411885227545
1.2519038613090574e-05   -0.023324572837340598   -0.0019005048046867286
0.004084270062482635   -0.014905734386620545   -0.0016487290966034197
0.0002565511404583676   -0.014861694600510815   -0.0016342845166881735
2.3704264011349104e-05   -0.023332275748992624   -0.0018805172835794893
0.004074135513550203   -0.01487141201086637   -0.001695485685918503
0.0002640973862793375   -0.014833502966854938   -0.001634973417777655
2.3704264011349104e-05   -0.023332275748992624   -0.0018805172835794893
0.004472292305345807   -0.023302420493676382   -0.0019163411885227545
0.004074135513550203   -0.01487141201086637   -0.001695485685918503
0.004462789918417773   -0.023254107046258164   -0.0019360121312270403
0.0002640973862793375   -0.014833502966854938   -0.001634973417777655
0.004058837188247258   -0.014800199044123297   -0.0017510221591032424
0.004462789918417773   -0.023254107046258164   -0.0019360121312270403
0.004074135513550203   -0.01487141201086637   -0.001695485685918503
0.0002640973862793375   -0.014833502966854938   -0.001634973417777655
0.004462789918417773   -0.023254107046258164   -0.0019360121312270403
3.0884051717444324e-05   -0.023322461012194182   -0.001869667547939165
2.3704264011349104e-05   -0.023332275748992624   -0.0018805172835794893
0.0002640973862793375   -0.014833502966854938   -0.001634973417777655
0.004462789918417773   -0.023254107046258164   -0.0019360121312270403
2.3704264011349104e-05   -0.023332275748992624   -0.0018805172835794893
0.004074135513550203   -0.01487141201086637   -0.001695485685918503
0.004070188490015458   -0.0149104941827247   -0.0016098218554247048
0.004451494549357313   -0.023338254855124658   -0.001902469993795119
0.008443573145057802   -0.015062753678850259   -0.0016109996882118195
0.004084270062482635   -0.014905734386620545   -0.0016487290966034197
0.004451494549357313   -0.023338254855124658   -0.001902469993795119
0.009370452874163899   -0.02340927384529047   -0.0019279981752424824
0.008443573145057802   -0.015062753678850259   -0.0016109996882118195
0.009362210621110811   -0.023375668290413452   -0.001964794475942109
0.004084270062482635   -0.014905734386620545   -0.0016487290966034197
0.008370454229388303   -0.0150364024963965   -0.0017127261358388635
0.009362210621110811   -0.023375668290413452   -0.001964794475942109
0.008443573145057802   -0.015062753678850259   -0.0016109996882118195
0.004084270062482635   -0.014905734386620545   -0.0016487290966034197
0.009362210621110811   -0.023375668290413452   -0.001964794475942109
0.004470591719396191   -0.023328312416298205   -0.001905265837857189
0.004451494549357313   -0.023338254855124658   -0.001902469993795119
0.004084270062482635   -0.014905734386620545   -0.0016487290966034197
0.009362210621110811   -0.023375668290413452   -0.001964794475942109
0.004451494549357313   -0.023338254855124658   -0.001902469993795119
0.008443573145057802   -0.015062753678850259   -0.0016109996882118195
0.004084270062482635   -0.014905734386620545   -0.0016487290966034197
0.004470591719396191   -0.023328312416298205   -0.001905265837857189
0.008370454229388303   -0.0150364024963965   -0.0017127261358388635
0.004074135513550203   -0.01487141201086637   -0.001695485685918503
0.004470591719396191   -0.023328312416298205   -0.001905265837857189
0.009362210621110811   -0.023375668290413452   -0.001964794475942109
0.008370454229388303   -0.0150364024963965   -0.0017127261358388635
0.009339122545244176   -0.023333446410647184   -0.002015025300214876
0.004074135513550203   -0.01487141201086637   -0.001695485685918503
0.008297419303369651   -0.01498357237764569   -0.0018286071029771668
0.009339122545244176   -0.023333446410647184   -0.002015025300214876
0.008370454229388303   -0.0150364024963965   -0.0017127261358388635
0.004074135513550203   -0.01487141201086637   -0.001695485685918503
0.009339122545244176   -0.023333446410647184   -0.002015025300214876
0.004472292305345807   -0.023302420493676382   -0.0019163411885227545
0.004470591719396191   -0.023328312416298205   -0.001905265837857189
0.004074135513550203   -0.01487141201086637   -0.001695485685918503
0.009339122545244176   -0.023333446410647184   -0.002015025300214876
0.004470591719396191   -0.023328312416298205   -0.001905265837857189
0.008370454229388303   -0.0150364024963965   -0.0017127261358388635
0.004074135513550203   -0.01487141201086637   -0.001695485685918503
0.004472292305345807   -0.023302420493676382   -0.0019163411885227545
0.008297419303369651   -0.01498357237764569   -0.0018286071029771668
0.004058837188247258   -0.014800199044123297   -0.0017510221591032424
0.004472292305345807   -0.023302420493676382   -0.0019163411885227545
0.009339122545244176   -0.023333446410647184   -0.002015025300214876
0.008297419303369651   -0.01498357237764569   -0.0018286071029771668
0.009275545124410528   -0.02325304264813898   -0.0020785931991169674
0.004058837188247258   -0.014800199044123297   -0.0017510221591032424
0.008167450668984317   -0.014872832225416346   -0.0019586577298403587
0.009275545124410528   -0.02325304264813898   -0.0020785931991169674
0.008297419303369651   -0.01498357237764569   -0.0018286071029771668
0.004058837188247258   -0.014800199044123297   -0.0017510221591032424
0.009275545124410528   -0.02325304264813898   -0.0020785931991169674
0.004462789918417773   -0.023254107046258164   -0.0019360121312270403
0.004472292305345807   -0.023302420493676382   -0.0019163411885227545
0.004058837188247258   -0.014800199044123297   -0.0017510221591032424
0.009275545124410528   -0.02325304264813898   -0.0020785931991169674
0.004472292305345807   -0.023302420493676382   -0.0019163411885227545
0.008297419303369651   -0.01498357237764569   -0.0018286071029771668
-0.013458585269917863   -0.023505062642116627   -0.002416083422324771
-0.014781849440580619   -0.03261589194935784   -0.0024606450099525696
-0.008736376873219202   -0.023377147406989544   -0.0021837502583955865
-0.013593322403198388   -0.023638908589088948   -0.0022854221290856142
-0.014781849440580619   -0.03261589194935784   -0.0024606450099525696
-0.0097138283876824   -0.03256381325134552   -0.0022756709197784787
-0.008736376873219202   -0.023377147406989544   -0.0021837502583955865
-0.00970976763978918   -0.032648157738655315   -0.0022203246180837032
-0.013593322403198388   -0.023638908589088948   -0.0022854221290856142
-0.008746671276378626   -0.023476074090146015   -0.002093481794722278
-0.00970976763978918   -0.032648157738655315   -0.0022203246180837032
-0.008736376873219202   -0.023377147406989544   -0.0021837502583955865
-0.013593322403198388   -0.023638908589088948   -0.0022854221290856142
-0.00970976763978918   -0.032648157738655315   -0.0022203246180837032
-0.01484463720298154   -0.032729284697105884   -0.0023933280903975637
-0.014781849440580619   -0.03261589194935784   -0.0024606450099525696
-0.013593322403198388   -0.023638908589088948   -0.0022854221290856142
-0.00970976763978918   -0.032648157738655315   -0.0022203246180837032
-0.014781849440580619   -0.03261589194935784   -0.0024606450099525696
-0.008736376873219202   -0.023377147406989544   -0.0021837502583955865
-0.013593322403198388   -0.023638908589088948   -0.0022854221290856142
-0.01484463720298154   -0.032729284697105884   -0.0023933280903975637
-0.008746671276378626   -0.023476074090146015   -0.002093481794722278
-0.013670527285544746   -0.023733632977116947   -0.0021673081441767423
-0.01484463720298154   -0.032729284697105884   -0.0023933280903975637
-0.00970976763978918   -0.032648157738655315   -0.0022203246180837032
-0.008746671276378626   -0.023476074090146015   -0.002093481794722278
-0.009696548801316414   -0.032725993735187496   -0.002174169222036365
-0.013670527285544746   -0.023733632977116947   -0.0021673081441767423
-0.00875394711527833   -0.023554523443545847   -0.002012212462670427
-0.009696548801316414   -0.032725993735187496   -0.002174169222036365
-0.008746671276378626   -0.023476074090146015   -0.002093481794722278
-0.013670527285544746   -0.023733632977116947   -0.0021673081441767423
-0.009696548801316414   -0.032725993735187496   -0.002174169222036365
-0.014864469736748924   -0.03282180476649132   -0.0023392390555833694
-0.01484463720298154   -0.032729284697105884   -0.0023933280903975637
-0.013670527285544746   -0.023733632977116947   -0.0021673081441767423
-0.009696548801316414   -0.032725993735187496   -0.002174169222036365
-0.01484463720298154   -0.032729284697105884   -0.0023933280903975637
-0.008746671276378626   -0.023476074090146015   -0.002093481794722278
-0.013670527285544746   -0.023733632977116947   -0.0021673081441767423
-0.014864469736748924   -0.03282180476649132   -0.0023392390555833694
-0.00875394711527833   -0.023554523443545847   -0.002012212462670427
-0.013750034123271027   -0.023818586740915138   -0.002063234198223928
-0.014864469736748924   -0.03282180476649132   -0.0023392390555833694
-0.009696548801316414   -0.032725993735187496   -0.002174169222036365
-0.00875394711527833   -0.023554523443545847   -0.002012212462670427
-0.009664274527573104   -0.03280325701250911   -0.0021365582965946765
-0.013750034123271027   -0.023818586740915138   -0.002063234198223928
-0.008735618434398655   -0.023619003564065134   -0.0019387446081321072
-0.009664274527573104   -0.03280325701250911   -0.0021365582965946765
-0.00875394711527833   -0.023554523443545847   -0.002012212462670427
-0.013750034123271027   -0.023818586740915138   -0.002063234198223928
-0.009664274527573104   -0.03280325701250911   -0.0021365582965946765
-0.014870925780608205   -0.032922331938222874   -0.0022995167527601963
-0.014864469736748924   -0.03282180476649132   -0.0023392390555833694
-0.013750034123271027   -0.023818586740915138   -0.002063234198223928
-0.009664274527573104   -0.03280325701250911   -0.0021365582965946765
-0.014864469736748924   -0.03282180476649132   -0.0023392390555833694
-0.00875394711527833   -0.023554523443545847   -0.002012212462670427
-0.008736376873219202   -0.023377147406989544   -0.0021837502583955865
-0.0097138283876824   -0.03256381325134552   -0.0022756709197784787
-0.0043096121903149305   -0.023310992714368848   -0.0020228804050315932
-0.008746671276378626   -0.023476074090146015   -0.002093481794722278
-0.0097138283876824   -0.03256381325134552   -0.0022756709197784787
-0.005006038431262596   -0.032533873886018236   -0.002149749467484089
-0.0043096121903149305   -0.023310992714368848   -0.0020228804050315932
-0.004988258780027024   -0.03258490596488076   -0.0021014603348923073
-0.008746671276378626   -0.023476074090146015   -0.002093481794722278
-0.004301216962746182   -0.023373050535466695   -0.001963256389115478
-0.004988258780027024   -0.03258490596488076   -0.0021014603348923073
-0.0043096121903149305   -0.023310992714368848   -0.0020228804050315932
-0.008746671276378626   -0.023476074090146015   -0.002093481794722278
-0.004988258780027024   -0.03258490596488076   -0.0021014603348923073
-0.00970976763978918   -0.032648157738655315   -0.0022203246180837032
-0.0097138283876824   -0.03256381325134552   -0.0022756709197784787
-0.008746671276378626   -0.023476074090146015   -0.002093481794722278
-0.004988258780027024   -0.03258490596488076   -0.0021014603348923073
-0.0097138283876824   -0.03256381325134552   -0.0022756709197784787
-0.0043096121903149305   -0.023310992714368848   -0.0020228804050315932
-0.008746671276378626   -0.023476074090146015   -0.002093481794722278
-0.00970976763978918   -0.032648157738655315   -0.0022203246180837032
-0.004301216962746182   -0.023373050535466695   -0.001963256389115478
-0.00875394711527833   -0.023554523443545847   -0.002012212462670427
-0.00970976763978918   -0.032648157738655315   -0.0022203246180837032
-0.004988258780027024   -0.03258490596488076   -0.0021014603348923073
-0.004301216962746182   -0.023373050535466695   -0.001963256389115478
-0.004966503407962077   -0.03263176041542653   -0.002062368448736745
-0.00875394711527833   -0.023554523443545847   -0.002012212462670427
-0.004289827854203655   -0.023417946452657608   -0.0019124951047578749
-0.004966503407962077   -0.03263176041542653   -0.002062368448736745
-0.004301216962746182   -0.023373050535466695   -0.001963256389115478
-0.00875394711527833   -0.023554523443545847   -0.002012212462670427
-0.004966503407962077   -0.03263176041542653   -0.002062368448736745
-0.009696548801316414   -0.032725993735187496   -0.002174169222036365
-0.00970976763978918   -0.032648157738655315   -0.0022203246180837032
-0.00875394711527833   -0.023554523443545847   -0.002012212462670427
-0.004966503407962077   -0.03263176041542653   -0.002062368448736745
-0.00970976763978918   -0.032648157738655315   -0.0022203246180837032
-0.004301216962746182   -0.023373050535466695   -0.001963256389115478
-0.00875394711527833   -0.023554523443545847   -0.002012212462670427
-0.009696548801316414   -0.032725993735187496   -0.002174169222036365
-0.004289827854203655   -0.023417946452657608   -0.0019124951047578749
-0.008735618434398655   -0.023619003564065134   -0.0019387446081321072
-0.009696548801316414   -0.032725993735187496   -0.002174169222036365
-0.004966503407962077   -0.03263176041542653   -0.002062368448736745
-0.004289827854203655   -0.023417946452657608   -0.0019124951047578749
-0.004940399088814213   -0.03267459176303835   -0.002032696082394456
-0.008735618434398655   -0.023619003564065134   -0.0019387446081321072
-0.004272936660440651   -0.023445975000998716   -0.001870744244090635
-0.004940399088814213   -0.03267459176303835   -0.002032696082394456
-0.004289827854203655   -0.023417946452657608   -0.0019124951047578749
-0.008735618434398655   -0.023619003564065134   -0.0019387446081321072
-0.004940399088814213   -0.03267459176303835   -0.002032696082394456
-0.009664274527573104   -0.03280325701250911   -0.0021365582965946765
-0.009696548801316414   -0.032725993735187496   -0.002174169222036365
-0.008735618434398655   -0.023619003564065134   -0.0019387446081321072
-0.004940399088814213   -0.03267459176303835   -0.002032696082394456
-0.009696548801316414   -0.032725993735187496   -0.002174169222036365
-0.004289827854203655   -0.023417946452657608   -0.0019124951047578749
-0.0043096121903149305   -0.023310992714368848   -0.0020228804050315932
-0.005006038431262596   -0.032533873886018236   -0.002149749467484089
-3.1110576105454235e-06   -0.023299589413744104   -0.0019292435162450731
-0.004301216962746182   -0.023373050535466695   -0.001963256389115478
-0.005006038431262596   -0.032533873886018236   -0.002149749467484089
-0.00042565062496992593   -0.032516688429421146   -0.00208467896239217
-3.1110576105454235e-06   -0.023299589413744104   -0.0019292435162450731
-0.0004008782997390943   -0.03253378421027822   -0.002043932309281737
-0.004301216962746182   -0.023373050535466695   -0.001963256389115478
1.2519038613090574e-05   -0.023324572837340598   -0.0019005048046867286
-0.0004008782997390943   -0.03253378421027822   -0.002043932309281737
-3.1110576105454235e-06   -0.023299589413744104   -0.0019292435162450731
-0.004301216962746182   -0.023373050535466695   -0.001963256389115478
-0.0004008782997390943   -0.03253378421027822   -0.002043932309281737
-0.004988258780027024   -0.03258490596488076   -0.0021014603348923073
-0.005006038431262596   -0.032533873886018236   -0.002149749467484089
-0.004301216962746182   -0.023373050535466695   -0.001963256389115478
-0.0004008782997390943   -0.03253378421027822   -0.002043932309281737
-0.005006038431262596   -0.032533873886018236   -0.002149749467484089
-3.1110576105454235e-06   -0.023299589413744104   -0.0019292435162450731
-0.004301216962746182   -0.023373050535466695   -0.001963256389115478
-0.004988258780027024   -0.03258490596488076   -0.0021014603348923073
1.2519038613090574e-05   -0.023324572837340598   -0.0019005048046867286
-0.004289827854203655   -0.023417946452657608   -0.0019124951047578749
-0.004988258780027024   -0.03258490596488076   -0.0021014603348923073
-0.0004008782997390943   -0.03253378421027822   -0.002043932309281737
1.2519038613090574e-05   -0.023324572837340598   -0.0019005048046867286
-0.0003794006289983288   -0.03254640538553105   -0.0020123045700605603
-0.004289827854203655   -0.023417946452657608   -0.0019124951047578749
2.3704264011349104e-05   -0.023332275748992624   -0.0018805172835794893
-0.0003794006289983288   -0.03254640538553105   -0.0020123045700605603
1.2519038613090574e-05   -0.023324572837340598   -0.0019005048046867286
-0.004289827854203655   -0.023417946452657608   -0.0019124951047578749
-0.0003794006289983288   -0.03254640538553105   -0.0020123045700605603
-0.004966503407962077   -0.03263176041542653   -0.002062368448736745
-0.004988258780027024   -0.03258490596488076   -0.0021014603348923073
-0.004289827854203655   -0.023417946452657608   -0.0019124951047578749
-0.0003794006289983288   -0.03254640538553105   -0.0020123045700605603
-0.004988258780027024   -0.03258490596488076   -0.0021014603348923073
1.2519038613090574e-05   -0.023324572837340598   -0.0019005048046867286
-0.004289827854203655   -0.023417946452657608   -0.0019124951047578749
-0.004966503407962077   -0.03263176041542653   -0.002062368448736745
2.3704264011349104e-05   -0.023332275748992624   -0.0018805172835794893
-0.004272936660440651   -0.023445975000998716   -0.001870744244090635
-0.004966503407962077   -0.03263176041542653   -0.002062368448736745
-0.0003794006289983288   -0.03254640538553105   -0.0020123045700605603
2.3704264011349104e-05   -0.023332275748992624   -0.0018805172835794893
-0.0003629758100201094   -0.032554486451629894   -0.0019901275707203997
-0.004272936660440651   -0.023445975000998716   -0.001870744244090635
3.0884051717444324e-05   -0.023322461012194182   -0.001869667547939165
-0.0003629758100201094   -0.032554486451629894   -0.0019901275707203997
2.3704264011349104e-05   -0.023332275748992624   -0.0018805172835794893
-0.004272936660440651   -0.023445975000998716   -0.001870744244090635
-0.0003629758100201094   -0.032554486451629894   -0.0019901275707203997
-0.004940399088814213   -0.03267459176303835   -0.002032696082394456
-0.004966503407962077   -0.03263176041542653   -0.002062368448736745
-0.004272936660440651   -0.023445975000998716   -0.001870744244090635
-0.0003629758100201094   -0.032554486451629894   -0.0019901275707203997
-0.004966503407962077   -0.03263176041542653   -0.002062368448736745
2.3704264011349104e-05   -0.023332275748992624   -0.0018805172835794893
-3.1110576105454235e-06   -0.023299589413744104   -0.0019292435162450731
-0.00042565062496992593   -0.032516688429421146   -0.00208467896239217
0.004451494549357313   -0.023338254855124658   -0.001902469993795119
1.2519038613090574e-05   -0.023324572837340598   -0.0019005048046867286
-0.00042565062496992593   -0.032516688429421146   -0.00208467896239217
0.004294489799892802   -0.03250929457441707   -0.0020810408440536396
0.004451494549357313   -0.023338254855124658   -0.001902469993795119
0.00432726299213311   -0.03249351209117521   -0.0020482138212574753
1.2519038613090574e-05   -0.023324572837340598   -0.0019005048046867286
0.004470591719396191   -0.023328312416298205   -0.001905265837857189
0.00432726299213311   -0.03249351209117521   -0.0020482138212574753
0.004451494549357313   -0.023338254855124658   -0.001902469993795119
1.2519038613090574e-05   -0.023324572837340598   -0.0019005048046867286
0.00432726299213311   -0.03249351209117521   -0.0020482138212574753
-0.0004008782997390943   -0.03253378421027822   -0.002043932309281737
-0.00042565062496992593   -0.032516688429421146   -0.00208467896239217
1.2519038613090574e-05   -0.023324572837340598   -0.0019005048046867286
0.00432726299213311   -0.03249351209117521   -0.0020482138212574753
-0.00042565062496992593   -0.032516688429421146   -0.00208467896239217
0.004451494549357313   -0.023338254855124658   -0.001902469993795119
1.2519038613090574e-05   -0.023324572837340598   -0.0019005048046867286
-0.0004008782997390943   -0.03253378421027822   -0.002043932309281737
0.004470591719396191   -0.023328312416298205   -0.001905265837857189
2.3704264011349104e-05   -0.023332275748992624   -0.0018805172835794893
-0.0004008782997390943   -0.03253378421027822   -0.002043932309281737
0.00432726299213311   -0.03249351209117521   -0.0020482138212574753
0.004470591719396191   -0.023328312416298205   -0.001905265837857189
0.004349295014859044   -0.03247515575652888   -0.0020242435745453785
2.3704264011349104e-05   -0.023332275748992624   -0.0018805172835794893
0.004472292305345807   -0.023302420493676382   -0.0019163411885227545
0.004349295014859044   -0.03247515575652888   -0.0020242435745453785
0.004470591719396191   -0.023328312416298205   -0.001905265837857189
2.3704264011349104e-05   -0.023332275748992624   -0.0018805172835794893
0.004349295014859044   -0.03247515575652888   -0.0020242435745453785
-0.0003794006289983288   -0.03254640538553105   -0.0020123045700605603
-0.0004008782997390943   -0.03253378421027822   -0.002043932309281737
2.3704264011349104e-05   -0.023332275748992624   -0.0018805172835794893
0.004349295014859044   -0.03247515575652888   -0.0020242435745453785
-0.0004008782997390943   -0.03253378421027822   -0.002043932309281737
0.004470591719396191   -0.023328312416298205   -0.001905265837857189
2.3704264011349104e-05   -0.023332275748992624   -0.0018805172835794893
-0.0003794006289983288   -0.03254640538553105   -0.0020123045700605603
0.004472292305345807   -0.023302420493676382   -0.0019163411885227545
3.0884051717444324e-05   -0.023322461012194182   -0.001869667547939165
-0.0003794006289983288   -0.03254640538553105   -0.0020123045700605603
0.004349295014859044   -0.03247515575652888   -0.0020242435745453785
0.004472292305345807   -0.023302420493676382   -0.0019163411885227545
0.004353983516742255   -0.03244821627127817   -0.00200894905219254
3.0884051717444324e-05   -0.023322461012194182   -0.001869667547939165
0.004462789918417773   -0.023254107046258164   -0.0019360121312270403
0.004353983516742255   -0.03244821627127817   -0.00200894905219254
0.004472292305345807   -0.023302420493676382   -0.0019163411885227545
3.0884051717444324e-05   -0.023322461012194182   -0.001869667547939165
0.004353983516742255   -0.03244821627127817   -0.00200894905219254
-0.0003629758100201094   -0.032554486451629894   -0.0019901275707203997
-0.0003794006289983288   -0.03254640538553105   -0.0020123045700605603
3.0884051717444324e-05   -0.023322461012194182   -0.001869667547939165
0.004353983516742255   -0.03244821627127817   -0.00200894905219254
-0.0003794006289983288   -0.03254640538553105   -0.0020123045700605603
0.004472292305345807   -0.023302420493676382   -0.0019163411885227545
0.004451494549357313   -0.023338254855124658   -0.001902469993795119
0.004294489799892802   -0.03250929457441707   -0.0020810408440536396
0.009370452874163899   -0.02340927384529047   -0.0019279981752424824
0.004470591719396191   -0.023328312416298205   -0.001905265837857189
0.004294489799892802   -0.03250929457441707   -0.0020810408440536396
0.009409518382170485   -0.032498987952586884   -0.0021327130337862243
0.009370452874163899   -0.02340927384529047   -0.0019279981752424824
0.009473609264260038   -0.0324572121987038   -0.0021057251706349603
0.004470591719396191   -0.023328312416298205   -0.001905265837857189
0.009362210621110811   -0.023375668290413452   -0.001964794475942109
0.009473609264260038   -0.0324572121987038   -0.0021057251706349603
0.009370452874163899   -0.02340927384529047   -0.0019279981752424824
0.004470591719396191   -0.023328312416298205   -0.001905265837857189
0.009473609264260038   -0.0324572121987038   -0.0021057251706349603
0.00432726299213311   -0.03249351209117521   -0.0020482138212574753
0.004294489799892802   -0.03250929457441707   -0.0020810408440536396
0.004470591719396191   -0.023328312416298205   -0.001905265837857189
0.009473609264260038   -0.0324572121987038   -0.0021057251706349603
0.004294489799892802   -0.03250929457441707   -0.0020810408440536396
0.009370452874163899   -0.02340927384529047   -0.0019279981752424824
0.004470591719396191   -0.023328312416298205   -0.001905265837857189
0.00432726299213311   -0.03249351209117521   -0.0020482138212574753
0.009362210621110811   -0.023375668290413452   -0.001964794475942109
0.004472292305345807   -0.023302420493676382   -0.0019163411885227545
0.00432726299213311   -0.03249351209117521   -0.0020482138212574753
0.009473609264260038   -0.0324572121987038   -0.0021057251706349603
0.009362210621110811   -0.023375668290413452   -0.001964794475942109
0.009507639154783712   -0.0324242405952183   -0.0020921972689125867
0.004472292305345807   -0.023302420493676382   -0.0019163411885227545
0.009339122545244176   -0.023333446410647184   -0.002015025300214876
0.009507639154783712   -0.0324242405952183   -0.0020921972689125867
0.009362210621110811   -0.023375668290413452   -0.001964794475942109
0.004472292305345807   -0.023302420493676382   -0.0019163411885227545
0.009507639154783712   -0.0324242405952183   -0.0020921972689125867
0.004349295014859044   -0.03247515575652888   -0.0020242435745453785
0.00432726299213311   -0.03249351209117521   -0.0020482138212574753
0.004472292305345807   -0.023302420493676382   -0.0019163411885227545
0.009507639154783712   -0.0324242405952183   -0.0020921972689125867
0.00432726299213311   -0.03249351209117521   -0.0020482138212574753
0.009362210621110811   -0.023375668290413452   -0.001964794475942109
0.004472292305345807   -0.023302420493676382   -0.0019163411885227545
0.004349295014859044   -0.03247515575652888   -0.0020242435745453785
0.009339122545244176   -0.023333446410647184   -0.002015025300214876
0.004462789918417773   -0.023254107046258164   -0.0019360121312270403
0.004349295014859044   -0.03247515575652888   -0.0020242435745453785
0.009507639154783712   -0.0324242405952183   -0.0020921972689125867
0.009339122545244176   -0.023333446410647184   -0.002015025300214876
0.009516157132032611   -0.03237139816647458   -0.0020923587972969467
0.004462789918417773   -0.023254107046258164   -0.0019360121312270403
0.009275545124410528   -0.02325304264813898   -0.0020785931991169674
0.009516157132032611   -0.03237139816647458   -0.0020923587972969467
0.009339122545244176   -0.023333446410647184   -0.002015025300214876
0.004462789918417773   -0.023254107046258164   -0.0019360121312270403
0.009516157132032611   -0.03237139816647458   -0.0020923587972969467
0.004353983516742255   -0.03244821627127817   -0.00200894905219254
0.004349295014859044   -0.03247515575652888   -0.0020242435745453785
0.004462789918417773   -0.023254107046258164   -0.0019360121312270403
0.009516157132032611   -0.03237139816647458   -0.0020923587972969467
0.004349295014859044   -0.03247515575652888   -0.0020242435745453785
0.009339122545244176   -0.023333446410647184   -0.002015025300214876
-0.014781849440580619   -0.03261589194935784   -0.0024606450099525696
-0.015242193015822336   -0.041888942796323284   -0.0024193894233485507
-0.0097138283876824   -0.03256381325134552   -0.0022756709197784787
-0.01484463720298154   -0.032729284697105884   -0.0023933280903975637
-0.015242193015822336   -0.041888942796323284   -0.0024193894233485507
-0.010180990830857677   -0.041913221909960226   -0.002282693990664904
-0.0097138283876824   -0.03256381325134552   -0.0022756709197784787
-0.010153567433699015   -0.041982704356529635   -0.0022617176054015213
-0.01484463720298154   -0.032729284697105884   -0.0023933280903975637
-0.00970976763978918   -0.032648157738655315   -0.0022203246180837032
-0.010153567433699015   -0.041982704356529635   -0.0022617176054015213
-0.0097138283876824   -0.03256381325134552   -0.0022756709197784787
-0.01484463720298154   -0.032729284697105884   -0.0023933280903975637
-0.010153567433699015   -0.041982704356529635   -0.0022617176054015213
-0.01522444919611238   -0.0419819166994902   -0.0024151111889698447
-0.015242193015822336   -0.041888942796323284   -0.0024193894233485507
-0.01484463720298154   -0.032729284697105884   -0.0023933280903975637
-0.010153567433699015   -0.041982704356529635   -0.0022617176054015213
-0.015242193015822336   -0.041888942796323284   -0.0024193894233485507
-0.0097138283876824   -0.03256381325134552   -0.0022756709197784787
-0.01484463720298154   -0.032729284697105884   -0.0023933280903975637
-0.01522444919611238   -0.0419819166994902   -0.0024151111889698447
-0.00970976763978918   -0.032648157738655315   -0.0022203246180837032
-0.014864469736748924   -0.03282180476649132   -0.0023392390555833694
-0.01522444919611238   -0.0419819166994902   -0.0024151111889698447
-0.010153567433699015   -0.041982704356529635   -0.0022617176054015213
-0.00970976763978918   -0.032648157738655315   -0.0022203246180837032
-0.010110870318296983   -0.04205972289268178   -0.002250207616373253
-0.014864469736748924   -0.03282180476649132   -0.0023392390555833694
-0.009696548801316414   -0.032725993735187496   -0.002174169222036365
-0.010110870318296983   -0.04205972289268178   -0.002250207616373253
-0.00970976763978918   -0.032648157738655315   -0.0022203246180837032
-0.014864469736748924   -0.03282180476649132   -0.0023392390555833694
-0.010110870318296983   -0.04205972289268178   -0.002250207616373253
-0.015177707733944928   -0.04207223259820232   -0.0024249785598990446
-0.01522444919611238   -0.0419819166994902   -0.0024151111889698447
-0.014864469736748924   -0.03282180476649132   -0.0023392390555833694
-0.010110870318296983   -0.04205972289268178   -0.002250207616373253
-0.01522444919611238   -0.0419819166994902   -0.0024151111889698447
-0.00970976763978918   -0.032648157738655315   -0.0022203246180837032
-0.014864469736748924   -0.03282180476649132   -0.0023392390555833694
-0.015177707733944928   -0.04207223259820232   -0.0024249785598990446
-0.009696548801316414   -0.032725993735187496   -0.002174169222036365
-0.014870925780608205   -0.032922331938222874   -0.0022995167527601963
-0.015177707733944928   -0.04207223259820232   -0.0024249785598990446
-0.010110870318296983   -0.04205972289268178   -0.002250207616373253
-0.009696548801316414   -0.032725993735187496   -0.002174169222036365
-0.01005562182592967   -0.042149583104198994   -0.0022480079841228906
-0.014870925780608205   -0.032922331938222874   -0.0022995167527601963
-0.009664274527573104   -0.03280325701250911   -0.0021365582965946765
-0.01005562182592967   -0.042149583104198994   -0.0022480079841228906
-0.009696548801316414   -0.032725993735187496   -0.002174169222036365
-0.014870925780608205   -0.032922331938222874   -0.0022995167527601963
-0.01005562182592967   -0.042149583104198994   -0.0022480079841228906
-0.015101966245693247   -0.042188610558551574   -0.0024497098688451577
-0.015177707733944928   -0.04207223259820232   -0.0024249785598990446
-0.014870925780608205   -0.032922331938222874   -0.0022995167527601963
-0.01005562182592967   -0.042149583104198994   -0.0022480079841228906
-0.015177707733944928   -0.04207223259820232   -0.0024249785598990446
-0.009696548801316414   -0.032725993735187496   -0.002174169222036365
-0.0097138283876824   -0.03256381325134552   -0.0022756709197784787
-0.010180990830857677   -0.041913221909960226   -0.002282693990664904
-0.005006038431262596   -0.032533873886018236   -0.002149749467484089
-0.00970976763978918   -0.032648157738655315   -0.0022203246180837032
-0.010180990830857677   -0.041913221909960226   -0.002282693990664904
-0.0055447937135894194   -0.041918453425308276   -0.002191846521177563
-0.005006038431262596   -0.032533873886018236   -0.002149749467484089
-0.005508152152454334   -0.04195829004307305   -0.0021545556442326935
-0.00970976763978918   -0.032648157738655315   -0.0022203246180837032
-0.004988258780027024   -0.03258490596488076   -0.0021014603348923073
-0.005508152152454334   -0.04195829004307305   -0.0021545556442326935
-0.005006038431262596   -0.032533873886018236   -0.002149749467484089
-0.00970976763978918   -0.032648157738655315   -0.0022203246180837032
-0.005508152152454334   -0.04195829004307305   -0.0021545556442326935
-0.010153567433699015   -0.041982704356529635   -0.0022617176054015213
-0.010180990830857677   -0.041913221909960226   -0.002282693990664904
-0.00970976763978918   -0.032648157738655315   -0.0022203246180837032
-0.005508152152454334   -0.04195829004307305   -0.0021545556442326935
-0.010180990830857677   -0.041913221909960226   -0.002282693990664904
-0.005006038431262596   -0.032533873886018236   -0.002149749467484089
-0.00970976763978918   -0.032648157738655315   -0.0022203246180837032
-0.010153567433699015   -0.041982704356529635   -0.0022617176054015213
-0.004988258780027024   -0.03258490596488076   -0.0021014603348923073
-0.009696548801316414   -0.032725993735187496   -0.002174169222036365
-0.010153567433699015   -0.041982704356529635   -0.0022617176054015213
-0.005508152152454334   -0.04195829004307305   -0.0021545556442326935
-0.004988258780027024   -0.03258490596488076   -0.0021014603348923073
-0.005466778248358004   -0.042006760623040235   -0.0021267660007470188
-0.009696548801316414   -0.032725993735187496   -0.002174169222036365
-0.004966503407962077   -0.03263176041542653   -0.002062368448736745
-0.005466778248358004   -0.042006760623040235   -0.0021267660007470188
-0.004988258780027024   -0.03258490596488076   -0.0021014603348923073
-0.009696548801316414   -0.032725993735187496   -0.002174169222036365
-0.005466778248358004   -0.042006760623040235   -0.0021267660007470188
-0.010110870318296983   -0.04205972289268178   -0.002250207616373253
-0.010153567433699015   -0.041982704356529635   -0.0022617176054015213
-0.009696548801316414   -0.032725993735187496   -0.002174169222036365
-0.005466778248358004   -0.042006760623040235   -0.0021267660007470188
-0.010153567433699015   -0.041982704356529635   -0.0022617176054015213
-0.004988258780027024   -0.03258490596488076   -0.0021014603348923073
-0.009696548801316414   -0.032725993735187496   -0.002174169222036365
-0.010110870318296983   -0.04205972289268178   -0.002250207616373253
-0.004966503407962077   -0.03263176041542653   -0.002062368448736745
-0.009664274527573104   -0.03280325701250911   -0.0021365582965946765
-0.010110870318296983   -0.04205972289268178   -0.002250207616373253
-0.005466778248358004   -0.042006760623040235   -0.0021267660007470188
-0.004966503407962077   -0.03263176041542653   -0.002062368448736745
-0.005422201937758715   -0.042064016351341445   -0.0021087870650876527
-0.009664274527573104   -0.03280325701250911   -0.0021365582965946765
-0.004940399088814213   -0.03267459176303835   -0.002032696082394456
-0.005422201937758715   -0.042064016351341445   -0.0021087870650876527
-0.004966503407962077   -0.03263176041542653   -0.002062368448736745
-0.009664274527573104   -0.03280325701250911   -0.0021365582965946765
-0.005422201937758715   -0.042064016351341445   -0.0021087870650876527
-0.01005562182592967   -0.042149583104198994   -0.0022480079841228906
-0.010110870318296983   -0.04205972289268178   -0.002250207616373253
-0.009664274527573104   -0.03280325701250911   -0.0021365582965946765
-0.005422201937758715   -0.042064016351341445   -0.0021087870650876527
-0.010110870318296983   -0.04205972289268178   -0.002250207616373253
-0.004966503407962077   -0.03263176041542653   -0.002062368448736745
-0.005006038431262596   -0.032533873886018236   -0.002149749467484089
-0.0055447937135894194   -0.041918453425308276   -0.002191846521177563
-0.00042565062496992593   -0.032516688429421146   -0.00208467896239217
-0.004988258780027024   -0.03258490596488076   -0.0021014603348923073
-0.0055447937135894194   -0.041918453425308276   -0.002191846521177563
-0.0010397268631599243   -0.04189382985368762   -0.0021547812539745607
-0.00042565062496992593   -0.032516688429421146   -0.00208467896239217
-0.0009964212533190243   -0.041903017779218364   -0.0021019883726905025
-0.004988258780027024   -0.03258490596488076   -0.0021014603348923073
-0.0004008782997390943   -0.03253378421027822   -0.002043932309281737
-0.0009964212533190243   -0.041903017779218364   -0.0021019883726905025
-0.00042565062496992593   -0.032516688429421146   -0.00208467896239217
-0.004988258780027024   -0.03258490596488076   -0.0021014603348923073
-0.0009964212533190243   -0.041903017779218364   -0.0021019883726905025
-0.005508152152454334   -0.04195829004307305   -0.0021545556442326935
-0.0055447937135894194   -0.041918453425308276   -0.002191846521177563
-0.004988258780027024   -0.03258490596488076   -0.0021014603348923073
-0.0009964212533190243   -0.041903017779218364   -0.0021019883726905025
-0.0055447937135894194   -0.041918453425308276   -0.002191846521177563
-0.00042565062496992593   -0.032516688429421146   -0.00208467896239217
-0.004988258780027024   -0.03258490596488076   -0.0021014603348923073
-0.005508152152454334   -0.04195829004307305   -0.0021545556442326935
-0.0004008782997390943   -0.03253378421027822   -0.002043932309281737
-0.004966503407962077   -0.03263176041542653   -0.002062368448736745
-0.005508152152454334   -0.04195829004307305   -0.0021545556442326935
-0.0009964212533190243   -0.041903017779218364   -0.0021019883726905025
-0.0004008782997390943   -0.03253378421027822   -0.002043932309281737
-0.0009554454150515538   -0.04192016706549025   -0.0020586306834205086
-0.004966503407962077   -0.03263176041542653   -0.002062368448736745
-0.0003794006289983288   -0.03254640538553105   -0.0020123045700605603
-0.0009554454150515538   -0.04192016706549025   -0.0020586306834205086
-0.0004008782997390943   -0.03253378421027822   -0.002043932309281737
-0.004966503407962077   -0.03263176041542653   -0.002062368448736745
-0.0009554454150515538   -0.04192016706549025   -0.0020586306834205086
-0.005466778248358004   -0.042006760623040235   -0.0021267660007470188
-0.005508152152454334   -0.04195829004307305   -0.0021545556442326935
-0.004966503407962077   -0.03263176041542653   -0.002062368448736745
-0.0009554454150515538   -0.04192016706549025   -0.0020586306834205086
-0.005508152152454334   -0.04195829004307305   -0.0021545556442326935
-0.0004008782997390943   -0.03253378421027822   -0.002043932309281737
-0.004966503407962077   -0.03263176041542653   -0.002062368448736745
-0.005466778248358004   -0.042006760623040235   -0.0021267660007470188
-0.0003794006289983288   -0.03254640538553105   -0.0020123045700605603
-0.004940399088814213   -0.03267459176303835   -0.002032696082394456
-0.005466778248358004   -0.042006760623040235   -0.0021267660007470188
-0.0009554454150515538   -0.04192016706549025   -0.0020586306834205086
-0.0003794006289983288   -0.03254640538553105   -0.0020123045700605603
-0.0009206325725662967   -0.04194566746873501   -0.0020250370874516366
-0.004940399088814213   -0.03267459176303835   -0.002032696082394456
-0.0003629758100201094   -0.032554486451629894   -0.0019901275707203997
-0.0009206325725662967   -0.04194566746873501   -0.0020250370874516366
-0.0003794006289983288   -0.03254640538553105   -0.0020123045700605603
-0.004940399088814213   -0.03267459176303835   -0.002032696082394456
-0.0009206325725662967   -0.04194566746873501   -0.0020250370874516366
-0.005422201937758715   -0.042064016351341445   -0.0021087870650876527
-0.005466778248358004   -0.042006760623040235   -0.0021267660007470188
-0.004940399088814213   -0.03267459176303835   -0.002032696082394456
-0.0009206325725662967   -0.04194566746873501   -0.0020250370874516366
-0.005466778248358004   -0.042006760623040235   -0.0021267660007470188
-0.0003794006289983288   -0.03254640538553105   -0.0020123045700605603
-0.00042565062496992593   -0.032516688429421146   -0.00208467896239217
-0.0010397268631599243   -0.04189382985368762   -0.0021547812539745607
0.004294489799892802   -0.03250929457441707   -0.0020810408440536396
-0.0004008782997390943   -0.03253378421027822   -0.002043932309281737
-0.0010397268631599243   -0.04189382985368762   -0.0021547812539745607
0.0036008311116786985   -0.04183911651406796   -0.002173280195276148
0.004294489799892802   -0.03250929457441707   -0.0020810408440536396
0.003656039734684973   -0.041817548431500734   -0.002105255578427919
-0.0004008782997390943   -0.03253378421027822   -0.002043932309281737
0.00432726299213311   -0.03249351209117521   -0.0020482138212574753
0.003656039734684973   -0.041817548431500734   -0.002105255578427919
0.004294489799892802   -0.03250929457441707   -0.0020810408440536396
-0.0004008782997390943   -0.03253378421027822   -0.002043932309281737
0.003656039734684973   -0.041817548431500734   -0.002105255578427919
-0.0009964212533190243   -0.041903017779218364   -0.0021019883726905025
-0.0010397268631599243   -0.04189382985368762   -0.0021547812539745607
-0.0004008782997390943   -0.03253378421027822   -0.002043932309281737
0.003656039734684973   -0.041817548431500734   -0.002105255578427919
-0.0010397268631599243   -0.04189382985368762   -0.0021547812539745607
0.004294489799892802   -0.03250929457441707   -0.0020810408440536396
-0.0004008782997390943   -0.03253378421027822   -0.002043932309281737
-0.0009964212533190243   -0.041903017779218364   -0.0021019883726905025
0.00432726299213311   -0.03249351209117521   -0.0020482138212574753
-0.0003794006289983288   -0.03254640538553105   -0.0020123045700605603
-0.0009964212533190243   -0.041903017779218364   -0.0021019883726905025
0.003656039734684973   -0.041817548431500734   -0.002105255578427919
0.00432726299213311   -0.03249351209117521   -0.0020482138212574753
0.003707089568967081   -0.04180632943817571   -0.002046637171827051
-0.0003794006289983288   -0.03254640538553105   -0.0020123045700605603
0.004349295014859044   -0.03247515575652888   -0.0020242435745453785
0.003707089568967081   -0.04180632943817571   -0.002046637171827051
0.00432726299213311   -0.03249351209117521   -0.0020482138212574753
-0.0003794006289983288   -0.03254640538553105   -0.0020123045700605603
0.003707089568967081   -0.04180632943817571   -0.002046637171827051
-0.0009554454150515538   -0.04192016706549025   -0.0020586306834205086
-0.0009964212533190243   -0.041903017779218364   -0.0021019883726905025
-0.0003794006289983288   -0.03254640538553105   -0.0020123045700605603
0.003707089568967081   -0.04180632943817571   -0.002046637171827051
-0.0009964212533190243   -0.041903017779218364   -0.0021019883726905025
0.00432726299213311   -0.03249351209117521   -0.0020482138212574753
-0.0003794006289983288   -0.03254640538553105   -0.0020123045700605603
-0.0009554454150515538   -0.04192016706549025   -0.0020586306834205086
0.004349295014859044   -0.03247515575652888   -0.0020242435745453785
-0.0003629758100201094   -0.032554486451629894   -0.0019901275707203997
-0.0009554454150515538   -0.04192016706549025   -0.0020586306834205086
0.003707089568967081   -0.04180632943817571   -0.002046637171827051
0.004349295014859044   -0.03247515575652888   -0.0020242435745453785
0.003734568097421124   -0.04180004497447128   -0.0019968108784363175
-0.0003629758100201094   -0.032554486451629894   -0.0019901275707203997
0.004353983516742255   -0.03244821627127817   -0.00200894905219254
0.003734568097421124   -0.04180004497447128   -0.0019968108784363175
0.004349295014859044   -0.03247515575652888   -0.0020242435745453785
-0.0003629758100201094   -0.032554486451629894   -0.0019901275707203997
0.003734568097421124   -0.04180004497447128   -0.0019968108784363175
-0.0009206325725662967   -0.04194566746873501   -0.0020250370874516366
-0.0009554454150515538   -0.04192016706549025   -0.0020586306834205086
-0.0003629758100201094   -0.032554486451629894   -0.0019901275707203997
0.003734568097421124   -0.04180004497447128   -0.0019968108784363175
-0.0009554454150515538   -0.04192016706549025   -0.0020586306834205086
0.004349295014859044   -0.03247515575652888   -0.0020242435745453785
0.004294489799892802   -0.03250929457441707   -0.0020810408440536396
0.0036008311116786985   -0.04183911651406796   -0.002173280195276148
0.009409518382170485   -0.032498987952586884   -0.0021327130337862243
0.00432726299213311   -0.03249351209117521   -0.0020482138212574753
0.0036008311116786985   -0.04183911651406796   -0.002173280195276148
0.008568971156373485   -0.04174714591579675   -0.002250279617675456
0.009409518382170485   -0.032498987952586884   -0.0021327130337862243
0.008712903464257063   -0.04169768818670888   -0.002160948431171981
0.00432726299213311   -0.03249351209117521   -0.0020482138212574753
0.009473609264260038   -0.0324572121987038   -0.0021057251706349603
0.008712903464257063   -0.04169768818670888   -0.002160948431171981
0.009409518382170485   -0.032498987952586884   -0.0021327130337862243
0.00432726299213311   -0.03249351209117521   -0.0020482138212574753
0.008712903464257063   -0.04169768818670888   -0.002160948431171981
0.003656039734684973   -0.041817548431500734   -0.002105255578427919
0.0036008311116786985   -0.04183911651406796   -0.002173280195276148
0.00432726299213311   -0.03249351209117521   -0.0020482138212574753
0.008712903464257063   -0.04169768818670888   -0.002160948431171981
0.0036008311116786985   -0.04183911651406796   -0.002173280195276148
0.009409518382170485   -0.032498987952586884   -0.0021327130337862243
0.00432726299213311   -0.03249351209117521   -0.0020482138212574753
0.003656039734684973   -0.041817548431500734   -0.002105255578427919
0.009473609264260038   -0.0324572121987038   -0.0021057251706349603
0.004349295014859044   -0.03247515575652888   -0.0020242435745453785
0.003656039734684973   -0.041817548431500734   -0.002105255578427919
0.008712903464257063   -0.04169768818670888   -0.002160948431171981
0.009473609264260038   -0.0324572121987038   -0.0021057251706349603
0.008811873167841076   -0.04167369991629237   -0.0020850158676533385
0.004349295014859044   -0.03247515575652888   -0.0020242435745453785
0.009507639154783712   -0.0324242405952183   -0.0020921972689125867
0.008811873167841076   -0.04167369991629237   -0.0020850158676533385
0.009473609264260038   -0.0324572121987038   -0.0021057251706349603
0.004349295014859044   -0.03247515575652888   -0.0020242435745453785
0.008811873167841076   -0.04167369991629237   -0.0020850158676533385
0.003707089568967081   -0.04180632943817571   -0.002046637171827051
0.003656039734684973   -0.041817548431500734   -0.002105255578427919
0.004349295014859044   -0.03247515575652888   -0.0020242435745453785
0.008811873167841076   -0.04167369991629237   -0.0020850158676533385
0.003656039734684973   -0.041817548431500734   -0.002105255578427919
0.009473609264260038   -0.0324572121987038   -0.0021057251706349603
0.004349295014859044   -0.03247515575652888   -0.0020242435745453785
0.003707089568967081   -0.04180632943817571   -0.002046637171827051
0.009507639154783712   -0.0324242405952183   -0.0020921972689125867
0.004353983516742255   -0.03244821627127817   -0.00200894905219254
0.003707089568967081   -0.04180632943817571   -0.002046637171827051
0.008811873167841076   -0.04167369991629237   -0.0020850158676533385
0.009507639154783712   -0.0324242405952183   -0.0020921972689125867
0.00889984261469865   -0.04164764694480389   -0.002023038873136631
0.004353983516742255   -0.03244821627127817   -0.00200894905219254
0.009516157132032611   -0.03237139816647458   -0.0020923587972969467
0.00889984261469865   -0.04164764694480389   -0.002023038873136631
0.009507639154783712   -0.0324242405952183   -0.0020921972689125867
0.004353983516742255   -0.03244821627127817   -0.00200894905219254
0.00889984261469865   -0.04164764694480389   -0.002023038873136631
0.003734568097421124   -0.04180004497447128   -0.0019968108784363175
0.003707089568967081   -0.04180632943817571   -0.002046637171827051
0.004353983516742255   -0.03244821627127817   -0.00200894905219254
0.00889984261469865   -0.04164764694480389   -0.002023038873136631
0.003707089568967081   -0.04180632943817571   -0.002046637171827051
0.009507639154783712   -0.0324242405952183   -0.0020921972689125867
-0.015242193015822336   -0.041888942796323284   -0.0024193894233485507
-0.01483302429791684   -0.05074209050225323   -0.002313423804476664
-0.010180990830857677   -0.041913221909960226   -0.002282693990664904
-0.01522444919611238   -0.0419819166994902   -0.0024151111889698447
-0.01483302429791684   -0.05074209050225323   -0.002313423804476664
-0.010138892036851123   -0.05084405328864218   -0.0022311484345245236
-0.010180990830857677   -0.041913221909960226   -0.002282693990664904
-0.010079447847336796   -0.0508959054992618   -0.002243612853500455
-0.01522444919611238   -0.0419819166994902   -0.0024151111889698447
-0.010153567433699015   -0.041982704356529635   -0.0022617176054015213
-0.010079447847336796   -0.0508959054992618   -0.002243612853500455
-0.010180990830857677   -0.041913221909960226   -0.002282693990664904
-0.01522444919611238   -0.0419819166994902   -0.0024151111889698447
-0.010079447847336796   -0.0508959054992618   -0.002243612853500455
-0.014725707037922833   -0.05081210470055356   -0.0023722810037204
-0.01483302429791684   -0.05074209050225323   -0.002313423804476664
-0.01522444919611238   -0.0419819166994902   -0.0024151111889698447
-0.010079447847336796   -0.0508959054992618   -0.002243612853500455
-0.01483302429791684   -0.05074209050225323   -0.002313423804476664
-0.010180990830857677   -0.041913221909960226   -0.002282693990664904
-0.01522444919611238   -0.0419819166994902   -0.0024151111889698447
-0.014725707037922833   -0.05081210470055356   -0.0023722810037204
-0.010153567433699015   -0.041982704356529635   -0.0022617176054015213
-0.015177707733944928   -0.04207223259820232   -0.0024249785598990446
-0.014725707037922833   -0.05081210470055356   -0.0023722810037204
-0.010079447847336796   -0.0508959054992618   -0.002243612853500455
-0.010153567433699015   -0.041982704356529635   -0.0022617176054015213
-0.009998996635828039   -0.050969767934740645   -0.0022657773436983394
-0.015177707733944928   -0.04207223259820232   -0.0024249785598990446
-0.010110870318296983   -0.04205972289268178   -0.002250207616373253
-0.009998996635828039   -0.050969767934740645   -0.0022657773436983394
-0.010153567433699015   -0.041982704356529635   -0.0022617176054015213
-0.015177707733944928   -0.04207223259820232   -0.0024249785598990446
-0.009998996635828039   -0.050969767934740645   -0.0022657773436983394
-0.014603275852511175   -0.05089808511530706   -0.0024463926673644757
-0.014725707037922833   -0.05081210470055356   -0.0023722810037204
-0.015177707733944928   -0.04207223259820232   -0.0024249785598990446
-0.009998996635828039   -0.050969767934740645   -0.0022657773436983394
-0.014725707037922833   -0.05081210470055356   -0.0023722810037204
-0.010153567433699015   -0.041982704356529635   -0.0022617176054015213
-0.015177707733944928   -0.04207223259820232   -0.0024249785598990446
-0.014603275852511175   -0.05089808511530706   -0.0024463926673644757
-0.010110870318296983   -0.04205972289268178   -0.002250207616373253
-0.015101966245693247   -0.042188610558551574   -0.0024497098688451577
-0.014603275852511175   -0.05089808511530706   -0.0024463926673644757
-0.009998996635828039   -0.050969767934740645   -0.0022657773436983394
-0.010110870318296983   -0.04205972289268178   -0.002250207616373253
-0.009912687009593886   -0.051070148300492654   -0.00229792585156968
-0.015101966245693247   -0.042188610558551574   -0.0024497098688451577
-0.01005562182592967   -0.042149583104198994   -0.0022480079841228906
-0.009912687009593886   -0.051070148300492654   -0.00229792585156968
-0.010110870318296983   -0.04205972289268178   -0.002250207616373253
-0.015101966245693247   -0.042188610558551574   -0.0024497098688451577
-0.009912687009593886   -0.051070148300492654   -0.00229792585156968
-0.014436609982952145   -0.05102899029266068   -0.002536043598038096
-0.014603275852511175   -0.05089808511530706   -0.0024463926673644757
-0.015101966245693247   -0.042188610558551574   -0.0024497098688451577
-0.009912687009593886   -0.051070148300492654   -0.00229792585156968
-0.014603275852511175   -0.05089808511530706   -0.0024463926673644757
-0.010110870318296983   -0.04205972289268178   -0.002250207616373253
-0.010180990830857677   -0.041913221909960226   -0.002282693990664904
-0.010138892036851123   -0.05084405328864218   -0.0022311484345245236
-0.0055447937135894194   -0.041918453425308276   -0.002191846521177563
-0.010153567433699015   -0.041982704356529635   -0.0022617176054015213
-0.010138892036851123   -0.05084405328864218   -0.0022311484345245236
-0.005930766619366843   -0.05088434474768427   -0.002178501803489607
-0.0055447937135894194   -0.041918453425308276   -0.002191846521177563
-0.005866050874257496   -0.050911285835326225   -0.0021513464347866305
-0.010153567433699015   -0.041982704356529635   -0.0022617176054015213
-0.005508152152454334   -0.04195829004307305   -0.0021545556442326935
-0.005866050874257496   -0.050911285835326225   -0.0021513464347866305
-0.0055447937135894194   -0.041918453425308276   -0.002191846521177563
-0.010153567433699015   -0.041982704356529635   -0.0022617176054015213
-0.005866050874257496   -0.050911285835326225   -0.0021513464347866305
-0.010079447847336796   -0.0508959054992618   -0.002243612853500455
-0.010138892036851123   -0.05084405328864218   -0.0022311484345245236
-0.010153567433699015   -0.041982704356529635   -0.0022617176054015213
-0.005866050874257496   -0.050911285835326225   -0.0021513464347866305
-0.010138892036851123   -0.05084405328864218   -0.0022311484345245236
-0.0055447937135894194   -0.041918453425308276   -0.002191846521177563
-0.010153567433699015   -0.041982704356529635   -0.0022617176054015213
-0.010079447847336796   -0.0508959054992618   -0.002243612853500455
-0.005508152152454334   -0.04195829004307305   -0.0021545556442326935
-0.010110870318296983   -0.04205972289268178   -0.002250207616373253
-0.010079447847336796   -0.0508959054992618   -0.002243612853500455
-0.005866050874257496   -0.050911285835326225   -0.0021513464347866305
-0.005508152152454334   -0.04195829004307305   -0.0021545556442326935
-0.005796442090996309   -0.05095938620714631   -0.002133772550707773
-0.010110870318296983   -0.04205972289268178   -0.002250207616373253
-0.005466778248358004   -0.042006760623040235   -0.0021267660007470188
-0.005796442090996309   -0.05095938620714631   -0.002133772550707773
-0.005508152152454334   -0.04195829004307305   -0.0021545556442326935
-0.010110870318296983   -0.04205972289268178   -0.002250207616373253
-0.005796442090996309   -0.05095938620714631   -0.002133772550707773
-0.009998996635828039   -0.050969767934740645   -0.0022657773436983394
-0.010079447847336796   -0.0508959054992618   -0.002243612853500455
-0.010110870318296983   -0.04205972289268178   -0.002250207616373253
-0.005796442090996309   -0.05095938620714631   -0.002133772550707773
-0.010079447847336796   -0.0508959054992618   -0.002243612853500455
-0.005508152152454334   -0.04195829004307305   -0.0021545556442326935
-0.010110870318296983   -0.04205972289268178   -0.002250207616373253
-0.009998996635828039   -0.050969767934740645   -0.0022657773436983394
-0.005466778248358004   -0.042006760623040235   -0.0021267660007470188
-0.01005562182592967   -0.042149583104198994   -0.0022480079841228906
-0.009998996635828039   -0.050969767934740645   -0.0022657773436983394
-0.005796442090996309   -0.05095938620714631   -0.002133772550707773
-0.005466778248358004   -0.042006760623040235   -0.0021267660007470188
-0.005724892873372878   -0.0510292524960523   -0.0021262501402153564
-0.01005562182592967   -0.042149583104198994   -0.0022480079841228906
-0.005422201937758715   -0.042064016351341445   -0.0021087870650876527
-0.005724892873372878   -0.0510292524960523   -0.0021262501402153564
-0.005466778248358004   -0.042006760623040235   -0.0021267660007470188
-0.01005562182592967   -0.042149583104198994   -0.0022480079841228906
-0.005724892873372878   -0.0510292524960523   -0.0021262501402153564
-0.009912687009593886   -0.051070148300492654   -0.00229792585156968
-0.009998996635828039   -0.050969767934740645   -0.0022657773436983394
-0.01005562182592967   -0.042149583104198994   -0.0022480079841228906
-0.005724892873372878   -0.0510292524960523   -0.0021262501402153564
-0.009998996635828039   -0.050969767934740645   -0.0022657773436983394
-0.005466778248358004   -0.042006760623040235   -0.0021267660007470188
-0.0055447937135894194   -0.041918453425308276   -0.002191846521177563
-0.005930766619366843   -0.05088434474768427   -0.002178501803489607
-0.0010397268631599243   -0.04189382985368762   -0.0021547812539745607
-0.005508152152454334   -0.04195829004307305   -0.0021545556442326935
-0.005930766619366843   -0.05088434474768427   -0.002178501803489607
-0.0018500291350538854   -0.050853307338039125   -0.002169880373167117
-0.0010397268631599243   -0.04189382985368762   -0.0021547812539745607
-0.0017784529908936148   -0.05085388510321562   -0.0021044642113366087
-0.005508152152454334   -0.04195829004307305   -0.0021545556442326935
-0.0009964212533190243   -0.041903017779218364   -0.0021019883726905025
-0.0017784529908936148   -0.05085388510321562   -0.0021044642113366087
-0.0010397268631599243   -0.04189382985368762   -0.0021547812539745607
-0.005508152152454334   -0.04195829004307305   -0.0021545556442326935
-0.0017784529908936148   -0.05085388510321562   -0.0021044642113366087
-0.005866050874257496   -0.050911285835326225   -0.0021513464347866305
-0.005930766619366843   -0.05088434474768427   -0.002178501803489607
-0.005508152152454334   -0.04195829004307305   -0.0021545556442326935
-0.0017784529908936148   -0.05085388510321562   -0.0021044642113366087
-0.005930766619366843   -0.05088434474768427   -0.002178501803489607
-0.0010397268631599243   -0.04189382985368762   -0.0021547812539745607
-0.005508152152454334   -0.04195829004307305   -0.0021545556442326935
-0.005866050874257496   -0.050911285835326225   -0.0021513464347866305
-0.0009964212533190243   -0.041903017779218364   -0.0021019883726905025
-0.005466778248358004   -0.042006760623040235   -0.0021267660007470188
-0.005866050874257496   -0.050911285835326225   -0.0021513464347866305
-0.0017784529908936148   -0.05085388510321562   -0.0021044642113366087
-0.0009964212533190243   -0.041903017779218364   -0.0021019883726905025
-0.001708747902410981   -0.05087407710680376   -0.0020486541855900316
-0.005466778248358004   -0.042006760623040235   -0.0021267660007470188
-0.0009554454150515538   -0.04192016706549025   -0.0020586306834205086
-0.001708747902410981   -0.05087407710680376   -0.0020486541855900316
-0.0009964212533190243   -0.041903017779218364   -0.0021019883726905025
-0.005466778248358004   -0.042006760623040235   -0.0021267660007470188
-0.001708747902410981   -0.05087407710680376   -0.0020486541855900316
-0.005796442090996309   -0.05095938620714631   -0.002133772550707773
-0.005866050874257496   -0.050911285835326225   -0.0021513464347866305
-0.005466778248358004   -0.042006760623040235   -0.0021267660007470188
-0.001708747902410981   -0.05087407710680376   -0.0020486541855900316
-0.005866050874257496   -0.050911285835326225   -0.0021513464347866305
-0.0009964212533190243   -0.041903017779218364   -0.0021019883726905025
-0.005466778248358004   -0.042006760623040235   -0.0021267660007470188
-0.005796442090996309   -0.05095938620714631   -0.002133772550707773
-0.0009554454150515538   -0.04192016706549025   -0.0020586306834205086
-0.005422201937758715   -0.042064016351341445   -0.0021087870650876527
-0.005796442090996309   -0.05095938620714631   -0.002133772550707773
-0.001708747902410981   -0.05087407710680376   -0.0020486541855900316
-0.0009554454150515538   -0.04192016706549025   -0.0020586306834205086
-0.0016465408639084482   -0.05091555229422874   -0.002002783816905366
-0.005422201937758715   -0.042064016351341445   -0.0021087870650876527
-0.0009206325725662967   -0.04194566746873501   -0.0020250370874516366
-0.0016465408639084482   -0.05091555229422874   -0.002002783816905366
-0.0009554454150515538   -0.04192016706549025   -0.0020586306834205086
-0.005422201937758715   -0.042064016351341445   -0.0021087870650876527
-0.0016465408639084482   -0.05091555229422874   -0.002002783816905366
-0.005724892873372878   -0.0510292524960523   -0.0021262501402153564
-0.005796442090996309   -0.05095938620714631   -0.002133772550707773
-0.005422201937758715   -0.042064016351341445   -0.0021087870650876527
-0.0016465408639084482   -0.05091555229422874   -0.002002783816905366
-0.005796442090996309   -0.05095938620714631   -0.002133772550707773
-0.0009554454150515538   -0.04192016706549025   -0.0020586306834205086
-0.0010397268631599243   -0.04189382985368762   -0.0021547812539745607
-0.0018500291350538854   -0.050853307338039125   -0.002169880373167117
0.0036008311116786985   -0.04183911651406796   -0.002173280195276148
-0.0009964212533190243   -0.041903017779218364   -0.0021019883726905025
-0.0018500291350538854   -0.050853307338039125   -0.002169880373167117
0.002371149455651897   -0.05075302147127181   -0.0022087383464721756
0.0036008311116786985   -0.04183911651406796   -0.002173280195276148
0.002458667908441977   -0.050725458402713024   -0.002105417235624827
-0.0009964212533190243   -0.041903017779218364   -0.0021019883726905025
0.003656039734684973   -0.041817548431500734   -0.002105255578427919
0.002458667908441977   -0.050725458402713024   -0.002105417235624827
0.0036008311116786985   -0.04183911651406796   -0.002173280195276148
-0.0009964212533190243   -0.041903017779218364   -0.0021019883726905025
0.002458667908441977   -0.050725458402713024   -0.002105417235624827
-0.0017784529908936148   -0.05085388510321562   -0.0021044642113366087
-0.0018500291350538854   -0.050853307338039125   -0.002169880373167117
-0.0009964212533190243   -0.041903017779218364   -0.0021019883726905025
0.002458667908441977   -0.050725458402713024   -0.002105417235624827
-0.0018500291350538854   -0.050853307338039125   -0.002169880373167117
0.0036008311116786985   -0.04183911651406796   -0.002173280195276148
-0.0009964212533190243   -0.041903017779218364   -0.0021019883726905025
-0.0017784529908936148   -0.05085388510321562   -0.0021044642113366087
0.003656039734684973   -0.041817548431500734   -0.002105255578427919
-0.0009554454150515538   -0.04192016706549025   -0.0020586306834205086
-0.0017784529908936148   -0.05085388510321562   -0.0021044642113366087
0.002458667908441977   -0.050725458402713024   -0.002105417235624827
0.003656039734684973   -0.041817548431500734   -0.002105255578427919
0.0025484247941292156   -0.05072030608966369   -0.002012316323232872
-0.0009554454150515538   -0.04192016706549025   -0.0020586306834205086
0.003707089568967081   -0.04180632943817571   -0.002046637171827051
0.0025484247941292156   -0.05072030608966369   -0.002012316323232872
0.003656039734684973   -0.041817548431500734   -0.002105255578427919
-0.0009554454150515538   -0.04192016706549025   -0.0020586306834205086
0.0025484247941292156   -0.05072030608966369   -0.002012316323232872
-0.001708747902410981   -0.05087407710680376   -0.0020486541855900316
-0.0017784529908936148   -0.05085388510321562   -0.0021044642113366087
-0.0009554454150515538   -0.04192016706549025   -0.0020586306834205086
0.0025484247941292156   -0.05072030608966369   -0.002012316323232872
-0.0017784529908936148   -0.05085388510321562   -0.0021044642113366087
0.003656039734684973   -0.041817548431500734   -0.002105255578427919
-0.0009554454150515538   -0.04192016706549025   -0.0020586306834205086
-0.001708747902410981   -0.05087407710680376   -0.0020486541855900316
0.003707089568967081   -0.04180632943817571   -0.002046637171827051
-0.0009206325725662967   -0.04194566746873501   -0.0020250370874516366
-0.001708747902410981   -0.05087407710680376   -0.0020486541855900316
0.0025484247941292156   -0.05072030608966369   -0.002012316323232872
0.003707089568967081   -0.04180632943817571   -0.002046637171827051
0.002608145460370751   -0.05073343294566132   -0.001928087486160412
-0.0009206325725662967   -0.04194566746873501   -0.0020250370874516366
0.003734568097421124   -0.04180004497447128   -0.0019968108784363175
0.002608145460370751   -0.05073343294566132   -0.001928087486160412
0.003707089568967081   -0.04180632943817571   -0.002046637171827051
-0.0009206325725662967   -0.04194566746873501   -0.0020250370874516366
0.002608145460370751   -0.05073343294566132   -0.001928087486160412
-0.0016465408639084482   -0.05091555229422874   -0.002002783816905366
-0.001708747902410981   -0.05087407710680376   -0.0020486541855900316
-0.0009206325725662967   -0.04194566746873501   -0.0020250370874516366
0.002608145460370751   -0.05073343294566132   -0.001928087486160412
-0.001708747902410981   -0.05087407710680376   -0.0020486541855900316
0.003707089568967081   -0.04180632943817571   -0.002046637171827051
0.0036008311116786985   -0.04183911651406796   -0.002173280195276148
0.002371149455651897   -0.05075302147127181   -0.0022087383464721756
0.008568971156373485   -0.04174714591579675   -0.002250279617675456
0.003656039734684973   -0.041817548431500734   -0.002105255578427919
0.002371149455651897   -0.05075302147127181   -0.0022087383464721756
0.006861214656893037   -0.05058059407851953   -0.0023088798985207437
0.008568971156373485   -0.04174714591579675   -0.002250279617675456
0.007094078519008955   -0.050523808224101255   -0.002158513686105666
0.003656039734684973   -0.041817548431500734   -0.002105255578427919
0.008712903464257063   -0.04169768818670888   -0.002160948431171981
0.007094078519008955   -0.050523808224101255   -0.002158513686105666
0.008568971156373485   -0.04174714591579675   -0.002250279617675456
0.003656039734684973   -0.041817548431500734   -0.002105255578427919
0.007094078519008955   -0.050523808224101255   -0.002158513686105666
0.002458667908441977   -0.050725458402713024   -0.002105417235624827
0.002371149455651897   -0.05075302147127181   -0.0022087383464721756
0.003656039734684973   -0.041817548431500734   -0.002105255578427919
0.007094078519008955   -0.050523808224101255   -0.002158513686105666
0.002371149455651897   -0.05075302147127181   -0.0022087383464721756
0.008568971156373485   -0.04174714591579675   -0.002250279617675456
0.003656039734684973   -0.041817548431500734   -0.002105255578427919
0.002458667908441977   -0.050725458402713024   -0.002105417235624827
0.008712903464257063   -0.04169768818670888   -0.002160948431171981
0.003707089568967081   -0.04180632943817571   -0.002046637171827051
0.002458667908441977   -0.050725458402713024   -0.002105417235624827
0.007094078519008955   -0.050523808224101255   -0.002158513686105666
0.008712903464257063   -0.04169768818670888   -0.002160948431171981
0.007266549997418547   -0.05050818287761607   -0.002021741495106357
0.003707089568967081   -0.04180632943817571   -0.002046637171827051
0.008811873167841076   -0.04167369991629237   -0.0020850158676533385
0.007266549997418547   -0.05050818287761607   -0.002021741495106357
0.008712903464257063   -0.04169768818670888   -0.002160948431171981
0.003707089568967081   -0.04180632943817571   -0.002046637171827051
0.007266549997418547   -0.05050818287761607   -0.002021741495106357
0.0025484247941292156   -0.05072030608966369   -0.002012316323232872
0.002458667908441977   -0.050725458402713024   -0.002105417235624827
0.003707089568967081   -0.04180632943817571   -0.002046637171827051
0.007266549997418547   -0.05050818287761607   -0.002021741495106357
0.002458667908441977   -0.050725458402713024   -0.002105417235624827
0.008712903464257063   -0.04169768818670888   -0.002160948431171981
0.003707089568967081   -0.04180632943817571   -0.002046637171827051
0.0025484247941292156   -0.05072030608966369   -0.002012316323232872
0.008811873167841076   -0.04167369991629237   -0.0020850158676533385
0.003734568097421124   -0.04180004497447128   -0.0019968108784363175
0.0025484247941292156   -0.05072030608966369   -0.002012316323232872
0.007266549997418547   -0.05050818287761607   -0.002021741495106357
0.008811873167841076   -0.04167369991629237   -0.0020850158676533385
0.007441471546733499   -0.05050804708445967   -0.001899184634054811
0.003734568097421124   -0.04180004497447128   -0.0019968108784363175
0.00889984261469865   -0.04164764694480389   -0.002023038873136631
0.007441471546733499   -0.05050804708445967   -0.001899184634054811
0.008811873167841076   -0.04167369991629237   -0.0020850158676533385
0.003734568097421124   -0.04180004497447128   -0.0019968108784363175
0.007441471546733499   -0.05050804708445967   -0.001899184634054811
0.002608145460370751   -0.05073343294566132   -0.001928087486160412
0.0025484247941292156   -0.05072030608966369   -0.002012316323232872
0.003734568097421124   -0.04180004497447128   -0.0019968108784363175
0.007441471546733499   -0.05050804708445967   -0.001899184634054811
0.0025484247941292156   -0.05072030608966369   -0.002012316323232872
0.008811873167841076   -0.04167369991629237   -0.0020850158676533385
-0.01483302429791684   -0.05074209050225323   -0.002313423804476664
-0.013537210965961527   -0.05857448429967553   -0.0021575477924476024
-0.010138892036851123   -0.05084405328864218   -0.0022311484345245236
-0.014725707037922833   -0.05081210470055356   -0.0023722810037204
-0.013537210965961527   -0.05857448429967553   -0.0021575477924476024
-0.00958680349790862   -0.05875833690747995   -0.0021443199508772324
-0.010138892036851123   -0.05084405328864218   -0.0022311484345245236
-0.009488310155939676   -0.058784922959076315   -0.0021878079465039338
-0.014725707037922833   -0.05081210470055356   -0.0023722810037204
-0.010079447847336796   -0.0508959054992618   -0.002243612853500455
-0.009488310155939676   -0.058784922959076315   -0.0021878079465039338
-0.010138892036851123   -0.05084405328864218   -0.0022311484345245236
-0.014725707037922833   -0.05081210470055356   -0.0023722810037204
-0.009488310155939676   -0.058784922959076315   -0.0021878079465039338
-0.013331995295300119   -0.05861393066939111   -0.002279325171091047
-0.013537210965961527   -0.05857448429967553   -0.0021575477924476024
-0.014725707037922833   -0.05081210470055356   -0.0023722810037204
-0.009488310155939676   -0.058784922959076315   -0.0021878079465039338
-0.013537210965961527   -0.05857448429967553   -0.0021575477924476024
-0.010138892036851123   -0.05084405328864218   -0.0022311484345245236
-0.014725707037922833   -0.05081210470055356   -0.0023722810037204
-0.013331995295300119   -0.05861393066939111   -0.002279325171091047
-0.010079447847336796   -0.0508959054992618   -0.002243612853500455
-0.014603275852511175   -0.05089808511530706   -0.0024463926673644757
-0.013331995295300119   -0.05861393066939111   -0.002279325171091047
-0.009488310155939676   -0.058784922959076315   -0.0021878079465039338
-0.010079447847336796   -0.0508959054992618   -0.002243612853500455
-0.00936459710203144   -0.058848648256379275   -0.002241134430688814
-0.014603275852511175   -0.05089808511530706   -0.0024463926673644757
-0.009998996635828039   -0.050969767934740645   -0.0022657773436983394
-0.00936459710203144   -0.058848648256379275   -0.002241134430688814
-0.010079447847336796   -0.0508959054992618   -0.002243612853500455
-0.014603275852511175   -0.05089808511530706   -0.0024463926673644757
-0.00936459710203144   -0.058848648256379275   -0.002241134430688814
-0.013127339147633605   -0.058688718115070475   -0.0024171220620355723
-0.013331995295300119   -0.05861393066939111   -0.002279325171091047
-0.014603275852511175   -0.05089808511530706   -0.0024463926673644757
-0.00936459710203144   -0.058848648256379275   -0.002241134430688814
-0.013331995295300119   -0.05861393066939111   -0.002279325171091047
-0.010079447847336796   -0.0508959054992618   -0.002243612853500455
-0.014603275852511175   -0.05089808511530706   -0.0024463926673644757
-0.013127339147633605   -0.058688718115070475   -0.0024171220620355723
-0.009998996635828039   -0.050969767934740645   -0.0022657773436983394
-0.014436609982952145   -0.05102899029266068   -0.002536043598038096
-0.013127339147633605   -0.058688718115070475   -0.0024171220620355723
-0.00936459710203144   -0.058848648256379275   -0.002241134430688814
-0.009998996635828039   -0.050969767934740645   -0.0022657773436983394
-0.009242539009774925   -0.0589531329635663   -0.002304206913905418
-0.014436609982952145   -0.05102899029266068   -0.002536043598038096
-0.009912687009593886   -0.051070148300492654   -0.00229792585156968
-0.009242539009774925   -0.0589531329635663   -0.002304206913905418
-0.009998996635828039   -0.050969767934740645   -0.0022657773436983394
-0.014436609982952145   -0.05102899029266068   -0.002536043598038096
-0.009242539009774925   -0.0589531329635663   -0.002304206913905418
-0.012865198741119015   -0.05882817479873548   -0.0025706462625360352
-0.013127339147633605   -0.058688718115070475   -0.0024171220620355723
-0.014436609982952145   -0.05102899029266068   -0.002536043598038096
-0.009242539009774925   -0.0589531329635663   -0.002304206913905418
-0.013127339147633605   -0.058688718115070475   -0.0024171220620355723
-0.009998996635828039   -0.050969767934740645   -0.0022657773436983394
-0.010138892036851123   -0.05084405328864218   -0.0022311484345245236
-0.00958680349790862   -0.05875833690747995   -0.0021443199508772324
-0.005930766619366843   -0.05088434474768427   -0.002178501803489607
-0.010079447847336796   -0.0508959054992618   -0.002243612853500455
-0.00958680349790862   -0.05875833690747995   -0.0021443199508772324
-0.006165773784790761   -0.058844385338150694   -0.0021390931154636485
-0.005930766619366843   -0.05088434474768427   -0.002178501803489607
-0.006064734411702127   -0.05885309259817259   -0.0021196149425929335
-0.010079447847336796   -0.0508959054992618   -0.002243612853500455
-0.005866050874257496   -0.050911285835326225   -0.0021513464347866305
-0.006064734411702127   -0.05885309259817259   -0.0021196149425929335
-0.005930766619366843   -0.05088434474768427   -0.002178501803489607
-0.010079447847336796   -0.0508959054992618   -0.002243612853500455
-0.006064734411702127   -0.05885309259817259   -0.0021196149425929335
-0.009488310155939676   -0.058784922959076315   -0.0021878079465039338
-0.00958680349790862   -0.05875833690747995   -0.0021443199508772324
-0.010079447847336796   -0.0508959054992618   -0.002243612853500455
-0.006064734411702127   -0.05885309259817259   -0.0021196149425929335
-0.00958680349790862   -0.05875833690747995   -0.0021443199508772324
-0.005930766619366843   -0.05088434474768427   -0.002178501803489607
-0.010079447847336796   -0.0508959054992618   -0.002243612853500455
-0.009488310155939676   -0.058784922959076315   -0.0021878079465039338
-0.005866050874257496   -0.050911285835326225   -0.0021513464347866305
-0.009998996635828039   -0.050969767934740645   -0.0022657773436983394
-0.009488310155939676   -0.058784922959076315   -0.0021878079465039338
-0.006064734411702127   -0.05885309259817259   -0.0021196149425929335
-0.005866050874257496   -0.050911285835326225   -0.0021513464347866305
-0.005960444371345479   -0.05889496504883408   -0.0021096838934558694
-0.009998996635828039   -0.050969767934740645   -0.0022657773436983394
-0.005796442090996309   -0.05095938620714631   -0.002133772550707773
-0.005960444371345479   -0.05889496504883408   -0.0021096838934558694
-0.005866050874257496   -0.050911285835326225   -0.0021513464347866305
-0.009998996635828039   -0.050969767934740645   -0.0022657773436983394
-0.005960444371345479   -0.05889496504883408   -0.0021096838934558694
-0.00936459710203144   -0.058848648256379275   -0.002241134430688814
-0.009488310155939676   -0.058784922959076315   -0.0021878079465039338
-0.009998996635828039   -0.050969767934740645   -0.0022657773436983394
-0.005960444371345479   -0.05889496504883408   -0.0021096838934558694
-0.009488310155939676   -0.058784922959076315   -0.0021878079465039338
-0.005866050874257496   -0.050911285835326225   -0.0021513464347866305
-0.009998996635828039   -0.050969767934740645   -0.0022657773436983394
-0.00936459710203144   -0.058848648256379275   -0.002241134430688814
-0.005796442090996309   -0.05095938620714631   -0.002133772550707773
-0.009912687009593886   -0.051070148300492654   -0.00229792585156968
-0.00936459710203144   -0.058848648256379275   -0.002241134430688814
-0.005960444371345479   -0.05889496504883408   -0.0021096838934558694
-0.005796442090996309   -0.05095938620714631   -0.002133772550707773
-0.0058563220729148865   -0.058971950334258144   -0.002109179733175795
-0.009912687009593886   -0.051070148300492654   -0.00229792585156968
-0.005724892873372878   -0.0510292524960523   -0.0021262501402153564
-0.0058563220729148865   -0.058971950334258144   -0.002109179733175795
-0.005796442090996309   -0.05095938620714631   -0.002133772550707773
-0.009912687009593886   -0.051070148300492654   -0.00229792585156968
-0.0058563220729148865   -0.058971950334258144   -0.002109179733175795
-0.009242539009774925   -0.0589531329635663   -0.002304206913905418
-0.00936459710203144   -0.058848648256379275   -0.002241134430688814
-0.009912687009593886   -0.051070148300492654   -0.00229792585156968
-0.0058563220729148865   -0.058971950334258144   -0.002109179733175795
-0.00936459710203144   -0.058848648256379275   -0.002241134430688814
-0.005796442090996309   -0.05095938620714631   -0.002133772550707773
-0.005930766619366843   -0.05088434474768427   -0.002178501803489607
-0.006165773784790761   -0.058844385338150694   -0.0021390931154636485
-0.0018500291350538854   -0.050853307338039125   -0.002169880373167117
-0.005866050874257496   -0.050911285835326225   -0.0021513464347866305
-0.006165773784790761   -0.058844385338150694   -0.0021390931154636485
-0.0028582675990906433   -0.05882862243520796   -0.002163690881767018
-0.0018500291350538854   -0.050853307338039125   -0.002169880373167117
-0.0027475956558670155   -0.058817244779219055   -0.002083454354687071
-0.005866050874257496   -0.050911285835326225   -0.0021513464347866305
-0.0017784529908936148   -0.05085388510321562   -0.0021044642113366087
-0.0027475956558670155   -0.058817244779219055   -0.002083454354687071
-0.0018500291350538854   -0.050853307338039125   -0.002169880373167117
-0.005866050874257496   -0.050911285835326225   -0.0021513464347866305
-0.0027475956558670155   -0.058817244779219055   -0.002083454354687071
-0.006064734411702127   -0.05885309259817259   -0.0021196149425929335
-0.006165773784790761   -0.058844385338150694   -0.0021390931154636485
-0.005866050874257496   -0.050911285835326225   -0.0021513464347866305
-0.0027475956558670155   -0.058817244779219055   -0.002083454354687071
-0.006165773784790761   -0.058844385338150694   -0.0021390931154636485
-0.0018500291350538854   -0.050853307338039125   -0.002169880373167117
-0.005866050874257496   -0.050911285835326225   -0.0021513464347866305
-0.006064734411702127   -0.05885309259817259   -0.0021196149425929335
-0.0017784529908936148   -0.05085388510321562   -0.0021044642113366087
-0.005796442090996309   -0.05095938620714631   -0.002133772550707773
-0.006064734411702127   -0.05885309259817259   -0.0021196149425929335
-0.0027475956558670155   -0.058817244779219055   -0.002083454354687071
-0.0017784529908936148   -0.05085388510321562   -0.0021044642113366087
-0.0026401796217520087   -0.05883586481897368   -0.0020133949214659573
-0.005796442090996309   -0.05095938620714631   -0.002133772550707773
-0.001708747902410981   -0.05087407710680376   -0.0020486541855900316
-0.0026401796217520087   -0.05883586481897368   -0.0020133949214659573
-0.0017784529908936148   -0.05085388510321562   -0.0021044642113366087
-0.005796442090996309   -0.05095938620714631   -0.002133772550707773
-0.0026401796217520087   -0.05883586481897368   -0.0020133949214659573
-0.005960444371345479   -0.05889496504883408   -0.0021096838934558694
-0.006064734411702127   -0.05885309259817259   -0.0021196149425929335
-0.005796442090996309   -0.05095938620714631   -0.002133772550707773
-0.0026401796217520087   -0.05883586481897368   -0.0020133949214659573
-0.006064734411702127   -0.05885309259817259   -0.0021196149425929335
-0.0017784529908936148   -0.05085388510321562   -0.0021044642113366087
-0.005796442090996309   -0.05095938620714631   -0.002133772550707773
-0.005960444371345479   -0.05889496504883408   -0.0021096838934558694
-0.001708747902410981   -0.05087407710680376   -0.0020486541855900316
-0.005724892873372878   -0.0510292524960523   -0.0021262501402153564
-0.005960444371345479   -0.05889496504883408   -0.0021096838934558694
-0.0026401796217520087   -0.05883586481897368   -0.0020133949214659573
-0.001708747902410981   -0.05087407710680376   -0.0020486541855900316
-0.0025431260408073264   -0.058888820705968   -0.0019526323917384832
-0.005724892873372878   -0.0510292524960523   -0.0021262501402153564
-0.0016465408639084482   -0.05091555229422874   -0.002002783816905366
-0.0025431260408073264   -0.058888820705968   -0.0019526323917384832
-0.001708747902410981   -0.05087407710680376   -0.0020486541855900316
-0.005724892873372878   -0.0510292524960523   -0.0021262501402153564
-0.0025431260408073264   -0.058888820705968   -0.0019526323917384832
-0.0058563220729148865   -0.058971950334258144   -0.002109179733175795
-0.005960444371345479   -0.05889496504883408   -0.0021096838934558694
-0.005724892873372878   -0.0510292524960523   -0.0021262501402153564
-0.0025431260408073264   -0.058888820705968   -0.0019526323917384832
-0.005960444371345479   -0.05889496504883408   -0.0021096838934558694
-0.001708747902410981   -0.05087407710680376   -0.0020486541855900316
-0.0018500291350538854   -0.050853307338039125   -0.002169880373167117
-0.0028582675990906433   -0.05882862243520796   -0.002163690881767018
0.002371149455651897   -0.05075302147127181   -0.0022087383464721756
-0.0017784529908936148   -0.05085388510321562   -0.0021044642113366087
-0.0028582675990906433   -0.05882862243520796   -0.002163690881767018
0.000603902774096892   -0.05870740319692912   -0.0022234913009189926
0.002371149455651897   -0.05075302147127181   -0.0022087383464721756
0.0007385502791816694   -0.0586705278540217   -0.0020827008367531982
-0.0017784529908936148   -0.05085388510321562   -0.0021044642113366087
0.002458667908441977   -0.050725458402713024   -0.002105417235624827
0.0007385502791816694   -0.0586705278540217   -0.0020827008367531982
0.002371149455651897   -0.05075302147127181   -0.0022087383464721756
-0.0017784529908936148   -0.05085388510321562   -0.0021044642113366087
0.0007385502791816694   -0.0586705278540217   -0.0020827008367531982
-0.0027475956558670155   -0.058817244779219055   -0.002083454354687071
-0.0028582675990906433   -0.05882862243520796   -0.002163690881767018
-0.0017784529908936148   -0.05085388510321562   -0.0021044642113366087
0.0007385502791816694   -0.0586705278540217   -0.0020827008367531982
-0.0028582675990906433   -0.05882862243520796   -0.002163690881767018
0.002371149455651897   -0.05075302147127181   -0.0022087383464721756
-0.0017784529908936148   -0.05085388510321562   -0.0021044642113366087
-0.0027475956558670155   -0.058817244779219055   -0.002083454354687071
0.002458667908441977   -0.050725458402713024   -0.002105417235624827
-0.001708747902410981   -0.05087407710680376   -0.0020486541855900316
-0.0027475956558670155   -0.058817244779219055   -0.002083454354687071
0.0007385502791816694   -0.0586705278540217   -0.0020827008367531982
0.002458667908441977   -0.050725458402713024   -0.002105417235624827
0.000880471743253808   -0.058667190516291975   -0.0019548091449012248
-0.001708747902410981   -0.05087407710680376   -0.0020486541855900316
0.0025484247941292156   -0.05072030608966369   -0.002012316323232872
0.000880471743253808   -0.058667190516291975   -0.0019548091449012248
0.002458667908441977   -0.050725458402713024   -0.002105417235624827
-0.001708747902410981   -0.05087407710680376   -0.0020486541855900316
0.000880471743253808   -0.058667190516291975   -0.0019548091449012248
-0.0026401796217520087   -0.05883586481897368   -0.0020133949214659573
-0.0027475956558670155   -0.058817244779219055   -0.002083454354687071
-0.001708747902410981   -0.05087407710680376   -0.0020486541855900316
0.000880471743253808   -0.058667190516291975   -0.0019548091449012248
-0.0027475956558670155   -0.058817244779219055   -0.002083454354687071
0.002458667908441977   -0.050725458402713024   -0.002105417235624827
-0.001708747902410981   -0.05087407710680376   -0.0020486541855900316
-0.0026401796217520087   -0.05883586481897368   -0.0020133949214659573
0.0025484247941292156   -0.05072030608966369   -0.002012316323232872
-0.0016465408639084482   -0.05091555229422874   -0.002002783816905366
-0.0026401796217520087   -0.05883586481897368   -0.0020133949214659573
0.000880471743253808   -0.058667190516291975   -0.0019548091449012248
0.0025484247941292156   -0.05072030608966369   -0.002012316323232872
0.0009842676823551893   -0.05869586164223617   -0.0018357980280332587
-0.0016465408639084482   -0.05091555229422874   -0.002002783816905366
0.002608145460370751   -0.05073343294566132   -0.001928087486160412
0.0009842676823551893   -0.05869586164223617   -0.0018357980280332587
0.0025484247941292156   -0.05072030608966369   -0.002012316323232872
-0.0016465408639084482   -0.05091555229422874   -0.002002783816905366
0.0009842676823551893   -0.05869586164223617   -0.0018357980280332587
-0.0025431260408073264   -0.058888820705968   -0.0019526323917384832
-0.0026401796217520087   -0.05883586481897368   -0.0020133949214659573
-0.0016465408639084482   -0.05091555229422874   -0.002002783816905366
0.0009842676823551893   -0.05869586164223617   -0.0018357980280332587
-0.0026401796217520087   -0.05883586481897368   -0.0020133949214659573
0.0025484247941292156   -0.05072030608966369   -0.002012316323232872
0.002371149455651897   -0.05075302147127181   -0.0022087383464721756
0.000603902774096892   -0.05870740319692912   -0.0022234913009189926
0.006861214656893037   -0.05058059407851953   -0.0023088798985207437
0.002458667908441977   -0.050725458402713024   -0.002105417235624827
0.000603902774096892   -0.05870740319692912   -0.0022234913009189926
0.004294353991750976   -0.05846924382211651   -0.0023512352542571493
0.006861214656893037   -0.05058059407851953   -0.0023088798985207437
0.004635566641399696   -0.05839848907479112   -0.0021357491313785818
0.002458667908441977   -0.050725458402713024   -0.002105417235624827
0.007094078519008955   -0.050523808224101255   -0.002158513686105666
0.004635566641399696   -0.05839848907479112   -0.0021357491313785818
0.006861214656893037   -0.05058059407851953   -0.0023088798985207437
0.002458667908441977   -0.050725458402713024   -0.002105417235624827
0.004635566641399696   -0.05839848907479112   -0.0021357491313785818
0.0007385502791816694   -0.0586705278540217   -0.0020827008367531982
0.000603902774096892   -0.05870740319692912   -0.0022234913009189926
0.002458667908441977   -0.050725458402713024   -0.002105417235624827
0.004635566641399696   -0.05839848907479112   -0.0021357491313785818
0.000603902774096892   -0.05870740319692912   -0.0022234913009189926
0.006861214656893037   -0.05058059407851953   -0.0023088798985207437
0.002458667908441977   -0.050725458402713024   -0.002105417235624827
0.0007385502791816694   -0.0586705278540217   -0.0020827008367531982
0.007094078519008955   -0.050523808224101255   -0.002158513686105666
0.0025484247941292156   -0.05072030608966369   -0.002012316323232872
0.0007385502791816694   -0.0586705278540217   -0.0020827008367531982
0.004635566641399696   -0.05839848907479112   -0.0021357491313785818
0.007094078519008955   -0.050523808224101255   -0.002158513686105666
0.0048971954019763455   -0.058386236732747274   -0.0019362594414574564
0.0025484247941292156   -0.05072030608966369   -0.002012316323232872
0.007266549997418547   -0.05050818287761607   -0.002021741495106357
0.0048971954019763455   -0.058386236732747274   -0.0019362594414574564
0.007094078519008955   -0.050523808224101255   -0.002158513686105666
0.0025484247941292156   -0.05072030608966369   -0.002012316323232872
0.0048971954019763455   -0.058386236732747274   -0.0019362594414574564
0.000880471743253808   -0.058667190516291975   -0.0019548091449012248
0.0007385502791816694   -0.0586705278540217   -0.0020827008367531982
0.0025484247941292156   -0.05072030608966369   -0.002012316323232872
0.0048971954019763455   -0.058386236732747274   -0.0019362594414574564
0.0007385502791816694   -0.0586705278540217   -0.0020827008367531982
0.007094078519008955   -0.050523808224101255   -0.002158513686105666
0.0025484247941292156   -0.05072030608966369   -0.002012316323232872
0.000880471743253808   -0.058667190516291975   -0.0019548091449012248
0.007266549997418547   -0.05050818287761607   -0.002021741495106357
0.002608145460370751   -0.05073343294566132   -0.001928087486160412
0.000880471743253808   -0.058667190516291975   -0.0019548091449012248
0.0048971954019763455   -0.058386236732747274   -0.0019362594414574564
0.007266549997418547   -0.05050818287761607   -0.002021741495106357
0.005168328196070946   -0.05840724798099086   -0.0017543947263307204
0.002608145460370751   -0.05073343294566132   -0.001928087486160412
0.007441471546733499   -0.05050804708445967   -0.001899184634054811
0.005168328196070946   -0.05840724798099086   -0.0017543947263307204
0.007266549997418547   -0.05050818287761607   -0.002021741495106357
0.002608145460370751   -0.05073343294566132   -0.001928087486160412
0.005168328196070946   -0.05840724798099086   -0.0017543947263307204
0.0009842676823551893   -0.05869586164223617   -0.0018357980280332587
0.000880471743253808   -0.058667190516291975   -0.0019548091449012248
0.002608145460370751   -0.05073343294566132   -0.001928087486160412
0.005168328196070946   -0.05840724798099086   -0.0017543947263307204
0.000880471743253808   -0.058667190516291975   -0.0019548091449012248
0.007266549997418547   -0.05050818287761607   -0.002021741495106357
-0.013537210965961527   -0.05857448429967553   -0.0021575477924476024
-0.01133936629753033   -0.06472189741339393   -0.0019576604889920027
-0.00958680349790862   -0.05875833690747995   -0.0021443199508772324
-0.013331995295300119   -0.05861393066939111   -0.002279325171091047
-0.01133936629753033   -0.06472189741339393   -0.0019576604889920027
-0.008527822073386624   -0.0649940512659466   -0.002039271284740309
-0.00958680349790862   -0.05875833690747995   -0.0021443199508772324
-0.00838605759423722   -0.06498006494761165   -0.0021061928900084625
-0.013331995295300119   -0.05861393066939111   -0.002279325171091047
-0.009488310155939676   -0.058784922959076315   -0.0021878079465039338
-0.00838605759423722   -0.06498006494761165   -0.0021061928900084625
-0.00958680349790862   -0.05875833690747995   -0.0021443199508772324
-0.013331995295300119   -0.05861393066939111   -0.002279325171091047
-0.00838605759423722   -0.06498006494761165   -0.0021061928900084625
-0.011033618697736941   -0.06471425770002141   -0.002138091309729482
-0.01133936629753033   -0.06472189741339393   -0.0019576604889920027
-0.013331995295300119   -0.05861393066939111   -0.002279325171091047
-0.00838605759423722   -0.06498006494761165   -0.0021061928900084625
-0.01133936629753033   -0.06472189741339393   -0.0019576604889920027
-0.00958680349790862   -0.05875833690747995   -0.0021443199508772324
-0.013331995295300119   -0.05861393066939111   -0.002279325171091047
-0.011033618697736941   -0.06471425770002141   -0.002138091309729482
-0.009488310155939676   -0.058784922959076315   -0.0021878079465039338
-0.013127339147633605   -0.058688718115070475   -0.0024171220620355723
-0.011033618697736941   -0.06471425770002141   -0.002138091309729482
-0.00838605759423722   -0.06498006494761165   -0.0021061928900084625
-0.009488310155939676   -0.058784922959076315   -0.0021878079465039338
-0.008219297092992494   -0.06501929306136423   -0.0021831619343303985
-0.013127339147633605   -0.058688718115070475   -0.0024171220620355723
-0.00936459710203144   -0.058848648256379275   -0.002241134430688814
-0.008219297092992494   -0.06501929306136423   -0.0021831619343303985
-0.009488310155939676   -0.058784922959076315   -0.0021878079465039338
-0.013127339147633605   -0.058688718115070475   -0.0024171220620355723
-0.008219297092992494   -0.06501929306136423   -0.0021831619343303985
-0.010751808053964721   -0.06476271696800973   -0.0023326742299172357
-0.011033618697736941   -0.06471425770002141   -0.002138091309729482
-0.013127339147633605   -0.058688718115070475   -0.0024171220620355723
-0.008219297092992494   -0.06501929306136423   -0.0021831619343303985
-0.011033618697736941   -0.06471425770002141   -0.002138091309729482
-0.009488310155939676   -0.058784922959076315   -0.0021878079465039338
-0.013127339147633605   -0.058688718115070475   -0.0024171220620355723
-0.010751808053964721   -0.06476271696800973   -0.0023326742299172357
-0.00936459710203144   -0.058848648256379275   -0.002241134430688814
-0.012865198741119015   -0.05882817479873548   -0.0025706462625360352
-0.010751808053964721   -0.06476271696800973   -0.0023326742299172357
-0.008219297092992494   -0.06501929306136423   -0.0021831619343303985
-0.00936459710203144   -0.058848648256379275   -0.002241134430688814
-0.008068013890681488   -0.06511263292879117   -0.002269536264332346
-0.012865198741119015   -0.05882817479873548   -0.0025706462625360352
-0.009242539009774925   -0.0589531329635663   -0.002304206913905418
-0.008068013890681488   -0.06511263292879117   -0.002269536264332346
-0.00936459710203144   -0.058848648256379275   -0.002241134430688814
-0.012865198741119015   -0.05882817479873548   -0.0025706462625360352
-0.008068013890681488   -0.06511263292879117   -0.002269536264332346
-0.010408077570451374   -0.0648920515073642   -0.002540578210257884
-0.010751808053964721   -0.06476271696800973   -0.0023326742299172357
-0.012865198741119015   -0.05882817479873548   -0.0025706462625360352
-0.008068013890681488   -0.06511263292879117   -0.002269536264332346
-0.010751808053964721   -0.06476271696800973   -0.0023326742299172357
-0.00936459710203144   -0.058848648256379275   -0.002241134430688814
-0.00958680349790862   -0.05875833690747995   -0.0021443199508772324
-0.008527822073386624   -0.0649940512659466   -0.002039271284740309
-0.006165773784790761   -0.058844385338150694   -0.0021390931154636485
-0.009488310155939676   -0.058784922959076315   -0.0021878079465039338
-0.008527822073386624   -0.0649940512659466   -0.002039271284740309
-0.006230188175657441   -0.06517030744071481   -0.00210314470452632
-0.006165773784790761   -0.058844385338150694   -0.0021390931154636485
-0.006084738234263996   -0.06514786763359574   -0.002082677479614483
-0.009488310155939676   -0.058784922959076315   -0.0021878079465039338
-0.006064734411702127   -0.05885309259817259   -0.0021196149425929335
-0.006084738234263996   -0.06514786763359574   -0.002082677479614483
-0.006165773784790761   -0.058844385338150694   -0.0021390931154636485
-0.009488310155939676   -0.058784922959076315   -0.0021878079465039338
-0.006084738234263996   -0.06514786763359574   -0.002082677479614483
-0.00838605759423722   -0.06498006494761165   -0.0021061928900084625
-0.008527822073386624   -0.0649940512659466   -0.002039271284740309
-0.009488310155939676   -0.058784922959076315   -0.0021878079465039338
-0.006084738234263996   -0.06514786763359574   -0.002082677479614483
-0.008527822073386624   -0.0649940512659466   -0.002039271284740309
-0.006165773784790761   -0.058844385338150694   -0.0021390931154636485
-0.009488310155939676   -0.058784922959076315   -0.0021878079465039338
-0.00838605759423722   -0.06498006494761165   -0.0021061928900084625
-0.006064734411702127   -0.05885309259817259   -0.0021196149425929335
-0.00936459710203144   -0.058848648256379275   -0.002241134430688814
-0.00838605759423722   -0.06498006494761165   -0.0021061928900084625
-0.006084738234263996   -0.06514786763359574   -0.002082677479614483
-0.006064734411702127   -0.05885309259817259   -0.0021196149425929335
-0.005941321032011485   -0.06517136848650917   -0.002071970607504856
-0.00936459710203144   -0.058848648256379275   -0.002241134430688814
-0.005960444371345479   -0.05889496504883408   -0.0021096838934558694
-0.005941321032011485   -0.06517136848650917   -0.002071970607504856
-0.006064734411702127   -0.05885309259817259   -0.0021196149425929335
-0.00936459710203144   -0.058848648256379275   -0.002241134430688814
-0.005941321032011485   -0.06517136848650917   -0.002071970607504856
-0.008219297092992494   -0.06501929306136423   -0.0021831619343303985
-0.00838605759423722   -0.06498006494761165   -0.0021061928900084625
-0.00936459710203144   -0.058848648256379275   -0.002241134430688814
-0.005941321032011485   -0.06517136848650917   -0.002071970607504856
-0.00838605759423722   -0.06498006494761165   -0.0021061928900084625
-0.006064734411702127   -0.05885309259817259   -0.0021196149425929335
-0.00936459710203144   -0.058848648256379275   -0.002241134430688814
-0.008219297092992494   -0.06501929306136423   -0.0021831619343303985
-0.005960444371345479   -0.05889496504883408   -0.0021096838934558694
-0.009242539009774925   -0.0589531329635663   -0.002304206913905418
-0.008219297092992494   -0.06501929306136423   -0.0021831619343303985
-0.005941321032011485   -0.06517136848650917   -0.002071970607504856
-0.005960444371345479   -0.05889496504883408   -0.0021096838934558694
-0.00580934610668998   -0.06524233114447711   -0.0020730664381130516
-0.009242539009774925   -0.0589531329635663   -0.002304206913905418
-0.0058563220729148865   -0.058971950334258144   -0.002109179733175795
-0.00580934610668998   -0.06524233114447711   -0.0020730664381130516
-0.005960444371345479   -0.05889496504883408   -0.0021096838934558694
-0.009242539009774925   -0.0589531329635663   -0.002304206913905418
-0.00580934610668998   -0.06524233114447711   -0.0020730664381130516
-0.008068013890681488   -0.06511263292879117   -0.002269536264332346
-0.008219297092992494   -0.06501929306136423   -0.0021831619343303985
-0.009242539009774925   -0.0589531329635663   -0.002304206913905418
-0.00580934610668998   -0.06524233114447711   -0.0020730664381130516
-0.008219297092992494   -0.06501929306136423   -0.0021831619343303985
-0.005960444371345479   -0.05889496504883408   -0.0021096838934558694
-0.006165773784790761   -0.058844385338150694   -0.0021390931154636485
-0.006230188175657441   -0.06517030744071481   -0.00210314470452632
-0.0028582675990906433   -0.05882862243520796   -0.002163690881767018
-0.006064734411702127   -0.05885309259817259   -0.0021196149425929335
-0.006230188175657441   -0.06517030744071481   -0.00210314470452632
-0.004029483560377179   -0.0652626898899258   -0.002178672229678415
-0.0028582675990906433   -0.05882862243520796   -0.002163690881767018
-0.003865524738633933   -0.06523028496149887   -0.0020757831904415053
-0.006064734411702127   -0.05885309259817259   -0.0021196149425929335
-0.0027475956558670155   -0.058817244779219055   -0.002083454354687071
-0.003865524738633933   -0.06523028496149887   -0.0020757831904415053
-0.0028582675990906433   -0.05882862243520796   -0.002163690881767018
-0.006064734411702127   -0.05885309259817259   -0.0021196149425929335
-0.003865524738633933   -0.06523028496149887   -0.0020757831904415053
-0.006084738234263996   -0.06514786763359574   -0.002082677479614483
-0.006230188175657441   -0.06517030744071481   -0.00210314470452632
-0.006064734411702127   -0.05885309259817259   -0.0021196149425929335
-0.003865524738633933   -0.06523028496149887   -0.0020757831904415053
-0.006230188175657441   -0.06517030744071481   -0.00210314470452632
-0.0028582675990906433   -0.05882862243520796   -0.002163690881767018
-0.006064734411702127   -0.05885309259817259   -0.0021196149425929335
-0.006084738234263996   -0.06514786763359574   -0.002082677479614483
-0.0027475956558670155   -0.058817244779219055   -0.002083454354687071
-0.005960444371345479   -0.05889496504883408   -0.0021096838934558694
-0.006084738234263996   -0.06514786763359574   -0.002082677479614483
-0.003865524738633933   -0.06523028496149887   -0.0020757831904415053
-0.0027475956558670155   -0.058817244779219055   -0.002083454354687071
-0.003709221023813468   -0.06523828871417614   -0.001981526730422979
-0.005960444371345479   -0.05889496504883408   -0.0021096838934558694
-0.0026401796217520087   -0.05883586481897368   -0.0020133949214659573
-0.003709221023813468   -0.06523828871417614   -0.001981526730422979
-0.0027475956558670155   -0.058817244779219055   -0.002083454354687071
-0.005960444371345479   -0.05889496504883408   -0.0021096838934558694
-0.003709221023813468   -0.06523828871417614   -0.001981526730422979
-0.005941321032011485   -0.06517136848650917   -0.002071970607504856
-0.006084738234263996   -0.06514786763359574   -0.002082677479614483
-0.005960444371345479   -0.05889496504883408   -0.0021096838934558694
-0.003709221023813468   -0.06523828871417614   -0.001981526730422979
-0.006084738234263996   -0.06514786763359574   -0.002082677479614483
-0.0027475956558670155   -0.058817244779219055   -0.002083454354687071
-0.005960444371345479   -0.05889496504883408   -0.0021096838934558694
-0.005941321032011485   -0.06517136848650917   -0.002071970607504856
-0.0026401796217520087   -0.05883586481897368   -0.0020133949214659573
-0.0058563220729148865   -0.058971950334258144   -0.002109179733175795
-0.005941321032011485   -0.06517136848650917   -0.002071970607504856
-0.003709221023813468   -0.06523828871417614   -0.001981526730422979
-0.0026401796217520087   -0.05883586481897368   -0.0020133949214659573
-0.003579206977288948   -0.06529455332255132   -0.0019012850753647975
-0.0058563220729148865   -0.058971950334258144   -0.002109179733175795
-0.0025431260408073264   -0.058888820705968   -0.0019526323917384832
-0.003579206977288948   -0.06529455332255132   -0.0019012850753647975
-0.0026401796217520087   -0.05883586481897368   -0.0020133949214659573
-0.0058563220729148865   -0.058971950334258144   -0.002109179733175795
-0.003579206977288948   -0.06529455332255132   -0.0019012850753647975
-0.00580934610668998   -0.06524233114447711   -0.0020730664381130516
-0.005941321032011485   -0.06517136848650917   -0.002071970607504856
-0.0058563220729148865   -0.058971950334258144   -0.002109179733175795
-0.003579206977288948   -0.06529455332255132   -0.0019012850753647975
-0.005941321032011485   -0.06517136848650917   -0.002071970607504856
-0.0026401796217520087   -0.05883586481897368   -0.0020133949214659573
-0.0028582675990906433   -0.05882862243520796   -0.002163690881767018
-0.004029483560377179   -0.0652626898899258   -0.002178672229678415
0.000603902774096892   -0.05870740319692912   -0.0022234913009189926
-0.0027475956558670155   -0.058817244779219055   -0.002083454354687071
-0.004029483560377179   -0.0652626898899258   -0.002178672229678415
-0.0016895842502628329   -0.06523887876022041   -0.0022676799724535754
0.000603902774096892   -0.05870740319692912   -0.0022234913009189926
-0.0014790738689831303   -0.06518806937566289   -0.00208592828652533
-0.0027475956558670155   -0.058817244779219055   -0.002083454354687071
0.0007385502791816694   -0.0586705278540217   -0.0020827008367531982
-0.0014790738689831303   -0.06518806937566289   -0.00208592828652533
0.000603902774096892   -0.05870740319692912   -0.0022234913009189926
-0.0027475956558670155   -0.058817244779219055   -0.002083454354687071
-0.0014790738689831303   -0.06518806937566289   -0.00208592828652533
-0.003865524738633933   -0.06523028496149887   -0.0020757831904415053
-0.004029483560377179   -0.0652626898899258   -0.002178672229678415
-0.0027475956558670155   -0.058817244779219055   -0.002083454354687071
-0.0014790738689831303   -0.06518806937566289   -0.00208592828652533
-0.004029483560377179   -0.0652626898899258   -0.002178672229678415
0.000603902774096892   -0.05870740319692912   -0.0022234913009189926
-0.0027475956558670155   -0.058817244779219055   -0.002083454354687071
-0.003865524738633933   -0.06523028496149887   -0.0020757831904415053
0.0007385502791816694   -0.0586705278540217   -0.0020827008367531982
-0.0026401796217520087   -0.05883586481897368   -0.0020133949214659573
-0.003865524738633933   -0.06523028496149887   -0.0020757831904415053
-0.0014790738689831303   -0.06518806937566289   -0.00208592828652533
0.0007385502791816694   -0.0586705278540217   -0.0020827008367531982
-0.0012638035538104593   -0.06517913294135474   -0.0019134084847027375
-0.0026401796217520087   -0.05883586481897368   -0.0020133949214659573
0.000880471743253808   -0.058667190516291975   -0.0019548091449012248
-0.0012638035538104593   -0.06517913294135474   -0.0019134084847027375
0.0007385502791816694   -0.0586705278540217   -0.0020827008367531982
-0.0026401796217520087   -0.05883586481897368   -0.0020133949214659573
-0.0012638035538104593   -0.06517913294135474   -0.0019134084847027375
-0.003709221023813468   -0.06523828871417614   -0.001981526730422979
-0.003865524738633933   -0.06523028496149887   -0.0020757831904415053
-0.0026401796217520087   -0.05883586481897368   -0.0020133949214659573
-0.0012638035538104593   -0.06517913294135474   -0.0019134084847027375
-0.003865524738633933   -0.06523028496149887   -0.0020757831904415053
0.0007385502791816694   -0.0586705278540217   -0.0020827008367531982
-0.0026401796217520087   -0.05883586481897368   -0.0020133949214659573
-0.003709221023813468   -0.06523828871417614   -0.001981526730422979
0.000880471743253808   -0.058667190516291975   -0.0019548091449012248
-0.0025431260408073264   -0.058888820705968   -0.0019526323917384832
-0.003709221023813468   -0.06523828871417614   -0.001981526730422979
-0.0012638035538104593   -0.06517913294135474   -0.0019134084847027375
0.000880471743253808   -0.058667190516291975   -0.0019548091449012248
-0.0011043857688929073   -0.06522107281443246   -0.001756699358466282
-0.0025431260408073264   -0.058888820705968   -0.0019526323917384832
0.0009842676823551893   -0.05869586164223617   -0.0018357980280332587
-0.0011043857688929073   -0.06522107281443246   -0.001756699358466282
0.000880471743253808   -0.058667190516291975   -0.0019548091449012248
-0.0025431260408073264   -0.058888820705968   -0.0019526323917384832
-0.0011043857688929073   -0.06522107281443246   -0.001756699358466282
-0.003579206977288948   -0.06529455332255132   -0.0019012850753647975
-0.003709221023813468   -0.06523828871417614   -0.001981526730422979
-0.0025431260408073264   -0.058888820705968   -0.0019526323917384832
-0.0011043857688929073   -0.06522107281443246   -0.001756699358466282
-0.003709221023813468   -0.06523828871417614   -0.001981526730422979
0.000880471743253808   -0.058667190516291975   -0.0019548091449012248
0.000603902774096892   -0.05870740319692912   -0.0022234913009189926
-0.0016895842502628329   -0.06523887876022041   -0.0022676799724535754
0.004294353991750976   -0.05846924382211651   -0.0023512352542571493
0.0007385502791816694   -0.0586705278540217   -0.0020827008367531982
-0.0016895842502628329   -0.06523887876022041   -0.0022676799724535754
0.0008282227477012353   -0.06501396693218195   -0.002449942763106223
0.004294353991750976   -0.05846924382211651   -0.0023512352542571493
0.0013191958562297152   -0.0649034462272088   -0.0021526593196155913
0.0007385502791816694   -0.0586705278540217   -0.0020827008367531982
0.004635566641399696   -0.05839848907479112   -0.0021357491313785818
0.0013191958562297152   -0.0649034462272088   -0.0021526593196155913
0.004294353991750976   -0.05846924382211651   -0.0023512352542571493
0.0007385502791816694   -0.0586705278540217   -0.0020827008367531982
0.0013191958562297152   -0.0649034462272088   -0.0021526593196155913
-0.0014790738689831303   -0.06518806937566289   -0.00208592828652533
-0.0016895842502628329   -0.06523887876022041   -0.0022676799724535754
0.0007385502791816694   -0.0586705278540217   -0.0020827008367531982
0.0013191958562297152   -0.0649034462272088   -0.0021526593196155913
-0.0016895842502628329   -0.06523887876022041   -0.0022676799724535754
0.004294353991750976   -0.05846924382211651   -0.0023512352542571493
0.0007385502791816694   -0.0586705278540217   -0.0020827008367531982
-0.0014790738689831303   -0.06518806937566289   -0.00208592828652533
0.004635566641399696   -0.05839848907479112   -0.0021357491313785818
0.000880471743253808   -0.058667190516291975   -0.0019548091449012248
-0.0014790738689831303   -0.06518806937566289   -0.00208592828652533
0.0013191958562297152   -0.0649034462272088   -0.0021526593196155913
0.004635566641399696   -0.05839848907479112   -0.0021357491313785818
0.0017050195152534535   -0.0648810857886495   -0.0018734992949120447
0.000880471743253808   -0.058667190516291975   -0.0019548091449012248
0.0048971954019763455   -0.058386236732747274   -0.0019362594414574564
0.0017050195152534535   -0.0648810857886495   -0.0018734992949120447
0.004635566641399696   -0.05839848907479112   -0.0021357491313785818
0.000880471743253808   -0.058667190516291975   -0.0019548091449012248
0.0017050195152534535   -0.0648810857886495   -0.0018734992949120447
-0.0012638035538104593   -0.06517913294135474   -0.0019134084847027375
-0.0014790738689831303   -0.06518806937566289   -0.00208592828652533
0.000880471743253808   -0.058667190516291975   -0.0019548091449012248
0.0017050195152534535   -0.0648810857886495   -0.0018734992949120447
-0.0014790738689831303   -0.06518806937566289   -0.00208592828652533
0.004635566641399696   -0.05839848907479112   -0.0021357491313785818
0.000880471743253808   -0.058667190516291975   -0.0019548091449012248
-0.0012638035538104593   -0.06517913294135474   -0.0019134084847027375
0.0048971954019763455   -0.058386236732747274   -0.0019362594414574564
0.0009842676823551893   -0.05869586164223617   -0.0018357980280332587
-0.0012638035538104593   -0.06517913294135474   -0.0019134084847027375
0.0017050195152534535   -0.0648810857886495   -0.0018734992949120447
0.0048971954019763455   -0.058386236732747274   -0.0019362594414574564
0.0021060587722922463   -0.06490000055474103   -0.0016185135277735757
0.0009842676823551893   -0.05869586164223617   -0.0018357980280332587
0.005168328196070946   -0.05840724798099086   -0.0017543947263307204
0.0021060587722922463   -0.06490000055474103   -0.0016185135277735757
0.0048971954019763455   -0.058386236732747274   -0.0019362594414574564
0.0009842676823551893   -0.05869586164223617   -0.0018357980280332587
0.0021060587722922463   -0.06490000055474103   -0.0016185135277735757
-0.0011043857688929073   -0.06522107281443246   -0.001756699358466282
-0.0012638035538104593   -0.06517913294135474   -0.0019134084847027375
0.0009842676823551893   -0.05869586164223617   -0.0018357980280332587
0.0021060587722922463   -0.06490000055474103   -0.0016185135277735757
-0.0012638035538104593   -0.06517913294135474   -0.0019134084847027375
0.0048971954019763455   -0.058386236732747274   -0.0019362594414574564
-0.01133936629753033   -0.06472189741339393   -0.0019576604889920027
-0.008318778828645247   -0.06837665588594603   -0.0017228558298384212
-0.008527822073386624   -0.0649940512659466   -0.002039271284740309
-0.011033618697736941   -0.06471425770002141   -0.002138091309729482
-0.008318778828645247   -0.06837665588594603   -0.0017228558298384212
-0.00700969389259817   -0.06872077798044245   -0.0019295469152547872
-0.008527822073386624   -0.0649940512659466   -0.002039271284740309
-0.006830903333792467   -0.0686528549851704   -0.0020007799412877472
-0.011033618697736941   -0.06471425770002141   -0.002138091309729482
-0.00838605759423722   -0.06498006494761165   -0.0021061928900084625
-0.006830903333792467   -0.0686528549851704   -0.0020007799412877472
-0.008527822073386624   -0.0649940512659466   -0.002039271284740309
-0.011033618697736941   -0.06471425770002141   -0.002138091309729482
-0.006830903333792467   -0.0686528549851704   -0.0020007799412877472
-0.007937847702268365   -0.06830012389971755   -0.0019393055065662216
-0.008318778828645247   -0.06837665588594603   -0.0017228558298384212
-0.011033618697736941   -0.06471425770002141   -0.002138091309729482
-0.006830903333792467   -0.0686528549851704   -0.0020007799412877472
-0.008318778828645247   -0.06837665588594603   -0.0017228558298384212
-0.008527822073386624   -0.0649940512659466   -0.002039271284740309
-0.011033618697736941   -0.06471425770002141   -0.002138091309729482
-0.007937847702268365   -0.06830012389971755   -0.0019393055065662216
-0.00838605759423722   -0.06498006494761165   -0.0021061928900084625
-0.010751808053964721   -0.06476271696800973   -0.0023326742299172357
-0.007937847702268365   -0.06830012389971755   -0.0019393055065662216
-0.006830903333792467   -0.0686528549851704   -0.0020007799412877472
-0.00838605759423722   -0.06498006494761165   -0.0021061928900084625
-0.006632848219283705   -0.06865631095544329   -0.002072736626891647
-0.010751808053964721   -0.06476271696800973   -0.0023326742299172357
-0.008219297092992494   -0.06501929306136423   -0.0021831619343303985
-0.006632848219283705   -0.06865631095544329   -0.002072736626891647
-0.00838605759423722   -0.06498006494761165   -0.0021061928900084625
-0.010751808053964721   -0.06476271696800973   -0.0023326742299172357
-0.006632848219283705   -0.06865631095544329   -0.002072736626891647
-0.00760918867259906   -0.06830678316752962   -0.0021549303207921804
-0.007937847702268365   -0.06830012389971755   -0.0019393055065662216
-0.010751808053964721   -0.06476271696800973   -0.0023326742299172357
-0.006632848219283705   -0.06865631095544329   -0.002072736626891647
-0.007937847702268365   -0.06830012389971755   -0.0019393055065662216
-0.00838605759423722   -0.06498006494761165   -0.0021061928900084625
-0.010751808053964721   -0.06476271696800973   -0.0023326742299172357
-0.00760918867259906   -0.06830678316752962   -0.0021549303207921804
-0.008219297092992494   -0.06501929306136423   -0.0021831619343303985
-0.010408077570451374   -0.0648920515073642   -0.002540578210257884
-0.00760918867259906   -0.06830678316752962   -0.0021549303207921804
-0.006632848219283705   -0.06865631095544329   -0.002072736626891647
-0.008219297092992494   -0.06501929306136423   -0.0021831619343303985
-0.006448879086751889   -0.06873148203120595   -0.0021457180186755273
-0.010408077570451374   -0.0648920515073642   -0.002540578210257884
-0.008068013890681488   -0.06511263292879117   -0.002269536264332346
-0.006448879086751889   -0.06873148203120595   -0.0021457180186755273
-0.008219297092992494   -0.06501929306136423   -0.0021831619343303985
-0.010408077570451374   -0.0648920515073642   -0.002540578210257884
-0.006448879086751889   -0.06873148203120595   -0.0021457180186755273
-0.007219327858297223   -0.06840142133465224   -0.0023751968335804494
-0.00760918867259906   -0.06830678316752962   -0.0021549303207921804
-0.010408077570451374   -0.0648920515073642   -0.002540578210257884
-0.006448879086751889   -0.06873148203120595   -0.0021457180186755273
-0.00760918867259906   -0.06830678316752962   -0.0021549303207921804
-0.008219297092992494   -0.06501929306136423   -0.0021831619343303985
-0.008527822073386624   -0.0649940512659466   -0.002039271284740309
-0.00700969389259817   -0.06872077798044245   -0.0019295469152547872
-0.006230188175657441   -0.06517030744071481   -0.00210314470452632
-0.00838605759423722   -0.06498006494761165   -0.0021061928900084625
-0.00700969389259817   -0.06872077798044245   -0.0019295469152547872
-0.006050585549105985   -0.06906576193140491   -0.002112194415550561
-0.006230188175657441   -0.06517030744071481   -0.00210314470452632
-0.00586198809376429   -0.06899605036610253   -0.0020623965420708793
-0.00838605759423722   -0.06498006494761165   -0.0021061928900084625
-0.006084738234263996   -0.06514786763359574   -0.002082677479614483
-0.00586198809376429   -0.06899605036610253   -0.0020623965420708793
-0.006230188175657441   -0.06517030744071481   -0.00210314470452632
-0.00838605759423722   -0.06498006494761165   -0.0021061928900084625
-0.00586198809376429   -0.06899605036610253   -0.0020623965420708793
-0.006830903333792467   -0.0686528549851704   -0.0020007799412877472
-0.00700969389259817   -0.06872077798044245   -0.0019295469152547872
-0.00838605759423722   -0.06498006494761165   -0.0021061928900084625
-0.00586198809376429   -0.06899605036610253   -0.0020623965420708793
-0.00700969389259817   -0.06872077798044245   -0.0019295469152547872
-0.006230188175657441   -0.06517030744071481   -0.00210314470452632
-0.00838605759423722   -0.06498006494761165   -0.0021061928900084625
-0.006830903333792467   -0.0686528549851704   -0.0020007799412877472
-0.006084738234263996   -0.06514786763359574   -0.002082677479614483
-0.008219297092992494   -0.06501929306136423   -0.0021831619343303985
-0.006830903333792467   -0.0686528549851704   -0.0020007799412877472
-0.00586198809376429   -0.06899605036610253   -0.0020623965420708793
-0.006084738234263996   -0.06514786763359574   -0.002082677479614483
-0.005679623930818184   -0.06899487426185891   -0.00201198216459668
-0.008219297092992494   -0.06501929306136423   -0.0021831619343303985
-0.005941321032011485   -0.06517136848650917   -0.002071970607504856
-0.005679623930818184   -0.06899487426185891   -0.00201198216459668
-0.006084738234263996   -0.06514786763359574   -0.002082677479614483
-0.008219297092992494   -0.06501929306136423   -0.0021831619343303985
-0.005679623930818184   -0.06899487426185891   -0.00201198216459668
-0.006632848219283705   -0.06865631095544329   -0.002072736626891647
-0.006830903333792467   -0.0686528549851704   -0.0020007799412877472
-0.008219297092992494   -0.06501929306136423   -0.0021831619343303985
-0.005679623930818184   -0.06899487426185891   -0.00201198216459668
-0.006830903333792467   -0.0686528549851704   -0.0020007799412877472
-0.006084738234263996   -0.06514786763359574   -0.002082677479614483
-0.008219297092992494   -0.06501929306136423   -0.0021831619343303985
-0.006632848219283705   -0.06865631095544329   -0.002072736626891647
-0.005941321032011485   -0.06517136848650917   -0.002071970607504856
-0.008068013890681488   -0.06511263292879117   -0.002269536264332346
-0.006632848219283705   -0.06865631095544329   -0.002072736626891647
-0.005679623930818184   -0.06899487426185891   -0.00201198216459668
-0.005941321032011485   -0.06517136848650917   -0.002071970607504856
-0.005489516383797561   -0.0690608075949773   -0.0019635655470627003
-0.008068013890681488   -0.06511263292879117   -0.002269536264332346
-0.00580934610668998   -0.06524233114447711   -0.0020730664381130516
-0.005489516383797561   -0.0690608075949773   -0.0019635655470627003
-0.005941321032011485   -0.06517136848650917   -0.002071970607504856
-0.008068013890681488   -0.06511263292879117   -0.002269536264332346
-0.005489516383797561   -0.0690608075949773   -0.0019635655470627003
-0.006448879086751889   -0.06873148203120595   -0.0021457180186755273
-0.006632848219283705   -0.06865631095544329   -0.002072736626891647
-0.008068013890681488   -0.06511263292879117   -0.002269536264332346
-0.005489516383797561   -0.0690608075949773   -0.0019635655470627003
-0.006632848219283705   -0.06865631095544329   -0.002072736626891647
-0.005941321032011485   -0.06517136848650917   -0.002071970607504856
-0.006230188175657441   -0.06517030744071481   -0.00210314470452632
-0.006050585549105985   -0.06906576193140491   -0.002112194415550561
-0.004029483560377179   -0.0652626898899258   -0.002178672229678415
-0.006084738234263996   -0.06514786763359574   -0.002082677479614483
-0.006050585549105985   -0.06906576193140491   -0.002112194415550561
-0.005174544465779584   -0.06948167396482594   -0.002313384952986197
-0.004029483560377179   -0.0652626898899258   -0.002178672229678415
-0.004943369388062676   -0.06942113360210878   -0.0021357752970058413
-0.006084738234263996   -0.06514786763359574   -0.002082677479614483
-0.003865524738633933   -0.06523028496149887   -0.0020757831904415053
-0.004943369388062676   -0.06942113360210878   -0.0021357752970058413
-0.004029483560377179   -0.0652626898899258   -0.002178672229678415
-0.006084738234263996   -0.06514786763359574   -0.002082677479614483
-0.004943369388062676   -0.06942113360210878   -0.0021357752970058413
-0.00586198809376429   -0.06899605036610253   -0.0020623965420708793
-0.006050585549105985   -0.06906576193140491   -0.002112194415550561
-0.006084738234263996   -0.06514786763359574   -0.002082677479614483
-0.004943369388062676   -0.06942113360210878   -0.0021357752970058413
-0.006050585549105985   -0.06906576193140491   -0.002112194415550561
-0.004029483560377179   -0.0652626898899258   -0.002178672229678415
-0.006084738234263996   -0.06514786763359574   -0.002082677479614483
-0.00586198809376429   -0.06899605036610253   -0.0020623965420708793
-0.003865524738633933   -0.06523028496149887   -0.0020757831904415053
-0.005941321032011485   -0.06517136848650917   -0.002071970607504856
-0.00586198809376429   -0.06899605036610253   -0.0020623965420708793
-0.004943369388062676   -0.06942113360210878   -0.0021357752970058413
-0.003865524738633933   -0.06523028496149887   -0.0020757831904415053
-0.00472913732517646   -0.06941793652659828   -0.0019587491829217932
-0.005941321032011485   -0.06517136848650917   -0.002071970607504856
-0.003709221023813468   -0.06523828871417614   -0.001981526730422979
-0.00472913732517646   -0.06941793652659828   -0.0019587491829217932
-0.003865524738633933   -0.06523028496149887   -0.0020757831904415053
-0.005941321032011485   -0.06517136848650917   -0.002071970607504856
-0.00472913732517646   -0.06941793652659828   -0.0019587491829217932
-0.005679623930818184   -0.06899487426185891   -0.00201198216459668
-0.00586198809376429   -0.06899605036610253   -0.0020623965420708793
-0.005941321032011485   -0.06517136848650917   -0.002071970607504856
-0.00472913732517646   -0.06941793652659828   -0.0019587491829217932
-0.00586198809376429   -0.06899605036610253   -0.0020623965420708793
-0.003865524738633933   -0.06523028496149887   -0.0020757831904415053
-0.005941321032011485   -0.06517136848650917   -0.002071970607504856
-0.005679623930818184   -0.06899487426185891   -0.00201198216459668
-0.003709221023813468   -0.06523828871417614   -0.001981526730422979
-0.00580934610668998   -0.06524233114447711   -0.0020730664381130516
-0.005679623930818184   -0.06899487426185891   -0.00201198216459668
-0.00472913732517646   -0.06941793652659828   -0.0019587491829217932
-0.003709221023813468   -0.06523828871417614   -0.001981526730422979
-0.004499171490221073   -0.06946899716183728   -0.0017813568723575282
-0.00580934610668998   -0.06524233114447711   -0.0020730664381130516
-0.003579206977288948   -0.06529455332255132   -0.0019012850753647975
-0.004499171490221073   -0.06946899716183728   -0.0017813568723575282
-0.003709221023813468   -0.06523828871417614   -0.001981526730422979
-0.00580934610668998   -0.06524233114447711   -0.0020730664381130516
-0.004499171490221073   -0.06946899716183728   -0.0017813568723575282
-0.005489516383797561   -0.0690608075949773   -0.0019635655470627003
-0.005679623930818184   -0.06899487426185891   -0.00201198216459668
-0.00580934610668998   -0.06524233114447711   -0.0020730664381130516
-0.004499171490221073   -0.06946899716183728   -0.0017813568723575282
-0.005679623930818184   -0.06899487426185891   -0.00201198216459668
-0.003709221023813468   -0.06523828871417614   -0.001981526730422979
-0.004029483560377179   -0.0652626898899258   -0.002178672229678415
-0.005174544465779584   -0.06948167396482594   -0.002313384952986197
-0.0016895842502628329   -0.06523887876022041   -0.0022676799724535754
-0.003865524738633933   -0.06523028496149887   -0.0020757831904415053
-0.005174544465779584   -0.06948167396482594   -0.002313384952986197
-0.004312365230469934   -0.07   -0.002468157506656568
-0.0016895842502628329   -0.06523887876022041   -0.0022676799724535754
-0.004021547570074506   -0.07   -0.0021982345771500455
-0.003865524738633933   -0.06523028496149887   -0.0020757831904415053
-0.0014790738689831303   -0.06518806937566289   -0.00208592828652533
-0.004021547570074506   -0.07   -0.0021982345771500455
-0.0016895842502628329   -0.06523887876022041   -0.0022676799724535754
-0.003865524738633933   -0.06523028496149887   -0.0020757831904415053
-0.004021547570074506   -0.07   -0.0021982345771500455
-0.004943369388062676   -0.06942113360210878   -0.0021357752970058413
-0.005174544465779584   -0.06948167396482594   -0.002313384952986197
-0.003865524738633933   -0.06523028496149887   -0.0020757831904415053
-0.004021547570074506   -0.07   -0.0021982345771500455
-0.005174544465779584   -0.06948167396482594   -0.002313384952986197
-0.0016895842502628329   -0.06523887876022041   -0.0022676799724535754
-0.003865524738633933   -0.06523028496149887   -0.0020757831904415053
-0.004943369388062676   -0.06942113360210878   -0.0021357752970058413
-0.0014790738689831303   -0.06518806937566289   -0.00208592828652533
-0.003709221023813468   -0.06523828871417614   -0.001981526730422979
-0.004943369388062676   -0.06942113360210878   -0.0021357752970058413
-0.004021547570074506   -0.07   -0.0021982345771500455
-0.0014790738689831303   -0.06518806937566289   -0.00208592828652533
-0.003729299198511647   -0.07   -0.00192511222802922
-0.003709221023813468   -0.06523828871417614   -0.001981526730422979
-0.0012638035538104593   -0.06517913294135474   -0.0019134084847027375
-0.003729299198511647   -0.07   -0.00192511222802922
-0.0014790738689831303   -0.06518806937566289   -0.00208592828652533
-0.003709221023813468   -0.06523828871417614   -0.001981526730422979
-0.003729299198511647   -0.07   -0.00192511222802922
-0.00472913732517646   -0.06941793652659828   -0.0019587491829217932
-0.004943369388062676   -0.06942113360210878   -0.0021357752970058413
-0.003709221023813468   -0.06523828871417614   -0.001981526730422979
-0.003729299198511647   -0.07   -0.00192511222802922
-0.004943369388062676   -0.06942113360210878   -0.0021357752970058413
-0.0014790738689831303   -0.06518806937566289   -0.00208592828652533
-0.003709221023813468   -0.06523828871417614   -0.001981526730422979
-0.00472913732517646   -0.06941793652659828   -0.0019587491829217932
-0.0012638035538104593   -0.06517913294135474   -0.0019134084847027375
-0.003579206977288948   -0.06529455332255132   -0.0019012850753647975
-0.00472913732517646   -0.06941793652659828   -0.0019587491829217932
-0.003729299198511647   -0.07   -0.00192511222802922
-0.0012638035538104593   -0.06517913294135474   -0.0019134084847027375
-0.0034436802325624716   -0.07   -0.001655604833813001
-0.003579206977288948   -0.06529455332255132   -0.0019012850753647975
-0.0011043857688929073   -0.06522107281443246   -0.001756699358466282
-0.0034436802325624716   -0.07   -0.001655604833813001
-0.0012638035538104593   -0.06517913294135474   -0.0019134084847027375
-0.003579206977288948   -0.06529455332255132   -0.0019012850753647975
-0.0034436802325624716   -0.07   -0.001655604833813001
-0.004499171490221073   -0.06946899716183728   -0.0017813568723575282
-0.00472913732517646   -0.06941793652659828   -0.0019587491829217932
-0.003579206977288948   -0.06529455332255132   -0.0019012850753647975
-0.0034436802325624716   -0.07   -0.001655604833813001
-0.00472913732517646   -0.06941793652659828   -0.0019587491829217932
-0.0012638035538104593   -0.06517913294135474   -0.0019134084847027375
-0.0016895842502628329   -0.06523887876022041   -0.0022676799724535754
-0.004312365230469934   -0.07   -0.002468157506656568
0.0008282227477012353   -0.06501396693218195   -0.002449942763106223
-0.0014790738689831303   -0.06518806937566289   -0.00208592828652533
-0.004312365230469934   -0.07   -0.002468157506656568
-0.003686426608722328   -0.07   -0.0026556009105826233
0.0008282227477012353   -0.06501396693218195   -0.002449942763106223
-0.003077983952218915   -0.07   -0.002265018047552968
-0.0014790738689831303   -0.06518806937566289   -0.00208592828652533
0.0013191958562297152   -0.0649034462272088   -0.0021526593196155913
-0.003077983952218915   -0.07   -0.002265018047552968
0.0008282227477012353   -0.06501396693218195   -0.002449942763106223
-0.0014790738689831303   -0.06518806937566289   -0.00208592828652533
-0.003077983952218915   -0.07   -0.002265018047552968
-0.004021547570074506   -0.07   -0.0021982345771500455
-0.004312365230469934   -0.07   -0.002468157506656568
-0.0014790738689831303   -0.06518806937566289   -0.00208592828652533
-0.003077983952218915   -0.07   -0.002265018047552968
-0.004312365230469934   -0.07   -0.002468157506656568
0.0008282227477012353   -0.06501396693218195   -0.002449942763106223
-0.0014790738689831303   -0.06518806937566289   -0.00208592828652533
-0.004021547570074506   -0.07   -0.0021982345771500455
0.0013191958562297152   -0.0649034462272088   -0.0021526593196155913
-0.0012638035538104593   -0.06517913294135474   -0.0019134084847027375
-0.004021547570074506   -0.07   -0.0021982345771500455
-0.003077983952218915   -0.07   -0.002265018047552968
0.0013191958562297152   -0.0649034462272088   -0.0021526593196155913
-0.0025927638078705345   -0.07   -0.0018913815804241672
-0.0012638035538104593   -0.06517913294135474   -0.0019134084847027375
0.0017050195152534535   -0.0648810857886495   -0.0018734992949120447
-0.0025927638078705345   -0.07   -0.0018913815804241672
0.0013191958562297152   -0.0649034462272088   -0.0021526593196155913
-0.0012638035538104593   -0.06517913294135474   -0.0019134084847027375
-0.0025927638078705345   -0.07   -0.0018913815804241672
-0.003729299198511647   -0.07   -0.00192511222802922
-0.004021547570074506   -0.07   -0.0021982345771500455
-0.0012638035538104593   -0.06517913294135474   -0.0019134084847027375
-0.0025927638078705345   -0.07   -0.0018913815804241672
-0.004021547570074506   -0.07   -0.0021982345771500455
0.0013191958562297152   -0.0649034462272088   -0.0021526593196155913
-0.0012638035538104593   -0.06517913294135474   -0.0019134084847027375
-0.003729299198511647   -0.07   -0.00192511222802922
0.0017050195152534535   -0.0648810857886495   -0.0018734992949120447
-0.0011043857688929073   -0.06522107281443246   -0.001756699358466282
-0.003729299198511647   -0.07   -0.00192511222802922
-0.0025927638078705345   -0.07   -0.0018913815804241672
0.0017050195152534535   -0.0648810857886495   -0.0018734992949120447
-0.001993384744556248   -0.07   -0.0015035008065269638
-0.0011043857688929073   -0.06522107281443246   -0.001756699358466282
0.0021060587722922463   -0.06490000055474103   -0.0016185135277735757
-0.001993384744556248   -0.07   -0.0015035008065269638
0.0017050195152534535   -0.0648810857886495   -0.0018734992949120447
-0.0011043857688929073   -0.06522107281443246   -0.001756699358466282
-0.001993384744556248   -0.07   -0.0015035008065269638
-0.0034436802325624716   -0.07   -0.001655604833813001
-0.003729299198511647   -0.07   -0.00192511222802922
-0.0011043857688929073   -0.06522107281443246   -0.001756699358466282
-0.001993384744556248   -0.07   -0.0015035008065269638
-0.003729299198511647   -0.07   -0.00192511222802922
0.0017050195152534535   -0.0648810857886495   -0.0018734992949120447
-0.008318778828645247   -0.06837665588594603   -0.0017228558298384212
-0.004977001911276359   -0.0685642246999482   -0.001474683562841075
-0.00700969389259817   -0.06872077798044245   -0.0019295469152547872
-0.007937847702268365   -0.06830012389971755   -0.0019393055065662216
-0.004977001911276359   -0.0685642246999482   -0.001474683562841075
-0.005276193786132623   -0.06882955195223786   -0.001740825192834638
-0.00700969389259817   -0.06872077798044245   -0.0019295469152547872
-0.005140946988627285   -0.06873677831960971   -0.001837966105424642
-0.007937847702268365   -0.06830012389971755   -0.0019393055065662216
-0.006830903333792467   -0.0686528549851704   -0.0020007799412877472
-0.005140946988627285   -0.06873677831960971   -0.001837966105424642
-0.00700969389259817   -0.06872077798044245   -0.0019295469152547872
-0.007937847702268365   -0.06830012389971755   -0.0019393055065662216
-0.005140946988627285   -0.06873677831960971   -0.001837966105424642
-0.004631719509295644   -0.06844508954802166   -0.0017021109390679028
-0.004977001911276359   -0.0685642246999482   -0.001474683562841075
-0.007937847702268365   -0.06830012389971755   -0.0019393055065662216
-0.005140946988627285   -0.06873677831960971   -0.001837966105424642
-0.004977001911276359   -0.0685642246999482   -0.001474683562841075
-0.00700969389259817   -0.06872077798044245   -0.0019295469152547872
-0.007937847702268365   -0.06830012389971755   -0.0019393055065662216
-0.004631719509295644   -0.06844508954802166   -0.0017021109390679028
-0.006830903333792467   -0.0686528549851704   -0.0020007799412877472
-0.00760918867259906   -0.06830678316752962   -0.0021549303207921804
-0.004631719509295644   -0.06844508954802166   -0.0017021109390679028
-0.005140946988627285   -0.06873677831960971   -0.001837966105424642
-0.006830903333792467   -0.0686528549851704   -0.0020007799412877472
-0.00498228896942355   -0.06870262998257955   -0.0019276032097950801
-0.00760918867259906   -0.06830678316752962   -0.0021549303207921804
-0.006632848219283705   -0.06865631095544329   -0.002072736626891647
-0.00498228896942355   -0.06870262998257955   -0.0019276032097950801
-0.006830903333792467   -0.0686528549851704   -0.0020007799412877472
-0.00760918867259906   -0.06830678316752962   -0.0021549303207921804
-0.00498228896942355   -0.06870262998257955   -0.0019276032097950801
-0.004344313694164707   -0.06840852772024193   -0.0019202273949591345
-0.004631719509295644   -0.06844508954802166   -0.0017021109390679028
-0.00760918867259906   -0.06830678316752962   -0.0021549303207921804
-0.00498228896942355   -0.06870262998257955   -0.0019276032097950801
-0.004631719509295644   -0.06844508954802166   -0.0017021109390679028
-0.006830903333792467   -0.0686528549851704   -0.0020007799412877472
-0.00760918867259906   -0.06830678316752962   -0.0021549303207921804
-0.004344313694164707   -0.06840852772024193   -0.0019202273949591345
-0.006632848219283705   -0.06865631095544329   -0.002072736626891647
-0.007219327858297223   -0.06840142133465224   -0.0023751968335804494
-0.004344313694164707   -0.06840852772024193   -0.0019202273949591345
-0.00498228896942355   -0.06870262998257955   -0.0019276032097950801
-0.006632848219283705   -0.06865631095544329   -0.002072736626891647
-0.004846388788532463   -0.06872760504852043   -0.002009269174443636
-0.007219327858297223   -0.06840142133465224   -0.0023751968335804494
-0.006448879086751889   -0.06873148203120595   -0.0021457180186755273
-0.004846388788532463   -0.06872760504852043   -0.002009269174443636
-0.006632848219283705   -0.06865631095544329   -0.002072736626891647
-0.007219327858297223   -0.06840142133465224   -0.0023751968335804494
-0.004846388788532463   -0.06872760504852043   -0.002009269174443636
-0.00401909162848596   -0.06843968100490942   -0.002128066862470627
-0.004344313694164707   -0.06840852772024193   -0.0019202273949591345
-0.007219327858297223   -0.06840142133465224   -0.0023751968335804494
-0.004846388788532463   -0.06872760504852043   -0.002009269174443636
-0.004344313694164707   -0.06840852772024193   -0.0019202273949591345
-0.006632848219283705   -0.06865631095544329   -0.002072736626891647
-0.00700969389259817   -0.06872077798044245   -0.0019295469152547872
-0.005276193786132623   -0.06882955195223786   -0.001740825192834638
-0.006050585549105985   -0.06906576193140491   -0.002112194415550561
-0.006830903333792467   -0.0686528549851704   -0.0020007799412877472
-0.005276193786132623   -0.06882955195223786   -0.001740825192834638
-0.005682273548332682   -0.06899343278681973   -0.001953595665573171
-0.006050585549105985   -0.06906576193140491   -0.002112194415550561
-0.0055625885157756395   -0.06891058457188458   -0.0019561177140247354
-0.006830903333792467   -0.0686528549851704   -0.0020007799412877472
-0.00586198809376429   -0.06899605036610253   -0.0020623965420708793
-0.0055625885157756395   -0.06891058457188458   -0.0019561177140247354
-0.006050585549105985   -0.06906576193140491   -0.002112194415550561
-0.006830903333792467   -0.0686528549851704   -0.0020007799412877472
-0.0055625885157756395   -0.06891058457188458   -0.0019561177140247354
-0.005140946988627285   -0.06873677831960971   -0.001837966105424642
-0.005276193786132623   -0.06882955195223786   -0.001740825192834638
-0.006830903333792467   -0.0686528549851704   -0.0020007799412877472
-0.0055625885157756395   -0.06891058457188458   -0.0019561177140247354
-0.005276193786132623   -0.06882955195223786   -0.001740825192834638
-0.006050585549105985   -0.06906576193140491   -0.002112194415550561
-0.006830903333792467   -0.0686528549851704   -0.0020007799412877472
-0.005140946988627285   -0.06873677831960971   -0.001837966105424642
-0.00586198809376429   -0.06899605036610253   -0.0020623965420708793
-0.006632848219283705   -0.06865631095544329   -0.002072736626891647
-0.005140946988627285   -0.06873677831960971   -0.001837966105424642
-0.0055625885157756395   -0.06891058457188458   -0.0019561177140247354
-0.00586198809376429   -0.06899605036610253   -0.0020623965420708793
-0.005429376925438624   -0.06888083298644979   -0.001948911453823689
-0.006632848219283705   -0.06865631095544329   -0.002072736626891647
-0.005679623930818184   -0.06899487426185891   -0.00201198216459668
-0.005429376925438624   -0.06888083298644979   -0.001948911453823689
-0.00586198809376429   -0.06899605036610253   -0.0020623965420708793
-0.006632848219283705   -0.06865631095544329   -0.002072736626891647
-0.005429376925438624   -0.06888083298644979   -0.001948911453823689
-0.00498228896942355   -0.06870262998257955   -0.0019276032097950801
-0.005140946988627285   -0.06873677831960971   -0.001837966105424642
-0.006632848219283705   -0.06865631095544329   -0.002072736626891647
-0.005429376925438624   -0.06888083298644979   -0.001948911453823689
-0.005140946988627285   -0.06873677831960971   -0.001837966105424642
-0.00586198809376429   -0.06899605036610253   -0.0020623965420708793
-0.006632848219283705   -0.06865631095544329   -0.002072736626891647
-0.00498228896942355   -0.06870262998257955   -0.0019276032097950801
-0.005679623930818184   -0.06899487426185891   -0.00201198216459668
-0.006448879086751889   -0.06873148203120595   -0.0021457180186755273
-0.00498228896942355   -0.06870262998257955   -0.0019276032097950801
-0.005429376925438624   -0.06888083298644979   -0.001948911453823689
-0.005679623930818184   -0.06899487426185891   -0.00201198216459668
-0.005293942606888812   -0.06890175999300265   -0.001934071140152043
-0.006448879086751889   -0.06873148203120595   -0.0021457180186755273
-0.005489516383797561   -0.0690608075949773   -0.0019635655470627003
-0.005293942606888812   -0.06890175999300265   -0.001934071140152043
-0.005679623930818184   -0.06899487426185891   -0.00201198216459668
-0.006448879086751889   -0.06873148203120595   -0.0021457180186755273
-0.005293942606888812   -0.06890175999300265   -0.001934071140152043
-0.004846388788532463   -0.06872760504852043   -0.002009269174443636
-0.00498228896942355   -0.06870262998257955   -0.0019276032097950801
-0.006448879086751889   -0.06873148203120595   -0.0021457180186755273
-0.005293942606888812   -0.06890175999300265   -0.001934071140152043
-0.00498228896942355   -0.06870262998257955   -0.0019276032097950801
-0.005679623930818184   -0.06899487426185891   -0.00201198216459668
-0.006050585549105985   -0.06906576193140491   -0.002112194415550561
-0.005682273548332682   -0.06899343278681973   -0.001953595665573171
-0.005174544465779584   -0.06948167396482594   -0.002313384952986197
-0.00586198809376429   -0.06899605036610253   -0.0020623965420708793
-0.005682273548332682   -0.06899343278681973   -0.001953595665573171
-0.00611773465256639   -0.06906207176502002   -0.0021630358178766703
-0.005174544465779584   -0.06948167396482594   -0.002313384952986197
-0.005993753093642878   -0.06898305490519915   -0.0020745736978503193
-0.00586198809376429   -0.06899605036610253   -0.0020623965420708793
-0.004943369388062676   -0.06942113360210878   -0.0021357752970058413
-0.005993753093642878   -0.06898305490519915   -0.0020745736978503193
-0.005174544465779584   -0.06948167396482594   -0.002313384952986197
-0.00586198809376429   -0.06899605036610253   -0.0020623965420708793
-0.005993753093642878   -0.06898305490519915   -0.0020745736978503193
-0.0055625885157756395   -0.06891058457188458   -0.0019561177140247354
-0.005682273548332682   -0.06899343278681973   -0.001953595665573171
-0.00586198809376429   -0.06899605036610253   -0.0020623965420708793
-0.005993753093642878   -0.06898305490519915   -0.0020745736978503193
-0.005682273548332682   -0.06899343278681973   -0.001953595665573171
-0.005174544465779584   -0.06948167396482594   -0.002313384952986197
-0.00586198809376429   -0.06899605036610253   -0.0020623965420708793
-0.0055625885157756395   -0.06891058457188458   -0.0019561177140247354
-0.004943369388062676   -0.06942113360210878   -0.0021357752970058413
-0.005679623930818184   -0.06899487426185891   -0.00201198216459668
-0.0055625885157756395   -0.06891058457188458   -0.0019561177140247354
-0.005993753093642878   -0.06898305490519915   -0.0020745736978503193
-0.004943369388062676   -0.06942113360210878   -0.0021357752970058413
-0.005845055803923429   -0.0689580005418554   -0.001974262917240172
-0.005679623930818184   -0.06899487426185891   -0.00201198216459668
-0.00472913732517646   -0.06941793652659828   -0.0019587491829217932
-0.005845055803923429   -0.0689580005418554   -0.001974262917240172
-0.004943369388062676   -0.06942113360210878   -0.0021357752970058413
-0.005679623930818184   -0.06899487426185891   -0.00201198216459668
-0.005845055803923429   -0.0689580005418554   -0.001974262917240172
-0.005429376925438624   -0.06888083298644979   -0.001948911453823689
-0.0055625885157756395   -0.06891058457188458   -0.0019561177140247354
-0.005679623930818184   -0.06899487426185891   -0.00201198216459668
-0.005845055803923429   -0.0689580005418554   -0.001974262917240172
-0.0055625885157756395   -0.06891058457188458   -0.0019561177140247354
-0.004943369388062676   -0.06942113360210878   -0.0021357752970058413
-0.005679623930818184   -0.06899487426185891   -0.00201198216459668
-0.005429376925438624   -0.06888083298644979   -0.001948911453823689
-0.00472913732517646   -0.06941793652659828   -0.0019587491829217932
-0.005489516383797561   -0.0690608075949773   -0.0019635655470627003
-0.005429376925438624   -0.06888083298644979   -0.001948911453823689
-0.005845055803923429   -0.0689580005418554   -0.001974262917240172
-0.00472913732517646   -0.06941793652659828   -0.0019587491829217932
-0.005692147333101297   -0.06897844854526596   -0.0018674287488891974
-0.005489516383797561   -0.0690608075949773   -0.0019635655470627003
-0.004499171490221073   -0.06946899716183728   -0.0017813568723575282
-0.005692147333101297   -0.06897844854526596   -0.0018674287488891974
-0.00472913732517646   -0.06941793652659828   -0.0019587491829217932
-0.005489516383797561   -0.0690608075949773   -0.0019635655470627003
-0.005692147333101297   -0.06897844854526596   -0.0018674287488891974
-0.005293942606888812   -0.06890175999300265   -0.001934071140152043
-0.005429376925438624   -0.06888083298644979   -0.001948911453823689
-0.005489516383797561   -0.0690608075949773   -0.0019635655470627003
-0.005692147333101297   -0.06897844854526596   -0.0018674287488891974
-0.005429376925438624   -0.06888083298644979   -0.001948911453823689
-0.00472913732517646   -0.06941793652659828   -0.0019587491829217932
-0.005174544465779584   -0.06948167396482594   -0.002313384952986197
-0.00611773465256639   -0.06906207176502002   -0.0021630358178766703
-0.004312365230469934   -0.07   -0.002468157506656568
-0.004943369388062676   -0.06942113360210878   -0.0021357752970058413
-0.00611773465256639   -0.06906207176502002   -0.0021630358178766703
-0.0067484904187203425   -0.06898747837861997   -0.002362088723858298
-0.004312365230469934   -0.07   -0.002468157506656568
-0.0065865509623464795   -0.06891284418936593   -0.0021869874437443816
-0.004943369388062676   -0.06942113360210878   -0.0021357752970058413
-0.004021547570074506   -0.07   -0.0021982345771500455
-0.0065865509623464795   -0.06891284418936593   -0.0021869874437443816
-0.004312365230469934   -0.07   -0.002468157506656568
-0.004943369388062676   -0.06942113360210878   -0.0021357752970058413
-0.0065865509623464795   -0.06891284418936593   -0.0021869874437443816
-0.005993753093642878   -0.06898305490519915   -0.0020745736978503193
-0.00611773465256639   -0.06906207176502002   -0.0021630358178766703
-0.004943369388062676   -0.06942113360210878   -0.0021357752970058413
-0.0065865509623464795   -0.06891284418936593   -0.0021869874437443816
-0.00611773465256639   -0.06906207176502002   -0.0021630358178766703
-0.004312365230469934   -0.07   -0.002468157506656568
-0.004943369388062676   -0.06942113360210878   -0.0021357752970058413
-0.005993753093642878   -0.06898305490519915   -0.0020745736978503193
-0.004021547570074506   -0.07   -0.0021982345771500455
-0.00472913732517646   -0.06941793652659828   -0.0019587491829217932
-0.005993753093642878   -0.06898305490519915   -0.0020745736978503193
-0.0065865509623464795   -0.06891284418936593   -0.0021869874437443816
-0.004021547570074506   -0.07   -0.0021982345771500455
-0.006372842262451437   -0.06889591782675501   -0.0019986865168181668
-0.00472913732517646   -0.06941793652659828   -0.0019587491829217932
-0.003729299198511647   -0.07   -0.00192511222802922
-0.006372842262451437   -0.06889591782675501   -0.0019986865168181668
-0.004021547570074506   -0.07   -0.0021982345771500455
-0.00472913732517646   -0.06941793652659828   -0.0019587491829217932
-0.006372842262451437   -0.06889591782675501   -0.0019986865168181668
-0.005845055803923429   -0.0689580005418554   -0.001974262917240172
-0.005993753093642878   -0.06898305490519915   -0.0020745736978503193
-0.00472913732517646   -0.06941793652659828   -0.0019587491829217932
-0.006372842262451437   -0.06889591782675501   -0.0019986865168181668
-0.005993753093642878   -0.06898305490519915   -0.0020745736978503193
-0.004021547570074506   -0.07   -0.0021982345771500455
-0.00472913732517646   -0.06941793652659828   -0.0019587491829217932
-0.005845055803923429   -0.0689580005418554   -0.001974262917240172
-0.003729299198511647   -0.07   -0.00192511222802922
-0.004499171490221073   -0.06946899716183728   -0.0017813568723575282
-0.005845055803923429   -0.0689580005418554   -0.001974262917240172
-0.006372842262451437   -0.06889591782675501   -0.0019986865168181668
-0.003729299198511647   -0.07   -0.00192511222802922
-0.006171861258121649   -0.06892557491811853   -0.0018031270886967009
-0.004499171490221073   -0.06946899716183728   -0.0017813568723575282
-0.0034436802325624716   -0.07   -0.001655604833813001
-0.006171861258121649   -0.06892557491811853   -0.0018031270886967009
-0.003729299198511647   -0.07   -0.00192511222802922
-0.004499171490221073   -0.06946899716183728   -0.0017813568723575282
-0.006171861258121649   -0.06892557491811853   -0.0018031270886967009
-0.005692147333101297   -0.06897844854526596   -0.0018674287488891974
-0.005845055803923429   -0.0689580005418554   -0.001974262917240172
-0.004499171490221073   -0.06946899716183728   -0.0017813568723575282
-0.006171861258121649   -0.06892557491811853   -0.0018031270886967009
-0.005845055803923429   -0.0689580005418554   -0.001974262917240172
-0.003729299198511647   -0.07   -0.00192511222802922
-0.004312365230469934   -0.07   -0.002468157506656568
-0.0067484904187203425   -0.06898747837861997   -0.002362088723858298
-0.003686426608722328   -0.07   -0.0026556009105826233
-0.004021547570074506   -0.07   -0.0021982345771500455
-0.0067484904187203425   -0.06898747837861997   -0.002362088723858298
-0.007975442156832676   -0.06864994711786648   -0.002573275225329404
-0.003686426608722328   -0.07   -0.0026556009105826233
-0.007544613165073307   -0.068586983097111   -0.0022860054575880935
-0.004021547570074506   -0.07   -0.0021982345771500455
-0.003077983952218915   -0.07   -0.002265018047552968
-0.007544613165073307   -0.068586983097111   -0.0022860054575880935
-0.003686426608722328   -0.07   -0.0026556009105826233
-0.004021547570074506   -0.07   -0.0021982345771500455
-0.007544613165073307   -0.068586983097111   -0.0022860054575880935
-0.0065865509623464795   -0.06891284418936593   -0.0021869874437443816
-0.0067484904187203425   -0.06898747837861997   -0.002362088723858298
-0.004021547570074506   -0.07   -0.0021982345771500455
-0.007544613165073307   -0.068586983097111   -0.0022860054575880935
-0.0067484904187203425   -0.06898747837861997   -0.002362088723858298
-0.003686426608722328   -0.07   -0.0026556009105826233
-0.004021547570074506   -0.07   -0.0021982345771500455
-0.0065865509623464795   -0.06891284418936593   -0.0021869874437443816
-0.003077983952218915   -0.07   -0.002265018047552968
-0.003729299198511647   -0.07   -0.00192511222802922
-0.0065865509623464795   -0.06891284418936593   -0.0021869874437443816
-0.007544613165073307   -0.068586983097111   -0.0022860054575880935
-0.003077983952218915   -0.07   -0.002265018047552968
-0.00714882984018346   -0.06857838020451612   -0.0019794066684451442
-0.003729299198511647   -0.07   -0.00192511222802922
-0.0025927638078705345   -0.07   -0.0018913815804241672
-0.00714882984018346   -0.06857838020451612   -0.0019794066684451442
-0.003077983952218915   -0.07   -0.002265018047552968
-0.003729299198511647   -0.07   -0.00192511222802922
-0.00714882984018346   -0.06857838020451612   -0.0019794066684451442
-0.006372842262451437   -0.06889591782675501   -0.0019986865168181668
-0.0065865509623464795   -0.06891284418936593   -0.0021869874437443816
-0.003729299198511647   -0.07   -0.00192511222802922
-0.00714882984018346   -0.06857838020451612   -0.0019794066684451442
-0.0065865509623464795   -0.06891284418936593   -0.0021869874437443816
-0.003077983952218915   -0.07   -0.002265018047552968
-0.003729299198511647   -0.07   -0.00192511222802922
-0.006372842262451437   -0.06889591782675501   -0.0019986865168181668
-0.0025927638078705345   -0.07   -0.0018913815804241672
-0.0034436802325624716   -0.07   -0.001655604833813001
-0.006372842262451437   -0.06889591782675501   -0.0019986865168181668
-0.00714882984018346   -0.06857838020451612   -0.0019794066684451442
-0.0025927638078705345   -0.07   -0.0018913815804241672
-0.006648986387336829   -0.06866099796614733   -0.001658775981651342
-0.0034436802325624716   -0.07   -0.001655604833813001
-0.001993384744556248   -0.07   -0.0015035008065269638
-0.006648986387336829   -0.06866099796614733   -0.001658775981651342
-0.0025927638078705345   -0.07   -0.0018913815804241672
-0.0034436802325624716   -0.07   -0.001655604833813001
-0.006648986387336829   -0.06866099796614733   -0.001658775981651342
-0.006171861258121649   -0.06892557491811853   -0.0018031270886967009
-0.006372842262451437   -0.06889591782675501   -0.0019986865168181668
-0.0034436802325624716   -0.07   -0.001655604833813001
-0.006648986387336829   -0.06866099796614733   -0.001658775981651342
-0.006372842262451437   -0.06889591782675501   -0.0019986865168181668
-0.0025927638078705345   -0.07   -0.0018913815804241672
-0.004977001911276359   -0.0685642246999482   -0.001474683562841075
-0.0020366131064896197   -0.06597900098270396   -0.001274056497505604
-0.005276193786132623   -0.06882955195223786   -0.001740825192834638
-0.004631719509295644   -0.06844508954802166   -0.0017021109390679028
-0.0020366131064896197   -0.06597900098270396   -0.001274056497505604
-0.0037892989310545355   -0.0661792379037149   -0.0015567673659431938
-0.005276193786132623   -0.06882955195223786   -0.001740825192834638
-0.003693225805819325   -0.06606697262110058   -0.0016433970619963152
-0.004631719509295644   -0.06844508954802166   -0.0017021109390679028
-0.005140946988627285   -0.06873677831960971   -0.001837966105424642
-0.003693225805819325   -0.06606697262110058   -0.0016433970619963152
-0.005276193786132623   -0.06882955195223786   -0.001740825192834638
-0.004631719509295644   -0.06844508954802166   -0.0017021109390679028
-0.003693225805819325   -0.06606697262110058   -0.0016433970619963152
-0.0017612412870899412   -0.0658400610538463   -0.0014706706282004974
-0.0020366131064896197   -0.06597900098270396   -0.001274056497505604
-0.004631719509295644   -0.06844508954802166   -0.0017021109390679028
-0.003693225805819325   -0.06606697262110058   -0.0016433970619963152
-0.0020366131064896197   -0.06597900098270396   -0.001274056497505604
-0.005276193786132623   -0.06882955195223786   -0.001740825192834638
-0.004631719509295644   -0.06844508954802166   -0.0017021109390679028
-0.0017612412870899412   -0.0658400610538463   -0.0014706706282004974
-0.005140946988627285   -0.06873677831960971   -0.001837966105424642
-0.004344313694164707   -0.06840852772024193   -0.0019202273949591345
-0.0017612412870899412   -0.0658400610538463   -0.0014706706282004974
-0.003693225805819325   -0.06606697262110058   -0.0016433970619963152
-0.005140946988627285   -0.06873677831960971   -0.001837966105424642
-0.0035850441672227625   -0.06600485802351423   -0.001722228496543596
-0.004344313694164707   -0.06840852772024193   -0.0019202273949591345
-0.00498228896942355   -0.06870262998257955   -0.0019276032097950801
-0.0035850441672227625   -0.06600485802351423   -0.001722228496543596
-0.005140946988627285   -0.06873677831960971   -0.001837966105424642
-0.004344313694164707   -0.06840852772024193   -0.0019202273949591345
-0.0035850441672227625   -0.06600485802351423   -0.001722228496543596
-0.0015445540666770845   -0.06577398945296492   -0.0016557263688520391
-0.0017612412870899412   -0.0658400610538463   -0.0014706706282004974
-0.004344313694164707   -0.06840852772024193   -0.0019202273949591345
-0.0035850441672227625   -0.06600485802351423   -0.001722228496543596
-0.0017612412870899412   -0.0658400610538463   -0.0014706706282004974
-0.005140946988627285   -0.06873677831960971   -0.001837966105424642
-0.004344313694164707   -0.06840852772024193   -0.0019202273949591345
-0.0015445540666770845   -0.06577398945296492   -0.0016557263688520391
-0.00498228896942355   -0.06870262998257955   -0.0019276032097950801
-0.00401909162848596   -0.06843968100490942   -0.002128066862470627
-0.0015445540666770845   -0.06577398945296492   -0.0016557263688520391
-0.0035850441672227625   -0.06600485802351423   -0.001722228496543596
-0.00498228896942355   -0.06870262998257955   -0.0019276032097950801
-0.003502107608785395   -0.06599115775446647   -0.0017935115353605294
-0.00401909162848596   -0.06843968100490942   -0.002128066862470627
-0.004846388788532463   -0.06872760504852043   -0.002009269174443636
-0.003502107608785395   -0.06599115775446647   -0.0017935115353605294
-0.00498228896942355   -0.06870262998257955   -0.0019276032097950801
-0.00401909162848596   -0.06843968100490942   -0.002128066862470627
-0.003502107608785395   -0.06599115775446647   -0.0017935115353605294
-0.00130786065583109   -0.06576178466771027   -0.0018287360407253136
-0.0015445540666770845   -0.06577398945296492   -0.0016557263688520391
-0.00401909162848596   -0.06843968100490942   -0.002128066862470627
-0.003502107608785395   -0.06599115775446647   -0.0017935115353605294
-0.0015445540666770845   -0.06577398945296492   -0.0016557263688520391
-0.00498228896942355   -0.06870262998257955   -0.0019276032097950801
-0.005276193786132623   -0.06882955195223786   -0.001740825192834638
-0.0037892989310545355   -0.0661792379037149   -0.0015567673659431938
-0.005682273548332682   -0.06899343278681973   -0.001953595665573171
-0.005140946988627285   -0.06873677831960971   -0.001837966105424642
-0.0037892989310545355   -0.0661792379037149   -0.0015567673659431938
-0.0055198211515431125   -0.0662498458600212   -0.001787327921145884
-0.005682273548332682   -0.06899343278681973   -0.001953595665573171
-0.005439057303420019   -0.06615190676711198   -0.0017920786020388236
-0.005140946988627285   -0.06873677831960971   -0.001837966105424642
-0.0055625885157756395   -0.06891058457188458   -0.0019561177140247354
-0.005439057303420019   -0.06615190676711198   -0.0017920786020388236
-0.005682273548332682   -0.06899343278681973   -0.001953595665573171
-0.005140946988627285   -0.06873677831960971   -0.001837966105424642
-0.005439057303420019   -0.06615190676711198   -0.0017920786020388236
-0.003693225805819325   -0.06606697262110058   -0.0016433970619963152
-0.0037892989310545355   -0.0661792379037149   -0.0015567673659431938
-0.005140946988627285   -0.06873677831960971   -0.001837966105424642
-0.005439057303420019   -0.06615190676711198   -0.0017920786020388236
-0.0037892989310545355   -0.0661792379037149   -0.0015567673659431938
-0.005682273548332682   -0.06899343278681973   -0.001953595665573171
-0.005140946988627285   -0.06873677831960971   -0.001837966105424642
-0.003693225805819325   -0.06606697262110058   -0.0016433970619963152
-0.0055625885157756395   -0.06891058457188458   -0.0019561177140247354
-0.00498228896942355   -0.06870262998257955   -0.0019276032097950801
-0.003693225805819325   -0.06606697262110058   -0.0016433970619963152
-0.005439057303420019   -0.06615190676711198   -0.0017920786020388236
-0.0055625885157756395   -0.06891058457188458   -0.0019561177140247354
-0.005355522695432642   -0.06609917530734397   -0.0017896068725082675
-0.00498228896942355   -0.06870262998257955   -0.0019276032097950801
-0.005429376925438624   -0.06888083298644979   -0.001948911453823689
-0.005355522695432642   -0.06609917530734397   -0.0017896068725082675
-0.0055625885157756395   -0.06891058457188458   -0.0019561177140247354
-0.00498228896942355   -0.06870262998257955   -0.0019276032097950801
-0.005355522695432642   -0.06609917530734397   -0.0017896068725082675
-0.0035850441672227625   -0.06600485802351423   -0.001722228496543596
-0.003693225805819325   -0.06606697262110058   -0.0016433970619963152
-0.00498228896942355   -0.06870262998257955   -0.0019276032097950801
-0.005355522695432642   -0.06609917530734397   -0.0017896068725082675
-0.003693225805819325   -0.06606697262110058   -0.0016433970619963152
-0.0055625885157756395   -0.06891058457188458   -0.0019561177140247354
-0.00498228896942355   -0.06870262998257955   -0.0019276032097950801
-0.0035850441672227625   -0.06600485802351423   -0.001722228496543596
-0.005429376925438624   -0.06888083298644979   -0.001948911453823689
-0.004846388788532463   -0.06872760504852043   -0.002009269174443636
-0.0035850441672227625   -0.06600485802351423   -0.001722228496543596
-0.005355522695432642   -0.06609917530734397   -0.0017896068725082675
-0.005429376925438624   -0.06888083298644979   -0.001948911453823689
-0.005274965077502928   -0.06608947866411792   -0.001779846447805304
-0.004846388788532463   -0.06872760504852043   -0.002009269174443636
-0.005293942606888812   -0.06890175999300265   -0.001934071140152043
-0.005274965077502928   -0.06608947866411792   -0.001779846447805304
-0.005429376925438624   -0.06888083298644979   -0.001948911453823689
-0.004846388788532463   -0.06872760504852043   -0.002009269174443636
-0.005274965077502928   -0.06608947866411792   -0.001779846447805304
-0.003502107608785395   -0.06599115775446647   -0.0017935115353605294
-0.0035850441672227625   -0.06600485802351423   -0.001722228496543596
-0.004846388788532463   -0.06872760504852043   -0.002009269174443636
-0.005274965077502928   -0.06608947866411792   -0.001779846447805304
-0.0035850441672227625   -0.06600485802351423   -0.001722228496543596
-0.005429376925438624   -0.06888083298644979   -0.001948911453823689
-0.005682273548332682   -0.06899343278681973   -0.001953595665573171
-0.0055198211515431125   -0.0662498458600212   -0.001787327921145884
-0.00611773465256639   -0.06906207176502002   -0.0021630358178766703
-0.0055625885157756395   -0.06891058457188458   -0.0019561177140247354
-0.0055198211515431125   -0.0662498458600212   -0.001787327921145884
-0.007238431900608817   -0.06618699603037355   -0.0020031188264430593
-0.00611773465256639   -0.06906207176502002   -0.0021630358178766703
-0.007158306249050438   -0.06610000589706712   -0.0019293556245365267
-0.0055625885157756395   -0.06891058457188458   -0.0019561177140247354
-0.005993753093642878   -0.06898305490519915   -0.0020745736978503193
-0.007158306249050438   -0.06610000589706712   -0.0019293556245365267
-0.00611773465256639   -0.06906207176502002   -0.0021630358178766703
-0.0055625885157756395   -0.06891058457188458   -0.0019561177140247354
-0.007158306249050438   -0.06610000589706712   -0.0019293556245365267
-0.005439057303420019   -0.06615190676711198   -0.0017920786020388236
-0.0055198211515431125   -0.0662498458600212   -0.001787327921145884
-0.0055625885157756395   -0.06891058457188458   -0.0019561177140247354
-0.007158306249050438   -0.06610000589706712   -0.0019293556245365267
-0.0055198211515431125   -0.0662498458600212   -0.001787327921145884
-0.00611773465256639   -0.06906207176502002   -0.0021630358178766703
-0.0055625885157756395   -0.06891058457188458   -0.0019561177140247354
-0.005439057303420019   -0.06615190676711198   -0.0017920786020388236
-0.005993753093642878   -0.06898305490519915   -0.0020745736978503193
-0.005429376925438624   -0.06888083298644979   -0.001948911453823689
-0.005439057303420019   -0.06615190676711198   -0.0017920786020388236
-0.007158306249050438   -0.06610000589706712   -0.0019293556245365267
-0.005993753093642878   -0.06898305490519915   -0.0020745736978503193
-0.007068387643590972   -0.06605746653451373   -0.0018484776067453112
-0.005429376925438624   -0.06888083298644979   -0.001948911453823689
-0.005845055803923429   -0.0689580005418554   -0.001974262917240172
-0.007068387643590972   -0.06605746653451373   -0.0018484776067453112
-0.005993753093642878   -0.06898305490519915   -0.0020745736978503193
-0.005429376925438624   -0.06888083298644979   -0.001948911453823689
-0.007068387643590972   -0.06605746653451373   -0.0018484776067453112
-0.005355522695432642   -0.06609917530734397   -0.0017896068725082675
-0.005439057303420019   -0.06615190676711198   -0.0017920786020388236
-0.005429376925438624   -0.06888083298644979   -0.001948911453823689
-0.007068387643590972   -0.06605746653451373   -0.0018484776067453112
-0.005439057303420019   -0.06615190676711198   -0.0017920786020388236
-0.005993753093642878   -0.06898305490519915   -0.0020745736978503193
-0.005429376925438624   -0.06888083298644979   -0.001948911453823689
-0.005355522695432642   -0.06609917530734397   -0.0017896068725082675
-0.005845055803923429   -0.0689580005418554   -0.001974262917240172
-0.005293942606888812   -0.06890175999300265   -0.001934071140152043
-0.005355522695432642   -0.06609917530734397   -0.0017896068725082675
-0.007068387643590972   -0.06605746653451373   -0.0018484776067453112
-0.005845055803923429   -0.0689580005418554   -0.001974262917240172
-0.006978103195494382   -0.06605510720629174   -0.001759618050611116
-0.005293942606888812   -0.06890175999300265   -0.001934071140152043
-0.005692147333101297   -0.06897844854526596   -0.0018674287488891974
-0.006978103195494382   -0.06605510720629174   -0.001759618050611116
-0.005845055803923429   -0.0689580005418554   -0.001974262917240172
-0.005293942606888812   -0.06890175999300265   -0.001934071140152043
-0.006978103195494382   -0.06605510720629174   -0.001759618050611116
-0.005274965077502928   -0.06608947866411792   -0.001779846447805304
-0.005355522695432642   -0.06609917530734397   -0.0017896068725082675
-0.005293942606888812   -0.06890175999300265   -0.001934071140152043
-0.006978103195494382   -0.06605510720629174   -0.001759618050611116
-0.005355522695432642   -0.06609917530734397   -0.0017896068725082675
-0.005845055803923429   -0.0689580005418554   -0.001974262917240172
-0.00611773465256639   -0.06906207176502002   -0.0021630358178766703
-0.007238431900608817   -0.06618699603037355   -0.0020031188264430593
-0.0067484904187203425   -0.06898747837861997   -0.002362088723858298
-0.005993753093642878   -0.06898305490519915   -0.0020745736978503193
-0.007238431900608817   -0.06618699603037355   -0.0020031188264430593
-0.009126447224242629   -0.06598237894007974   -0.0022013557922794967
-0.0067484904187203425   -0.06898747837861997   -0.002362088723858298
-0.009028344646270442   -0.0659063563707328   -0.0020508205890100804
-0.005993753093642878   -0.06898305490519915   -0.0020745736978503193
-0.0065865509623464795   -0.06891284418936593   -0.0021869874437443816
-0.009028344646270442   -0.0659063563707328   -0.0020508205890100804
-0.0067484904187203425   -0.06898747837861997   -0.002362088723858298
-0.005993753093642878   -0.06898305490519915   -0.0020745736978503193
-0.009028344646270442   -0.0659063563707328   -0.0020508205890100804
-0.007158306249050438   -0.06610000589706712   -0.0019293556245365267
-0.007238431900608817   -0.06618699603037355   -0.0020031188264430593
-0.005993753093642878   -0.06898305490519915   -0.0020745736978503193
-0.009028344646270442   -0.0659063563707328   -0.0020508205890100804
-0.007238431900608817   -0.06618699603037355   -0.0020031188264430593
-0.0067484904187203425   -0.06898747837861997   -0.002362088723858298
-0.005993753093642878   -0.06898305490519915   -0.0020745736978503193
-0.007158306249050438   -0.06610000589706712   -0.0019293556245365267
-0.0065865509623464795   -0.06891284418936593   -0.0021869874437443816
-0.005845055803923429   -0.0689580005418554   -0.001974262917240172
-0.007158306249050438   -0.06610000589706712   -0.0019293556245365267
-0.009028344646270442   -0.0659063563707328   -0.0020508205890100804
-0.0065865509623464795   -0.06891284418936593   -0.0021869874437443816
-0.008892880799638537   -0.06587396853653785   -0.0018936945955762396
-0.005845055803923429   -0.0689580005418554   -0.001974262917240172
-0.006372842262451437   -0.06889591782675501   -0.0019986865168181668
-0.008892880799638537   -0.06587396853653785   -0.0018936945955762396
-0.0065865509623464795   -0.06891284418936593   -0.0021869874437443816
-0.005845055803923429   -0.0689580005418554   -0.001974262917240172
-0.008892880799638537   -0.06587396853653785   -0.0018936945955762396
-0.007068387643590972   -0.06605746653451373   -0.0018484776067453112
-0.007158306249050438   -0.06610000589706712   -0.0019293556245365267
-0.005845055803923429   -0.0689580005418554   -0.001974262917240172
-0.008892880799638537   -0.06587396853653785   -0.0018936945955762396
-0.007158306249050438   -0.06610000589706712   -0.0019293556245365267
-0.0065865509623464795   -0.06891284418936593   -0.0021869874437443816
-0.005845055803923429   -0.0689580005418554   -0.001974262917240172
-0.007068387643590972   -0.06605746653451373   -0.0018484776067453112
-0.006372842262451437   -0.06889591782675501   -0.0019986865168181668
-0.005692147333101297   -0.06897844854526596   -0.0018674287488891974
-0.007068387643590972   -0.06605746653451373   -0.0018484776067453112
-0.008892880799638537   -0.06587396853653785   -0.0018936945955762396
-0.006372842262451437   -0.06889591782675501   -0.0019986865168181668
-0.008774675372228773   -0.06588526533933507   -0.0017256045150540896
-0.005692147333101297   -0.06897844854526596   -0.0018674287488891974
-0.006171861258121649   -0.06892557491811853   -0.0018031270886967009
-0.008774675372228773   -0.06588526533933507   -0.0017256045150540896
-0.006372842262451437   -0.06889591782675501   -0.0019986865168181668
-0.005692147333101297   -0.06897844854526596   -0.0018674287488891974
-0.008774675372228773   -0.06588526533933507   -0.0017256045150540896
-0.006978103195494382   -0.06605510720629174   -0.001759618050611116
-0.007068387643590972   -0.06605746653451373   -0.0018484776067453112
-0.005692147333101297   -0.06897844854526596   -0.0018674287488891974
-0.008774675372228773   -0.06588526533933507   -0.0017256045150540896
-0.007068387643590972   -0.06605746653451373   -0.0018484776067453112
-0.006372842262451437   -0.06889591782675501   -0.0019986865168181668
-0.0067484904187203425   -0.06898747837861997   -0.002362088723858298
-0.009126447224242629   -0.06598237894007974   -0.0022013557922794967
-0.007975442156832676   -0.06864994711786648   -0.002573275225329404
-0.0065865509623464795   -0.06891284418936593   -0.0021869874437443816
-0.009126447224242629   -0.06598237894007974   -0.0022013557922794967
-0.011557727670109907   -0.06564960483627526   -0.002391691978513643
-0.007975442156832676   -0.06864994711786648   -0.002573275225329404
-0.01124151399754787   -0.06556715720363193   -0.002154015561724002
-0.0065865509623464795   -0.06891284418936593   -0.0021869874437443816
-0.007544613165073307   -0.068586983097111   -0.0022860054575880935
-0.01124151399754787   -0.06556715720363193   -0.002154015561724002
-0.007975442156832676   -0.06864994711786648   -0.002573275225329404
-0.0065865509623464795   -0.06891284418936593   -0.0021869874437443816
-0.01124151399754787   -0.06556715720363193   -0.002154015561724002
-0.009028344646270442   -0.0659063563707328   -0.0020508205890100804
-0.009126447224242629   -0.06598237894007974   -0.0022013557922794967
-0.0065865509623464795   -0.06891284418936593   -0.0021869874437443816
-0.01124151399754787   -0.06556715720363193   -0.002154015561724002
-0.009126447224242629   -0.06598237894007974   -0.0022013557922794967
-0.007975442156832676   -0.06864994711786648   -0.002573275225329404
-0.0065865509623464795   -0.06891284418936593   -0.0021869874437443816
-0.009028344646270442   -0.0659063563707328   -0.0020508205890100804
-0.007544613165073307   -0.068586983097111   -0.0022860054575880935
-0.006372842262451437   -0.06889591782675501   -0.0019986865168181668
-0.009028344646270442   -0.0659063563707328   -0.0020508205890100804
-0.01124151399754787   -0.06556715720363193   -0.002154015561724002
-0.007544613165073307   -0.068586983097111   -0.0022860054575880935
-0.010958126706237898   -0.06553719946926324   -0.0019025137745623723
-0.006372842262451437   -0.06889591782675501   -0.0019986865168181668
-0.00714882984018346   -0.06857838020451612   -0.0019794066684451442
-0.010958126706237898   -0.06553719946926324   -0.0019025137745623723
-0.007544613165073307   -0.068586983097111   -0.0022860054575880935
-0.006372842262451437   -0.06889591782675501   -0.0019986865168181668
-0.010958126706237898   -0.06553719946926324   -0.0019025137745623723
-0.008892880799638537   -0.06587396853653785   -0.0018936945955762396
-0.009028344646270442   -0.0659063563707328   -0.0020508205890100804
-0.006372842262451437   -0.06889591782675501   -0.0019986865168181668
-0.010958126706237898   -0.06553719946926324   -0.0019025137745623723
-0.009028344646270442   -0.0659063563707328   -0.0020508205890100804
-0.007544613165073307   -0.068586983097111   -0.0022860054575880935
-0.006372842262451437   -0.06889591782675501   -0.0019986865168181668
-0.008892880799638537   -0.06587396853653785   -0.0018936945955762396
-0.00714882984018346   -0.06857838020451612   -0.0019794066684451442
-0.006171861258121649   -0.06892557491811853   -0.0018031270886967009
-0.008892880799638537   -0.06587396853653785   -0.0018936945955762396
-0.010958126706237898   -0.06553719946926324   -0.0019025137745623723
-0.00714882984018346   -0.06857838020451612   -0.0019794066684451442
-0.01059084942199032   -0.0655752051158081   -0.001639574329533204
-0.006171861258121649   -0.06892557491811853   -0.0018031270886967009
-0.006648986387336829   -0.06866099796614733   -0.001658775981651342
-0.01059084942199032   -0.0655752051158081   -0.001639574329533204
-0.00714882984018346   -0.06857838020451612   -0.0019794066684451442
-0.006171861258121649   -0.06892557491811853   -0.0018031270886967009
-0.01059084942199032   -0.0655752051158081   -0.001639574329533204
-0.008774675372228773   -0.06588526533933507   -0.0017256045150540896
-0.008892880799638537   -0.06587396853653785   -0.0018936945955762396
-0.006171861258121649   -0.06892557491811853   -0.0018031270886967009
-0.01059084942199032   -0.0655752051158081   -0.001639574329533204
-0.008892880799638537   -0.06587396853653785   -0.0018936945955762396
-0.00714882984018346   -0.06857838020451612   -0.0019794066684451442
-0.0020366131064896197   -0.06597900098270396   -0.001274056497505604
0.0003493304609105193   -0.06121773731155553   -0.001053763860024413
-0.0037892989310545355   -0.0661792379037149   -0.0015567673659431938
-0.0017612412870899412   -0.0658400610538463   -0.0014706706282004974
0.0003493304609105193   -0.06121773731155553   -0.001053763860024413
-0.002608221442786891   -0.06136464223337108   -0.0013313358137475551
-0.0037892989310545355   -0.0661792379037149   -0.0015567673659431938
-0.002557276619850373   -0.06124698409354524   -0.0014000846501286157
-0.0017612412870899412   -0.0658400610538463   -0.0014706706282004974
-0.003693225805819325   -0.06606697262110058   -0.0016433970619963152
-0.002557276619850373   -0.06124698409354524   -0.0014000846501286157
-0.0037892989310545355   -0.0661792379037149   -0.0015567673659431938
-0.0017612412870899412   -0.0658400610538463   -0.0014706706282004974
-0.002557276619850373   -0.06124698409354524   -0.0014000846501286157
0.0005417151564740732   -0.061076563228242856   -0.0012103800215063272
0.0003493304609105193   -0.06121773731155553   -0.001053763860024413
-0.0017612412870899412   -0.0658400610538463   -0.0014706706282004974
-0.002557276619850373   -0.06124698409354524   -0.0014000846501286157
0.0003493304609105193   -0.06121773731155553   -0.001053763860024413
-0.0037892989310545355   -0.0661792379037149   -0.0015567673659431938
-0.0017612412870899412   -0.0658400610538463   -0.0014706706282004974
0.0005417151564740732   -0.061076563228242856   -0.0012103800215063272
-0.003693225805819325   -0.06606697262110058   -0.0016433970619963152
-0.0015445540666770845   -0.06577398945296492   -0.0016557263688520391
0.0005417151564740732   -0.061076563228242856   -0.0012103800215063272
-0.002557276619850373   -0.06124698409354524   -0.0014000846501286157
-0.003693225805819325   -0.06606697262110058   -0.0016433970619963152
-0.0024992463461877158   -0.06117023541424439   -0.0014608376977808765
-0.0015445540666770845   -0.06577398945296492   -0.0016557263688520391
-0.0035850441672227625   -0.06600485802351423   -0.001722228496543596
-0.0024992463461877158   -0.06117023541424439   -0.0014608376977808765
-0.003693225805819325   -0.06606697262110058   -0.0016433970619963152
-0.0015445540666770845   -0.06577398945296492   -0.0016557263688520391
-0.0024992463461877158   -0.06117023541424439   -0.0014608376977808765
0.0006832440493708012   -0.06099509542437153   -0.001355804628292119
0.0005417151564740732   -0.061076563228242856   -0.0012103800215063272
-0.0015445540666770845   -0.06577398945296492   -0.0016557263688520391
-0.0024992463461877158   -0.06117023541424439   -0.0014608376977808765
0.0005417151564740732   -0.061076563228242856   -0.0012103800215063272
-0.003693225805819325   -0.06606697262110058   -0.0016433970619963152
-0.0015445540666770845   -0.06577398945296492   -0.0016557263688520391
0.0006832440493708012   -0.06099509542437153   -0.001355804628292119
-0.0035850441672227625   -0.06600485802351423   -0.001722228496543596
-0.00130786065583109   -0.06576178466771027   -0.0018287360407253136
0.0006832440493708012   -0.06099509542437153   -0.001355804628292119
-0.0024992463461877158   -0.06117023541424439   -0.0014608376977808765
-0.0035850441672227625   -0.06600485802351423   -0.001722228496543596
-0.0024645502409145993   -0.061132121754818504   -0.0015143845306508817
-0.00130786065583109   -0.06576178466771027   -0.0018287360407253136
-0.003502107608785395   -0.06599115775446647   -0.0017935115353605294
-0.0024645502409145993   -0.061132121754818504   -0.0015143845306508817
-0.0035850441672227625   -0.06600485802351423   -0.001722228496543596
-0.00130786065583109   -0.06576178466771027   -0.0018287360407253136
-0.0024645502409145993   -0.061132121754818504   -0.0015143845306508817
0.0008348041517230241   -0.060955100337402   -0.0014899837602638285
0.0006832440493708012   -0.06099509542437153   -0.001355804628292119
-0.00130786065583109   -0.06576178466771027   -0.0018287360407253136
-0.0024645502409145993   -0.061132121754818504   -0.0015143845306508817
0.0006832440493708012   -0.06099509542437153   -0.001355804628292119
-0.0035850441672227625   -0.06600485802351423   -0.001722228496543596
-0.0037892989310545355   -0.0661792379037149   -0.0015567673659431938
-0.002608221442786891   -0.06136464223337108   -0.0013313358137475551
-0.0055198211515431125   -0.0662498458600212   -0.001787327921145884
-0.003693225805819325   -0.06606697262110058   -0.0016433970619963152
-0.002608221442786891   -0.06136464223337108   -0.0013313358137475551
-0.005469701840984498   -0.061392750895659896   -0.0015599973116602048
-0.0055198211515431125   -0.0662498458600212   -0.001787327921145884
-0.00543226535604772   -0.06129176108610143   -0.0015617513566249044
-0.003693225805819325   -0.06606697262110058   -0.0016433970619963152
-0.005439057303420019   -0.06615190676711198   -0.0017920786020388236
-0.00543226535604772   -0.06129176108610143   -0.0015617513566249044
-0.0055198211515431125   -0.0662498458600212   -0.001787327921145884
-0.003693225805819325   -0.06606697262110058   -0.0016433970619963152
-0.00543226535604772   -0.06129176108610143   -0.0015617513566249044
-0.002557276619850373   -0.06124698409354524   -0.0014000846501286157
-0.002608221442786891   -0.06136464223337108   -0.0013313358137475551
-0.003693225805819325   -0.06606697262110058   -0.0016433970619963152
-0.00543226535604772   -0.06129176108610143   -0.0015617513566249044
-0.002608221442786891   -0.06136464223337108   -0.0013313358137475551
-0.0055198211515431125   -0.0662498458600212   -0.001787327921145884
-0.003693225805819325   -0.06606697262110058   -0.0016433970619963152
-0.002557276619850373   -0.06124698409354524   -0.0014000846501286157
-0.005439057303420019   -0.06615190676711198   -0.0017920786020388236
-0.0035850441672227625   -0.06600485802351423   -0.001722228496543596
-0.002557276619850373   -0.06124698409354524   -0.0014000846501286157
-0.00543226535604772   -0.06129176108610143   -0.0015617513566249044
-0.005439057303420019   -0.06615190676711198   -0.0017920786020388236
-0.0053937671929725674   -0.0612273860920563   -0.0015558440989845712
-0.0035850441672227625   -0.06600485802351423   -0.001722228496543596
-0.005355522695432642   -0.06609917530734397   -0.0017896068725082675
-0.0053937671929725674   -0.0612273860920563   -0.0015558440989845712
-0.005439057303420019   -0.06615190676711198   -0.0017920786020388236
-0.0035850441672227625   -0.06600485802351423   -0.001722228496543596
-0.0053937671929725674   -0.0612273860920563   -0.0015558440989845712
-0.0024992463461877158   -0.06117023541424439   -0.0014608376977808765
-0.002557276619850373   -0.06124698409354524   -0.0014000846501286157
-0.0035850441672227625   -0.06600485802351423   -0.001722228496543596
-0.0053937671929725674   -0.0612273860920563   -0.0015558440989845712
-0.002557276619850373   -0.06124698409354524   -0.0014000846501286157
-0.005439057303420019   -0.06615190676711198   -0.0017920786020388236
-0.0035850441672227625   -0.06600485802351423   -0.001722228496543596
-0.0024992463461877158   -0.06117023541424439   -0.0014608376977808765
-0.005355522695432642   -0.06609917530734397   -0.0017896068725082675
-0.003502107608785395   -0.06599115775446647   -0.0017935115353605294
-0.0024992463461877158   -0.06117023541424439   -0.0014608376977808765
-0.0053937671929725674   -0.0612273860920563   -0.0015558440989845712
-0.005355522695432642   -0.06609917530734397   -0.0017896068725082675
-0.005360095823226585   -0.06119902339776135   -0.0015427865266589762
-0.003502107608785395   -0.06599115775446647   -0.0017935115353605294
-0.005274965077502928   -0.06608947866411792   -0.001779846447805304
-0.005360095823226585   -0.06119902339776135   -0.0015427865266589762
-0.005355522695432642   -0.06609917530734397   -0.0017896068725082675
-0.003502107608785395   -0.06599115775446647   -0.0017935115353605294
-0.005360095823226585   -0.06119902339776135   -0.0015427865266589762
-0.0024645502409145993   -0.061132121754818504   -0.0015143845306508817
-0.0024992463461877158   -0.06117023541424439   -0.0014608376977808765
-0.003502107608785395   -0.06599115775446647   -0.0017935115353605294
-0.005360095823226585   -0.06119902339776135   -0.0015427865266589762
-0.0024992463461877158   -0.06117023541424439   -0.0014608376977808765
-0.005355522695432642   -0.06609917530734397   -0.0017896068725082675
-0.0055198211515431125   -0.0662498458600212   -0.001787327921145884
-0.005469701840984498   -0.061392750895659896   -0.0015599973116602048
-0.007238431900608817   -0.06618699603037355   -0.0020031188264430593
-0.005439057303420019   -0.06615190676711198   -0.0017920786020388236
-0.005469701840984498   -0.061392750895659896   -0.0015599973116602048
-0.008286275785983097   -0.061301590401871844   -0.0017663979689363954
-0.007238431900608817   -0.06618699603037355   -0.0020031188264430593
-0.008251423755404736   -0.061214461038852745   -0.0017027719579881964
-0.005439057303420019   -0.06615190676711198   -0.0017920786020388236
-0.007158306249050438   -0.06610000589706712   -0.0019293556245365267
-0.008251423755404736   -0.061214461038852745   -0.0017027719579881964
-0.007238431900608817   -0.06618699603037355   -0.0020031188264430593
-0.005439057303420019   -0.06615190676711198   -0.0017920786020388236
-0.008251423755404736   -0.061214461038852745   -0.0017027719579881964
-0.00543226535604772   -0.06129176108610143   -0.0015617513566249044
-0.005469701840984498   -0.061392750895659896   -0.0015599973116602048
-0.005439057303420019   -0.06615190676711198   -0.0017920786020388236
-0.008251423755404736   -0.061214461038852745   -0.0017027719579881964
-0.005469701840984498   -0.061392750895659896   -0.0015599973116602048
-0.007238431900608817   -0.06618699603037355   -0.0020031188264430593
-0.005439057303420019   -0.06615190676711198   -0.0017920786020388236
-0.00543226535604772   -0.06129176108610143   -0.0015617513566249044
-0.007158306249050438   -0.06610000589706712   -0.0019293556245365267
-0.005355522695432642   -0.06609917530734397   -0.0017896068725082675
-0.00543226535604772   -0.06129176108610143   -0.0015617513566249044
-0.008251423755404736   -0.061214461038852745   -0.0017027719579881964
-0.007158306249050438   -0.06610000589706712   -0.0019293556245365267
-0.00820930854607076   -0.061163544088911344   -0.0016316513512042558
-0.005355522695432642   -0.06609917530734397   -0.0017896068725082675
-0.007068387643590972   -0.06605746653451373   -0.0018484776067453112
-0.00820930854607076   -0.061163544088911344   -0.0016316513512042558
-0.007158306249050438   -0.06610000589706712   -0.0019293556245365267
-0.005355522695432642   -0.06609917530734397   -0.0017896068725082675
-0.00820930854607076   -0.061163544088911344   -0.0016316513512042558
-0.0053937671929725674   -0.0612273860920563   -0.0015558440989845712
-0.00543226535604772   -0.06129176108610143   -0.0015617513566249044
-0.005355522695432642   -0.06609917530734397   -0.0017896068725082675
-0.00820930854607076   -0.061163544088911344   -0.0016316513512042558
-0.00543226535604772   -0.06129176108610143   -0.0015617513566249044
-0.007158306249050438   -0.06610000589706712   -0.0019293556245365267
-0.005355522695432642   -0.06609917530734397   -0.0017896068725082675
-0.0053937671929725674   -0.0612273860920563   -0.0015558440989845712
-0.007068387643590972   -0.06605746653451373   -0.0018484776067453112
-0.005274965077502928   -0.06608947866411792   -0.001779846447805304
-0.0053937671929725674   -0.0612273860920563   -0.0015558440989845712
-0.00820930854607076   -0.061163544088911344   -0.0016316513512042558
-0.007068387643590972   -0.06605746653451373   -0.0018484776067453112
-0.008168350693612745   -0.061147160052186296   -0.0015532668255247143
-0.005274965077502928   -0.06608947866411792   -0.001779846447805304
-0.006978103195494382   -0.06605510720629174   -0.001759618050611116
-0.008168350693612745   -0.061147160052186296   -0.0015532668255247143
-0.007068387643590972   -0.06605746653451373   -0.0018484776067453112
-0.005274965077502928   -0.06608947866411792   -0.001779846447805304
-0.008168350693612745   -0.061147160052186296   -0.0015532668255247143
-0.005360095823226585   -0.06119902339776135   -0.0015427865266589762
-0.0053937671929725674   -0.0612273860920563   -0.0015558440989845712
-0.005274965077502928   -0.06608947866411792   -0.001779846447805304
-0.008168350693612745   -0.061147160052186296   -0.0015532668255247143
-0.0053937671929725674   -0.0612273860920563   -0.0015558440989845712
-0.007068387643590972   -0.06605746653451373   -0.0018484776067453112
-0.007238431900608817   -0.06618699603037355   -0.0020031188264430593
-0.008286275785983097   -0.061301590401871844   -0.0017663979689363954
-0.009126447224242629   -0.06598237894007974   -0.0022013557922794967
-0.007158306249050438   -0.06610000589706712   -0.0019293556245365267
-0.008286275785983097   -0.061301590401871844   -0.0017663979689363954
-0.011237837775879856   -0.06109438120868271   -0.0019497584249051428
-0.009126447224242629   -0.06598237894007974   -0.0022013557922794967
-0.011192292715833075   -0.06102047911828698   -0.0018206671270697276
-0.007158306249050438   -0.06610000589706712   -0.0019293556245365267
-0.009028344646270442   -0.0659063563707328   -0.0020508205890100804
-0.011192292715833075   -0.06102047911828698   -0.0018206671270697276
-0.009126447224242629   -0.06598237894007974   -0.0022013557922794967
-0.007158306249050438   -0.06610000589706712   -0.0019293556245365267
-0.011192292715833075   -0.06102047911828698   -0.0018206671270697276
-0.008251423755404736   -0.061214461038852745   -0.0017027719579881964
-0.008286275785983097   -0.061301590401871844   -0.0017663979689363954
-0.007158306249050438   -0.06610000589706712   -0.0019293556245365267
-0.011192292715833075   -0.06102047911828698   -0.0018206671270697276
-0.008286275785983097   -0.061301590401871844   -0.0017663979689363954
-0.009126447224242629   -0.06598237894007974   -0.0022013557922794967
-0.007158306249050438   -0.06610000589706712   -0.0019293556245365267
-0.008251423755404736   -0.061214461038852745   -0.0017027719579881964
-0.009028344646270442   -0.0659063563707328   -0.0020508205890100804
-0.007068387643590972   -0.06605746653451373   -0.0018484776067453112
-0.008251423755404736   -0.061214461038852745   -0.0017027719579881964
-0.011192292715833075   -0.06102047911828698   -0.0018206671270697276
-0.009028344646270442   -0.0659063563707328   -0.0020508205890100804
-0.011115071165672029   -0.0609817634557373   -0.001685233735486202
-0.007068387643590972   -0.06605746653451373   -0.0018484776067453112
-0.008892880799638537   -0.06587396853653785   -0.0018936945955762396
-0.011115071165672029   -0.0609817634557373   -0.001685233735486202
-0.009028344646270442   -0.0659063563707328   -0.0020508205890100804
-0.007068387643590972   -0.06605746653451373   -0.0018484776067453112
-0.011115071165672029   -0.0609817634557373   -0.001685233735486202
-0.00820930854607076   -0.061163544088911344   -0.0016316513512042558
-0.008251423755404736   -0.061214461038852745   -0.0017027719579881964
-0.007068387643590972   -0.06605746653451373   -0.0018484776067453112
-0.011115071165672029   -0.0609817634557373   -0.001685233735486202
-0.008251423755404736   -0.061214461038852745   -0.0017027719579881964
-0.009028344646270442   -0.0659063563707328   -0.0020508205890100804
-0.007068387643590972   -0.06605746653451373   -0.0018484776067453112
-0.00820930854607076   -0.061163544088911344   -0.0016316513512042558
-0.008892880799638537   -0.06587396853653785   -0.0018936945955762396
-0.006978103195494382   -0.06605510720629174   -0.001759618050611116
-0.00820930854607076   -0.061163544088911344   -0.0016316513512042558
-0.011115071165672029   -0.0609817634557373   -0.001685233735486202
-0.008892880799638537   -0.06587396853653785   -0.0018936945955762396
-0.011052368377009965   -0.06098028658774748   -0.0015414790129975302
-0.006978103195494382   -0.06605510720629174   -0.001759618050611116
-0.008774675372228773   -0.06588526533933507   -0.0017256045150540896
-0.011052368377009965   -0.06098028658774748   -0.0015414790129975302
-0.008892880799638537   -0.06587396853653785   -0.0018936945955762396
-0.006978103195494382   -0.06605510720629174   -0.001759618050611116
-0.011052368377009965   -0.06098028658774748   -0.0015414790129975302
-0.008168350693612745   -0.061147160052186296   -0.0015532668255247143
-0.00820930854607076   -0.061163544088911344   -0.0016316513512042558
-0.006978103195494382   -0.06605510720629174   -0.001759618050611116
-0.011052368377009965   -0.06098028658774748   -0.0015414790129975302
-0.00820930854607076   -0.061163544088911344   -0.0016316513512042558
-0.008892880799638537   -0.06587396853653785   -0.0018936945955762396
-0.009126447224242629   -0.06598237894007974   -0.0022013557922794967
-0.011237837775879856   -0.06109438120868271   -0.0019497584249051428
-0.011557727670109907   -0.06564960483627526   -0.002391691978513643
-0.009028344646270442   -0.0659063563707328   -0.0020508205890100804
-0.011237837775879856   -0.06109438120868271   -0.0019497584249051428
-0.014679990883284914   -0.060795970451426457   -0.002120762074075071
-0.011557727670109907   -0.06564960483627526   -0.002391691978513643
-0.01444654677390076   -0.060718878180731635   -0.0019186919763777
-0.009028344646270442   -0.0659063563707328   -0.0020508205890100804
-0.01124151399754787   -0.06556715720363193   -0.002154015561724002
-0.01444654677390076   -0.060718878180731635   -0.0019186919763777
-0.011557727670109907   -0.06564960483627526   -0.002391691978513643
-0.009028344646270442   -0.0659063563707328   -0.0020508205890100804
-0.01444654677390076   -0.060718878180731635   -0.0019186919763777
-0.011192292715833075   -0.06102047911828698   -0.0018206671270697276
-0.011237837775879856   -0.06109438120868271   -0.0019497584249051428
-0.009028344646270442   -0.0659063563707328   -0.0020508205890100804
-0.01444654677390076   -0.060718878180731635   -0.0019186919763777
-0.011237837775879856   -0.06109438120868271   -0.0019497584249051428
-0.011557727670109907   -0.06564960483627526   -0.002391691978513643
-0.009028344646270442   -0.0659063563707328   -0.0020508205890100804
-0.011192292715833075   -0.06102047911828698   -0.0018206671270697276
-0.01124151399754787   -0.06556715720363193   -0.002154015561724002
-0.008892880799638537   -0.06587396853653785   -0.0018936945955762396
-0.011192292715833075   -0.06102047911828698   -0.0018206671270697276
-0.01444654677390076   -0.060718878180731635   -0.0019186919763777
-0.01124151399754787   -0.06556715720363193   -0.002154015561724002
-0.01424396770970573   -0.0606834749762794   -0.0017061626735402281
-0.008892880799638537   -0.06587396853653785   -0.0018936945955762396
-0.010958126706237898   -0.06553719946926324   -0.0019025137745623723
-0.01424396770970573   -0.0606834749762794   -0.0017061626735402281
-0.01124151399754787   -0.06556715720363193   -0.002154015561724002
-0.008892880799638537   -0.06587396853653785   -0.0018936945955762396
-0.01424396770970573   -0.0606834749762794   -0.0017061626735402281
-0.011115071165672029   -0.0609817634557373   -0.001685233735486202
-0.011192292715833075   -0.06102047911828698   -0.0018206671270697276
-0.008892880799638537   -0.06587396853653785   -0.0018936945955762396
-0.01424396770970573   -0.0606834749762794   -0.0017061626735402281
-0.011192292715833075   -0.06102047911828698   -0.0018206671270697276
-0.01124151399754787   -0.06556715720363193   -0.002154015561724002
-0.008892880799638537   -0.06587396853653785   -0.0018936945955762396
-0.011115071165672029   -0.0609817634557373   -0.001685233735486202
-0.010958126706237898   -0.06553719946926324   -0.0019025137745623723
-0.008774675372228773   -0.06588526533933507   -0.0017256045150540896
-0.011115071165672029   -0.0609817634557373   -0.001685233735486202
-0.01424396770970573   -0.0606834749762794   -0.0017061626735402281
-0.010958126706237898   -0.06553719946926324   -0.0019025137745623723
-0.013971052637443773   -0.060704980682959514   -0.0014845280043975864
-0.008774675372228773   -0.06588526533933507   -0.0017256045150540896
-0.01059084942199032   -0.0655752051158081   -0.001639574329533204
-0.013971052637443773   -0.060704980682959514   -0.0014845280043975864
-0.010958126706237898   -0.06553719946926324   -0.0019025137745623723
-0.008774675372228773   -0.06588526533933507   -0.0017256045150540896
-0.013971052637443773   -0.060704980682959514   -0.0014845280043975864
-0.011052368377009965   -0.06098028658774748   -0.0015414790129975302
-0.011115071165672029   -0.0609817634557373   -0.001685233735486202
-0.008774675372228773   -0.06588526533933507   -0.0017256045150540896
-0.013971052637443773   -0.060704980682959514   -0.0014845280043975864
-0.011115071165672029   -0.0609817634557373   -0.001685233735486202
-0.010958126706237898   -0.06553719946926324   -0.0019025137745623723
0.0003493304609105193   -0.06121773731155553   -0.001053763860024413
0.002161648436054655   -0.054751374614807044   -0.0008029657472575248
-0.002608221442786891   -0.06136464223337108   -0.0013313358137475551
0.0005417151564740732   -0.061076563228242856   -0.0012103800215063272
0.002161648436054655   -0.054751374614807044   -0.0008029657472575248
-0.0017551195076675322   -0.05484853783404942   -0.0010679172188081322
-0.002608221442786891   -0.06136464223337108   -0.0013313358137475551
-0.0017444888509846666   -0.05473150884203326   -0.0011156045567701236
0.0005417151564740732   -0.061076563228242856   -0.0012103800215063272
-0.002557276619850373   -0.06124698409354524   -0.0014000846501286157
-0.0017444888509846666   -0.05473150884203326   -0.0011156045567701236
-0.002608221442786891   -0.06136464223337108   -0.0013313358137475551
0.0005417151564740732   -0.061076563228242856   -0.0012103800215063272
-0.0017444888509846666   -0.05473150884203326   -0.0011156045567701236
0.0022760270361314007   -0.05461360616912021   -0.0009188624041942022
0.002161648436054655   -0.054751374614807044   -0.0008029657472575248
0.0005417151564740732   -0.061076563228242856   -0.0012103800215063272
-0.0017444888509846666   -0.05473150884203326   -0.0011156045567701236
0.002161648436054655   -0.054751374614807044   -0.0008029657472575248
-0.002608221442786891   -0.06136464223337108   -0.0013313358137475551
0.0005417151564740732   -0.061076563228242856   -0.0012103800215063272
0.0022760270361314007   -0.05461360616912021   -0.0009188624041942022
-0.002557276619850373   -0.06124698409354524   -0.0014000846501286157
0.0006832440493708012   -0.06099509542437153   -0.001355804628292119
0.0022760270361314007   -0.05461360616912021   -0.0009188624041942022
-0.0017444888509846666   -0.05473150884203326   -0.0011156045567701236
-0.002557276619850373   -0.06124698409354524   -0.0014000846501286157
-0.0017309615282889693   -0.054646764184701206   -0.0011559820811935103
0.0006832440493708012   -0.06099509542437153   -0.001355804628292119
-0.0024992463461877158   -0.06117023541424439   -0.0014608376977808765
-0.0017309615282889693   -0.054646764184701206   -0.0011559820811935103
-0.002557276619850373   -0.06124698409354524   -0.0014000846501286157
0.0006832440493708012   -0.06099509542437153   -0.001355804628292119
-0.0017309615282889693   -0.054646764184701206   -0.0011559820811935103
0.002349184296048636   -0.054523324981766486   -0.0010244285221134438
0.0022760270361314007   -0.05461360616912021   -0.0009188624041942022
0.0006832440493708012   -0.06099509542437153   -0.001355804628292119
-0.0017309615282889693   -0.054646764184701206   -0.0011559820811935103
0.0022760270361314007   -0.05461360616912021   -0.0009188624041942022
-0.002557276619850373   -0.06124698409354524   -0.0014000846501286157
0.0006832440493708012   -0.06099509542437153   -0.001355804628292119
0.002349184296048636   -0.054523324981766486   -0.0010244285221134438
-0.0024992463461877158   -0.06117023541424439   -0.0014608376977808765
0.0008348041517230241   -0.060955100337402   -0.0014899837602638285
0.002349184296048636   -0.054523324981766486   -0.0010244285221134438
-0.0017309615282889693   -0.054646764184701206   -0.0011559820811935103
-0.0024992463461877158   -0.06117023541424439   -0.0014608376977808765
-0.0017373612562300246   -0.05459158676299759   -0.0011895828894354578
0.0008348041517230241   -0.060955100337402   -0.0014899837602638285
-0.0024645502409145993   -0.061132121754818504   -0.0015143845306508817
-0.0017373612562300246   -0.05459158676299759   -0.0011895828894354578
-0.0024992463461877158   -0.06117023541424439   -0.0014608376977808765
0.0008348041517230241   -0.060955100337402   -0.0014899837602638285
-0.0017373612562300246   -0.05459158676299759   -0.0011895828894354578
0.002424342088456671   -0.05446299187909621   -0.0011198813077750117
0.002349184296048636   -0.054523324981766486   -0.0010244285221134438
0.0008348041517230241   -0.060955100337402   -0.0014899837602638285
-0.0017373612562300246   -0.05459158676299759   -0.0011895828894354578
0.002349184296048636   -0.054523324981766486   -0.0010244285221134438
-0.0024992463461877158   -0.06117023541424439   -0.0014608376977808765
-0.002608221442786891   -0.06136464223337108   -0.0013313358137475551
-0.0017551195076675322   -0.05484853783404942   -0.0010679172188081322
-0.005469701840984498   -0.061392750895659896   -0.0015599973116602048
-0.002557276619850373   -0.06124698409354524   -0.0014000846501286157
-0.0017551195076675322   -0.05484853783404942   -0.0010679172188081322
-0.0055244634397748175   -0.05484907587213983   -0.0012863732513825343
-0.005469701840984498   -0.061392750895659896   -0.0015599973116602048
-0.005524931208676187   -0.054750079725062774   -0.0012818705875258915
-0.002557276619850373   -0.06124698409354524   -0.0014000846501286157
-0.00543226535604772   -0.06129176108610143   -0.0015617513566249044
-0.005524931208676187   -0.054750079725062774   -0.0012818705875258915
-0.005469701840984498   -0.061392750895659896   -0.0015599973116602048
-0.002557276619850373   -0.06124698409354524   -0.0014000846501286157
-0.005524931208676187   -0.054750079725062774   -0.0012818705875258915
-0.0017444888509846666   -0.05473150884203326   -0.0011156045567701236
-0.0017551195076675322   -0.05484853783404942   -0.0010679172188081322
-0.002557276619850373   -0.06124698409354524   -0.0014000846501286157
-0.005524931208676187   -0.054750079725062774   -0.0012818705875258915
-0.0017551195076675322   -0.05484853783404942   -0.0010679172188081322
-0.005469701840984498   -0.061392750895659896   -0.0015599973116602048
-0.002557276619850373   -0.06124698409354524   -0.0014000846501286157
-0.0017444888509846666   -0.05473150884203326   -0.0011156045567701236
-0.00543226535604772   -0.06129176108610143   -0.0015617513566249044
-0.0024992463461877158   -0.06117023541424439   -0.0014608376977808765
-0.0017444888509846666   -0.05473150884203326   -0.0011156045567701236
-0.005524931208676187   -0.054750079725062774   -0.0012818705875258915
-0.00543226535604772   -0.06129176108610143   -0.0015617513566249044
-0.005525145107907597   -0.05467954325256962   -0.0012700859891966944
-0.0024992463461877158   -0.06117023541424439   -0.0014608376977808765
-0.0053937671929725674   -0.0612273860920563   -0.0015558440989845712
-0.005525145107907597   -0.05467954325256962   -0.0012700859891966944
-0.00543226535604772   -0.06129176108610143   -0.0015617513566249044
-0.0024992463461877158   -0.06117023541424439   -0.0014608376977808765
-0.005525145107907597   -0.05467954325256962   -0.0012700859891966944
-0.0017309615282889693   -0.054646764184701206   -0.0011559820811935103
-0.0017444888509846666   -0.05473150884203326   -0.0011156045567701236
-0.0024992463461877158   -0.06117023541424439   -0.0014608376977808765
-0.005525145107907597   -0.05467954325256962   -0.0012700859891966944
-0.0017444888509846666   -0.05473150884203326   -0.0011156045567701236
-0.00543226535604772   -0.06129176108610143   -0.0015617513566249044
-0.0024992463461877158   -0.06117023541424439   -0.0014608376977808765
-0.0017309615282889693   -0.054646764184701206   -0.0011559820811935103
-0.0053937671929725674   -0.0612273860920563   -0.0015558440989845712
-0.0024645502409145993   -0.061132121754818504   -0.0015143845306508817
-0.0017309615282889693   -0.054646764184701206   -0.0011559820811935103
-0.005525145107907597   -0.05467954325256962   -0.0012700859891966944
-0.0053937671929725674   -0.0612273860920563   -0.0015558440989845712
-0.005530396647339889   -0.05463751699791801   -0.001251397982177315
-0.0024645502409145993   -0.061132121754818504   -0.0015143845306508817
-0.005360095823226585   -0.06119902339776135   -0.0015427865266589762
-0.005530396647339889   -0.05463751699791801   -0.001251397982177315
-0.0053937671929725674   -0.0612273860920563   -0.0015558440989845712
-0.0024645502409145993   -0.061132121754818504   -0.0015143845306508817
-0.005530396647339889   -0.05463751699791801   -0.001251397982177315
-0.0017373612562300246   -0.05459158676299759   -0.0011895828894354578
-0.0017309615282889693   -0.054646764184701206   -0.0011559820811935103
-0.0024645502409145993   -0.061132121754818504   -0.0015143845306508817
-0.005530396647339889   -0.05463751699791801   -0.001251397982177315
-0.0017309615282889693   -0.054646764184701206   -0.0011559820811935103
-0.0053937671929725674   -0.0612273860920563   -0.0015558440989845712
-0.005469701840984498   -0.061392750895659896   -0.0015599973116602048
-0.0055244634397748175   -0.05484907587213983   -0.0012863732513825343
-0.008286275785983097   -0.061301590401871844   -0.0017663979689363954
-0.00543226535604772   -0.06129176108610143   -0.0015617513566249044
-0.0055244634397748175   -0.05484907587213983   -0.0012863732513825343
-0.009229852256374965   -0.05475523051664367   -0.0014777166618147475
-0.008286275785983097   -0.061301590401871844   -0.0017663979689363954
-0.009233111925574015   -0.054672072651459416   -0.001421654461302419
-0.00543226535604772   -0.06129176108610143   -0.0015617513566249044
-0.008251423755404736   -0.061214461038852745   -0.0017027719579881964
-0.009233111925574015   -0.054672072651459416   -0.001421654461302419
-0.008286275785983097   -0.061301590401871844   -0.0017663979689363954
-0.00543226535604772   -0.06129176108610143   -0.0015617513566249044
-0.009233111925574015   -0.054672072651459416   -0.001421654461302419
-0.005524931208676187   -0.054750079725062774   -0.0012818705875258915
-0.0055244634397748175   -0.05484907587213983   -0.0012863732513825343
-0.00543226535604772   -0.06129176108610143   -0.0015617513566249044
-0.009233111925574015   -0.054672072651459416   -0.001421654461302419
-0.0055244634397748175   -0.05484907587213983   -0.0012863732513825343
-0.008286275785983097   -0.061301590401871844   -0.0017663979689363954
-0.00543226535604772   -0.06129176108610143   -0.0015617513566249044
-0.005524931208676187   -0.054750079725062774   -0.0012818705875258915
-0.008251423755404736   -0.061214461038852745   -0.0017027719579881964
-0.0053937671929725674   -0.0612273860920563   -0.0015558440989845712
-0.005524931208676187   -0.054750079725062774   -0.0012818705875258915
-0.009233111925574015   -0.054672072651459416   -0.001421654461302419
-0.008251423755404736   -0.061214461038852745   -0.0017027719579881964
-0.00923005828910452   -0.054617122767005026   -0.0013584520581440978
-0.0053937671929725674   -0.0612273860920563   -0.0015558440989845712
-0.00820930854607076   -0.061163544088911344   -0.0016316513512042558
-0.00923005828910452   -0.054617122767005026   -0.0013584520581440978
-0.008251423755404736   -0.061214461038852745   -0.0017027719579881964
-0.0053937671929725674   -0.0612273860920563   -0.0015558440989845712
-0.00923005828910452   -0.054617122767005026   -0.0013584520581440978
-0.005525145107907597   -0.05467954325256962   -0.0012700859891966944
-0.005524931208676187   -0.054750079725062774   -0.0012818705875258915
-0.0053937671929725674   -0.0612273860920563   -0.0015558440989845712
-0.00923005828910452   -0.054617122767005026   -0.0013584520581440978
-0.005524931208676187   -0.054750079725062774   -0.0012818705875258915
-0.008251423755404736   -0.061214461038852745   -0.0017027719579881964
-0.0053937671929725674   -0.0612273860920563   -0.0015558440989845712
-0.005525145107907597   -0.05467954325256962   -0.0012700859891966944
-0.00820930854607076   -0.061163544088911344   -0.0016316513512042558
-0.005360095823226585   -0.06119902339776135   -0.0015427865266589762
-0.005525145107907597   -0.05467954325256962   -0.0012700859891966944
-0.00923005828910452   -0.054617122767005026   -0.0013584520581440978
-0.00820930854607076   -0.061163544088911344   -0.0016316513512042558
-0.009228144773353224   -0.0545898863523318   -0.0012883174611561974
-0.005360095823226585   -0.06119902339776135   -0.0015427865266589762
-0.008168350693612745   -0.061147160052186296   -0.0015532668255247143
-0.009228144773353224   -0.0545898863523318   -0.0012883174611561974
-0.00820930854607076   -0.061163544088911344   -0.0016316513512042558
-0.005360095823226585   -0.06119902339776135   -0.0015427865266589762
-0.009228144773353224   -0.0545898863523318   -0.0012883174611561974
-0.005530396647339889   -0.05463751699791801   -0.001251397982177315
-0.005525145107907597   -0.05467954325256962   -0.0012700859891966944
-0.005360095823226585   -0.06119902339776135   -0.0015427865266589762
-0.009228144773353224   -0.0545898863523318   -0.0012883174611561974
-0.005525145107907597   -0.05467954325256962   -0.0012700859891966944
-0.00820930854607076   -0.061163544088911344   -0.0016316513512042558
-0.008286275785983097   -0.061301590401871844   -0.0017663979689363954
-0.009229852256374965   -0.05475523051664367   -0.0014777166618147475
-0.011237837775879856   -0.06109438120868271   -0.0019497584249051428
-0.008251423755404736   -0.061214461038852745   -0.0017027719579881964
-0.009229852256374965   -0.05475523051664367   -0.0014777166618147475
-0.013050693377202322   -0.05457054737495358   -0.0016423153157967055
-0.011237837775879856   -0.06109438120868271   -0.0019497584249051428
-0.013046160159506891   -0.054502552055376435   -0.0015340819199827866
-0.008251423755404736   -0.061214461038852745   -0.0017027719579881964
-0.011192292715833075   -0.06102047911828698   -0.0018206671270697276
-0.013046160159506891   -0.054502552055376435   -0.0015340819199827866
-0.011237837775879856   -0.06109438120868271   -0.0019497584249051428
-0.008251423755404736   -0.061214461038852745   -0.0017027719579881964
-0.013046160159506891   -0.054502552055376435   -0.0015340819199827866
-0.009233111925574015   -0.054672072651459416   -0.001421654461302419
-0.009229852256374965   -0.05475523051664367   -0.0014777166618147475
-0.008251423755404736   -0.061214461038852745   -0.0017027719579881964
-0.013046160159506891   -0.054502552055376435   -0.0015340819199827866
-0.009229852256374965   -0.05475523051664367   -0.0014777166618147475
-0.011237837775879856   -0.06109438120868271   -0.0019497584249051428
-0.008251423755404736   -0.061214461038852745   -0.0017027719579881964
-0.009233111925574015   -0.054672072651459416   -0.001421654461302419
-0.011192292715833075   -0.06102047911828698   -0.0018206671270697276
-0.00820930854607076   -0.061163544088911344   -0.0016316513512042558
-0.009233111925574015   -0.054672072651459416   -0.001421654461302419
-0.013046160159506891   -0.054502552055376435   -0.0015340819199827866
-0.011192292715833075   -0.06102047911828698   -0.0018206671270697276
-0.013014081940441985   -0.05446173514480718   -0.0014197849041683195
-0.00820930854607076   -0.061163544088911344   -0.0016316513512042558
-0.011115071165672029   -0.0609817634557373   -0.001685233735486202
-0.013014081940441985   -0.05446173514480718   -0.0014197849041683195
-0.011192292715833075   -0.06102047911828698   -0.0018206671270697276
-0.00820930854607076   -0.061163544088911344   -0.0016316513512042558
-0.013014081940441985   -0.05446173514480718   -0.0014197849041683195
-0.00923005828910452   -0.054617122767005026   -0.0013584520581440978
-0.009233111925574015   -0.054672072651459416   -0.001421654461302419
-0.00820930854607076   -0.061163544088911344   -0.0016316513512042558
-0.013014081940441985   -0.05446173514480718   -0.0014197849041683195
-0.009233111925574015   -0.054672072651459416   -0.001421654461302419
-0.011192292715833075   -0.06102047911828698   -0.0018206671270697276
-0.00820930854607076   -0.061163544088911344   -0.0016316513512042558
-0.00923005828910452   -0.054617122767005026   -0.0013584520581440978
-0.011115071165672029   -0.0609817634557373   -0.001685233735486202
-0.008168350693612745   -0.061147160052186296   -0.0015532668255247143
-0.00923005828910452   -0.054617122767005026   -0.0013584520581440978
-0.013014081940441985   -0.05446173514480718   -0.0014197849041683195
-0.011115071165672029   -0.0609817634557373   -0.001685233735486202
-0.012992651108698334   -0.054450961498950776   -0.0012979982319948284
-0.008168350693612745   -0.061147160052186296   -0.0015532668255247143
-0.011052368377009965   -0.06098028658774748   -0.0015414790129975302
-0.012992651108698334   -0.054450961498950776   -0.0012979982319948284
-0.011115071165672029   -0.0609817634557373   -0.001685233735486202
-0.008168350693612745   -0.061147160052186296   -0.0015532668255247143
-0.012992651108698334   -0.054450961498950776   -0.0012979982319948284
-0.009228144773353224   -0.0545898863523318   -0.0012883174611561974
-0.00923005828910452   -0.054617122767005026   -0.0013584520581440978
-0.008168350693612745   -0.061147160052186296   -0.0015532668255247143
-0.012992651108698334   -0.054450961498950776   -0.0012979982319948284
-0.00923005828910452   -0.054617122767005026   -0.0013584520581440978
-0.011115071165672029   -0.0609817634557373   -0.001685233735486202
-0.011237837775879856   -0.06109438120868271   -0.0019497584249051428
-0.013050693377202322   -0.05457054737495358   -0.0016423153157967055
-0.014679990883284914   -0.060795970451426457   -0.002120762074075071
-0.011192292715833075   -0.06102047911828698   -0.0018206671270697276
-0.013050693377202322   -0.05457054737495358   -0.0016423153157967055
-0.0173185301173605   -0.05431595762039921   -0.001790759938589088
-0.014679990883284914   -0.060795970451426457   -0.002120762074075071
-0.017158801749845836   -0.05424921598914899   -0.0016251728125289396
-0.011192292715833075   -0.06102047911828698   -0.0018206671270697276
-0.01444654677390076   -0.060718878180731635   -0.0019186919763777
-0.017158801749845836   -0.05424921598914899   -0.0016251728125289396
-0.014679990883284914   -0.060795970451426457   -0.002120762074075071
-0.011192292715833075   -0.06102047911828698   -0.0018206671270697276
-0.017158801749845836   -0.05424921598914899   -0.0016251728125289396
-0.013046160159506891   -0.054502552055376435   -0.0015340819199827866
-0.013050693377202322   -0.05457054737495358   -0.0016423153157967055
-0.011192292715833075   -0.06102047911828698   -0.0018206671270697276
-0.017158801749845836   -0.05424921598914899   -0.0016251728125289396
-0.013050693377202322   -0.05457054737495358   -0.0016423153157967055
-0.014679990883284914   -0.060795970451426457   -0.002120762074075071
-0.011192292715833075   -0.06102047911828698   -0.0018206671270697276
-0.013046160159506891   -0.054502552055376435   -0.0015340819199827866
-0.01444654677390076   -0.060718878180731635   -0.0019186919763777
-0.011115071165672029   -0.0609817634557373   -0.001685233735486202
-0.013046160159506891   -0.054502552055376435   -0.0015340819199827866
-0.017158801749845836   -0.05424921598914899   -0.0016251728125289396
-0.01444654677390076   -0.060718878180731635   -0.0019186919763777
-0.017022214996165137   -0.05421355517127291   -0.0014493923837168325
-0.011115071165672029   -0.0609817634557373   -0.001685233735486202
-0.01424396770970573   -0.0606834749762794   -0.0017061626735402281
-0.017022214996165137   -0.05421355517127291   -0.0014493923837168325
-0.01444654677390076   -0.060718878180731635   -0.0019186919763777
-0.011115071165672029   -0.0609817634557373   -0.001685233735486202
-0.017022214996165137   -0.05421355517127291   -0.0014493923837168325
-0.013014081940441985   -0.05446173514480718   -0.0014197849041683195
-0.013046160159506891   -0.054502552055376435   -0.0015340819199827866
-0.011115071165672029   -0.0609817634557373   -0.001685233735486202
-0.017022214996165137   -0.05421355517127291   -0.0014493923837168325
-0.013046160159506891   -0.054502552055376435   -0.0015340819199827866
-0.01444654677390076   -0.060718878180731635   -0.0019186919763777
-0.011115071165672029   -0.0609817634557373   -0.001685233735486202
-0.013014081940441985   -0.05446173514480718   -0.0014197849041683195
-0.01424396770970573   -0.0606834749762794   -0.0017061626735402281
-0.011052368377009965   -0.06098028658774748   -0.0015414790129975302
-0.013014081940441985   -0.05446173514480718   -0.0014197849041683195
-0.017022214996165137   -0.05421355517127291   -0.0014493923837168325
-0.01424396770970573   -0.0606834749762794   -0.0017061626735402281
-0.01682511953015222   -0.05422554138364372   -0.001264816589997572
-0.011052368377009965   -0.06098028658774748   -0.0015414790129975302
-0.013971052637443773   -0.060704980682959514   -0.0014845280043975864
-0.01682511953015222   -0.05422554138364372   -0.001264816589997572
-0.01424396770970573   -0.0606834749762794   -0.0017061626735402281
-0.011052368377009965   -0.06098028658774748   -0.0015414790129975302
-0.01682511953015222   -0.05422554138364372   -0.001264816589997572
-0.012992651108698334   -0.054450961498950776   -0.0012979982319948284
-0.013014081940441985   -0.05446173514480718   -0.0014197849041683195
-0.011052368377009965   -0.06098028658774748   -0.0015414790129975302
-0.01682511953015222   -0.05422554138364372   -0.001264816589997572
-0.013014081940441985   -0.05446173514480718   -0.0014197849041683195
-0.01424396770970573   -0.0606834749762794   -0.0017061626735402281
0.002161648436054655   -0.054751374614807044   -0.0008029657472575248
0.0034112590175629943   -0.04697144062009437   -0.000534926095359448
-0.0017551195076675322   -0.05484853783404942   -0.0010679172188081322
0.0022760270361314007   -0.05461360616912021   -0.0009188624041942022
0.0034112590175629943   -0.04697144062009437   -0.000534926095359448
-0.0012365460483276171   -0.047019287035970934   -0.0007841941682943678
-0.0017551195076675322   -0.05484853783404942   -0.0010679172188081322
-0.0012583513619465424   -0.04690511354811009   -0.0008099264122739222
0.0022760270361314007   -0.05461360616912021   -0.0009188624041942022
-0.0017444888509846666   -0.05473150884203326   -0.0011156045567701236
-0.0012583513619465424   -0.04690511354811009   -0.0008099264122739222
-0.0017551195076675322   -0.05484853783404942   -0.0010679172188081322
0.0022760270361314007   -0.05461360616912021   -0.0009188624041942022
-0.0012583513619465424   -0.04690511354811009   -0.0008099264122739222
0.0034565791383652307   -0.04683870866642815   -0.0006109155412117355
0.0034112590175629943   -0.04697144062009437   -0.000534926095359448
0.0022760270361314007   -0.05461360616912021   -0.0009188624041942022
-0.0012583513619465424   -0.04690511354811009   -0.0008099264122739222
0.0034112590175629943   -0.04697144062009437   -0.000534926095359448
-0.0017551195076675322   -0.05484853783404942   -0.0010679172188081322
0.0022760270361314007   -0.05461360616912021   -0.0009188624041942022
0.0034565791383652307   -0.04683870866642815   -0.0006109155412117355
-0.0017444888509846666   -0.05473150884203326   -0.0011156045567701236
0.002349184296048636   -0.054523324981766486   -0.0010244285221134438
0.0034565791383652307   -0.04683870866642815   -0.0006109155412117355
-0.0012583513619465424   -0.04690511354811009   -0.0008099264122739222
-0.0017444888509846666   -0.05473150884203326   -0.0011156045567701236
-0.0012812609996000592   -0.046814875769405094   -0.0008291303430656506
0.002349184296048636   -0.054523324981766486   -0.0010244285221134438
-0.0017309615282889693   -0.054646764184701206   -0.0011559820811935103
-0.0012812609996000592   -0.046814875769405094   -0.0008291303430656506
-0.0017444888509846666   -0.05473150884203326   -0.0011156045567701236
0.002349184296048636   -0.054523324981766486   -0.0010244285221134438
-0.0012812609996000592   -0.046814875769405094   -0.0008291303430656506
0.003470447607152132   -0.046742085977044164   -0.0006772730928478663
0.0034565791383652307   -0.04683870866642815   -0.0006109155412117355
0.002349184296048636   -0.054523324981766486   -0.0010244285221134438
-0.0012812609996000592   -0.046814875769405094   -0.0008291303430656506
0.0034565791383652307   -0.04683870866642815   -0.0006109155412117355
-0.0017444888509846666   -0.05473150884203326   -0.0011156045567701236
0.002349184296048636   -0.054523324981766486   -0.0010244285221134438
0.003470447607152132   -0.046742085977044164   -0.0006772730928478663
-0.0017309615282889693   -0.054646764184701206   -0.0011559820811935103
0.002424342088456671   -0.05446299187909621   -0.0011198813077750117
0.003470447607152132   -0.046742085977044164   -0.0006772730928478663
-0.0012812609996000592   -0.046814875769405094   -0.0008291303430656506
-0.0017309615282889693   -0.054646764184701206   -0.0011559820811935103
-0.0013203254979228503   -0.04674573359195746   -0.0008420265490913197
0.002424342088456671   -0.05446299187909621   -0.0011198813077750117
-0.0017373612562300246   -0.05459158676299759   -0.0011895828894354578
-0.0013203254979228503   -0.04674573359195746   -0.0008420265490913197
-0.0017309615282889693   -0.054646764184701206   -0.0011559820811935103
0.002424342088456671   -0.05446299187909621   -0.0011198813077750117
-0.0013203254979228503   -0.04674573359195746   -0.0008420265490913197
0.0034783478213996225   -0.04666451573109051   -0.0007344549112386576
0.003470447607152132   -0.046742085977044164   -0.0006772730928478663
0.002424342088456671   -0.05446299187909621   -0.0011198813077750117
-0.0013203254979228503   -0.04674573359195746   -0.0008420265490913197
0.003470447607152132   -0.046742085977044164   -0.0006772730928478663
-0.0017309615282889693   -0.054646764184701206   -0.0011559820811935103
-0.0017551195076675322   -0.05484853783404942   -0.0010679172188081322
-0.0012365460483276171   -0.047019287035970934   -0.0007841941682943678
-0.0055244634397748175   -0.05484907587213983   -0.0012863732513825343
-0.0017444888509846666   -0.05473150884203326   -0.0011156045567701236
-0.0012365460483276171   -0.047019287035970934   -0.0007841941682943678
-0.005691824806752968   -0.046994777485099164   -0.0009893909979891407
-0.0055244634397748175   -0.05484907587213983   -0.0012863732513825343
-0.0057220996103816415   -0.04689938508890162   -0.0009773812721437043
-0.0017444888509846666   -0.05473150884203326   -0.0011156045567701236
-0.005524931208676187   -0.054750079725062774   -0.0012818705875258915
-0.0057220996103816415   -0.04689938508890162   -0.0009773812721437043
-0.0055244634397748175   -0.05484907587213983   -0.0012863732513825343
-0.0017444888509846666   -0.05473150884203326   -0.0011156045567701236
-0.0057220996103816415   -0.04689938508890162   -0.0009773812721437043
-0.0012583513619465424   -0.04690511354811009   -0.0008099264122739222
-0.0012365460483276171   -0.047019287035970934   -0.0007841941682943678
-0.0017444888509846666   -0.05473150884203326   -0.0011156045567701236
-0.0057220996103816415   -0.04689938508890162   -0.0009773812721437043
-0.0012365460483276171   -0.047019287035970934   -0.0007841941682943678
-0.0055244634397748175   -0.05484907587213983   -0.0012863732513825343
-0.0017444888509846666   -0.05473150884203326   -0.0011156045567701236
-0.0012583513619465424   -0.04690511354811009   -0.0008099264122739222
-0.005524931208676187   -0.054750079725062774   -0.0012818705875258915
-0.0017309615282889693   -0.054646764184701206   -0.0011559820811935103
-0.0012583513619465424   -0.04690511354811009   -0.0008099264122739222
-0.0057220996103816415   -0.04689938508890162   -0.0009773812721437043
-0.005524931208676187   -0.054750079725062774   -0.0012818705875258915
-0.00575279048174304   -0.046824509915432695   -0.0009586502603011453
-0.0017309615282889693   -0.054646764184701206   -0.0011559820811935103
-0.005525145107907597   -0.05467954325256962   -0.0012700859891966944
-0.00575279048174304   -0.046824509915432695   -0.0009586502603011453
-0.005524931208676187   -0.054750079725062774   -0.0012818705875258915
-0.0017309615282889693   -0.054646764184701206   -0.0011559820811935103
-0.00575279048174304   -0.046824509915432695   -0.0009586502603011453
-0.0012812609996000592   -0.046814875769405094   -0.0008291303430656506
-0.0012583513619465424   -0.04690511354811009   -0.0008099264122739222
-0.0017309615282889693   -0.054646764184701206   -0.0011559820811935103
-0.00575279048174304   -0.046824509915432695   -0.0009586502603011453
-0.0012583513619465424   -0.04690511354811009   -0.0008099264122739222
-0.005524931208676187   -0.054750079725062774   -0.0012818705875258915
-0.0017309615282889693   -0.054646764184701206   -0.0011559820811935103
-0.0012812609996000592   -0.046814875769405094   -0.0008291303430656506
-0.005525145107907597   -0.05467954325256962   -0.0012700859891966944
-0.0017373612562300246   -0.05459158676299759   -0.0011895828894354578
-0.0012812609996000592   -0.046814875769405094   -0.0008291303430656506
-0.00575279048174304   -0.046824509915432695   -0.0009586502603011453
-0.005525145107907597   -0.05467954325256962   -0.0012700859891966944
-0.005788264036626301   -0.046770500102175996   -0.0009335226937257868
-0.0017373612562300246   -0.05459158676299759   -0.0011895828894354578
-0.005530396647339889   -0.05463751699791801   -0.001251397982177315
-0.005788264036626301   -0.046770500102175996   -0.0009335226937257868
-0.005525145107907597   -0.05467954325256962   -0.0012700859891966944
-0.0017373612562300246   -0.05459158676299759   -0.0011895828894354578
-0.005788264036626301   -0.046770500102175996   -0.0009335226937257868
-0.0013203254979228503   -0.04674573359195746   -0.0008420265490913197
-0.0012812609996000592   -0.046814875769405094   -0.0008291303430656506
-0.0017373612562300246   -0.05459158676299759   -0.0011895828894354578
-0.005788264036626301   -0.046770500102175996   -0.0009335226937257868
-0.0012812609996000592   -0.046814875769405094   -0.0008291303430656506
-0.005525145107907597   -0.05467954325256962   -0.0012700859891966944
-0.0055244634397748175   -0.05484907587213983   -0.0012863732513825343
-0.005691824806752968   -0.046994777485099164   -0.0009893909979891407
-0.009229852256374965   -0.05475523051664367   -0.0014777166618147475
-0.005524931208676187   -0.054750079725062774   -0.0012818705875258915
-0.005691824806752968   -0.046994777485099164   -0.0009893909979891407
-0.010071826269792222   -0.04690240734154974   -0.0011649371540814195
-0.009229852256374965   -0.05475523051664367   -0.0014777166618147475
-0.010104496133360761   -0.046824075286912945   -0.001115369338725789
-0.005524931208676187   -0.054750079725062774   -0.0012818705875258915
-0.009233111925574015   -0.054672072651459416   -0.001421654461302419
-0.010104496133360761   -0.046824075286912945   -0.001115369338725789
-0.009229852256374965   -0.05475523051664367   -0.0014777166618147475
-0.005524931208676187   -0.054750079725062774   -0.0012818705875258915
-0.010104496133360761   -0.046824075286912945   -0.001115369338725789
-0.0057220996103816415   -0.04689938508890162   -0.0009773812721437043
-0.005691824806752968   -0.046994777485099164   -0.0009893909979891407
-0.005524931208676187   -0.054750079725062774   -0.0012818705875258915
-0.010104496133360761   -0.046824075286912945   -0.001115369338725789
-0.005691824806752968   -0.046994777485099164   -0.0009893909979891407
-0.009229852256374965   -0.05475523051664367   -0.0014777166618147475
-0.005524931208676187   -0.054750079725062774   -0.0012818705875258915
-0.0057220996103816415   -0.04689938508890162   -0.0009773812721437043
-0.009233111925574015   -0.054672072651459416   -0.001421654461302419
-0.005525145107907597   -0.05467954325256962   -0.0012700859891966944
-0.0057220996103816415   -0.04689938508890162   -0.0009773812721437043
-0.010104496133360761   -0.046824075286912945   -0.001115369338725789
-0.009233111925574015   -0.054672072651459416   -0.001421654461302419
-0.01013155885150976   -0.04676606456874095   -0.0010591994297683028
-0.005525145107907597   -0.05467954325256962   -0.0012700859891966944
-0.00923005828910452   -0.054617122767005026   -0.0013584520581440978
-0.01013155885150976   -0.04676606456874095   -0.0010591994297683028
-0.009233111925574015   -0.054672072651459416   -0.001421654461302419
-0.005525145107907597   -0.05467954325256962   -0.0012700859891966944
-0.01013155885150976   -0.04676606456874095   -0.0010591994297683028
-0.00575279048174304   -0.046824509915432695   -0.0009586502603011453
-0.0057220996103816415   -0.04689938508890162   -0.0009773812721437043
-0.005525145107907597   -0.05467954325256962   -0.0012700859891966944
-0.01013155885150976   -0.04676606456874095   -0.0010591994297683028
-0.0057220996103816415   -0.04689938508890162   -0.0009773812721437043
-0.009233111925574015   -0.054672072651459416   -0.001421654461302419
-0.005525145107907597   -0.05467954325256962   -0.0012700859891966944
-0.00575279048174304   -0.046824509915432695   -0.0009586502603011453
-0.00923005828910452   -0.054617122767005026   -0.0013584520581440978
-0.005530396647339889   -0.05463751699791801   -0.001251397982177315
-0.00575279048174304   -0.046824509915432695   -0.0009586502603011453
-0.01013155885150976   -0.04676606456874095   -0.0010591994297683028
-0.00923005828910452   -0.054617122767005026   -0.0013584520581440978
-0.010159409918795   -0.04672828984962585   -0.0009966215897281474
-0.005530396647339889   -0.05463751699791801   -0.001251397982177315
-0.009228144773353224   -0.0545898863523318   -0.0012883174611561974
-0.010159409918795   -0.04672828984962585   -0.0009966215897281474
-0.00923005828910452   -0.054617122767005026   -0.0013584520581440978
-0.005530396647339889   -0.05463751699791801   -0.001251397982177315
-0.010159409918795   -0.04672828984962585   -0.0009966215897281474
-0.005788264036626301   -0.046770500102175996   -0.0009335226937257868
-0.00575279048174304   -0.046824509915432695   -0.0009586502603011453
-0.005530396647339889   -0.05463751699791801   -0.001251397982177315
-0.010159409918795   -0.04672828984962585   -0.0009966215897281474
-0.00575279048174304   -0.046824509915432695   -0.0009586502603011453
-0.00923005828910452   -0.054617122767005026   -0.0013584520581440978
-0.009229852256374965   -0.05475523051664367   -0.0014777166618147475
-0.010071826269792222   -0.04690240734154974   -0.0011649371540814195
-0.013050693377202322   -0.05457054737495358   -0.0016423153157967055
-0.009233111925574015   -0.054672072651459416   -0.001421654461302419
-0.010071826269792222   -0.04690240734154974   -0.0011649371540814195
-0.01455600253449452   -0.04674401541049301   -0.001311507230287694
-0.013050693377202322   -0.05457054737495358   -0.0016423153157967055
-0.01458302038899146   -0.04668234565704471   -0.0012238693912678513
-0.009233111925574015   -0.054672072651459416   -0.001421654461302419
-0.013046160159506891   -0.054502552055376435   -0.0015340819199827866
-0.01458302038899146   -0.04668234565704471   -0.0012238693912678513
-0.013050693377202322   -0.05457054737495358   -0.0016423153157967055
-0.009233111925574015   -0.054672072651459416   -0.001421654461302419
-0.01458302038899146   -0.04668234565704471   -0.0012238693912678513
-0.010104496133360761   -0.046824075286912945   -0.001115369338725789
-0.010071826269792222   -0.04690240734154974   -0.0011649371540814195
-0.009233111925574015   -0.054672072651459416   -0.001421654461302419
-0.01458302038899146   -0.04668234565704471   -0.0012238693912678513
-0.010071826269792222   -0.04690240734154974   -0.0011649371540814195
-0.013050693377202322   -0.05457054737495358   -0.0016423153157967055
-0.009233111925574015   -0.054672072651459416   -0.001421654461302419
-0.010104496133360761   -0.046824075286912945   -0.001115369338725789
-0.013046160159506891   -0.054502552055376435   -0.0015340819199827866
-0.00923005828910452   -0.054617122767005026   -0.0013584520581440978
-0.010104496133360761   -0.046824075286912945   -0.001115369338725789
-0.01458302038899146   -0.04668234565704471   -0.0012238693912678513
-0.013046160159506891   -0.054502552055376435   -0.0015340819199827866
-0.014586447578115362   -0.046639756369775784   -0.001130542916724649
-0.00923005828910452   -0.054617122767005026   -0.0013584520581440978
-0.013014081940441985   -0.05446173514480718   -0.0014197849041683195
-0.014586447578115362   -0.046639756369775784   -0.001130542916724649
-0.013046160159506891   -0.054502552055376435   -0.0015340819199827866
-0.00923005828910452   -0.054617122767005026   -0.0013584520581440978
-0.014586447578115362   -0.046639756369775784   -0.001130542916724649
-0.01013155885150976   -0.04676606456874095   -0.0010591994297683028
-0.010104496133360761   -0.046824075286912945   -0.001115369338725789
-0.00923005828910452   -0.054617122767005026   -0.0013584520581440978
-0.014586447578115362   -0.046639756369775784   -0.001130542916724649
-0.010104496133360761   -0.046824075286912945   -0.001115369338725789
-0.013046160159506891   -0.054502552055376435   -0.0015340819199827866
-0.00923005828910452   -0.054617122767005026   -0.0013584520581440978
-0.01013155885150976   -0.04676606456874095   -0.0010591994297683028
-0.013014081940441985   -0.05446173514480718   -0.0014197849041683195
-0.009228144773353224   -0.0545898863523318   -0.0012883174611561974
-0.01013155885150976   -0.04676606456874095   -0.0010591994297683028
-0.014586447578115362   -0.046639756369775784   -0.001130542916724649
-0.013014081940441985   -0.05446173514480718   -0.0014197849041683195
-0.01459657943228433   -0.04661922461084833   -0.0010303226903088894
-0.009228144773353224   -0.0545898863523318   -0.0012883174611561974
-0.012992651108698334   -0.054450961498950776   -0.0012979982319948284
-0.01459657943228433   -0.04661922461084833   -0.0010303226903088894
-0.013014081940441985   -0.05446173514480718   -0.0014197849041683195
-0.009228144773353224   -0.0545898863523318   -0.0012883174611561974
-0.01459657943228433   -0.04661922461084833   -0.0010303226903088894
-0.010159409918795   -0.04672828984962585   -0.0009966215897281474
-0.01013155885150976   -0.04676606456874095   -0.0010591994297683028
-0.009228144773353224   -0.0545898863523318   -0.0012883174611561974
-0.01459657943228433   -0.04661922461084833   -0.0010303226903088894
-0.01013155885150976   -0.04676606456874095   -0.0010591994297683028
-0.013014081940441985   -0.05446173514480718   -0.0014197849041683195
-0.013050693377202322   -0.05457054737495358   -0.0016423153157967055
-0.01455600253449452   -0.04674401541049301   -0.001311507230287694
-0.0173185301173605   -0.05431595762039921   -0.001790759938589088
-0.013046160159506891   -0.054502552055376435   -0.0015340819199827866
-0.01455600253449452   -0.04674401541049301   -0.001311507230287694
-0.019445978999679092   -0.046536197751605515   -0.0014367158561422943
-0.0173185301173605   -0.05431595762039921   -0.001790759938589088
-0.019352230986509653   -0.04647986422250095   -0.0013088078301094978
-0.013046160159506891   -0.054502552055376435   -0.0015340819199827866
-0.017158801749845836   -0.05424921598914899   -0.0016251728125289396
-0.019352230986509653   -0.04647986422250095   -0.0013088078301094978
-0.0173185301173605   -0.05431595762039921   -0.001790759938589088
-0.013046160159506891   -0.054502552055376435   -0.0015340819199827866
-0.019352230986509653   -0.04647986422250095   -0.0013088078301094978
-0.01458302038899146   -0.04668234565704471   -0.0012238693912678513
-0.01455600253449452   -0.04674401541049301   -0.001311507230287694
-0.013046160159506891   -0.054502552055376435   -0.0015340819199827866
-0.019352230986509653   -0.04647986422250095   -0.0013088078301094978
-0.01455600253449452   -0.04674401541049301   -0.001311507230287694
-0.0173185301173605   -0.05431595762039921   -0.001790759938589088
-0.013046160159506891   -0.054502552055376435   -0.0015340819199827866
-0.01458302038899146   -0.04668234565704471   -0.0012238693912678513
-0.017158801749845836   -0.05424921598914899   -0.0016251728125289396
-0.013014081940441985   -0.05446173514480718   -0.0014197849041683195
-0.01458302038899146   -0.04668234565704471   -0.0012238693912678513
-0.019352230986509653   -0.04647986422250095   -0.0013088078301094978
-0.017158801749845836   -0.05424921598914899   -0.0016251728125289396
-0.01927320334318888   -0.046443813426092856   -0.0011709668513557694
-0.013014081940441985   -0.05446173514480718   -0.0014197849041683195
-0.017022214996165137   -0.05421355517127291   -0.0014493923837168325
-0.01927320334318888   -0.046443813426092856   -0.0011709668513557694
-0.017158801749845836   -0.05424921598914899   -0.0016251728125289396
-0.013014081940441985   -0.05446173514480718   -0.0014197849041683195
-0.01927320334318888   -0.046443813426092856   -0.0011709668513557694
-0.014586447578115362   -0.046639756369775784   -0.001130542916724649
-0.01458302038899146   -0.04668234565704471   -0.0012238693912678513
-0.013014081940441985   -0.05446173514480718   -0.0014197849041683195
-0.01927320334318888   -0.046443813426092856   -0.0011709668513557694
-0.01458302038899146   -0.04668234565704471   -0.0012238693912678513
-0.017158801749845836   -0.05424921598914899   -0.0016251728125289396
-0.013014081940441985   -0.05446173514480718   -0.0014197849041683195
-0.014586447578115362   -0.046639756369775784   -0.001130542916724649
-0.017022214996165137   -0.05421355517127291   -0.0014493923837168325
-0.012992651108698334   -0.054450961498950776   -0.0012979982319948284
-0.014586447578115362   -0.046639756369775784   -0.001130542916724649
-0.01927320334318888   -0.046443813426092856   -0.0011709668513557694
-0.017022214996165137   -0.05421355517127291   -0.0014493923837168325
-0.01914286970479858   -0.04644523560609704   -0.0010244314460878094
-0.012992651108698334   -0.054450961498950776   -0.0012979982319948284
-0.01682511953015222   -0.05422554138364372   -0.001264816589997572
-0.01914286970479858   -0.04644523560609704   -0.0010244314460878094
-0.017022214996165137   -0.05421355517127291   -0.0014493923837168325
-0.012992651108698334   -0.054450961498950776   -0.0012979982319948284
-0.01914286970479858   -0.04644523560609704   -0.0010244314460878094
-0.01459657943228433   -0.04661922461084833   -0.0010303226903088894
-0.014586447578115362   -0.046639756369775784   -0.001130542916724649
-0.012992651108698334   -0.054450961498950776   -0.0012979982319948284
-0.01914286970479858   -0.04644523560609704   -0.0010244314460878094
-0.014586447578115362   -0.046639756369775784   -0.001130542916724649
-0.017022214996165137   -0.05421355517127291   -0.0014493923837168325
0.0034112590175629943   -0.04697144062009437   -0.000534926095359448
0.004106167710169358   -0.03823947587176123   -0.0002725661384463362
-0.0012365460483276171   -0.047019287035970934   -0.0007841941682943678
0.0034565791383652307   -0.04683870866642815   -0.0006109155412117355
0.004106167710169358   -0.03823947587176123   -0.0002725661384463362
-0.0010544744738196716   -0.038238489453120916   -0.0005036928416075818
-0.0012365460483276171   -0.047019287035970934   -0.0007841941682943678
-0.0011005562699633598   -0.038128063662865024   -0.0005071802757137119
0.0034565791383652307   -0.04683870866642815   -0.0006109155412117355
-0.0012583513619465424   -0.04690511354811009   -0.0008099264122739222
-0.0011005562699633598   -0.038128063662865024   -0.0005071802757137119
-0.0012365460483276171   -0.047019287035970934   -0.0007841941682943678
0.0034565791383652307   -0.04683870866642815   -0.0006109155412117355
-0.0011005562699633598   -0.038128063662865024   -0.0005071802757137119
0.004091470415158506   -0.0381124149439785   -0.0003090761770625314
0.004106167710169358   -0.03823947587176123   -0.0002725661384463362
0.0034565791383652307   -0.04683870866642815   -0.0006109155412117355
-0.0011005562699633598   -0.038128063662865024   -0.0005071802757137119
0.004106167710169358   -0.03823947587176123   -0.0002725661384463362
-0.0012365460483276171   -0.047019287035970934   -0.0007841941682943678
0.0034565791383652307   -0.04683870866642815   -0.0006109155412117355
0.004091470415158506   -0.0381124149439785   -0.0003090761770625314
-0.0012583513619465424   -0.04690511354811009   -0.0008099264122739222
0.003470447607152132   -0.046742085977044164   -0.0006772730928478663
0.004091470415158506   -0.0381124149439785   -0.0003090761770625314
-0.0011005562699633598   -0.038128063662865024   -0.0005071802757137119
-0.0012583513619465424   -0.04690511354811009   -0.0008099264122739222
-0.0011517628814986028   -0.038033077154685305   -0.000504876333371847
0.003470447607152132   -0.046742085977044164   -0.0006772730928478663
-0.0012812609996000592   -0.046814875769405094   -0.0008291303430656506
-0.0011517628814986028   -0.038033077154685305   -0.000504876333371847
-0.0012583513619465424   -0.04690511354811009   -0.0008099264122739222
0.003470447607152132   -0.046742085977044164   -0.0006772730928478663
-0.0011517628814986028   -0.038033077154685305   -0.000504876333371847
0.004054517509793115   -0.038010261174886324   -0.0003363036439304768
0.004091470415158506   -0.0381124149439785   -0.0003090761770625314
0.003470447607152132   -0.046742085977044164   -0.0006772730928478663
-0.0011517628814986028   -0.038033077154685305   -0.000504876333371847
0.004091470415158506   -0.0381124149439785   -0.0003090761770625314
-0.0012583513619465424   -0.04690511354811009   -0.0008099264122739222
0.003470447607152132   -0.046742085977044164   -0.0006772730928478663
0.004054517509793115   -0.038010261174886324   -0.0003363036439304768
-0.0012812609996000592   -0.046814875769405094   -0.0008291303430656506
0.0034783478213996225   -0.04666451573109051   -0.0007344549112386576
0.004054517509793115   -0.038010261174886324   -0.0003363036439304768
-0.0011517628814986028   -0.038033077154685305   -0.000504876333371847
-0.0012812609996000592   -0.046814875769405094   -0.0008291303430656506
-0.0012153467226411043   -0.0379510645905245   -0.000496552699335505
0.0034783478213996225   -0.04666451573109051   -0.0007344549112386576
-0.0013203254979228503   -0.04674573359195746   -0.0008420265490913197
-0.0012153467226411043   -0.0379510645905245   -0.000496552699335505
-0.0012812609996000592   -0.046814875769405094   -0.0008291303430656506
0.0034783478213996225   -0.04666451573109051   -0.0007344549112386576
-0.0012153467226411043   -0.0379510645905245   -0.000496552699335505
0.004002898332261176   -0.037916319685012   -0.0003548968165023863
0.004054517509793115   -0.038010261174886324   -0.0003363036439304768
0.0034783478213996225   -0.04666451573109051   -0.0007344549112386576
-0.0012153467226411043   -0.0379510645905245   -0.000496552699335505
0.004054517509793115   -0.038010261174886324   -0.0003363036439304768
-0.0012812609996000592   -0.046814875769405094   -0.0008291303430656506
-0.0012365460483276171   -0.047019287035970934   -0.0007841941682943678
-0.0010544744738196716   -0.038238489453120916   -0.0005036928416075818
-0.005691824806752968   -0.046994777485099164   -0.0009893909979891407
-0.0012583513619465424   -0.04690511354811009   -0.0008099264122739222
-0.0010544744738196716   -0.038238489453120916   -0.0005036928416075818
-0.005976908917037259   -0.038191857883262424   -0.000694369639247831
-0.005691824806752968   -0.046994777485099164   -0.0009893909979891407
-0.006028512416609814   -0.03810022305220886   -0.0006742226025509395
-0.0012583513619465424   -0.04690511354811009   -0.0008099264122739222
-0.0057220996103816415   -0.04689938508890162   -0.0009773812721437043
-0.006028512416609814   -0.03810022305220886   -0.0006742226025509395
-0.005691824806752968   -0.046994777485099164   -0.0009893909979891407
-0.0012583513619465424   -0.04690511354811009   -0.0008099264122739222
-0.006028512416609814   -0.03810022305220886   -0.0006742226025509395
-0.0011005562699633598   -0.038128063662865024   -0.0005071802757137119
-0.0010544744738196716   -0.038238489453120916   -0.0005036928416075818
-0.0012583513619465424   -0.04690511354811009   -0.0008099264122739222
-0.006028512416609814   -0.03810022305220886   -0.0006742226025509395
-0.0010544744738196716   -0.038238489453120916   -0.0005036928416075818
-0.005691824806752968   -0.046994777485099164   -0.0009893909979891407
-0.0012583513619465424   -0.04690511354811009   -0.0008099264122739222
-0.0011005562699633598   -0.038128063662865024   -0.0005071802757137119
-0.0057220996103816415   -0.04689938508890162   -0.0009773812721437043
-0.0012812609996000592   -0.046814875769405094   -0.0008291303430656506
-0.0011005562699633598   -0.038128063662865024   -0.0005071802757137119
-0.006028512416609814   -0.03810022305220886   -0.0006742226025509395
-0.0057220996103816415   -0.04689938508890162   -0.0009773812721437043
-0.006081155811798384   -0.03802115668834076   -0.0006480423739275068
-0.0012812609996000592   -0.046814875769405094   -0.0008291303430656506
-0.00575279048174304   -0.046824509915432695   -0.0009586502603011453
-0.006081155811798384   -0.03802115668834076   -0.0006480423739275068
-0.0057220996103816415   -0.04689938508890162   -0.0009773812721437043
-0.0012812609996000592   -0.046814875769405094   -0.0008291303430656506
-0.006081155811798384   -0.03802115668834076   -0.0006480423739275068
-0.0011517628814986028   -0.038033077154685305   -0.000504876333371847
-0.0011005562699633598   -0.038128063662865024   -0.0005071802757137119
-0.0012812609996000592   -0.046814875769405094   -0.0008291303430656506
-0.006081155811798384   -0.03802115668834076   -0.0006480423739275068
-0.0011005562699633598   -0.038128063662865024   -0.0005071802757137119
-0.0057220996103816415   -0.04689938508890162   -0.0009773812721437043
-0.0012812609996000592   -0.046814875769405094   -0.0008291303430656506
-0.0011517628814986028   -0.038033077154685305   -0.000504876333371847
-0.00575279048174304   -0.046824509915432695   -0.0009586502603011453
-0.0013203254979228503   -0.04674573359195746   -0.0008420265490913197
-0.0011517628814986028   -0.038033077154685305   -0.000504876333371847
-0.006081155811798384   -0.03802115668834076   -0.0006480423739275068
-0.00575279048174304   -0.046824509915432695   -0.0009586502603011453
-0.0061382555237137594   -0.03795540695729518   -0.0006161124870872443
-0.0013203254979228503   -0.04674573359195746   -0.0008420265490913197
-0.005788264036626301   -0.046770500102175996   -0.0009335226937257868
-0.0061382555237137594   -0.03795540695729518   -0.0006161124870872443
-0.00575279048174304   -0.046824509915432695   -0.0009586502603011453
-0.0013203254979228503   -0.04674573359195746   -0.0008420265490913197
-0.0061382555237137594   -0.03795540695729518   -0.0006161124870872443
-0.0012153467226411043   -0.0379510645905245   -0.000496552699335505
-0.0011517628814986028   -0.038033077154685305   -0.000504876333371847
-0.0013203254979228503   -0.04674573359195746   -0.0008420265490913197
-0.0061382555237137594   -0.03795540695729518   -0.0006161124870872443
-0.0011517628814986028   -0.038033077154685305   -0.000504876333371847
-0.00575279048174304   -0.046824509915432695   -0.0009586502603011453
-0.005691824806752968   -0.046994777485099164   -0.0009893909979891407
-0.005976908917037259   -0.038191857883262424   -0.000694369639247831
-0.010071826269792222   -0.04690240734154974   -0.0011649371540814195
-0.0057220996103816415   -0.04689938508890162   -0.0009773812721437043
-0.005976908917037259   -0.038191857883262424   -0.000694369639247831
-0.010816117090744962   -0.038104766677281535   -0.0008551903316151333
-0.010071826269792222   -0.04690240734154974   -0.0011649371540814195
-0.010869253684914296   -0.038030450522269256   -0.0008114534284061765
-0.0057220996103816415   -0.04689938508890162   -0.0009773812721437043
-0.010104496133360761   -0.046824075286912945   -0.001115369338725789
-0.010869253684914296   -0.038030450522269256   -0.0008114534284061765
-0.010071826269792222   -0.04690240734154974   -0.0011649371540814195
-0.0057220996103816415   -0.04689938508890162   -0.0009773812721437043
-0.010869253684914296   -0.038030450522269256   -0.0008114534284061765
-0.006028512416609814   -0.03810022305220886   -0.0006742226025509395
-0.005976908917037259   -0.038191857883262424   -0.000694369639247831
-0.0057220996103816415   -0.04689938508890162   -0.0009773812721437043
-0.010869253684914296   -0.038030450522269256   -0.0008114534284061765
-0.005976908917037259   -0.038191857883262424   -0.000694369639247831
-0.010071826269792222   -0.04690240734154974   -0.0011649371540814195
-0.0057220996103816415   -0.04689938508890162   -0.0009773812721437043
-0.006028512416609814   -0.03810022305220886   -0.0006742226025509395
-0.010104496133360761   -0.046824075286912945   -0.001115369338725789
-0.00575279048174304   -0.046824509915432695   -0.0009586502603011453
-0.006028512416609814   -0.03810022305220886   -0.0006742226025509395
-0.010869253684914296   -0.038030450522269256   -0.0008114534284061765
-0.010104496133360761   -0.046824075286912945   -0.001115369338725789
-0.010917453388209304   -0.03796861400235665   -0.0007618241480506248
-0.00575279048174304   -0.046824509915432695   -0.0009586502603011453
-0.01013155885150976   -0.04676606456874095   -0.0010591994297683028
-0.010917453388209304   -0.03796861400235665   -0.0007618241480506248
-0.010104496133360761   -0.046824075286912945   -0.001115369338725789
-0.00575279048174304   -0.046824509915432695   -0.0009586502603011453
-0.010917453388209304   -0.03796861400235665   -0.0007618241480506248
-0.006081155811798384   -0.03802115668834076   -0.0006480423739275068
-0.006028512416609814   -0.03810022305220886   -0.0006742226025509395
-0.00575279048174304   -0.046824509915432695   -0.0009586502603011453
-0.010917453388209304   -0.03796861400235665   -0.0007618241480506248
-0.006028512416609814   -0.03810022305220886   -0.0006742226025509395
-0.010104496133360761   -0.046824075286912945   -0.001115369338725789
-0.00575279048174304   -0.046824509915432695   -0.0009586502603011453
-0.006081155811798384   -0.03802115668834076   -0.0006480423739275068
-0.01013155885150976   -0.04676606456874095   -0.0010591994297683028
-0.005788264036626301   -0.046770500102175996   -0.0009335226937257868
-0.006081155811798384   -0.03802115668834076   -0.0006480423739275068
-0.010917453388209304   -0.03796861400235665   -0.0007618241480506248
-0.01013155885150976   -0.04676606456874095   -0.0010591994297683028
-0.010966110777120106   -0.03791936101470683   -0.0007065269241500114
-0.005788264036626301   -0.046770500102175996   -0.0009335226937257868
-0.010159409918795   -0.04672828984962585   -0.0009966215897281474
-0.010966110777120106   -0.03791936101470683   -0.0007065269241500114
-0.01013155885150976   -0.04676606456874095   -0.0010591994297683028
-0.005788264036626301   -0.046770500102175996   -0.0009335226937257868
-0.010966110777120106   -0.03791936101470683   -0.0007065269241500114
-0.0061382555237137594   -0.03795540695729518   -0.0006161124870872443
-0.006081155811798384   -0.03802115668834076   -0.0006480423739275068
-0.005788264036626301   -0.046770500102175996   -0.0009335226937257868
-0.010966110777120106   -0.03791936101470683   -0.0007065269241500114
-0.006081155811798384   -0.03802115668834076   -0.0006480423739275068
-0.01013155885150976   -0.04676606456874095   -0.0010591994297683028
-0.010071826269792222   -0.04690240734154974   -0.0011649371540814195
-0.010816117090744962   -0.038104766677281535   -0.0008551903316151333
-0.01455600253449452   -0.04674401541049301   -0.001311507230287694
-0.010104496133360761   -0.046824075286912945   -0.001115369338725789
-0.010816117090744962   -0.038104766677281535   -0.0008551903316151333
-0.015751190764540787   -0.03797536486023342   -0.0009865209435956318
-0.01455600253449452   -0.04674401541049301   -0.001311507230287694
-0.01580051901798026   -0.03791851218161819   -0.0009190134730523698
-0.010104496133360761   -0.046824075286912945   -0.001115369338725789
-0.01458302038899146   -0.04668234565704471   -0.0012238693912678513
-0.01580051901798026   -0.03791851218161819   -0.0009190134730523698
-0.01455600253449452   -0.04674401541049301   -0.001311507230287694
-0.010104496133360761   -0.046824075286912945   -0.001115369338725789
-0.01580051901798026   -0.03791851218161819   -0.0009190134730523698
-0.010869253684914296   -0.038030450522269256   -0.0008114534284061765
-0.010816117090744962   -0.038104766677281535   -0.0008551903316151333
-0.010104496133360761   -0.046824075286912945   -0.001115369338725789
-0.01580051901798026   -0.03791851218161819   -0.0009190134730523698
-0.010816117090744962   -0.038104766677281535   -0.0008551903316151333
-0.01455600253449452   -0.04674401541049301   -0.001311507230287694
-0.010104496133360761   -0.046824075286912945   -0.001115369338725789
-0.010869253684914296   -0.038030450522269256   -0.0008114534284061765
-0.01458302038899146   -0.04668234565704471   -0.0012238693912678513
-0.01013155885150976   -0.04676606456874095   -0.0010591994297683028
-0.010869253684914296   -0.038030450522269256   -0.0008114534284061765
-0.01580051901798026   -0.03791851218161819   -0.0009190134730523698
-0.01458302038899146   -0.04668234565704471   -0.0012238693912678513
-0.015830365551491678   -0.037872555431402305   -0.0008464081987767176
-0.01013155885150976   -0.04676606456874095   -0.0010591994297683028
-0.014586447578115362   -0.046639756369775784   -0.001130542916724649
-0.015830365551491678   -0.037872555431402305   -0.0008464081987767176
-0.01458302038899146   -0.04668234565704471   -0.0012238693912678513
-0.01013155885150976   -0.04676606456874095   -0.0010591994297683028
-0.015830365551491678   -0.037872555431402305   -0.0008464081987767176
-0.010917453388209304   -0.03796861400235665   -0.0007618241480506248
-0.010869253684914296   -0.038030450522269256   -0.0008114534284061765
-0.01013155885150976   -0.04676606456874095   -0.0010591994297683028
-0.015830365551491678   -0.037872555431402305   -0.0008464081987767176
-0.010869253684914296   -0.038030450522269256   -0.0008114534284061765
-0.01458302038899146   -0.04668234565704471   -0.0012238693912678513
-0.01013155885150976   -0.04676606456874095   -0.0010591994297683028
-0.010917453388209304   -0.03796861400235665   -0.0007618241480506248
-0.014586447578115362   -0.046639756369775784   -0.001130542916724649
-0.010159409918795   -0.04672828984962585   -0.0009966215897281474
-0.010917453388209304   -0.03796861400235665   -0.0007618241480506248
-0.015830365551491678   -0.037872555431402305   -0.0008464081987767176
-0.014586447578115362   -0.046639756369775784   -0.001130542916724649
-0.015863165384812375   -0.03784027522569351   -0.0007676513435400879
-0.010159409918795   -0.04672828984962585   -0.0009966215897281474
-0.01459657943228433   -0.04661922461084833   -0.0010303226903088894
-0.015863165384812375   -0.03784027522569351   -0.0007676513435400879
-0.014586447578115362   -0.046639756369775784   -0.001130542916724649
-0.010159409918795   -0.04672828984962585   -0.0009966215897281474
-0.015863165384812375   -0.03784027522569351   -0.0007676513435400879
-0.010966110777120106   -0.03791936101470683   -0.0007065269241500114
-0.010917453388209304   -0.03796861400235665   -0.0007618241480506248
-0.010159409918795   -0.04672828984962585   -0.0009966215897281474
-0.015863165384812375   -0.03784027522569351   -0.0007676513435400879
-0.010917453388209304   -0.03796861400235665   -0.0007618241480506248
-0.014586447578115362   -0.046639756369775784   -0.001130542916724649
-0.01455600253449452   -0.04674401541049301   -0.001311507230287694
-0.015751190764540787   -0.03797536486023342   -0.0009865209435956318
-0.019445978999679092   -0.046536197751605515   -0.0014367158561422943
-0.01458302038899146   -0.04668234565704471   -0.0012238693912678513
-0.015751190764540787   -0.03797536486023342   -0.0009865209435956318
-0.021047939652524647   -0.037816119731429045   -0.0010909066568257117
-0.019445978999679092   -0.046536197751605515   -0.0014367158561422943
-0.021011391889722234   -0.0377682153803231   -0.0010009396729587878
-0.01458302038899146   -0.04668234565704471   -0.0012238693912678513
-0.019352230986509653   -0.04647986422250095   -0.0013088078301094978
-0.021011391889722234   -0.0377682153803231   -0.0010009396729587878
-0.019445978999679092   -0.046536197751605515   -0.0014367158561422943
-0.01458302038899146   -0.04668234565704471   -0.0012238693912678513
-0.021011391889722234   -0.0377682153803231   -0.0010009396729587878
-0.01580051901798026   -0.03791851218161819   -0.0009190134730523698
-0.015751190764540787   -0.03797536486023342   -0.0009865209435956318
-0.01458302038899146   -0.04668234565704471   -0.0012238693912678513
-0.021011391889722234   -0.0377682153803231   -0.0010009396729587878
-0.015751190764540787   -0.03797536486023342   -0.0009865209435956318
-0.019445978999679092   -0.046536197751605515   -0.0014367158561422943
-0.01458302038899146   -0.04668234565704471   -0.0012238693912678513
-0.01580051901798026   -0.03791851218161819   -0.0009190134730523698
-0.019352230986509653   -0.04647986422250095   -0.0013088078301094978
-0.014586447578115362   -0.046639756369775784   -0.001130542916724649
-0.01580051901798026   -0.03791851218161819   -0.0009190134730523698
-0.021011391889722234   -0.0377682153803231   -0.0010009396729587878
-0.019352230986509653   -0.04647986422250095   -0.0013088078301094978
-0.020981606762159846   -0.03772974004992781   -0.0009016184053828643
-0.014586447578115362   -0.046639756369775784   -0.001130542916724649
-0.01927320334318888   -0.046443813426092856   -0.0011709668513557694
-0.020981606762159846   -0.03772974004992781   -0.0009016184053828643
-0.019352230986509653   -0.04647986422250095   -0.0013088078301094978
-0.014586447578115362   -0.046639756369775784   -0.001130542916724649
-0.020981606762159846   -0.03772974004992781   -0.0009016184053828643
-0.015830365551491678   -0.037872555431402305   -0.0008464081987767176
-0.01580051901798026   -0.03791851218161819   -0.0009190134730523698
-0.014586447578115362   -0.046639756369775784   -0.001130542916724649
-0.020981606762159846   -0.03772974004992781   -0.0009016184053828643
-0.01580051901798026   -0.03791851218161819   -0.0009190134730523698
-0.019352230986509653   -0.04647986422250095   -0.0013088078301094978
-0.014586447578115362   -0.046639756369775784   -0.001130542916724649
-0.015830365551491678   -0.037872555431402305   -0.0008464081987767176
-0.01927320334318888   -0.046443813426092856   -0.0011709668513557694
-0.01459657943228433   -0.04661922461084833   -0.0010303226903088894
-0.015830365551491678   -0.037872555431402305   -0.0008464081987767176
-0.020981606762159846   -0.03772974004992781   -0.0009016184053828643
-0.01927320334318888   -0.046443813426092856   -0.0011709668513557694
-0.020910201760857453   -0.037717816506917766   -0.0007940096277955186
-0.01459657943228433   -0.04661922461084833   -0.0010303226903088894
-0.01914286970479858   -0.04644523560609704   -0.0010244314460878094
-0.020910201760857453   -0.037717816506917766   -0.0007940096277955186
-0.01927320334318888   -0.046443813426092856   -0.0011709668513557694
-0.01459657943228433   -0.04661922461084833   -0.0010303226903088894
-0.020910201760857453   -0.037717816506917766   -0.0007940096277955186
-0.015863165384812375   -0.03784027522569351   -0.0007676513435400879
-0.015830365551491678   -0.037872555431402305   -0.0008464081987767176
-0.01459657943228433   -0.04661922461084833   -0.0010303226903088894
-0.020910201760857453   -0.037717816506917766   -0.0007940096277955186
-0.015830365551491678   -0.037872555431402305   -0.0008464081987767176
-0.01927320334318888   -0.046443813426092856   -0.0011709668513557694
0.004106167710169358   -0.03823947587176123   -0.0002725661384463362
0.004246360137989572   -0.028902512754741008   -4.281205985860545e-05
-0.0010544744738196716   -0.038238489453120916   -0.0005036928416075818
0.004091470415158506   -0.0381124149439785   -0.0003090761770625314
0.004246360137989572   -0.028902512754741008   -4.281205985860545e-05
-0.0012080187043664304   -0.028854628142176958   -0.00025056240524091327
-0.0010544744738196716   -0.038238489453120916   -0.0005036928416075818
-0.001271308038689807   -0.028748962006248293   -0.00023180000812199063
0.004091470415158506   -0.0381124149439785   -0.0003090761770625314
-0.0011005562699633598   -0.038128063662865024   -0.0005071802757137119
-0.001271308038689807   -0.028748962006248293   -0.00023180000812199063
-0.0010544744738196716   -0.038238489453120916   -0.0005036928416075818
0.004091470415158506   -0.0381124149439785   -0.0003090761770625314
-0.001271308038689807   -0.028748962006248293   -0.00023180000812199063
0.004179305163975432   -0.028781327563232345   -3.913955334981417e-05
0.004246360137989572   -0.028902512754741008   -4.281205985860545e-05
0.004091470415158506   -0.0381124149439785   -0.0003090761770625314
-0.001271308038689807   -0.028748962006248293   -0.00023180000812199063
0.004246360137989572   -0.028902512754741008   -4.281205985860545e-05
-0.0010544744738196716   -0.038238489453120916   -0.0005036928416075818
0.004091470415158506   -0.0381124149439785   -0.0003090761770625314
0.004179305163975432   -0.028781327563232345   -3.913955334981417e-05
-0.0011005562699633598   -0.038128063662865024   -0.0005071802757137119
0.004054517509793115   -0.038010261174886324   -0.0003363036439304768
0.004179305163975432   -0.028781327563232345   -3.913955334981417e-05
-0.001271308038689807   -0.028748962006248293   -0.00023180000812199063
-0.0011005562699633598   -0.038128063662865024   -0.0005071802757137119
-0.0013437738391899213   -0.02864927320035171   -0.00020778418171327908
0.004054517509793115   -0.038010261174886324   -0.0003363036439304768
-0.0011517628814986028   -0.038033077154685305   -0.000504876333371847
-0.0013437738391899213   -0.02864927320035171   -0.00020778418171327908
-0.0011005562699633598   -0.038128063662865024   -0.0005071802757137119
0.004054517509793115   -0.038010261174886324   -0.0003363036439304768
-0.0013437738391899213   -0.02864927320035171   -0.00020778418171327908
0.004096912945323109   -0.028673103123943337   -2.4734230035071264e-05
0.004179305163975432   -0.028781327563232345   -3.913955334981417e-05
0.004054517509793115   -0.038010261174886324   -0.0003363036439304768
-0.0013437738391899213   -0.02864927320035171   -0.00020778418171327908
0.004179305163975432   -0.028781327563232345   -3.913955334981417e-05
-0.0011005562699633598   -0.038128063662865024   -0.0005071802757137119
0.004054517509793115   -0.038010261174886324   -0.0003363036439304768
0.004096912945323109   -0.028673103123943337   -2.4734230035071264e-05
-0.0011517628814986028   -0.038033077154685305   -0.000504876333371847
0.004002898332261176   -0.037916319685012   -0.0003548968165023863
0.004096912945323109   -0.028673103123943337   -2.4734230035071264e-05
-0.0013437738391899213   -0.02864927320035171   -0.00020778418171327908
-0.0011517628814986028   -0.038033077154685305   -0.000504876333371847
-0.0014251292870904506   -0.028554195270368676   -0.0001771982952099304
0.004002898332261176   -0.037916319685012   -0.0003548968165023863
-0.0012153467226411043   -0.0379510645905245   -0.000496552699335505
-0.0014251292870904506   -0.028554195270368676   -0.0001771982952099304
-0.0011517628814986028   -0.038033077154685305   -0.000504876333371847
0.004002898332261176   -0.037916319685012   -0.0003548968165023863
-0.0014251292870904506   -0.028554195270368676   -0.0001771982952099304
0.003988282267589875   -0.02855992828853164   -8.133372315475626e-08
0.004096912945323109   -0.028673103123943337   -2.4734230035071264e-05
0.004002898332261176   -0.037916319685012   -0.0003548968165023863
-0.0014251292870904506   -0.028554195270368676   -0.0001771982952099304
0.004096912945323109   -0.028673103123943337   -2.4734230035071264e-05
-0.0011517628814986028   -0.038033077154685305   -0.000504876333371847
-0.0010544744738196716   -0.038238489453120916   -0.0005036928416075818
-0.0012080187043664304   -0.028854628142176958   -0.00025056240524091327
-0.005976908917037259   -0.038191857883262424   -0.000694369639247831
-0.0011005562699633598   -0.038128063662865024   -0.0005071802757137119
-0.0012080187043664304   -0.028854628142176958   -0.00025056240524091327
-0.006376291252361325   -0.028798730230576563   -0.00042629741361674964
-0.005976908917037259   -0.038191857883262424   -0.000694369639247831
-0.006440876866117746   -0.028710391102880053   -0.00039749256742510364
-0.0011005562699633598   -0.038128063662865024   -0.0005071802757137119
-0.006028512416609814   -0.03810022305220886   -0.0006742226025509395
-0.006440876866117746   -0.028710391102880053   -0.00039749256742510364
-0.005976908917037259   -0.038191857883262424   -0.000694369639247831
-0.0011005562699633598   -0.038128063662865024   -0.0005071802757137119
-0.006440876866117746   -0.028710391102880053   -0.00039749256742510364
-0.001271308038689807   -0.028748962006248293   -0.00023180000812199063
-0.0012080187043664304   -0.028854628142176958   -0.00025056240524091327
-0.0011005562699633598   -0.038128063662865024   -0.0005071802757137119
-0.006440876866117746   -0.028710391102880053   -0.00039749256742510364
-0.0012080187043664304   -0.028854628142176958   -0.00025056240524091327
-0.005976908917037259   -0.038191857883262424   -0.000694369639247831
-0.0011005562699633598   -0.038128063662865024   -0.0005071802757137119
-0.001271308038689807   -0.028748962006248293   -0.00023180000812199063
-0.006028512416609814   -0.03810022305220886   -0.0006742226025509395
-0.0011517628814986028   -0.038033077154685305   -0.000504876333371847
-0.001271308038689807   -0.028748962006248293   -0.00023180000812199063
-0.006440876866117746   -0.028710391102880053   -0.00039749256742510364
-0.006028512416609814   -0.03810022305220886   -0.0006742226025509395
-0.006506911288635557   -0.02862669076509737   -0.0003636803966479074
-0.0011517628814986028   -0.038033077154685305   -0.000504876333371847
-0.006081155811798384   -0.03802115668834076   -0.0006480423739275068
-0.006506911288635557   -0.02862669076509737   -0.0003636803966479074
-0.006028512416609814   -0.03810022305220886   -0.0006742226025509395
-0.0011517628814986028   -0.038033077154685305   -0.000504876333371847
-0.006506911288635557   -0.02862669076509737   -0.0003636803966479074
-0.0013437738391899213   -0.02864927320035171   -0.00020778418171327908
-0.001271308038689807   -0.028748962006248293   -0.00023180000812199063
-0.0011517628814986028   -0.038033077154685305   -0.000504876333371847
-0.006506911288635557   -0.02862669076509737   -0.0003636803966479074
-0.001271308038689807   -0.028748962006248293   -0.00023180000812199063
-0.006028512416609814   -0.03810022305220886   -0.0006742226025509395
-0.0011517628814986028   -0.038033077154685305   -0.000504876333371847
-0.0013437738391899213   -0.02864927320035171   -0.00020778418171327908
-0.006081155811798384   -0.03802115668834076   -0.0006480423739275068
-0.0012153467226411043   -0.0379510645905245   -0.000496552699335505
-0.0013437738391899213   -0.02864927320035171   -0.00020778418171327908
-0.006506911288635557   -0.02862669076509737   -0.0003636803966479074
-0.006081155811798384   -0.03802115668834076   -0.0006480423739275068
-0.006577148739563091   -0.02854892813192536   -0.00032480749417197497
-0.0012153467226411043   -0.0379510645905245   -0.000496552699335505
-0.0061382555237137594   -0.03795540695729518   -0.0006161124870872443
-0.006577148739563091   -0.02854892813192536   -0.00032480749417197497
-0.006081155811798384   -0.03802115668834076   -0.0006480423739275068
-0.0012153467226411043   -0.0379510645905245   -0.000496552699335505
-0.006577148739563091   -0.02854892813192536   -0.00032480749417197497
-0.0014251292870904506   -0.028554195270368676   -0.0001771982952099304
-0.0013437738391899213   -0.02864927320035171   -0.00020778418171327908
-0.0012153467226411043   -0.0379510645905245   -0.000496552699335505
-0.006577148739563091   -0.02854892813192536   -0.00032480749417197497
-0.0013437738391899213   -0.02864927320035171   -0.00020778418171327908
-0.006081155811798384   -0.03802115668834076   -0.0006480423739275068
-0.005976908917037259   -0.038191857883262424   -0.000694369639247831
-0.006376291252361325   -0.028798730230576563   -0.00042629741361674964
-0.010816117090744962   -0.038104766677281535   -0.0008551903316151333
-0.006028512416609814   -0.03810022305220886   -0.0006742226025509395
-0.006376291252361325   -0.028798730230576563   -0.00042629741361674964
-0.011460439461736041   -0.02873165810496493   -0.0005754902405765548
-0.010816117090744962   -0.038104766677281535   -0.0008551903316151333
-0.011524566697636743   -0.02865937114316007   -0.0005366535402538098
-0.006028512416609814   -0.03810022305220886   -0.0006742226025509395
-0.010869253684914296   -0.038030450522269256   -0.0008114534284061765
-0.011524566697636743   -0.02865937114316007   -0.0005366535402538098
-0.010816117090744962   -0.038104766677281535   -0.0008551903316151333
-0.006028512416609814   -0.03810022305220886   -0.0006742226025509395
-0.011524566697636743   -0.02865937114316007   -0.0005366535402538098
-0.006440876866117746   -0.028710391102880053   -0.00039749256742510364
-0.006376291252361325   -0.028798730230576563   -0.00042629741361674964
-0.006028512416609814   -0.03810022305220886   -0.0006742226025509395
-0.011524566697636743   -0.02865937114316007   -0.0005366535402538098
-0.006376291252361325   -0.028798730230576563   -0.00042629741361674964
-0.010816117090744962   -0.038104766677281535   -0.0008551903316151333
-0.006028512416609814   -0.03810022305220886   -0.0006742226025509395
-0.006440876866117746   -0.028710391102880053   -0.00039749256742510364
-0.010869253684914296   -0.038030450522269256   -0.0008114534284061765
-0.006081155811798384   -0.03802115668834076   -0.0006480423739275068
-0.006440876866117746   -0.028710391102880053   -0.00039749256742510364
-0.011524566697636743   -0.02865937114316007   -0.0005366535402538098
-0.010869253684914296   -0.038030450522269256   -0.0008114534284061765
-0.01158454234043567   -0.02859198488975414   -0.0004929806793210024
-0.006081155811798384   -0.03802115668834076   -0.0006480423739275068
-0.010917453388209304   -0.03796861400235665   -0.0007618241480506248
-0.01158454234043567   -0.02859198488975414   -0.0004929806793210024
-0.010869253684914296   -0.038030450522269256   -0.0008114534284061765
-0.006081155811798384   -0.03802115668834076   -0.0006480423739275068
-0.01158454234043567   -0.02859198488975414   -0.0004929806793210024
-0.006506911288635557   -0.02862669076509737   -0.0003636803966479074
-0.006440876866117746   -0.028710391102880053   -0.00039749256742510364
-0.006081155811798384   -0.03802115668834076   -0.0006480423739275068
-0.01158454234043567   -0.02859198488975414   -0.0004929806793210024
-0.006440876866117746   -0.028710391102880053   -0.00039749256742510364
-0.010869253684914296   -0.038030450522269256   -0.0008114534284061765
-0.006081155811798384   -0.03802115668834076   -0.0006480423739275068
-0.006506911288635557   -0.02862669076509737   -0.0003636803966479074
-0.010917453388209304   -0.03796861400235665   -0.0007618241480506248
-0.0061382555237137594   -0.03795540695729518   -0.0006161124870872443
-0.006506911288635557   -0.02862669076509737   -0.0003636803966479074
-0.01158454234043567   -0.02859198488975414   -0.0004929806793210024
-0.010917453388209304   -0.03796861400235665   -0.0007618241480506248
-0.011644732599058199   -0.028529685642232423   -0.00044471098773331556
-0.0061382555237137594   -0.03795540695729518   -0.0006161124870872443
-0.010966110777120106   -0.03791936101470683   -0.0007065269241500114
-0.011644732599058199   -0.028529685642232423   -0.00044471098773331556
-0.010917453388209304   -0.03796861400235665   -0.0007618241480506248
-0.0061382555237137594   -0.03795540695729518   -0.0006161124870872443
-0.011644732599058199   -0.028529685642232423   -0.00044471098773331556
-0.006577148739563091   -0.02854892813192536   -0.00032480749417197497
-0.006506911288635557   -0.02862669076509737   -0.0003636803966479074
-0.0061382555237137594   -0.03795540695729518   -0.0006161124870872443
-0.011644732599058199   -0.028529685642232423   -0.00044471098773331556
-0.006506911288635557   -0.02862669076509737   -0.0003636803966479074
-0.010917453388209304   -0.03796861400235665   -0.0007618241480506248
-0.010816117090744962   -0.038104766677281535   -0.0008551903316151333
-0.011460439461736041   -0.02873165810496493   -0.0005754902405765548
-0.015751190764540787   -0.03797536486023342   -0.0009865209435956318
-0.010869253684914296   -0.038030450522269256   -0.0008114534284061765
-0.011460439461736041   -0.02873165810496493   -0.0005754902405765548
-0.016636447133103256   -0.028640957510073443   -0.00069686512456963
-0.015751190764540787   -0.03797536486023342   -0.0009865209435956318
-0.016697852773414838   -0.02858555820539191   -0.0006481160306747074
-0.010869253684914296   -0.038030450522269256   -0.0008114534284061765
-0.01580051901798026   -0.03791851218161819   -0.0009190134730523698
-0.016697852773414838   -0.02858555820539191   -0.0006481160306747074
-0.015751190764540787   -0.03797536486023342   -0.0009865209435956318
-0.010869253684914296   -0.038030450522269256   -0.0008114534284061765
-0.016697852773414838   -0.02858555820539191   -0.0006481160306747074
-0.011524566697636743   -0.02865937114316007   -0.0005366535402538098
-0.011460439461736041   -0.02873165810496493   -0.0005754902405765548
-0.010869253684914296   -0.038030450522269256   -0.0008114534284061765
-0.016697852773414838   -0.02858555820539191   -0.0006481160306747074
-0.011460439461736041   -0.02873165810496493   -0.0005754902405765548
-0.015751190764540787   -0.03797536486023342   -0.0009865209435956318
-0.010869253684914296   -0.038030450522269256   -0.0008114534284061765
-0.011524566697636743   -0.02865937114316007   -0.0005366535402538098
-0.01580051901798026   -0.03791851218161819   -0.0009190134730523698
-0.010917453388209304   -0.03796861400235665   -0.0007618241480506248
-0.011524566697636743   -0.02865937114316007   -0.0005366535402538098
-0.016697852773414838   -0.02858555820539191   -0.0006481160306747074
-0.01580051901798026   -0.03791851218161819   -0.0009190134730523698
-0.016744382572403183   -0.028533197763881107   -0.0005953279043842527
-0.010917453388209304   -0.03796861400235665   -0.0007618241480506248
-0.015830365551491678   -0.037872555431402305   -0.0008464081987767176
-0.016744382572403183   -0.028533197763881107   -0.0005953279043842527
-0.01580051901798026   -0.03791851218161819   -0.0009190134730523698
-0.010917453388209304   -0.03796861400235665   -0.0007618241480506248
-0.016744382572403183   -0.028533197763881107   -0.0005953279043842527
-0.01158454234043567   -0.02859198488975414   -0.0004929806793210024
-0.011524566697636743   -0.02865937114316007   -0.0005366535402538098
-0.010917453388209304   -0.03796861400235665   -0.0007618241480506248
-0.016744382572403183   -0.028533197763881107   -0.0005953279043842527
-0.011524566697636743   -0.02865937114316007   -0.0005366535402538098
-0.01580051901798026   -0.03791851218161819   -0.0009190134730523698
-0.010917453388209304   -0.03796861400235665   -0.0007618241480506248
-0.01158454234043567   -0.02859198488975414   -0.0004929806793210024
-0.015830365551491678   -0.037872555431402305   -0.0008464081987767176
-0.010966110777120106   -0.03791936101470683   -0.0007065269241500114
-0.01158454234043567   -0.02859198488975414   -0.0004929806793210024
-0.016744382572403183   -0.028533197763881107   -0.0005953279043842527
-0.015830365551491678   -0.037872555431402305   -0.0008464081987767176
-0.01679055525535095   -0.02848620750197081   -0.0005374478314878837
-0.010966110777120106   -0.03791936101470683   -0.0007065269241500114
-0.015863165384812375   -0.03784027522569351   -0.0007676513435400879
-0.01679055525535095   -0.02848620750197081   -0.0005374478314878837
-0.015830365551491678   -0.037872555431402305   -0.0008464081987767176
-0.010966110777120106   -0.03791936101470683   -0.0007065269241500114
-0.01679055525535095   -0.02848620750197081   -0.0005374478314878837
-0.011644732599058199   -0.028529685642232423   -0.00044471098773331556
-0.01158454234043567   -0.02859198488975414   -0.0004929806793210024
-0.010966110777120106   -0.03791936101470683   -0.0007065269241500114
-0.01679055525535095   -0.02848620750197081   -0.0005374478314878837
-0.01158454234043567   -0.02859198488975414   -0.0004929806793210024
-0.015830365551491678   -0.037872555431402305   -0.0008464081987767176
-0.015751190764540787   -0.03797536486023342   -0.0009865209435956318
-0.016636447133103256   -0.028640957510073443   -0.00069686512456963
-0.021047939652524647   -0.037816119731429045   -0.0010909066568257117
-0.01580051901798026   -0.03791851218161819   -0.0009190134730523698
-0.016636447133103256   -0.028640957510073443   -0.00069686512456963
-0.0221225148013286   -0.028533752993276533   -0.0007868474559188683
-0.021047939652524647   -0.037816119731429045   -0.0010909066568257117
-0.02213177307336694   -0.02848959054760359   -0.0007329493305198025
-0.01580051901798026   -0.03791851218161819   -0.0009190134730523698
-0.021011391889722234   -0.0377682153803231   -0.0010009396729587878
-0.02213177307336694   -0.02848959054760359   -0.0007329493305198025
-0.021047939652524647   -0.037816119731429045   -0.0010909066568257117
-0.01580051901798026   -0.03791851218161819   -0.0009190134730523698
-0.02213177307336694   -0.02848959054760359   -0.0007329493305198025
-0.016697852773414838   -0.02858555820539191   -0.0006481160306747074
-0.016636447133103256   -0.028640957510073443   -0.00069686512456963
-0.01580051901798026   -0.03791851218161819   -0.0009190134730523698
-0.02213177307336694   -0.02848959054760359   -0.0007329493305198025
-0.016636447133103256   -0.028640957510073443   -0.00069686512456963
-0.021047939652524647   -0.037816119731429045   -0.0010909066568257117
-0.01580051901798026   -0.03791851218161819   -0.0009190134730523698
-0.016697852773414838   -0.02858555820539191   -0.0006481160306747074
-0.021011391889722234   -0.0377682153803231   -0.0010009396729587878
-0.015830365551491678   -0.037872555431402305   -0.0008464081987767176
-0.016697852773414838   -0.02858555820539191   -0.0006481160306747074
-0.02213177307336694   -0.02848959054760359   -0.0007329493305198025
-0.021011391889722234   -0.0377682153803231   -0.0010009396729587878
-0.022141309018468947   -0.028444948246852852   -0.0006709199493233654
-0.015830365551491678   -0.037872555431402305   -0.0008464081987767176
-0.020981606762159846   -0.03772974004992781   -0.0009016184053828643
-0.022141309018468947   -0.028444948246852852   -0.0006709199493233654
-0.021011391889722234   -0.0377682153803231   -0.0010009396729587878
-0.015830365551491678   -0.037872555431402305   -0.0008464081987767176
-0.022141309018468947   -0.028444948246852852   -0.0006709199493233654
-0.016744382572403183   -0.028533197763881107   -0.0005953279043842527
-0.016697852773414838   -0.02858555820539191   -0.0006481160306747074
-0.015830365551491678   -0.037872555431402305   -0.0008464081987767176
-0.022141309018468947   -0.028444948246852852   -0.0006709199493233654
-0.016697852773414838   -0.02858555820539191   -0.0006481160306747074
-0.021011391889722234   -0.0377682153803231   -0.0010009396729587878
-0.015830365551491678   -0.037872555431402305   -0.0008464081987767176
-0.016744382572403183   -0.028533197763881107   -0.0005953279043842527
-0.020981606762159846   -0.03772974004992781   -0.0009016184053828643
-0.015863165384812375   -0.03784027522569351   -0.0007676513435400879
-0.016744382572403183   -0.028533197763881107   -0.0005953279043842527
-0.022141309018468947   -0.028444948246852852   -0.0006709199493233654
-0.020981606762159846   -0.03772974004992781   -0.0009016184053828643
-0.022119961093623998   -0.02841568589403879   -0.0006017233764543602
-0.015863165384812375   -0.03784027522569351   -0.0007676513435400879
-0.020910201760857453   -0.037717816506917766   -0.0007940096277955186
-0.022119961093623998   -0.02841568589403879   -0.0006017233764543602
-0.020981606762159846   -0.03772974004992781   -0.0009016184053828643
-0.015863165384812375   -0.03784027522569351   -0.0007676513435400879
-0.022119961093623998   -0.02841568589403879   -0.0006017233764543602
-0.01679055525535095   -0.02848620750197081   -0.0005374478314878837
-0.016744382572403183   -0.028533197763881107   -0.0005953279043842527
-0.015863165384812375   -0.03784027522569351   -0.0007676513435400879
-0.022119961093623998   -0.02841568589403879   -0.0006017233764543602
-0.016744382572403183   -0.028533197763881107   -0.0005953279043842527
-0.020981606762159846   -0.03772974004992781   -0.0009016184053828643
0.004246360137989572   -0.028902512754741008   -4.281205985860545e-05
0.0038076173854725876   -0.019286539488362092   0.00011578223239738406
-0.0012080187043664304   -0.028854628142176958   -0.00025056240524091327
0.004179305163975432   -0.028781327563232345   -3.913955334981417e-05
0.0038076173854725876   -0.019286539488362092   0.00011578223239738406
-0.0016883317761822337   -0.019196040534996933   -4.918767128990157e-05
-0.0012080187043664304   -0.028854628142176958   -0.00025056240524091327
-0.0017639994616348834   -0.01910041296326925   -9.934497694590815e-06
0.004179305163975432   -0.028781327563232345   -3.913955334981417e-05
-0.001271308038689807   -0.028748962006248293   -0.00023180000812199063
-0.0017639994616348834   -0.01910041296326925   -9.934497694590815e-06
-0.0012080187043664304   -0.028854628142176958   -0.00025056240524091327
0.004179305163975432   -0.028781327563232345   -3.913955334981417e-05
-0.0017639994616348834   -0.01910041296326925   -9.934497694590815e-06
0.0036885195691489943   -0.019171105761944515   0.0001645677501795937
0.0038076173854725876   -0.019286539488362092   0.00011578223239738406
0.004179305163975432   -0.028781327563232345   -3.913955334981417e-05
-0.0017639994616348834   -0.01910041296326925   -9.934497694590815e-06
0.0038076173854725876   -0.019286539488362092   0.00011578223239738406
-0.0012080187043664304   -0.028854628142176958   -0.00025056240524091327
0.004179305163975432   -0.028781327563232345   -3.913955334981417e-05
0.0036885195691489943   -0.019171105761944515   0.0001645677501795937
-0.001271308038689807   -0.028748962006248293   -0.00023180000812199063
0.004096912945323109   -0.028673103123943337   -2.4734230035071264e-05
0.0036885195691489943   -0.019171105761944515   0.0001645677501795937
-0.0017639994616348834   -0.01910041296326925   -9.934497694590815e-06
-0.001271308038689807   -0.028748962006248293   -0.00023180000812199063
-0.0018525301498118682   -0.018999503986967613   3.6312477408741656e-05
0.004096912945323109   -0.028673103123943337   -2.4734230035071264e-05
-0.0013437738391899213   -0.02864927320035171   -0.00020778418171327908
-0.0018525301498118682   -0.018999503986967613   3.6312477408741656e-05
-0.001271308038689807   -0.028748962006248293   -0.00023180000812199063
0.004096912945323109   -0.028673103123943337   -2.4734230035071264e-05
-0.0018525301498118682   -0.018999503986967613   3.6312477408741656e-05
0.003555504952916364   -0.019056509252905238   0.00023470407973902844
0.0036885195691489943   -0.019171105761944515   0.0001645677501795937
0.004096912945323109   -0.028673103123943337   -2.4734230035071264e-05
-0.0018525301498118682   -0.018999503986967613   3.6312477408741656e-05
0.0036885195691489943   -0.019171105761944515   0.0001645677501795937
-0.001271308038689807   -0.028748962006248293   -0.00023180000812199063
0.004096912945323109   -0.028673103123943337   -2.4734230035071264e-05
0.003555504952916364   -0.019056509252905238   0.00023470407973902844
-0.0013437738391899213   -0.02864927320035171   -0.00020778418171327908
0.003988282267589875   -0.02855992828853164   -8.133372315475626e-08
0.003555504952916364   -0.019056509252905238   0.00023470407973902844
-0.0018525301498118682   -0.018999503986967613   3.6312477408741656e-05
-0.0013437738391899213   -0.02864927320035171   -0.00020778418171327908
-0.0019441196150975758   -0.01889237609570906   8.94619310628514e-05
0.003988282267589875   -0.02855992828853164   -8.133372315475626e-08
-0.0014251292870904506   -0.028554195270368676   -0.0001771982952099304
-0.0019441196150975758   -0.01889237609570906   8.94619310628514e-05
-0.0013437738391899213   -0.02864927320035171   -0.00020778418171327908
0.003988282267589875   -0.02855992828853164   -8.133372315475626e-08
-0.0019441196150975758   -0.01889237609570906   8.94619310628514e-05
0.0033929716157089585   -0.018915718071468447   0.00031189098513678226
0.003555504952916364   -0.019056509252905238   0.00023470407973902844
0.003988282267589875   -0.02855992828853164   -8.133372315475626e-08
-0.0019441196150975758   -0.01889237609570906   8.94619310628514e-05
0.003555504952916364   -0.019056509252905238   0.00023470407973902844
-0.0013437738391899213   -0.02864927320035171   -0.00020778418171327908
-0.0012080187043664304   -0.028854628142176958   -0.00025056240524091327
-0.0016883317761822337   -0.019196040534996933   -4.918767128990157e-05
-0.006376291252361325   -0.028798730230576563   -0.00042629741361674964
-0.001271308038689807   -0.028748962006248293   -0.00023180000812199063
-0.0016883317761822337   -0.019196040534996933   -4.918767128990157e-05
-0.006863465642410104   -0.019172612950456955   -0.00020814223759955846
-0.006376291252361325   -0.028798730230576563   -0.00042629741361674964
-0.006931891334386979   -0.01908919364028055   -0.00017158579734235653
-0.001271308038689807   -0.028748962006248293   -0.00023180000812199063
-0.006440876866117746   -0.028710391102880053   -0.00039749256742510364
-0.006931891334386979   -0.01908919364028055   -0.00017158579734235653
-0.006376291252361325   -0.028798730230576563   -0.00042629741361674964
-0.001271308038689807   -0.028748962006248293   -0.00023180000812199063
-0.006931891334386979   -0.01908919364028055   -0.00017158579734235653
-0.0017639994616348834   -0.01910041296326925   -9.934497694590815e-06
-0.0016883317761822337   -0.019196040534996933   -4.918767128990157e-05
-0.001271308038689807   -0.028748962006248293   -0.00023180000812199063
-0.006931891334386979   -0.01908919364028055   -0.00017158579734235653
-0.0016883317761822337   -0.019196040534996933   -4.918767128990157e-05
-0.006376291252361325   -0.028798730230576563   -0.00042629741361674964
-0.001271308038689807   -0.028748962006248293   -0.00023180000812199063
-0.0017639994616348834   -0.01910041296326925   -9.934497694590815e-06
-0.006440876866117746   -0.028710391102880053   -0.00039749256742510364
-0.0013437738391899213   -0.02864927320035171   -0.00020778418171327908
-0.0017639994616348834   -0.01910041296326925   -9.934497694590815e-06
-0.006931891334386979   -0.01908919364028055   -0.00017158579734235653
-0.006440876866117746   -0.028710391102880053   -0.00039749256742510364
-0.007002681099832783   -0.01900242870615164   -0.00013139616804056466
-0.0013437738391899213   -0.02864927320035171   -0.00020778418171327908
-0.006506911288635557   -0.02862669076509737   -0.0003636803966479074
-0.007002681099832783   -0.01900242870615164   -0.00013139616804056466
-0.006440876866117746   -0.028710391102880053   -0.00039749256742510364
-0.0013437738391899213   -0.02864927320035171   -0.00020778418171327908
-0.007002681099832783   -0.01900242870615164   -0.00013139616804056466
-0.0018525301498118682   -0.018999503986967613   3.6312477408741656e-05
-0.0017639994616348834   -0.01910041296326925   -9.934497694590815e-06
-0.0013437738391899213   -0.02864927320035171   -0.00020778418171327908
-0.007002681099832783   -0.01900242870615164   -0.00013139616804056466
-0.0017639994616348834   -0.01910041296326925   -9.934497694590815e-06
-0.006440876866117746   -0.028710391102880053   -0.00039749256742510364
-0.0013437738391899213   -0.02864927320035171   -0.00020778418171327908
-0.0018525301498118682   -0.018999503986967613   3.6312477408741656e-05
-0.006506911288635557   -0.02862669076509737   -0.0003636803966479074
-0.0014251292870904506   -0.028554195270368676   -0.0001771982952099304
-0.0018525301498118682   -0.018999503986967613   3.6312477408741656e-05
-0.007002681099832783   -0.01900242870615164   -0.00013139616804056466
-0.006506911288635557   -0.02862669076509737   -0.0003636803966479074
-0.00707638572721013   -0.018913879702861024   -8.684871153780385e-05
-0.0014251292870904506   -0.028554195270368676   -0.0001771982952099304
-0.006577148739563091   -0.02854892813192536   -0.00032480749417197497
-0.00707638572721013   -0.018913879702861024   -8.684871153780385e-05
-0.006506911288635557   -0.02862669076509737   -0.0003636803966479074
-0.0014251292870904506   -0.028554195270368676   -0.0001771982952099304
-0.00707638572721013   -0.018913879702861024   -8.684871153780385e-05
-0.0019441196150975758   -0.01889237609570906   8.94619310628514e-05
-0.0018525301498118682   -0.018999503986967613   3.6312477408741656e-05
-0.0014251292870904506   -0.028554195270368676   -0.0001771982952099304
-0.00707638572721013   -0.018913879702861024   -8.684871153780385e-05
-0.0018525301498118682   -0.018999503986967613   3.6312477408741656e-05
-0.006506911288635557   -0.02862669076509737   -0.0003636803966479074
-0.006376291252361325   -0.028798730230576563   -0.00042629741361674964
-0.006863465642410104   -0.019172612950456955   -0.00020814223759955846
-0.011460439461736041   -0.02873165810496493   -0.0005754902405765548
-0.006440876866117746   -0.028710391102880053   -0.00039749256742510364
-0.006863465642410104   -0.019172612950456955   -0.00020814223759955846
-0.011985336972546999   -0.01916609078686956   -0.0003517847148750902
-0.011460439461736041   -0.02873165810496493   -0.0005754902405765548
-0.012050765436383438   -0.019092976248169417   -0.0003168813013656835
-0.006440876866117746   -0.028710391102880053   -0.00039749256742510364
-0.011524566697636743   -0.02865937114316007   -0.0005366535402538098
-0.012050765436383438   -0.019092976248169417   -0.0003168813013656835
-0.011460439461736041   -0.02873165810496493   -0.0005754902405765548
-0.006440876866117746   -0.028710391102880053   -0.00039749256742510364
-0.012050765436383438   -0.019092976248169417   -0.0003168813013656835
-0.006931891334386979   -0.01908919364028055   -0.00017158579734235653
-0.006863465642410104   -0.019172612950456955   -0.00020814223759955846
-0.006440876866117746   -0.028710391102880053   -0.00039749256742510364
-0.012050765436383438   -0.019092976248169417   -0.0003168813013656835
-0.006863465642410104   -0.019172612950456955   -0.00020814223759955846
-0.011460439461736041   -0.02873165810496493   -0.0005754902405765548
-0.006440876866117746   -0.028710391102880053   -0.00039749256742510364
-0.006931891334386979   -0.01908919364028055   -0.00017158579734235653
-0.011524566697636743   -0.02865937114316007   -0.0005366535402538098
-0.006506911288635557   -0.02862669076509737   -0.0003636803966479074
-0.006931891334386979   -0.01908919364028055   -0.00017158579734235653
-0.012050765436383438   -0.019092976248169417   -0.0003168813013656835
-0.011524566697636743   -0.02865937114316007   -0.0005366535402538098
-0.012113093784958121   -0.019018550380855304   -0.0002787998868124998
-0.006506911288635557   -0.02862669076509737   -0.0003636803966479074
-0.01158454234043567   -0.02859198488975414   -0.0004929806793210024
-0.012113093784958121   -0.019018550380855304   -0.0002787998868124998
-0.011524566697636743   -0.02865937114316007   -0.0005366535402538098
-0.006506911288635557   -0.02862669076509737   -0.0003636803966479074
-0.012113093784958121   -0.019018550380855304   -0.0002787998868124998
-0.007002681099832783   -0.01900242870615164   -0.00013139616804056466
-0.006931891334386979   -0.01908919364028055   -0.00017158579734235653
-0.006506911288635557   -0.02862669076509737   -0.0003636803966479074
-0.012113093784958121   -0.019018550380855304   -0.0002787998868124998
-0.006931891334386979   -0.01908919364028055   -0.00017158579734235653
-0.011524566697636743   -0.02865937114316007   -0.0005366535402538098
-0.006506911288635557   -0.02862669076509737   -0.0003636803966479074
-0.007002681099832783   -0.01900242870615164   -0.00013139616804056466
-0.01158454234043567   -0.02859198488975414   -0.0004929806793210024
-0.006577148739563091   -0.02854892813192536   -0.00032480749417197497
-0.007002681099832783   -0.01900242870615164   -0.00013139616804056466
-0.012113093784958121   -0.019018550380855304   -0.0002787998868124998
-0.01158454234043567   -0.02859198488975414   -0.0004929806793210024
-0.012174795860324735   -0.018942386937522666   -0.00023771965813947036
-0.006577148739563091   -0.02854892813192536   -0.00032480749417197497
-0.011644732599058199   -0.028529685642232423   -0.00044471098773331556
-0.012174795860324735   -0.018942386937522666   -0.00023771965813947036
-0.01158454234043567   -0.02859198488975414   -0.0004929806793210024
-0.006577148739563091   -0.02854892813192536   -0.00032480749417197497
-0.012174795860324735   -0.018942386937522666   -0.00023771965813947036
-0.00707638572721013   -0.018913879702861024   -8.684871153780385e-05
-0.007002681099832783   -0.01900242870615164   -0.00013139616804056466
-0.006577148739563091   -0.02854892813192536   -0.00032480749417197497
-0.012174795860324735   -0.018942386937522666   -0.00023771965813947036
-0.007002681099832783   -0.01900242870615164   -0.00013139616804056466
-0.01158454234043567   -0.02859198488975414   -0.0004929806793210024
-0.011460439461736041   -0.02873165810496493   -0.0005754902405765548
-0.011985336972546999   -0.01916609078686956   -0.0003517847148750902
-0.016636447133103256   -0.028640957510073443   -0.00069686512456963
-0.011524566697636743   -0.02865937114316007   -0.0005366535402538098
-0.011985336972546999   -0.01916609078686956   -0.0003517847148750902
-0.017215738815647752   -0.019136293558807933   -0.0004723682797027614
-0.016636447133103256   -0.028640957510073443   -0.00069686512456963
-0.01727811270434586   -0.019076757901960287   -0.00043929774447454744
-0.011524566697636743   -0.02865937114316007   -0.0005366535402538098
-0.016697852773414838   -0.02858555820539191   -0.0006481160306747074
-0.01727811270434586   -0.019076757901960287   -0.00043929774447454744
-0.016636447133103256   -0.028640957510073443   -0.00069686512456963
-0.011524566697636743   -0.02865937114316007   -0.0005366535402538098
-0.01727811270434586   -0.019076757901960287   -0.00043929774447454744
-0.012050765436383438   -0.019092976248169417   -0.0003168813013656835
-0.011985336972546999   -0.01916609078686956   -0.0003517847148750902
-0.011524566697636743   -0.02865937114316007   -0.0005366535402538098
-0.01727811270434586   -0.019076757901960287   -0.00043929774447454744
-0.011985336972546999   -0.01916609078686956   -0.0003517847148750902
-0.016636447133103256   -0.028640957510073443   -0.00069686512456963
-0.011524566697636743   -0.02865937114316007   -0.0005366535402538098
-0.012050765436383438   -0.019092976248169417   -0.0003168813013656835
-0.016697852773414838   -0.02858555820539191   -0.0006481160306747074
-0.01158454234043567   -0.02859198488975414   -0.0004929806793210024
-0.012050765436383438   -0.019092976248169417   -0.0003168813013656835
-0.01727811270434586   -0.019076757901960287   -0.00043929774447454744
-0.016697852773414838   -0.02858555820539191   -0.0006481160306747074
-0.017330948174522732   -0.01901396066248436   -0.0004039674609119161
-0.01158454234043567   -0.02859198488975414   -0.0004929806793210024
-0.016744382572403183   -0.028533197763881107   -0.0005953279043842527
-0.017330948174522732   -0.01901396066248436   -0.0004039674609119161
-0.016697852773414838   -0.02858555820539191   -0.0006481160306747074
-0.01158454234043567   -0.02859198488975414   -0.0004929806793210024
-0.017330948174522732   -0.01901396066248436   -0.0004039674609119161
-0.012113093784958121   -0.019018550380855304   -0.0002787998868124998
-0.012050765436383438   -0.019092976248169417   -0.0003168813013656835
-0.01158454234043567   -0.02859198488975414   -0.0004929806793210024
-0.017330948174522732   -0.01901396066248436   -0.0004039674609119161
-0.012050765436383438   -0.019092976248169417   -0.0003168813013656835
-0.016697852773414838   -0.02858555820539191   -0.0006481160306747074
-0.01158454234043567   -0.02859198488975414   -0.0004929806793210024
-0.012113093784958121   -0.019018550380855304   -0.0002787998868124998
-0.016744382572403183   -0.028533197763881107   -0.0005953279043842527
-0.011644732599058199   -0.028529685642232423   -0.00044471098773331556
-0.012113093784958121   -0.019018550380855304   -0.0002787998868124998
-0.017330948174522732   -0.01901396066248436   -0.0004039674609119161
-0.016744382572403183   -0.028533197763881107   -0.0005953279043842527
-0.01738088465240112   -0.0189495204664625   -0.0003653960225271639
-0.011644732599058199   -0.028529685642232423   -0.00044471098773331556
-0.01679055525535095   -0.02848620750197081   -0.0005374478314878837
-0.01738088465240112   -0.0189495204664625   -0.0003653960225271639
-0.016744382572403183   -0.028533197763881107   -0.0005953279043842527
-0.011644732599058199   -0.028529685642232423   -0.00044471098773331556
-0.01738088465240112   -0.0189495204664625   -0.0003653960225271639
-0.012174795860324735   -0.018942386937522666   -0.00023771965813947036
-0.012113093784958121   -0.019018550380855304   -0.0002787998868124998
-0.011644732599058199   -0.028529685642232423   -0.00044471098773331556
-0.01738088465240112   -0.0189495204664625   -0.0003653960225271639
-0.012113093784958121   -0.019018550380855304   -0.0002787998868124998
-0.016744382572403183   -0.028533197763881107   -0.0005953279043842527
-0.016636447133103256   -0.028640957510073443   -0.00069686512456963
-0.017215738815647752   -0.019136293558807933   -0.0004723682797027614
-0.0221225148013286   -0.028533752993276533   -0.0007868474559188683
-0.016697852773414838   -0.02858555820539191   -0.0006481160306747074
-0.017215738815647752   -0.019136293558807933   -0.0004723682797027614
-0.022694889059531594   -0.01908716370889921   -0.0005614648729127123
-0.0221225148013286   -0.028533752993276533   -0.0007868474559188683
-0.022733581267955754   -0.0190372401584368   -0.0005366155971389578
-0.016697852773414838   -0.02858555820539191   -0.0006481160306747074
-0.02213177307336694   -0.02848959054760359   -0.0007329493305198025
-0.022733581267955754   -0.0190372401584368   -0.0005366155971389578
-0.0221225148013286   -0.028533752993276533   -0.0007868474559188683
-0.016697852773414838   -0.02858555820539191   -0.0006481160306747074
-0.022733581267955754   -0.0190372401584368   -0.0005366155971389578
-0.01727811270434586   -0.019076757901960287   -0.00043929774447454744
-0.017215738815647752   -0.019136293558807933   -0.0004723682797027614
-0.016697852773414838   -0.02858555820539191   -0.0006481160306747074
-0.022733581267955754   -0.0190372401584368   -0.0005366155971389578
-0.017215738815647752   -0.019136293558807933   -0.0004723682797027614
-0.0221225148013286   -0.028533752993276533   -0.0007868474559188683
-0.016697852773414838   -0.02858555820539191   -0.0006481160306747074
-0.01727811270434586   -0.019076757901960287   -0.00043929774447454744
-0.02213177307336694   -0.02848959054760359   -0.0007329493305198025
-0.016744382572403183   -0.028533197763881107   -0.0005953279043842527
-0.01727811270434586   -0.019076757901960287   -0.00043929774447454744
-0.022733581267955754   -0.0190372401584368   -0.0005366155971389578
-0.02213177307336694   -0.02848959054760359   -0.0007329493305198025
-0.02276896088413165   -0.01898072745054569   -0.0005062288079369587
-0.016744382572403183   -0.028533197763881107   -0.0005953279043842527
-0.022141309018468947   -0.028444948246852852   -0.0006709199493233654
-0.02276896088413165   -0.01898072745054569   -0.0005062288079369587
-0.02213177307336694   -0.02848959054760359   -0.0007329493305198025
-0.016744382572403183   -0.028533197763881107   -0.0005953279043842527
-0.02276896088413165   -0.01898072745054569   -0.0005062288079369587
-0.017330948174522732   -0.01901396066248436   -0.0004039674609119161
-0.01727811270434586   -0.019076757901960287   -0.00043929774447454744
-0.016744382572403183   -0.028533197763881107   -0.0005953279043842527
-0.02276896088413165   -0.01898072745054569   -0.0005062288079369587
-0.01727811270434586   -0.019076757901960287   -0.00043929774447454744
-0.02213177307336694   -0.02848959054760359   -0.0007329493305198025
-0.016744382572403183   -0.028533197763881107   -0.0005953279043842527
-0.017330948174522732   -0.01901396066248436   -0.0004039674609119161
-0.022141309018468947   -0.028444948246852852   -0.0006709199493233654
-0.01679055525535095   -0.02848620750197081   -0.0005374478314878837
-0.017330948174522732   -0.01901396066248436   -0.0004039674609119161
-0.02276896088413165   -0.01898072745054569   -0.0005062288079369587
-0.022141309018468947   -0.028444948246852852   -0.0006709199493233654
-0.022786024881037665   -0.018928934092469915   -0.00047168543235683497
-0.01679055525535095   -0.02848620750197081   -0.0005374478314878837
-0.022119961093623998   -0.02841568589403879   -0.0006017233764543602
-0.022786024881037665   -0.018928934092469915   -0.00047168543235683497
-0.022141309018468947   -0.028444948246852852   -0.0006709199493233654
-0.01679055525535095   -0.02848620750197081   -0.0005374478314878837
-0.022786024881037665   -0.018928934092469915   -0.00047168543235683497
-0.01738088465240112   -0.0189495204664625   -0.0003653960225271639
-0.017330948174522732   -0.01901396066248436   -0.0004039674609119161
-0.01679055525535095   -0.02848620750197081   -0.0005374478314878837
-0.022786024881037665   -0.018928934092469915   -0.00047168543235683497
-0.017330948174522732   -0.01901396066248436   -0.0004039674609119161
-0.022141309018468947   -0.028444948246852852   -0.0006709199493233654
0.0038076173854725876   -0.019286539488362092   0.00011578223239738406
0.0026685845271883397   -0.009687031084224192   0.00012449310675240698
-0.0016883317761822337   -0.019196040534996933   -4.918767128990157e-05
0.0036885195691489943   -0.019171105761944515   0.0001645677501795937
0.0026685845271883397   -0.009687031084224192   0.00012449310675240698
-0.0024574064934049403   -0.009561725688125097   6.380631320412715e-05
-0.0016883317761822337   -0.019196040534996933   -4.918767128990157e-05
-0.0025327118302548015   -0.009513594655537434   0.00011839982856368084
0.0036885195691489943   -0.019171105761944515   0.0001645677501795937
-0.0017639994616348834   -0.01910041296326925   -9.934497694590815e-06
-0.0025327118302548015   -0.009513594655537434   0.00011839982856368084
-0.0016883317761822337   -0.019196040534996933   -4.918767128990157e-05
0.0036885195691489943   -0.019171105761944515   0.0001645677501795937
-0.0025327118302548015   -0.009513594655537434   0.00011839982856368084
0.00243382640169719   -0.009564342925650096   0.0002595831188409723
0.0026685845271883397   -0.009687031084224192   0.00012449310675240698
0.0036885195691489943   -0.019171105761944515   0.0001645677501795937
-0.0025327118302548015   -0.009513594655537434   0.00011839982856368084
0.0026685845271883397   -0.009687031084224192   0.00012449310675240698
-0.0016883317761822337   -0.019196040534996933   -4.918767128990157e-05
0.0036885195691489943   -0.019171105761944515   0.0001645677501795937
0.00243382640169719   -0.009564342925650096   0.0002595831188409723
-0.0017639994616348834   -0.01910041296326925   -9.934497694590815e-06
0.003555504952916364   -0.019056509252905238   0.00023470407973902844
0.00243382640169719   -0.009564342925650096   0.0002595831188409723
-0.0025327118302548015   -0.009513594655537434   0.00011839982856368084
-0.0017639994616348834   -0.01910041296326925   -9.934497694590815e-06
-0.0026317420125473124   -0.00942767386879719   0.00018470921339830879
0.003555504952916364   -0.019056509252905238   0.00023470407973902844
-0.0018525301498118682   -0.018999503986967613   3.6312477408741656e-05
-0.0026317420125473124   -0.00942767386879719   0.00018470921339830879
-0.0017639994616348834   -0.01910041296326925   -9.934497694590815e-06
0.003555504952916364   -0.019056509252905238   0.00023470407973902844
-0.0026317420125473124   -0.00942767386879719   0.00018470921339830879
0.0022963839069297764   -0.009464084899760002   0.00036036253725798005
0.00243382640169719   -0.009564342925650096   0.0002595831188409723
0.003555504952916364   -0.019056509252905238   0.00023470407973902844
-0.0026317420125473124   -0.00942767386879719   0.00018470921339830879
0.00243382640169719   -0.009564342925650096   0.0002595831188409723
-0.0017639994616348834   -0.01910041296326925   -9.934497694590815e-06
0.003555504952916364   -0.019056509252905238   0.00023470407973902844
0.0022963839069297764   -0.009464084899760002   0.00036036253725798005
-0.0018525301498118682   -0.018999503986967613   3.6312477408741656e-05
0.0033929716157089585   -0.018915718071468447   0.00031189098513678226
0.0022963839069297764   -0.009464084899760002   0.00036036253725798005
-0.0026317420125473124   -0.00942767386879719   0.00018470921339830879
-0.0018525301498118682   -0.018999503986967613   3.6312477408741656e-05
-0.00271502664768651   -0.009335326381203804   0.00024307696893154863
0.0033929716157089585   -0.018915718071468447   0.00031189098513678226
-0.0019441196150975758   -0.01889237609570906   8.94619310628514e-05
-0.00271502664768651   -0.009335326381203804   0.00024307696893154863
-0.0018525301498118682   -0.018999503986967613   3.6312477408741656e-05
0.0033929716157089585   -0.018915718071468447   0.00031189098513678226
-0.00271502664768651   -0.009335326381203804   0.00024307696893154863
0.0021202027739251447   -0.009310763629158707   0.0004757745286885386
0.0022963839069297764   -0.009464084899760002   0.00036036253725798005
0.0033929716157089585   -0.018915718071468447   0.00031189098513678226
-0.00271502664768651   -0.009335326381203804   0.00024307696893154863
0.0022963839069297764   -0.009464084899760002   0.00036036253725798005
-0.0018525301498118682   -0.018999503986967613   3.6312477408741656e-05
-0.0016883317761822337   -0.019196040534996933   -4.918767128990157e-05
-0.0024574064934049403   -0.009561725688125097   6.380631320412715e-05
-0.006863465642410104   -0.019172612950456955   -0.00020814223759955846
-0.0017639994616348834   -0.01910041296326925   -9.934497694590815e-06
-0.0024574064934049403   -0.009561725688125097   6.380631320412715e-05
-0.00733540873462269   -0.009703267060587729   -6.252194427725336e-05
-0.006863465642410104   -0.019172612950456955   -0.00020814223759955846
-0.007404801752987019   -0.009629521953398928   -2.382933040264791e-05
-0.0017639994616348834   -0.01910041296326925   -9.934497694590815e-06
-0.006931891334386979   -0.01908919364028055   -0.00017158579734235653
-0.007404801752987019   -0.009629521953398928   -2.382933040264791e-05
-0.006863465642410104   -0.019172612950456955   -0.00020814223759955846
-0.0017639994616348834   -0.01910041296326925   -9.934497694590815e-06
-0.007404801752987019   -0.009629521953398928   -2.382933040264791e-05
-0.0025327118302548015   -0.009513594655537434   0.00011839982856368084
-0.0024574064934049403   -0.009561725688125097   6.380631320412715e-05
-0.0017639994616348834   -0.01910041296326925   -9.934497694590815e-06
-0.007404801752987019   -0.009629521953398928   -2.382933040264791e-05
-0.0024574064934049403   -0.009561725688125097   6.380631320412715e-05
-0.006863465642410104   -0.019172612950456955   -0.00020814223759955846
-0.0017639994616348834   -0.01910041296326925   -9.934497694590815e-06
-0.0025327118302548015   -0.009513594655537434   0.00011839982856368084
-0.006931891334386979   -0.01908919364028055   -0.00017158579734235653
-0.0018525301498118682   -0.018999503986967613   3.6312477408741656e-05
-0.0025327118302548015   -0.009513594655537434   0.00011839982856368084
-0.007404801752987019   -0.009629521953398928   -2.382933040264791e-05
-0.006931891334386979   -0.01908919364028055   -0.00017158579734235653
-0.007477466046244151   -0.009546220166444803   1.7134126924489598e-05
-0.0018525301498118682   -0.018999503986967613   3.6312477408741656e-05
-0.007002681099832783   -0.01900242870615164   -0.00013139616804056466
-0.007477466046244151   -0.009546220166444803   1.7134126924489598e-05
-0.006931891334386979   -0.01908919364028055   -0.00017158579734235653
-0.0018525301498118682   -0.018999503986967613   3.6312477408741656e-05
-0.007477466046244151   -0.009546220166444803   1.7134126924489598e-05
-0.0026317420125473124   -0.00942767386879719   0.00018470921339830879
-0.0025327118302548015   -0.009513594655537434   0.00011839982856368084
-0.0018525301498118682   -0.018999503986967613   3.6312477408741656e-05
-0.007477466046244151   -0.009546220166444803   1.7134126924489598e-05
-0.0025327118302548015   -0.009513594655537434   0.00011839982856368084
-0.006931891334386979   -0.01908919364028055   -0.00017158579734235653
-0.0018525301498118682   -0.018999503986967613   3.6312477408741656e-05
-0.0026317420125473124   -0.00942767386879719   0.00018470921339830879
-0.007002681099832783   -0.01900242870615164   -0.00013139616804056466
-0.0019441196150975758   -0.01889237609570906   8.94619310628514e-05
-0.0026317420125473124   -0.00942767386879719   0.00018470921339830879
-0.007477466046244151   -0.009546220166444803   1.7134126924489598e-05
-0.007002681099832783   -0.01900242870615164   -0.00013139616804056466
-0.007546556520724762   -0.009454921018954144   6.231901598435929e-05
-0.0019441196150975758   -0.01889237609570906   8.94619310628514e-05
-0.00707638572721013   -0.018913879702861024   -8.684871153780385e-05
-0.007546556520724762   -0.009454921018954144   6.231901598435929e-05
-0.007002681099832783   -0.01900242870615164   -0.00013139616804056466
-0.0019441196150975758   -0.01889237609570906   8.94619310628514e-05
-0.007546556520724762   -0.009454921018954144   6.231901598435929e-05
-0.00271502664768651   -0.009335326381203804   0.00024307696893154863
-0.0026317420125473124   -0.00942767386879719   0.00018470921339830879
-0.0019441196150975758   -0.01889237609570906   8.94619310628514e-05
-0.007546556520724762   -0.009454921018954144   6.231901598435929e-05
-0.0026317420125473124   -0.00942767386879719   0.00018470921339830879
-0.007002681099832783   -0.01900242870615164   -0.00013139616804056466
-0.006863465642410104   -0.019172612950456955   -0.00020814223759955846
-0.00733540873462269   -0.009703267060587729   -6.252194427725336e-05
-0.011985336972546999   -0.01916609078686956   -0.0003517847148750902
-0.006931891334386979   -0.01908919364028055   -0.00017158579734235653
-0.00733540873462269   -0.009703267060587729   -6.252194427725336e-05
-0.012332721171105654   -0.009813841784097914   -0.0002026259641149963
-0.011985336972546999   -0.01916609078686956   -0.0003517847148750902
-0.01239506930937361   -0.009738119374756958   -0.00017262662311428085
-0.006931891334386979   -0.01908919364028055   -0.00017158579734235653
-0.012050765436383438   -0.019092976248169417   -0.0003168813013656835
-0.01239506930937361   -0.009738119374756958   -0.00017262662311428085
-0.011985336972546999   -0.01916609078686956   -0.0003517847148750902
-0.006931891334386979   -0.01908919364028055   -0.00017158579734235653
-0.01239506930937361   -0.009738119374756958   -0.00017262662311428085
-0.007404801752987019   -0.009629521953398928   -2.382933040264791e-05
-0.00733540873462269   -0.009703267060587729   -6.252194427725336e-05
-0.006931891334386979   -0.01908919364028055   -0.00017158579734235653
-0.01239506930937361   -0.009738119374756958   -0.00017262662311428085
-0.00733540873462269   -0.009703267060587729   -6.252194427725336e-05
-0.011985336972546999   -0.01916609078686956   -0.0003517847148750902
-0.006931891334386979   -0.01908919364028055   -0.00017158579734235653
-0.007404801752987019   -0.009629521953398928   -2.382933040264791e-05
-0.012050765436383438   -0.019092976248169417   -0.0003168813013656835
-0.007002681099832783   -0.01900242870615164   -0.00013139616804056466
-0.007404801752987019   -0.009629521953398928   -2.382933040264791e-05
-0.01239506930937361   -0.009738119374756958   -0.00017262662311428085
-0.012050765436383438   -0.019092976248169417   -0.0003168813013656835
-0.012454763329742729   -0.009658127691433949   -0.00014271497390034473
-0.007002681099832783   -0.01900242870615164   -0.00013139616804056466
-0.012113093784958121   -0.019018550380855304   -0.0002787998868124998
-0.012454763329742729   -0.009658127691433949   -0.00014271497390034473
-0.012050765436383438   -0.019092976248169417   -0.0003168813013656835
-0.007002681099832783   -0.01900242870615164   -0.00013139616804056466
-0.012454763329742729   -0.009658127691433949   -0.00014271497390034473
-0.007477466046244151   -0.009546220166444803   1.7134126924489598e-05
-0.007404801752987019   -0.009629521953398928   -2.382933040264791e-05
-0.007002681099832783   -0.01900242870615164   -0.00013139616804056466
-0.012454763329742729   -0.009658127691433949   -0.00014271497390034473
-0.007404801752987019   -0.009629521953398928   -2.382933040264791e-05
-0.012050765436383438   -0.019092976248169417   -0.0003168813013656835
-0.007002681099832783   -0.01900242870615164   -0.00013139616804056466
-0.007477466046244151   -0.009546220166444803   1.7134126924489598e-05
-0.012113093784958121   -0.019018550380855304   -0.0002787998868124998
-0.00707638572721013   -0.018913879702861024   -8.684871153780385e-05
-0.007477466046244151   -0.009546220166444803   1.7134126924489598e-05
-0.012454763329742729   -0.009658127691433949   -0.00014271497390034473
-0.012113093784958121   -0.019018550380855304   -0.0002787998868124998
-0.012509799048137028   -0.009571508237437378   -0.00011013980045326938
-0.00707638572721013   -0.018913879702861024   -8.684871153780385e-05
-0.012174795860324735   -0.018942386937522666   -0.00023771965813947036
-0.012509799048137028   -0.009571508237437378   -0.00011013980045326938
-0.012113093784958121   -0.019018550380855304   -0.0002787998868124998
-0.00707638572721013   -0.018913879702861024   -8.684871153780385e-05
-0.012509799048137028   -0.009571508237437378   -0.00011013980045326938
-0.007546556520724762   -0.009454921018954144   6.231901598435929e-05
-0.007477466046244151   -0.009546220166444803   1.7134126924489598e-05
-0.00707638572721013   -0.018913879702861024   -8.684871153780385e-05
-0.012509799048137028   -0.009571508237437378   -0.00011013980045326938
-0.007477466046244151   -0.009546220166444803   1.7134126924489598e-05
-0.012113093784958121   -0.019018550380855304   -0.0002787998868124998
-0.011985336972546999   -0.01916609078686956   -0.0003517847148750902
-0.012332721171105654   -0.009813841784097914   -0.0002026259641149963
-0.017215738815647752   -0.019136293558807933   -0.0004723682797027614
-0.012050765436383438   -0.019092976248169417   -0.0003168813013656835
-0.012332721171105654   -0.009813841784097914   -0.0002026259641149963
-0.01750557770834186   -0.009859225101976286   -0.0003319472537281349
-0.017215738815647752   -0.019136293558807933   -0.0004723682797027614
-0.01756175319992895   -0.00979123479470621   -0.0003100664284034369
-0.012050765436383438   -0.019092976248169417   -0.0003168813013656835
-0.01727811270434586   -0.019076757901960287   -0.00043929774447454744
-0.01756175319992895   -0.00979123479470621   -0.0003100664284034369
-0.017215738815647752   -0.019136293558807933   -0.0004723682797027614
-0.012050765436383438   -0.019092976248169417   -0.0003168813013656835
-0.01756175319992895   -0.00979123479470621   -0.0003100664284034369
-0.01239506930937361   -0.009738119374756958   -0.00017262662311428085
-0.012332721171105654   -0.009813841784097914   -0.0002026259641149963
-0.012050765436383438   -0.019092976248169417   -0.0003168813013656835
-0.01756175319992895   -0.00979123479470621   -0.0003100664284034369
-0.012332721171105654   -0.009813841784097914   -0.0002026259641149963
-0.017215738815647752   -0.019136293558807933   -0.0004723682797027614
-0.012050765436383438   -0.019092976248169417   -0.0003168813013656835
-0.01239506930937361   -0.009738119374756958   -0.00017262662311428085
-0.01727811270434586   -0.019076757901960287   -0.00043929774447454744
-0.012113093784958121   -0.019018550380855304   -0.0002787998868124998
-0.01239506930937361   -0.009738119374756958   -0.00017262662311428085
-0.01756175319992895   -0.00979123479470621   -0.0003100664284034369
-0.01727811270434586   -0.019076757901960287   -0.00043929774447454744
-0.01761181261349545   -0.009717162388882719   -0.00028880079330967297
-0.012113093784958121   -0.019018550380855304   -0.0002787998868124998
-0.017330948174522732   -0.01901396066248436   -0.0004039674609119161
-0.01761181261349545   -0.009717162388882719   -0.00028880079330967297
-0.01727811270434586   -0.019076757901960287   -0.00043929774447454744
-0.012113093784958121   -0.019018550380855304   -0.0002787998868124998
-0.01761181261349545   -0.009717162388882719   -0.00028880079330967297
-0.012454763329742729   -0.009658127691433949   -0.00014271497390034473
-0.01239506930937361   -0.009738119374756958   -0.00017262662311428085
-0.012113093784958121   -0.019018550380855304   -0.0002787998868124998
-0.01761181261349545   -0.009717162388882719   -0.00028880079330967297
-0.01239506930937361   -0.009738119374756958   -0.00017262662311428085
-0.01727811270434586   -0.019076757901960287   -0.00043929774447454744
-0.012113093784958121   -0.019018550380855304   -0.0002787998868124998
-0.012454763329742729   -0.009658127691433949   -0.00014271497390034473
-0.017330948174522732   -0.01901396066248436   -0.0004039674609119161
-0.012174795860324735   -0.018942386937522666   -0.00023771965813947036
-0.012454763329742729   -0.009658127691433949   -0.00014271497390034473
-0.01761181261349545   -0.009717162388882719   -0.00028880079330967297
-0.017330948174522732   -0.01901396066248436   -0.0004039674609119161
-0.0176571463876528   -0.009638303622800933   -0.0002668936825558496
-0.012174795860324735   -0.018942386937522666   -0.00023771965813947036
-0.01738088465240112   -0.0189495204664625   -0.0003653960225271639
-0.0176571463876528   -0.009638303622800933   -0.0002668936825558496
-0.017330948174522732   -0.01901396066248436   -0.0004039674609119161
-0.012174795860324735   -0.018942386937522666   -0.00023771965813947036
-0.0176571463876528   -0.009638303622800933   -0.0002668936825558496
-0.012509799048137028   -0.009571508237437378   -0.00011013980045326938
-0.012454763329742729   -0.009658127691433949   -0.00014271497390034473
-0.012174795860324735   -0.018942386937522666   -0.00023771965813947036
-0.0176571463876528   -0.009638303622800933   -0.0002668936825558496
-0.012454763329742729   -0.009658127691433949   -0.00014271497390034473
-0.017330948174522732   -0.01901396066248436   -0.0004039674609119161
-0.017215738815647752   -0.019136293558807933   -0.0004723682797027614
-0.01750557770834186   -0.009859225101976286   -0.0003319472537281349
-0.022694889059531594   -0.01908716370889921   -0.0005614648729127123
-0.01727811270434586   -0.019076757901960287   -0.00043929774447454744
-0.01750557770834186   -0.009859225101976286   -0.0003319472537281349
-0.02286283751518618   -0.009864286950357962   -0.0004392429512503082
-0.022694889059531594   -0.01908716370889921   -0.0005614648729127123
-0.022911090277077894   -0.009798299227828095   -0.00042982674712375014
-0.01727811270434586   -0.019076757901960287   -0.00043929774447454744
-0.022733581267955754   -0.0190372401584368   -0.0005366155971389578
-0.022911090277077894   -0.009798299227828095   -0.00042982674712375014
-0.022694889059531594   -0.01908716370889921   -0.0005614648729127123
-0.01727811270434586   -0.019076757901960287   -0.00043929774447454744
-0.022911090277077894   -0.009798299227828095   -0.00042982674712375014
-0.01756175319992895   -0.00979123479470621   -0.0003100664284034369
-0.01750557770834186   -0.009859225101976286   -0.0003319472537281349
-0.01727811270434586   -0.019076757901960287   -0.00043929774447454744
-0.022911090277077894   -0.009798299227828095   -0.00042982674712375014
-0.01750557770834186   -0.009859225101976286   -0.0003319472537281349
-0.022694889059531594   -0.01908716370889921   -0.0005614648729127123
-0.01727811270434586   -0.019076757901960287   -0.00043929774447454744
-0.01756175319992895   -0.00979123479470621   -0.0003100664284034369
-0.022733581267955754   -0.0190372401584368   -0.0005366155971389578
-0.017330948174522732   -0.01901396066248436   -0.0004039674609119161
-0.01756175319992895   -0.00979123479470621   -0.0003100664284034369
-0.022911090277077894   -0.009798299227828095   -0.00042982674712375014
-0.022733581267955754   -0.0190372401584368   -0.0005366155971389578
-0.022954320542342505   -0.009726935483453734   -0.00041880985172625964
-0.017330948174522732   -0.01901396066248436   -0.0004039674609119161
-0.02276896088413165   -0.01898072745054569   -0.0005062288079369587
-0.022954320542342505   -0.009726935483453734   -0.00041880985172625964
-0.022733581267955754   -0.0190372401584368   -0.0005366155971389578
-0.017330948174522732   -0.01901396066248436   -0.0004039674609119161
-0.022954320542342505   -0.009726935483453734   -0.00041880985172625964
-0.01761181261349545   -0.009717162388882719   -0.00028880079330967297
-0.01756175319992895   -0.00979123479470621   -0.0003100664284034369
-0.017330948174522732   -0.01901396066248436   -0.0004039674609119161
-0.022954320542342505   -0.009726935483453734   -0.00041880985172625964
-0.01756175319992895   -0.00979123479470621   -0.0003100664284034369
-0.022733581267955754   -0.0190372401584368   -0.0005366155971389578
-0.017330948174522732   -0.01901396066248436   -0.0004039674609119161
-0.01761181261349545   -0.009717162388882719   -0.00028880079330967297
-0.02276896088413165   -0.01898072745054569   -0.0005062288079369587
-0.01738088465240112   -0.0189495204664625   -0.0003653960225271639
-0.01761181261349545   -0.009717162388882719   -0.00028880079330967297
-0.022954320542342505   -0.009726935483453734   -0.00041880985172625964
-0.02276896088413165   -0.01898072745054569   -0.0005062288079369587
-0.022990656740373306   -0.009651371486436867   -0.0004085494896464478
-0.01738088465240112   -0.0189495204664625   -0.0003653960225271639
-0.022786024881037665   -0.018928934092469915   -0.00047168543235683497
-0.022990656740373306   -0.009651371486436867   -0.0004085494896464478
-0.02276896088413165   -0.01898072745054569   -0.0005062288079369587
-0.01738088465240112   -0.0189495204664625   -0.0003653960225271639
-0.022990656740373306   -0.009651371486436867   -0.0004085494896464478
-0.0176571463876528   -0.009638303622800933   -0.0002668936825558496
-0.01761181261349545   -0.009717162388882719   -0.00028880079330967297
-0.01738088465240112   -0.0189495204664625   -0.0003653960225271639
-0.022990656740373306   -0.009651371486436867   -0.0004085494896464478
-0.01761181261349545   -0.009717162388882719   -0.00028880079330967297
-0.02276896088413165   -0.01898072745054569   -0.0005062288079369587
0.0026685845271883397   -0.009687031084224192   0.00012449310675240698
0.0   0.0   0.0
-0.0024574064934049403   -0.009561725688125097   6.380631320412715e-05
0.00243382640169719   -0.009564342925650096   0.0002595831188409723
0.0   0.0   0.0
-0.003084744867363769   -0.000782514836108826   -2.590024650844905e-05
-0.0024574064934049403   -0.009561725688125097   6.380631320412715e-05
-0.003269058743431453   -0.0006082253915582614   8.039993742901912e-05
0.00243382640169719   -0.009564342925650096   0.0002595831188409723
-0.0025327118302548015   -0.009513594655537434   0.00011839982856368084
-0.003269058743431453   -0.0006082253915582614   8.039993742901912e-05
-0.0024574064934049403   -0.009561725688125097   6.380631320412715e-05
0.00243382640169719   -0.009564342925650096   0.0002595831188409723
-0.003269058743431453   -0.0006082253915582614   8.039993742901912e-05
0.0   0.0   0.0
0.0   0.0   0.0
0.00243382640169719   -0.009564342925650096   0.0002595831188409723
-0.003269058743431453   -0.0006082253915582614   8.039993742901912e-05
0.0   0.0   0.0
-0.0024574064934049403   -0.009561725688125097   6.380631320412715e-05
0.00243382640169719   -0.009564342925650096   0.0002595831188409723
0.0   0.0   0.0
-0.0025327118302548015   -0.009513594655537434   0.00011839982856368084
0.0022963839069297764   -0.009464084899760002   0.00036036253725798005
0.0   0.0   0.0
-0.003269058743431453   -0.0006082253915582614   8.039993742901912e-05
-0.0025327118302548015   -0.009513594655537434   0.00011839982856368084
-0.0033847451099799125   -0.0005242452621918172   0.00014177564964577724
0.0022963839069297764   -0.009464084899760002   0.00036036253725798005
-0.0026317420125473124   -0.00942767386879719   0.00018470921339830879
-0.0033847451099799125   -0.0005242452621918172   0.00014177564964577724
-0.0025327118302548015   -0.009513594655537434   0.00011839982856368084
0.0022963839069297764   -0.009464084899760002   0.00036036253725798005
-0.0033847451099799125   -0.0005242452621918172   0.00014177564964577724
0.0   0.0   0.0
0.0   0.0   0.0
0.0022963839069297764   -0.009464084899760002   0.00036036253725798005
-0.0033847451099799125   -0.0005242452621918172   0.00014177564964577724
0.0   0.0   0.0
-0.0025327118302548015   -0.009513594655537434   0.00011839982856368084
0.0022963839069297764   -0.009464084899760002   0.00036036253725798005
0.0   0.0   0.0
-0.0026317420125473124   -0.00942767386879719   0.00018470921339830879
0.0021202027739251447   -0.009310763629158707   0.0004757745286885386
0.0   0.0   0.0
-0.0033847451099799125   -0.0005242452621918172   0.00014177564964577724
-0.0026317420125473124   -0.00942767386879719   0.00018470921339830879
-0.003539869872497501   -0.00041271881272942636   0.00021222733500916594
0.0021202027739251447   -0.009310763629158707   0.0004757745286885386
-0.00271502664768651   -0.009335326381203804   0.00024307696893154863
-0.003539869872497501   -0.00041271881272942636   0.00021222733500916594
-0.0026317420125473124   -0.00942767386879719   0.00018470921339830879
0.0021202027739251447   -0.009310763629158707   0.0004757745286885386
-0.003539869872497501   -0.00041271881272942636   0.00021222733500916594
0.0   0.0   0.0
0.0   0.0   0.0
0.0021202027739251447   -0.009310763629158707   0.0004757745286885386
-0.003539869872497501   -0.00041271881272942636   0.00021222733500916594
0.0   0.0   0.0
-0.0026317420125473124   -0.00942767386879719   0.00018470921339830879
-0.0024574064934049403   -0.009561725688125097   6.380631320412715e-05
-0.003084744867363769   -0.000782514836108826   -2.590024650844905e-05
-0.00733540873462269   -0.009703267060587729   -6.252194427725336e-05
-0.0025327118302548015   -0.009513594655537434   0.00011839982856368084
-0.003084744867363769   -0.000782514836108826   -2.590024650844905e-05
-0.007553931535572644   -0.0010251226628649247   -2.4316775106221075e-05
-0.00733540873462269   -0.009703267060587729   -6.252194427725336e-05
-0.007648921119350658   -0.0009298692152951651   2.9368860493609283e-06
-0.0025327118302548015   -0.009513594655537434   0.00011839982856368084
-0.007404801752987019   -0.009629521953398928   -2.382933040264791e-05
-0.007648921119350658   -0.0009298692152951651   2.9368860493609283e-06
-0.00733540873462269   -0.009703267060587729   -6.252194427725336e-05
-0.0025327118302548015   -0.009513594655537434   0.00011839982856368084
-0.007648921119350658   -0.0009298692152951651   2.9368860493609283e-06
-0.003269058743431453   -0.0006082253915582614   8.039993742901912e-05
-0.003084744867363769   -0.000782514836108826   -2.590024650844905e-05
-0.0025327118302548015   -0.009513594655537434   0.00011839982856368084
-0.007648921119350658   -0.0009298692152951651   2.9368860493609283e-06
-0.003084744867363769   -0.000782514836108826   -2.590024650844905e-05
-0.00733540873462269   -0.009703267060587729   -6.252194427725336e-05
-0.0025327118302548015   -0.009513594655537434   0.00011839982856368084
-0.003269058743431453   -0.0006082253915582614   8.039993742901912e-05
-0.007404801752987019   -0.009629521953398928   -2.382933040264791e-05
-0.0026317420125473124   -0.00942767386879719   0.00018470921339830879
-0.003269058743431453   -0.0006082253915582614   8.039993742901912e-05
-0.007648921119350658   -0.0009298692152951651   2.9368860493609283e-06
-0.007404801752987019   -0.009629521953398928   -2.382933040264791e-05
-0.007743515830897609   -0.0008184187857009357   5.1752040015556144e-05
-0.0026317420125473124   -0.00942767386879719   0.00018470921339830879
-0.007477466046244151   -0.009546220166444803   1.7134126924489598e-05
-0.007743515830897609   -0.0008184187857009357   5.1752040015556144e-05
-0.007404801752987019   -0.009629521953398928   -2.382933040264791e-05
-0.0026317420125473124   -0.00942767386879719   0.00018470921339830879
-0.007743515830897609   -0.0008184187857009357   5.1752040015556144e-05
-0.0033847451099799125   -0.0005242452621918172   0.00014177564964577724
-0.003269058743431453   -0.0006082253915582614   8.039993742901912e-05
-0.0026317420125473124   -0.00942767386879719   0.00018470921339830879
-0.007743515830897609   -0.0008184187857009357   5.1752040015556144e-05
-0.003269058743431453   -0.0006082253915582614   8.039993742901912e-05
-0.007404801752987019   -0.009629521953398928   -2.382933040264791e-05
-0.0026317420125473124   -0.00942767386879719   0.00018470921339830879
-0.0033847451099799125   -0.0005242452621918172   0.00014177564964577724
-0.007477466046244151   -0.009546220166444803   1.7134126924489598e-05
-0.00271502664768651   -0.009335326381203804   0.00024307696893154863
-0.0033847451099799125   -0.0005242452621918172   0.00014177564964577724
-0.007743515830897609   -0.0008184187857009357   5.1752040015556144e-05
-0.007477466046244151   -0.009546220166444803   1.7134126924489598e-05
-0.007848281051123883   -0.0006895651857332449   9.849436794943064e-05
-0.00271502664768651   -0.009335326381203804   0.00024307696893154863
-0.007546556520724762   -0.009454921018954144   6.231901598435929e-05
-0.007848281051123883   -0.0006895651857332449   9.849436794943064e-05
-0.007477466046244151   -0.009546220166444803   1.7134126924489598e-05
-0.00271502664768651   -0.009335326381203804   0.00024307696893154863
-0.007848281051123883   -0.0006895651857332449   9.849436794943064e-05
-0.003539869872497501   -0.00041271881272942636   0.00021222733500916594
-0.0033847451099799125   -0.0005242452621918172   0.00014177564964577724
-0.00271502664768651   -0.009335326381203804   0.00024307696893154863
-0.007848281051123883   -0.0006895651857332449   9.849436794943064e-05
-0.0033847451099799125   -0.0005242452621918172   0.00014177564964577724
-0.007477466046244151   -0.009546220166444803   1.7134126924489598e-05
-0.00733540873462269   -0.009703267060587729   -6.252194427725336e-05
-0.007553931535572644   -0.0010251226628649247   -2.4316775106221075e-05
-0.012332721171105654   -0.009813841784097914   -0.0002026259641149963
-0.007404801752987019   -0.009629521953398928   -2.382933040264791e-05
-0.007553931535572644   -0.0010251226628649247   -2.4316775106221075e-05
-0.012454643667776278   -0.0010929197349551871   -0.00011297827984340018
-0.012332721171105654   -0.009813841784097914   -0.0002026259641149963
-0.012512266561179123   -0.0010186072512773964   -0.00010545434098245178
-0.007404801752987019   -0.009629521953398928   -2.382933040264791e-05
-0.01239506930937361   -0.009738119374756958   -0.00017262662311428085
-0.012512266561179123   -0.0010186072512773964   -0.00010545434098245178
-0.012332721171105654   -0.009813841784097914   -0.0002026259641149963
-0.007404801752987019   -0.009629521953398928   -2.382933040264791e-05
-0.012512266561179123   -0.0010186072512773964   -0.00010545434098245178
-0.007648921119350658   -0.0009298692152951651   2.9368860493609283e-06
-0.007553931535572644   -0.0010251226628649247   -2.4316775106221075e-05
-0.007404801752987019   -0.009629521953398928   -2.382933040264791e-05
-0.012512266561179123   -0.0010186072512773964   -0.00010545434098245178
-0.007553931535572644   -0.0010251226628649247   -2.4316775106221075e-05
-0.012332721171105654   -0.009813841784097914   -0.0002026259641149963
-0.007404801752987019   -0.009629521953398928   -2.382933040264791e-05
-0.007648921119350658   -0.0009298692152951651   2.9368860493609283e-06
-0.01239506930937361   -0.009738119374756958   -0.00017262662311428085
-0.007477466046244151   -0.009546220166444803   1.7134126924489598e-05
-0.007648921119350658   -0.0009298692152951651   2.9368860493609283e-06
-0.012512266561179123   -0.0010186072512773964   -0.00010545434098245178
-0.01239506930937361   -0.009738119374756958   -0.00017262662311428085
-0.012572181341294775   -0.0009323740212603939   -9.223561834693316e-05
-0.007477466046244151   -0.009546220166444803   1.7134126924489598e-05
-0.012454763329742729   -0.009658127691433949   -0.00014271497390034473
-0.012572181341294775   -0.0009323740212603939   -9.223561834693316e-05
-0.01239506930937361   -0.009738119374756958   -0.00017262662311428085
-0.007477466046244151   -0.009546220166444803   1.7134126924489598e-05
-0.012572181341294775   -0.0009323740212603939   -9.223561834693316e-05
-0.007743515830897609   -0.0008184187857009357   5.1752040015556144e-05
-0.007648921119350658   -0.0009298692152951651   2.9368860493609283e-06
-0.007477466046244151   -0.009546220166444803   1.7134126924489598e-05
-0.012572181341294775   -0.0009323740212603939   -9.223561834693316e-05
-0.007648921119350658   -0.0009298692152951651   2.9368860493609283e-06
-0.01239506930937361   -0.009738119374756958   -0.00017262662311428085
-0.007477466046244151   -0.009546220166444803   1.7134126924489598e-05
-0.007743515830897609   -0.0008184187857009357   5.1752040015556144e-05
-0.012454763329742729   -0.009658127691433949   -0.00014271497390034473
-0.007546556520724762   -0.009454921018954144   6.231901598435929e-05
-0.007743515830897609   -0.0008184187857009357   5.1752040015556144e-05
-0.012572181341294775   -0.0009323740212603939   -9.223561834693316e-05
-0.012454763329742729   -0.009658127691433949   -0.00014271497390034473
-0.012629044022886683   -0.000827483962682743   -7.47456538944319e-05
-0.007546556520724762   -0.009454921018954144   6.231901598435929e-05
-0.012509799048137028   -0.009571508237437378   -0.00011013980045326938
-0.012629044022886683   -0.000827483962682743   -7.47456538944319e-05
-0.012454763329742729   -0.009658127691433949   -0.00014271497390034473
-0.007546556520724762   -0.009454921018954144   6.231901598435929e-05
-0.012629044022886683   -0.000827483962682743   -7.47456538944319e-05
-0.007848281051123883   -0.0006895651857332449   9.849436794943064e-05
-0.007743515830897609   -0.0008184187857009357   5.1752040015556144e-05
-0.007546556520724762   -0.009454921018954144   6.231901598435929e-05
-0.012629044022886683   -0.000827483962682743   -7.47456538944319e-05
-0.007743515830897609   -0.0008184187857009357   5.1752040015556144e-05
-0.012454763329742729   -0.009658127691433949   -0.00014271497390034473
-0.012332721171105654   -0.009813841784097914   -0.0002026259641149963
-0.012454643667776278   -0.0010929197349551871   -0.00011297827984340018
-0.01750557770834186   -0.009859225101976286   -0.0003319472537281349
-0.01239506930937361   -0.009738119374756958   -0.00017262662311428085
-0.012454643667776278   -0.0010929197349551871   -0.00011297827984340018
-0.01759615764776372   -0.0010812727912804347   -0.0002404090126574791
-0.01750557770834186   -0.009859225101976286   -0.0003319472537281349
-0.017635074249030876   -0.001014468697686651   -0.0002371915760509192
-0.01239506930937361   -0.009738119374756958   -0.00017262662311428085
-0.01756175319992895   -0.00979123479470621   -0.0003100664284034369
-0.017635074249030876   -0.001014468697686651   -0.0002371915760509192
-0.01750557770834186   -0.009859225101976286   -0.0003319472537281349
-0.01239506930937361   -0.009738119374756958   -0.00017262662311428085
-0.017635074249030876   -0.001014468697686651   -0.0002371915760509192
-0.012512266561179123   -0.0010186072512773964   -0.00010545434098245178
-0.012454643667776278   -0.0010929197349551871   -0.00011297827984340018
-0.01239506930937361   -0.009738119374756958   -0.00017262662311428085
-0.017635074249030876   -0.001014468697686651   -0.0002371915760509192
-0.012454643667776278   -0.0010929197349551871   -0.00011297827984340018
-0.01750557770834186   -0.009859225101976286   -0.0003319472537281349
-0.01239506930937361   -0.009738119374756958   -0.00017262662311428085
-0.012512266561179123   -0.0010186072512773964   -0.00010545434098245178
-0.01756175319992895   -0.00979123479470621   -0.0003100664284034369
-0.012454763329742729   -0.009658127691433949   -0.00014271497390034473
-0.012512266561179123   -0.0010186072512773964   -0.00010545434098245178
-0.017635074249030876   -0.001014468697686651   -0.0002371915760509192
-0.01756175319992895   -0.00979123479470621   -0.0003100664284034369
-0.017675676303746318   -0.0009401291197566803   -0.0002349747299459296
-0.012454763329742729   -0.009658127691433949   -0.00014271497390034473
-0.01761181261349545   -0.009717162388882719   -0.00028880079330967297
-0.017675676303746318   -0.0009401291197566803   -0.0002349747299459296
-0.01756175319992895   -0.00979123479470621   -0.0003100664284034369
-0.012454763329742729   -0.009658127691433949   -0.00014271497390034473
-0.017675676303746318   -0.0009401291197566803   -0.0002349747299459296
-0.012572181341294775   -0.0009323740212603939   -9.223561834693316e-05
-0.012512266561179123   -0.0010186072512773964   -0.00010545434098245178
-0.012454763329742729   -0.009658127691433949   -0.00014271497390034473
-0.017675676303746318   -0.0009401291197566803   -0.0002349747299459296
-0.012512266561179123   -0.0010186072512773964   -0.00010545434098245178
-0.01756175319992895   -0.00979123479470621   -0.0003100664284034369
-0.012454763329742729   -0.009658127691433949   -0.00014271497390034473
-0.012572181341294775   -0.0009323740212603939   -9.223561834693316e-05
-0.01761181261349545   -0.009717162388882719   -0.00028880079330967297
-0.012509799048137028   -0.009571508237437378   -0.00011013980045326938
-0.012572181341294775   -0.0009323740212603939   -9.223561834693316e-05
-0.017675676303746318   -0.0009401291197566803   -0.0002349747299459296
-0.01761181261349545   -0.009717162388882719   -0.00028880079330967297
-0.017706505501484632   -0.0008596557536496522   -0.00023393331701572693
-0.012509799048137028   -0.009571508237437378   -0.00011013980045326938
-0.0176571463876528   -0.009638303622800933   -0.0002668936825558496
-0.017706505501484632   -0.0008596557536496522   -0.00023393331701572693
-0.01761181261349545   -0.009717162388882719   -0.00028880079330967297
-0.012509799048137028   -0.009571508237437378   -0.00011013980045326938
-0.017706505501484632   -0.0008596557536496522   -0.00023393331701572693
-0.012629044022886683   -0.000827483962682743   -7.47456538944319e-05
-0.012572181341294775   -0.0009323740212603939   -9.223561834693316e-05
-0.012509799048137028   -0.009571508237437378   -0.00011013980045326938
-0.017706505501484632   -0.0008596557536496522   -0.00023393331701572693
-0.012572181341294775   -0.0009323740212603939   -9.223561834693316e-05
-0.01761181261349545   -0.009717162388882719   -0.00028880079330967297
-0.01750557770834186   -0.009859225101976286   -0.0003319472537281349
-0.01759615764776372   -0.0010812727912804347   -0.0002404090126574791
-0.02286283751518618   -0.009864286950357962   -0.0004392429512503082
-0.01756175319992895   -0.00979123479470621   -0.0003100664284034369
-0.01759615764776372   -0.0010812727912804347   -0.0002404090126574791
-0.022879729074178803   -0.00107350113768822   -0.0003658502836314501
-0.02286283751518618   -0.009864286950357962   -0.0004392429512503082
-0.02291103559714961   -0.001001027546231257   -0.0003657973383366697
-0.01756175319992895   -0.00979123479470621   -0.0003100664284034369
-0.022911090277077894   -0.009798299227828095   -0.00042982674712375014
-0.02291103559714961   -0.001001027546231257   -0.0003657973383366697
-0.02286283751518618   -0.009864286950357962   -0.0004392429512503082
-0.01756175319992895   -0.00979123479470621   -0.0003100664284034369
-0.02291103559714961   -0.001001027546231257   -0.0003657973383366697
-0.017635074249030876   -0.001014468697686651   -0.0002371915760509192
-0.01759615764776372   -0.0010812727912804347   -0.0002404090126574791
-0.01756175319992895   -0.00979123479470621   -0.0003100664284034369
-0.02291103559714961   -0.001001027546231257   -0.0003657973383366697
-0.01759615764776372   -0.0010812727912804347   -0.0002404090126574791
-0.02286283751518618   -0.009864286950357962   -0.0004392429512503082
-0.01756175319992895   -0.00979123479470621   -0.0003100664284034369
-0.017635074249030876   -0.001014468697686651   -0.0002371915760509192
-0.022911090277077894   -0.009798299227828095   -0.00042982674712375014
-0.01761181261349545   -0.009717162388882719   -0.00028880079330967297
-0.017635074249030876   -0.001014468697686651   -0.0002371915760509192
-0.02291103559714961   -0.001001027546231257   -0.0003657973383366697
-0.022911090277077894   -0.009798299227828095   -0.00042982674712375014
-0.022945402948280392   -0.0009286367138959795   -0.0003713988746765108
-0.01761181261349545   -0.009717162388882719   -0.00028880079330967297
-0.022954320542342505   -0.009726935483453734   -0.00041880985172625964
-0.022945402948280392   -0.0009286367138959795   -0.0003713988746765108
-0.022911090277077894   -0.009798299227828095   -0.00042982674712375014
-0.01761181261349545   -0.009717162388882719   -0.00028880079330967297
-0.022945402948280392   -0.0009286367138959795   -0.0003713988746765108
-0.017675676303746318   -0.0009401291197566803   -0.0002349747299459296
-0.017635074249030876   -0.001014468697686651   -0.0002371915760509192
-0.01761181261349545   -0.009717162388882719   -0.00028880079330967297
-0.022945402948280392   -0.0009286367138959795   -0.0003713988746765108
-0.017635074249030876   -0.001014468697686651   -0.0002371915760509192
-0.022911090277077894   -0.009798299227828095   -0.00042982674712375014
-0.01761181261349545   -0.009717162388882719   -0.00028880079330967297
-0.017675676303746318   -0.0009401291197566803   -0.0002349747299459296
-0.022954320542342505   -0.009726935483453734   -0.00041880985172625964
-0.0176571463876528   -0.009638303622800933   -0.0002668936825558496
-0.017675676303746318   -0.0009401291197566803   -0.0002349747299459296
-0.022945402948280392   -0.0009286367138959795   -0.0003713988746765108
-0.022954320542342505   -0.009726935483453734   -0.00041880985172625964
-0.022970719512612172   -0.0008498313758038188   -0.0003773573043667055
-0.0176571463876528   -0.009638303622800933   -0.0002668936825558496
-0.022990656740373306   -0.009651371486436867   -0.0004085494896464478
-0.022970719512612172   -0.0008498313758038188   -0.0003773573043667055
-0.022954320542342505   -0.009726935483453734   -0.00041880985172625964
-0.0176571463876528   -0.009638303622800933   -0.0002668936825558496
-0.022970719512612172   -0.0008498313758038188   -0.0003773573043667055
-0.017706505501484632   -0.0008596557536496522   -0.00023393331701572693
-0.017675676303746318   -0.0009401291197566803   -0.0002349747299459296
-0.0176571463876528   -0.009638303622800933   -0.0002668936825558496
-0.022970719512612172   -0.0008498313758038188   -0.0003773573043667055
-0.017675676303746318   -0.0009401291197566803   -0.0002349747299459296
-0.022954320542342505   -0.009726935483453734   -0.00041880985172625964
              </DataArray>   
          </PointData>  
       </Piece>  
   </UnstructuredGrid> 
</VTKFile> 
